     Program PWSCF v.5.0.2 (svn rev. 9656) starts on 28May2014 at  3:44:57

     Current dimensions of program PWSCF are:
     Max number of different atomic species (ntypx) = 10
     Max number of k-points (npk) =  40000
     Max angular momentum in pseudopotentials (lmaxx) =  3
     Reading input from pwscf.in
Warning: card &CELL ignored
Warning: card / ignored

     Subspace diagonalization in iterative solution of the eigenvalue problem:
     a serial algorithm will be used

     bravais-lattice index     =            0
     lattice parameter (alat)  =      10.3179  a.u.
     unit-cell volume          =    6964.3238 (a.u.)^3
     number of atoms/cell      =           33
     number of atomic types    =            3
     number of electrons       =       237.00
     number of Kohn-Sham states=          355
     kinetic-energy cutoff     =      40.0000  Ry
     charge density cutoff     =     500.0000  Ry
     convergence threshold     =      1.0E-06
     mixing beta               =       0.7000
     number of iterations used =            8  plain     mixing
     Exchange-correlation      = SLA  PW   PBE  PBE ( 1 4 3 4 0)
     EXX-fraction              =        0.00
     nstep                     =           50

     celldm(1)=  10.317905  celldm(2)=   0.000000  celldm(3)=   0.000000
     celldm(4)=   0.000000  celldm(5)=   0.000000  celldm(6)=   0.000000

     crystal axes: (cart. coord. in units of alat)
               a(1) = (   1.000000   0.000000   0.000000 )
               a(2) = (   0.000000   1.282117   0.000000 )
               a(3) = (   0.000000   0.000000   4.945120 )

     reciprocal axes: (cart. coord. in units 2 pi/alat)
               b(1) = (  1.000000  0.000000  0.000000 )
               b(2) = (  0.000000  0.779960  0.000000 )
               b(3) = (  0.000000  0.000000  0.202220 )

     PseudoPot. # 1 for O  read from file:
     /home/camp/zhonxu/pseudo/o_pbe_v1.01.uspp.F.UPF
     MD5 check sum: 2bcb18d16ea4b960afae9ec6d52f22d2
     Pseudo is Ultrasoft + core correction, Zval =  6.0
     Generated by new atomic code, or converted to UPF format
     Using radial grid of  737 points,  5 beta functions with:
                l(1) =   0
                l(2) =   0
                l(3) =   1
                l(4) =   1
                l(5) =   2
     Q(r) pseudized with  8 coefficients,  rinner =    0.900   0.900   0.900
                                                       0.900   0.900

     PseudoPot. # 2 for Mo read from file:
     /home/camp/zhonxu/pseudo/mo_pbe_v1.uspp.F.UPF
     MD5 check sum: 30c4dcd161f5d35cd49bb5239c51a633
     Pseudo is Ultrasoft + core correction, Zval = 14.0
     Generated by new atomic code, or converted to UPF format
     Using radial grid of  889 points,  6 beta functions with:
                l(1) =   0
                l(2) =   0
                l(3) =   1
                l(4) =   1
                l(5) =   2
                l(6) =   2
     Q(r) pseudized with  6 coefficients,  rinner =    1.000   1.000   1.000
                                                       1.000   1.000

     PseudoPot. # 3 for H  read from file:
     /home/camp/zhonxu/pseudo/h_pbe_v1.uspp.F.UPF
     MD5 check sum: 3408e3ff4ec8b0a4e358431e7e038a48
     Pseudo is Ultrasoft, Zval =  1.0
     Generated by new atomic code, or converted to UPF format
     Using radial grid of  615 points,  2 beta functions with:
                l(1) =   0
                l(2) =   0
     Q(r) pseudized with  8 coefficients,  rinner =    0.700

     atomic species   valence    mass     pseudopotential
        O0             6.00    15.99940     O ( 1.00)
        Mo1           14.00    95.94000     Mo( 1.00)
        H2             1.00     1.00794     H ( 1.00)

     Simplified LDA+U calculation (l_max = 2) with parameters (eV):
     atomic species    L          U    alpha       J0     beta
        Mo1            2     6.0000   0.0000   0.0000   0.0000

     No symmetry found

   Cartesian axes

     site n.     atom                  positions (alat units)
         1           O0  tau(   1) = (   0.0000000   0.0000000   1.8345407  )
         2           O0  tau(   2) = (   0.0000000   0.6410583   1.8924976  )
         3           Mo1 tau(   3) = (   0.2500000   0.6410583   2.1781772  )
         4           Mo1 tau(   4) = (   0.0000000   0.0000000   2.1929631  )
         5           O0  tau(   5) = (   0.2500000   1.0000510   2.1897982  )
         6           O0  tau(   6) = (   0.2500000   0.2820657   2.1891553  )
         7           O0  tau(   7) = (   0.0000000   0.6410583   2.4607413  )
         8           O0  tau(   8) = (   0.0000000   0.0000000   2.5556382  )
         9           Mo1 tau(   9) = (   0.2500000   0.0000000   2.8453728  )
        10           Mo1 tau(  10) = (   0.0000000   0.6410583   2.7952787  )
        11           O0  tau(  11) = (   0.2500000   0.9231240   2.8196582  )
        12           O0  tau(  12) = (   0.2500000   0.3589927   2.8248011  )
        13           O0  tau(  13) = (   0.0000000   0.0000000   3.0952003  )
        14           O0  tau(  14) = (   0.5000000   0.0000000   1.8353814  )
        15           O0  tau(  15) = (   0.5000000   0.6410583   1.8936349  )
        16           Mo1 tau(  16) = (   0.7500000   0.6410583   2.1781277  )
        17           Mo1 tau(  17) = (   0.5000000   0.0000000   2.1954851  )
        18           O0  tau(  18) = (   0.7500000   1.0000510   2.1899960  )
        19           O0  tau(  19) = (   0.7500000   0.2820657   2.1890564  )
        20           O0  tau(  20) = (   0.5000000   0.6410583   2.4612853  )
        21           O0  tau(  21) = (   0.5000000   0.0000000   2.5539074  )
        22           Mo1 tau(  22) = (   0.7500000   0.0000000   2.8439387  )
        23           Mo1 tau(  23) = (   0.5000000   0.6410583   2.8209934  )
        24           O0  tau(  24) = (   0.7500000   0.9231240   2.8195098  )
        25           O0  tau(  25) = (   0.7500000   0.3589927   2.8246033  )
        26           O0  tau(  26) = (   0.5000000   0.0000000   3.0932717  )
        27           H2  tau(  27) = (  -0.0005800   0.7846554   1.7836060  )
        28           H2  tau(  28) = (   0.4995100   0.7915788   1.7940402  )
        29           H2  tau(  29) = (   0.1672700   0.0232576   1.7642706  )
        30           H2  tau(  30) = (   0.6659000   0.0248346   1.7633310  )
        31           O0  tau(  31) = (   0.5002100   0.6666879   3.1760530  )
        32           O0  tau(  32) = (   0.4999400   0.4570233   3.3393409  )
        33           H2  tau(  33) = (   0.5000100   0.5446560   3.4973869  )

     number of k points=    10  Methfessel-Paxton smearing, width (Ry)=  0.0100
                       cart. coord. in units 2pi/alat
        k(    1) = (   0.0000000   0.0000000   0.0000000), wk =   0.1250000
        k(    2) = (   0.0000000   0.1949901   0.0000000), wk =   0.2500000
        k(    3) = (   0.0000000  -0.3899801   0.0000000), wk =   0.1250000
        k(    4) = (   0.2500000   0.0000000   0.0000000), wk =   0.2500000
        k(    5) = (   0.2500000   0.1949901   0.0000000), wk =   0.2500000
        k(    6) = (   0.2500000  -0.3899801   0.0000000), wk =   0.2500000
        k(    7) = (  -0.5000000   0.0000000   0.0000000), wk =   0.1250000
        k(    8) = (  -0.5000000   0.1949901   0.0000000), wk =   0.2500000
        k(    9) = (  -0.5000000  -0.3899801   0.0000000), wk =   0.1250000
        k(   10) = (  -0.2500000   0.1949901   0.0000000), wk =   0.2500000

     Largest allocated arrays     est. size (Mb)     dimensions
     Largest temporary arrays     est. size (Mb)     dimensions

     Check: negative/imaginary core charge=   -0.000003    0.000000

     Initial potential from superposition of free atoms
     Check: negative starting charge=   -0.002157

     starting charge  236.99142, renormalised to  237.00000

     negative rho (up, down):  0.216E-02 0.000E+00
     Number of +U iterations with fixed ns =  0
     Starting occupations:
 --- enter write_ns ---
 LDA+U parameters:
U( 2)     =  6.00000000
alpha( 2) =  0.00000000
atom    3   Tr[ns(na)] =   5.00000
    eigenvalues:
  0.500  0.500  0.500  0.500  0.500
    eigenvectors:
  1.000  0.000  0.000  0.000  0.000
  0.000  1.000  0.000  0.000  0.000
  0.000  0.000  1.000  0.000  0.000
  0.000  0.000  0.000  1.000  0.000
  0.000  0.000  0.000  0.000  1.000
    occupations:
  0.500  0.000  0.000  0.000  0.000
  0.000  0.500  0.000  0.000  0.000
  0.000  0.000  0.500  0.000  0.000
  0.000  0.000  0.000  0.500  0.000
  0.000  0.000  0.000  0.000  0.500
atom    4   Tr[ns(na)] =   5.00000
    eigenvalues:
  0.500  0.500  0.500  0.500  0.500
    eigenvectors:
  1.000  0.000  0.000  0.000  0.000
  0.000  1.000  0.000  0.000  0.000
  0.000  0.000  1.000  0.000  0.000
  0.000  0.000  0.000  1.000  0.000
  0.000  0.000  0.000  0.000  1.000
    occupations:
  0.500  0.000  0.000  0.000  0.000
  0.000  0.500  0.000  0.000  0.000
  0.000  0.000  0.500  0.000  0.000
  0.000  0.000  0.000  0.500  0.000
  0.000  0.000  0.000  0.000  0.500
atom    9   Tr[ns(na)] =   5.00000
    eigenvalues:
  0.500  0.500  0.500  0.500  0.500
    eigenvectors:
  1.000  0.000  0.000  0.000  0.000
  0.000  1.000  0.000  0.000  0.000
  0.000  0.000  1.000  0.000  0.000
  0.000  0.000  0.000  1.000  0.000
  0.000  0.000  0.000  0.000  1.000
    occupations:
  0.500  0.000  0.000  0.000  0.000
  0.000  0.500  0.000  0.000  0.000
  0.000  0.000  0.500  0.000  0.000
  0.000  0.000  0.000  0.500  0.000
  0.000  0.000  0.000  0.000  0.500
atom   10   Tr[ns(na)] =   5.00000
    eigenvalues:
  0.500  0.500  0.500  0.500  0.500
    eigenvectors:
  1.000  0.000  0.000  0.000  0.000
  0.000  1.000  0.000  0.000  0.000
  0.000  0.000  1.000  0.000  0.000
  0.000  0.000  0.000  1.000  0.000
  0.000  0.000  0.000  0.000  1.000
    occupations:
  0.500  0.000  0.000  0.000  0.000
  0.000  0.500  0.000  0.000  0.000
  0.000  0.000  0.500  0.000  0.000
  0.000  0.000  0.000  0.500  0.000
  0.000  0.000  0.000  0.000  0.500
atom   16   Tr[ns(na)] =   5.00000
    eigenvalues:
  0.500  0.500  0.500  0.500  0.500
    eigenvectors:
  1.000  0.000  0.000  0.000  0.000
  0.000  1.000  0.000  0.000  0.000
  0.000  0.000  1.000  0.000  0.000
  0.000  0.000  0.000  1.000  0.000
  0.000  0.000  0.000  0.000  1.000
    occupations:
  0.500  0.000  0.000  0.000  0.000
  0.000  0.500  0.000  0.000  0.000
  0.000  0.000  0.500  0.000  0.000
  0.000  0.000  0.000  0.500  0.000
  0.000  0.000  0.000  0.000  0.500
atom   17   Tr[ns(na)] =   5.00000
    eigenvalues:
  0.500  0.500  0.500  0.500  0.500
    eigenvectors:
  1.000  0.000  0.000  0.000  0.000
  0.000  1.000  0.000  0.000  0.000
  0.000  0.000  1.000  0.000  0.000
  0.000  0.000  0.000  1.000  0.000
  0.000  0.000  0.000  0.000  1.000
    occupations:
  0.500  0.000  0.000  0.000  0.000
  0.000  0.500  0.000  0.000  0.000
  0.000  0.000  0.500  0.000  0.000
  0.000  0.000  0.000  0.500  0.000
  0.000  0.000  0.000  0.000  0.500
atom   22   Tr[ns(na)] =   5.00000
    eigenvalues:
  0.500  0.500  0.500  0.500  0.500
    eigenvectors:
  1.000  0.000  0.000  0.000  0.000
  0.000  1.000  0.000  0.000  0.000
  0.000  0.000  1.000  0.000  0.000
[...]
  0.439  0.001 -0.003  0.033 -0.000
  0.001  0.895 -0.001  0.006 -0.003
 -0.003 -0.001  0.290 -0.005 -0.005
  0.033  0.006 -0.005  0.716 -0.000
 -0.000 -0.003 -0.005 -0.000  0.505
atom   16   Tr[ns(na)] =   5.82133
    eigenvalues:
  0.389  0.512  0.577  0.655  0.778
    eigenvectors:
  0.011  0.013  0.285  0.001  0.690
  0.000  0.969  0.026  0.004  0.001
  0.941  0.001  0.000  0.045  0.013
  0.001  0.015  0.688  0.002  0.295
  0.047  0.003  0.001  0.948  0.001
    occupations:
  0.713 -0.013  0.037 -0.091 -0.003
 -0.013  0.514 -0.003 -0.004 -0.009
  0.037 -0.003  0.407 -0.018  0.056
 -0.091 -0.004 -0.018  0.635  0.001
 -0.003 -0.009  0.056  0.001  0.642
atom   17   Tr[ns(na)] =   5.81750
    eigenvalues:
  0.379  0.519  0.589  0.639  0.782
    eigenvectors:
  0.000  0.000  0.992  0.008  0.000
  0.000  0.000  0.007  0.986  0.006
  1.000  0.000  0.000  0.000  0.000
  0.000  0.000  0.000  0.006  0.994
  0.000  1.000  0.000  0.000  0.000
    occupations:
  0.590 -0.004  0.002  0.002  0.000
 -0.004  0.640  0.002  0.011 -0.002
  0.002  0.002  0.379 -0.002 -0.001
  0.002  0.011 -0.002  0.781 -0.000
  0.000 -0.002 -0.001 -0.000  0.519
atom   22   Tr[ns(na)] =   5.81055
    eigenvalues:
  0.418  0.471  0.590  0.605  0.822
    eigenvectors:
  0.000  0.000  0.007  0.247  0.746
  0.000  0.000  0.976  0.024  0.000
  0.159  0.841  0.000  0.000  0.000
  0.000  0.000  0.017  0.729  0.254
  0.841  0.159  0.000  0.000  0.000
    occupations:
  0.767  0.002  0.000 -0.095 -0.003
  0.002  0.590 -0.000  0.001  0.000
  0.000 -0.000  0.462  0.001 -0.019
 -0.095  0.001  0.001  0.660  0.002
 -0.003  0.000 -0.019  0.002  0.426
atom   23   Tr[ns(na)] =   5.85256
    eigenvalues:
  0.479  0.494  0.526  0.603  0.825
    eigenvectors:
  0.003  0.000  0.000  0.986  0.011
  0.000  0.979  0.021  0.000  0.000
  0.980  0.000  0.016  0.004  0.000
  0.001  0.000  0.000  0.010  0.989
  0.016  0.021  0.963  0.000  0.000
    occupations:
  0.605 -0.001  0.007 -0.023 -0.000
 -0.001  0.494 -0.001 -0.001 -0.005
  0.007 -0.001  0.480  0.007  0.006
 -0.023 -0.001  0.007  0.822 -0.000
 -0.000 -0.005  0.006 -0.000  0.524
N of occupied +U levels =  46.4843941
 --- exit write_ns ---

     Threshold (ethr) on eigenvalues was too large:
     Diagonalizing with lowered threshold

     Davidson diagonalization with overlap
     ethr =  4.66E-09,  avg # of iterations =  2.1

[...]

     total energy              =   -1761.60081012 Ry
     Harris-Foulkes estimate   =   -1761.60081013 Ry
     estimated scf accuracy    <       0.00000002 Ry

     iteration # 11     ecut=    40.00 Ry     beta=0.70
     Davidson diagonalization with overlap
     ethr =  7.38E-12,  avg # of iterations =  1.0

     negative rho (up, down):  0.346E-02 0.000E+00

     End of self-consistent calculation
 --- enter write_ns ---
 LDA+U parameters:
U( 2)     =  6.00000000
alpha( 2) =  0.00000000
atom    3   Tr[ns(na)] =   5.81779
    eigenvalues:
  0.417  0.513  0.578  0.614  0.786
    eigenvectors:
  0.010  0.014  0.302  0.000  0.673
  0.000  0.967  0.027  0.005  0.001
  0.879  0.001  0.000  0.110  0.010
  0.001  0.015  0.662  0.006  0.316
  0.109  0.003  0.009  0.879  0.000
    occupations:
  0.716  0.013  0.033 -0.097  0.007
  0.013  0.516  0.003  0.004 -0.006
  0.033  0.003  0.443 -0.015 -0.061
 -0.097  0.004 -0.015  0.643 -0.005
  0.007 -0.006 -0.061 -0.005  0.592
atom    4   Tr[ns(na)] =   5.81261
    eigenvalues:
  0.354  0.519  0.583  0.673  0.777
    eigenvectors:
  0.000  0.000  0.988  0.011  0.000
  0.000  0.000  0.011  0.987  0.002
  1.000  0.000  0.000  0.000  0.000
  0.000  0.000  0.000  0.002  0.998
  0.000  1.000  0.000  0.000  0.000
    occupations:
  0.584  0.009  0.002  0.003  0.000
  0.009  0.672  0.004  0.004 -0.001
  0.002  0.004  0.354  0.001  0.001
  0.003  0.004  0.001  0.776 -0.000
  0.000 -0.001  0.001 -0.000  0.519
atom    9   Tr[ns(na)] =   5.86136
    eigenvalues:
  0.490  0.522  0.611  0.628  0.680
    eigenvectors:
  0.000  0.000  0.143  0.000  0.856
  0.000  0.000  0.009  0.991  0.000
  0.218  0.782  0.000  0.000  0.000
  0.000  0.000  0.848  0.009  0.143
  0.782  0.218  0.000  0.000  0.000
    occupations:
  0.670 -0.001  0.000 -0.024 -0.002
 -0.001  0.628 -0.001 -0.001  0.000
  0.000 -0.001  0.515  0.000  0.013
 -0.024 -0.001  0.000  0.621  0.000
 -0.002  0.000  0.013  0.000  0.497
atom   10   Tr[ns(na)] =   5.69102
    eigenvalues:
  0.289  0.435  0.506  0.720  0.895
    eigenvectors:
  0.000  0.986  0.000  0.014  0.000
  0.000  0.000  0.000  0.001  0.999
  0.999  0.000  0.001  0.000  0.000
  0.000  0.014  0.000  0.985  0.001
  0.001  0.000  0.999  0.000  0.000
    occupations:
  0.439  0.000 -0.003  0.033 -0.000
  0.000  0.895 -0.001  0.006 -0.003
 -0.003 -0.001  0.290 -0.005 -0.005
  0.033  0.006 -0.005  0.716 -0.000
 -0.000 -0.003 -0.005 -0.000  0.505
atom   16   Tr[ns(na)] =   5.82118
    eigenvalues:
  0.389  0.512  0.577  0.655  0.778
    eigenvectors:
  0.011  0.013  0.285  0.001  0.690
  0.000  0.969  0.026  0.004  0.001
  0.941  0.001  0.000  0.045  0.013
  0.001  0.015  0.688  0.002  0.295
  0.047  0.003  0.001  0.948  0.001
    occupations:
  0.713 -0.013  0.037 -0.091 -0.003
 -0.013  0.515 -0.003 -0.004 -0.009
  0.037 -0.003  0.407 -0.018  0.056
 -0.091 -0.004 -0.018  0.635  0.001
 -0.003 -0.009  0.056  0.001  0.642
atom   17   Tr[ns(na)] =   5.81744
    eigenvalues:
  0.379  0.519  0.590  0.639  0.782
    eigenvectors:
  0.000  0.000  0.992  0.008  0.000
  0.000  0.000  0.007  0.986  0.006
  1.000  0.000  0.000  0.000  0.000
  0.000  0.000  0.000  0.006  0.994
  0.000  1.000  0.000  0.000  0.000
    occupations:
  0.590 -0.004  0.002  0.002  0.000
 -0.004  0.640  0.002  0.011 -0.002
  0.002  0.002  0.379 -0.002 -0.001
  0.002  0.011 -0.002  0.781 -0.000
  0.000 -0.002 -0.001 -0.000  0.519
atom   22   Tr[ns(na)] =   5.81032
    eigenvalues:
  0.418  0.471  0.590  0.605  0.822
    eigenvectors:
  0.000  0.000  0.007  0.247  0.746
  0.000  0.000  0.976  0.024  0.000
  0.159  0.841  0.000  0.000  0.000
  0.000  0.000  0.017  0.729  0.254
  0.841  0.159  0.000  0.000  0.000
    occupations:
  0.767  0.002  0.000 -0.095 -0.003
  0.002  0.590 -0.000  0.001  0.000
  0.000 -0.000  0.462  0.001 -0.019
 -0.095  0.001  0.001  0.660  0.002
 -0.003  0.000 -0.019  0.002  0.426
atom   23   Tr[ns(na)] =   5.85263
    eigenvalues:
  0.479  0.494  0.526  0.603  0.825
    eigenvectors:
  0.003  0.000  0.000  0.986  0.011
  0.000  0.979  0.021  0.000  0.000
  0.980  0.000  0.016  0.004  0.000
  0.001  0.000  0.000  0.010  0.989
  0.016  0.021  0.963  0.000  0.000
    occupations:
  0.605 -0.001  0.007 -0.023 -0.000
 -0.001  0.494 -0.001 -0.001 -0.005
  0.007 -0.001  0.481  0.007  0.006
 -0.023 -0.001  0.007  0.822 -0.000
 -0.000 -0.005  0.006 -0.000  0.524
N of occupied +U levels =  46.4843541
 --- exit write_ns ---

[...]

          k = 0.2500-0.3900 0.0000 ( 29726 PWs)   bands (ev):

[...]

          k =-0.2500 0.1950 0.0000 ( 29746 PWs)   bands (ev):

   -62.2643 -61.9564 -61.9200 -61.6431 -61.6274 -61.5379 -61.5004 -61.2319
   -36.7848 -36.5912 -36.5125 -36.4641 -36.1556 -36.0440 -36.0327 -35.9742
   -35.9534 -35.9299 -35.8956 -35.8680 -35.8398 -35.8125 -35.7972 -35.7121
   -35.7027 -35.6601 -35.6587 -35.6404 -35.5176 -35.1371 -35.0908 -34.8473
   -23.0052 -20.0881 -19.8281 -19.4108 -19.2935 -19.1397 -19.0226 -18.9734
   -18.8961 -18.8832 -18.7186 -18.6830 -18.5728 -18.4723 -18.3537 -18.2578
   -18.1360 -18.0037 -17.7979 -16.6312  -8.3920  -8.2387  -8.0249  -7.9429
    -7.6501  -7.4874  -7.3459  -7.3131  -7.2461  -7.1393  -7.0201  -6.9434
    -6.7892  -6.5540  -6.4908  -6.2752  -6.1434  -6.0188  -5.9613  -5.8490
    -5.7577  -5.6684  -5.5978  -5.4374  -5.3225  -5.1245  -4.9649  -4.8852
    -4.7539  -4.6333  -4.5147  -4.4751  -4.3674  -4.2128  -4.1676  -4.0883
    -4.0181  -3.9931  -3.9705  -3.9271  -3.8343  -3.7788  -3.5836  -3.4853
    -3.3534  -3.3226  -3.2485  -3.1671  -3.1010  -3.0324  -2.9613  -2.7987
    -2.7288  -2.6522  -2.5625  -2.4009  -2.3340  -2.0854  -1.7289  -1.5876
    -1.5233  -1.3384  -0.5394  -0.4983  -0.2542  -0.0824   0.6962   0.8833
     0.9890   1.1098   1.1976   1.3083   1.4933   1.6508   1.7724   1.8216
     1.8756   1.9970   2.0613   2.2226   2.3530   2.5643   2.7787   3.0674
     3.6407   3.8301   4.0464   4.1565   4.2319   4.3939   4.4405   4.6045
     4.7500   4.8035   4.8410   4.9670   5.0728   5.1635   5.2869   5.5546
     5.9167   6.0664   6.1771   6.2132   6.3457   6.4916   6.5274   6.6081
     6.6973   6.9394   6.9966   7.2606   7.3411   7.4311   7.7256   7.7728
     8.0845   8.2343   8.4317   8.4940   8.6095   8.7346   8.8430   8.9638
     9.0279   9.1723   9.2340   9.4028   9.4894   9.5998   9.6942   9.7830
     9.8107   9.9802   9.9900  10.1110  10.2673  10.4377  10.5251  10.6275
    10.6951  10.8223  10.9469  10.9601  11.0558  11.1590  11.3230  11.3922
    11.5012  11.6856  11.7828  11.8633  11.9100  11.9676  12.0156  12.1708
    12.1961  12.2536  12.3581  12.3683  12.4418  12.5787  12.6244  12.8320
    12.9386  12.9842  13.0554  13.1615  13.2057  13.2932  13.4005  13.4465
    13.5404  13.5539  13.6238  13.7175  13.7595  13.8782  13.8961  13.9585
    14.0378  14.1025  14.1484  14.1953  14.2804  14.2989  14.3664  14.4083
    14.5064  14.5503  14.6264  14.7592  14.7827  14.8791  14.9053  15.0887
    15.1559  15.2456  15.3172  15.4432  15.4683  15.5225  15.6520  15.6983
    15.8003  15.8775  15.9148  16.0150  16.1002  16.1594  16.2678  16.3104
    16.3525  16.4396  16.5185  16.5639  16.6136  16.6329  16.7412  16.7788
    16.8760  16.9002  16.9830  17.0771  17.1065  17.1884  17.2630  17.3234
    17.3329  17.4100  17.5298  17.5909  17.7017  17.7597  17.8200  17.9012
    18.0443  18.1071  18.1495  18.2098  18.2453  18.3752  18.4218  18.5027
    18.5685  18.6364  18.6957  18.7859  18.9164  18.9628  19.0269  19.0845
    19.2071  19.2994  19.3708  19.4288  19.4690  19.5467  19.6200  19.7103
    19.8096  19.8856  19.9708  20.0504  20.1236  20.1722  20.1884  20.2566
    20.3136  20.3373  20.4447  20.4626  20.5031  20.5523  20.6059  20.6484
    20.7493  20.8277  20.8936  20.9609  21.0089  21.1093  21.1561  21.2270
    21.2780  21.3974  21.4181  21.4719  21.5317  21.5698  21.5948  21.6265
    21.6508  21.7408  21.8089  21.8683  21.9034  21.9516  22.0134  22.0752
    22.1513  22.1996  22.2896

     the Fermi energy is     0.3002 ev

!    total energy              =   -1761.60081012 Ry
     Harris-Foulkes estimate   =   -1761.60081013 Ry
     estimated scf accuracy    <          9.9E-09 Ry

     The total energy is the sum of the following terms:

     one-electron contribution =  -22587.47695254 Ry
     hartree contribution      =   11324.43524366 Ry
     xc contribution           =    -301.65874915 Ry
     ewald contribution        =    9799.15149958 Ry
     Hubbard energy            =       3.94823291 Ry
     smearing contrib. (-TS)   =      -0.00008458 Ry

     convergence has been achieved in  11 iterations

     Forces acting on atoms (Ry/au):

     negative rho (up, down):  0.346E-02 0.000E+00
     atom    1 type  1   force =    -0.00727471   -0.00633745   -0.00001719
     atom    2 type  1   force =    -0.00027861    0.00993329    0.00001610
     atom    3 type  2   force =     0.01938636   -0.00997789    0.00002508
     atom    4 type  2   force =     0.01742410    0.00431982    0.00023909
     atom    5 type  1   force =     0.00319073   -0.02613689   -0.00008876
     atom    6 type  1   force =     0.00142495    0.02551991   -0.00007456
     atom    7 type  1   force =    -0.00041267    0.00256443    0.00030983
     atom    8 type  1   force =     0.00944114    0.00113987    0.00011000
     atom    9 type  2   force =    -0.00393403   -0.00231468    0.00006807
     atom   10 type  2   force =     0.00101806    0.00158076    0.00070893
     atom   11 type  1   force =    -0.00785730    0.00927985    0.00006836
     atom   12 type  1   force =    -0.00406196   -0.00354981    0.00013223
     atom   13 type  1   force =     0.01082733   -0.00176813   -0.00001616
     atom   14 type  1   force =     0.00493075   -0.00427415    0.00014034
     atom   15 type  1   force =    -0.00026987    0.00690470   -0.00029026
     atom   16 type  2   force =    -0.01962222   -0.00845478    0.00001742
     atom   17 type  2   force =    -0.02081316    0.00413073   -0.00006064
     atom   18 type  1   force =     0.00076875   -0.01650888   -0.00009011
     atom   19 type  1   force =    -0.00183211    0.01423768   -0.00010530
     atom   20 type  1   force =    -0.00119039   -0.00021042   -0.00049448
     atom   21 type  1   force =     0.00306976    0.00218319   -0.00057155
     atom   22 type  2   force =    -0.00030758   -0.00235514    0.00008107
     atom   23 type  2   force =     0.00086468    0.00139361   -0.00003858
     atom   24 type  1   force =     0.00651646    0.01369269    0.00013643
     atom   25 type  1   force =     0.00338708   -0.00880879    0.00009432
     atom   26 type  1   force =    -0.01430199   -0.00646665    0.00019763
     atom   27 type  3   force =    -0.00000763   -0.00005063   -0.00009850
     atom   28 type  3   force =    -0.00003446    0.00007803    0.00018177
     atom   29 type  3   force =    -0.00012651   -0.00005695   -0.00031739
     atom   30 type  3   force =    -0.00028696    0.00003160   -0.00042813
     atom   31 type  1   force =     0.00038310    0.00021917   -0.00023514
     atom   32 type  1   force =    -0.00014337    0.00029956   -0.00009274
     atom   33 type  3   force =     0.00012229   -0.00023764    0.00049283

     Total force =     0.001614     Total SCF correction =     0.000218
     SCF correction compared to forces is large: reduce conv_thr to get better values

     entering subroutine stress ...

     negative rho (up, down):  0.346E-02 0.000E+00
          total   stress  (Ry/bohr**3)                   (kbar)     P=   -5.28
  -0.00002164  -0.00000149  -0.00000067         -3.18     -0.22     -0.10
  -0.00000149  -0.00005215  -0.00000139         -0.22     -7.67     -0.20
  -0.00000067  -0.00000139  -0.00003395         -0.10     -0.20     -4.99

     bfgs converged in  26 scf cycles and  25 bfgs steps
     (criteria: energy < 0.10E-03, force < 0.10E-02)

     End of BFGS Geometry Optimization

     Final energy   =   -1761.6008101223 Ry
Begin final coordinates

ATOMIC_POSITIONS (crystal)
O0       0.000000000   0.000000000   0.370220482    0   0   1
O0       0.000000000   0.500000000   0.383014413    0   0   1
Mo1      0.250000000   0.500000000   0.441266105    0   0   1
Mo1      0.000000000   0.000000000   0.442341735    0   0   1
O0       0.250000000   0.780000000   0.442495253    0   0   1
O0       0.250000000   0.220000000   0.442141544    0   0   1
O0       0.000000000   0.500000000   0.496414512    0   0   1
O0       0.000000000   0.000000000   0.516493004    0   0   1
Mo1      0.250000000   0.000000000   0.578426809    0   0   1
Mo1      0.000000000   0.500000000   0.567708998    0   0   1
O0       0.250000000   0.720000000   0.572268866    0   0   1
O0       0.250000000   0.280000000   0.573100276    0   0   1
O0       0.000000000   0.000000000   0.625057497    0   0   1
O0       0.500000000   0.000000000   0.370384263    0   0   1
O0       0.500000000   0.500000000   0.383168038    0   0   1
Mo1      0.750000000   0.500000000   0.441254124    0   0   1
Mo1      0.500000000   0.000000000   0.442026319    0   0   1
O0       0.750000000   0.780000000   0.442456718    0   0   1
O0       0.750000000   0.220000000   0.442508872    0   0   1
O0       0.500000000   0.500000000   0.500451314    0   0   1
O0       0.500000000   0.000000000   0.515762629    0   0   1
Mo1      0.750000000   0.000000000   0.570469984    0   0   1
Mo1      0.500000000   0.500000000   0.570589142    0   0   1
O0       0.750000000   0.720000000   0.571157774    0   0   1
O0       0.750000000   0.280000000   0.571924753    0   0   1
O0       0.500000000   0.000000000   0.624688687    0   0   1
H2      -0.000235237   0.618356609   0.363292098
H2       0.498851573   0.606048719   0.359389056
H2       0.166429007   0.020052665   0.355823371
H2       0.665382882   0.018885051   0.355309182
O0       0.501982871   0.515143248   0.642271711
O0       0.499108334   0.355945044   0.676199766
H2       0.500507122   0.427467904   0.707672702
End final coordinates

     General routines

     Parallel routines
     Hubbard U routines

   This run was terminated on:  17:24:38  29May2014

   JOB DONE.
Running PBS batch system epilogue script
Job id: 373268.audhumbla.fysik.dtu.dk
Username: zhonxu
Groupname: campgst
Jobname: MoO2/Eads-2-layers/OOH-U-6.0
Sessionid: 5187
Queuename: verylong
Accounting:
This job has allocated the following 16 nodes:
b138 b138 b138 b138 b138 b138 b138 b138 b048 b048 b048 b048 b048 b048 b048 b048
Finished epilogue job 373268.audhumbla.fysik.dtu.dk for zhonxu