     Program PWSCF v.5.0.2 (svn rev. 9656) starts on  1Jun2014 at  9:25:43

     Current dimensions of program PWSCF are:
     Max number of different atomic species (ntypx) = 10
     Max number of k-points (npk) =  40000
     Max angular momentum in pseudopotentials (lmaxx) =  3
     Reading input from pwscf.in
Warning: card &CELL ignored
Warning: card / ignored

     Subspace diagonalization in iterative solution of the eigenvalue problem:
     a serial algorithm will be used

     bravais-lattice index     =            0
     lattice parameter (alat)  =      11.1872  a.u.
     unit-cell volume          =    7531.8600 (a.u.)^3
     number of atoms/cell      =           33
     number of atomic types    =            3
     number of electrons       =       229.00
     number of Kohn-Sham states=          343
     kinetic-energy cutoff     =      40.0000  Ry
     charge density cutoff     =     500.0000  Ry
     convergence threshold     =      1.0E-06
     mixing beta               =       0.7000
     number of iterations used =            8  plain     mixing
     Exchange-correlation      = SLA  PW   PBE  PBE ( 1 4 3 4 0)
     EXX-fraction              =        0.00
     nstep                     =           50

     celldm(1)=  11.187179  celldm(2)=   0.000000  celldm(3)=   0.000000
     celldm(4)=   0.000000  celldm(5)=   0.000000  celldm(6)=   0.000000

     crystal axes: (cart. coord. in units of alat)
               a(1) = (   1.000000   0.000000   0.000000 )
               a(2) = (   0.000000   1.180104   0.000000 )
               a(3) = (   0.000000   0.000000   4.558482 )

     reciprocal axes: (cart. coord. in units 2 pi/alat)
               b(1) = (  1.000000  0.000000  0.000000 )
               b(2) = (  0.000000  0.847383  0.000000 )
               b(3) = (  0.000000  0.000000  0.219371 )

     PseudoPot. # 1 for O  read from file:
     /home/camp/zhonxu/pseudo/o_pbe_v1.01.uspp.F.UPF
     MD5 check sum: 2bcb18d16ea4b960afae9ec6d52f22d2
     Pseudo is Ultrasoft + core correction, Zval =  6.0
     Generated by new atomic code, or converted to UPF format
     Using radial grid of  737 points,  5 beta functions with:
                l(1) =   0
                l(2) =   0
                l(3) =   1
                l(4) =   1
                l(5) =   2
     Q(r) pseudized with  8 coefficients,  rinner =    0.900   0.900   0.900
                                                       0.900   0.900

     PseudoPot. # 2 for Nb read from file:
     /home/camp/zhonxu/pseudo/nb_pbe_v1.uspp.F.UPF
     MD5 check sum: 573aab8a2fa660278ed4a62cd769473f
     Pseudo is Ultrasoft + core correction, Zval = 13.0
     Generated by new atomic code, or converted to UPF format
     Using radial grid of  887 points,  6 beta functions with:
                l(1) =   0
                l(2) =   0
                l(3) =   1
                l(4) =   1
                l(5) =   2
                l(6) =   2
     Q(r) pseudized with  6 coefficients,  rinner =    1.000   1.000   1.000
                                                       1.000   1.000

     PseudoPot. # 3 for H  read from file:
     /home/camp/zhonxu/pseudo/h_pbe_v1.uspp.F.UPF
     MD5 check sum: 3408e3ff4ec8b0a4e358431e7e038a48
     Pseudo is Ultrasoft, Zval =  1.0
     Generated by new atomic code, or converted to UPF format
     Using radial grid of  615 points,  2 beta functions with:
                l(1) =   0
                l(2) =   0
     Q(r) pseudized with  8 coefficients,  rinner =    0.700

     atomic species   valence    mass     pseudopotential
        O0             6.00    15.99940     O ( 1.00)
        Nb1           13.00    92.90640     Nb( 1.00)
        H2             1.00     1.00794     H ( 1.00)

     Simplified LDA+U calculation (l_max = 2) with parameters (eV):
     atomic species    L          U    alpha       J0     beta
        Nb1            2     6.5000   0.0000   0.0000   0.0000

     No symmetry found

   Cartesian axes

     site n.     atom                  positions (alat units)
         1           O0  tau(   1) = (   0.0000000   0.0000000   1.6962113  )
         2           O0  tau(   2) = (   0.0000000   0.5900519   1.7723835  )
         3           Nb1 tau(   3) = (   0.2500000   0.5900519   2.0257895  )
         4           Nb1 tau(   4) = (   0.0000000   0.0000000   2.0274306  )
         5           O0  tau(   5) = (   0.2500000   0.9322821   2.0383253  )
         6           O0  tau(   6) = (   0.2500000   0.2478218   2.0381886  )
         7           O0  tau(   7) = (   0.0000000   0.5900519   2.2790132  )
         8           O0  tau(   8) = (   0.0000000   0.0000000   2.3853170  )
         9           Nb1 tau(   9) = (   0.2500000   0.0000000   2.6318397  )
        10           Nb1 tau(  10) = (   0.0000000   0.5900519   2.5956910  )
        11           O0  tau(  11) = (   0.2500000   0.8378738   2.6232242  )
        12           O0  tau(  12) = (   0.2500000   0.3422301   2.6255034  )
        13           O0  tau(  13) = (   0.0000000   0.0000000   2.8344187  )
        14           O0  tau(  14) = (   0.5000000   0.0000000   1.6974420  )
        15           O0  tau(  15) = (   0.5000000   0.5900519   1.7789021  )
        16           Nb1 tau(  16) = (   0.7500000   0.5900519   2.0259719  )
        17           Nb1 tau(  17) = (   0.5000000   0.0000000   2.0298010  )
        18           O0  tau(  18) = (   0.7500000   0.9322821   2.0382798  )
        19           O0  tau(  19) = (   0.7500000   0.2478218   2.0381886  )
        20           O0  tau(  20) = (   0.5000000   0.5900519   2.2737254  )
        21           O0  tau(  21) = (   0.5000000   0.0000000   2.3845421  )
        22           Nb1 tau(  22) = (   0.7500000   0.0000000   2.6318397  )
        23           Nb1 tau(  23) = (   0.5000000   0.5900519   2.6269166  )
        24           O0  tau(  24) = (   0.7500000   0.8378738   2.6231786  )
        25           O0  tau(  25) = (   0.7500000   0.3422301   2.6254579  )
        26           O0  tau(  26) = (   0.5000000   0.0000000   2.8332335  )
        27           H2  tau(  27) = (  -0.0005200   0.5958463   1.6070929  )
        28           H2  tau(  28) = (   0.4994400   0.5914445   1.6138395  )
        29           H2  tau(  29) = (   0.1507700   0.0008261   1.6243240  )
        30           H2  tau(  30) = (   0.6503900   0.0006019   1.6249166  )
        31           O0  tau(  31) = (   0.5000000   0.6010623   2.9587285  )
        32           O0  tau(  32) = (   0.5000000   0.4103103   3.1155403  )
        33           H2  tau(  33) = (   0.5000000   0.4955964   3.2584031  )

     number of k points=    10  Methfessel-Paxton smearing, width (Ry)=  0.0100
                       cart. coord. in units 2pi/alat
        k(    1) = (   0.0000000   0.0000000   0.0000000), wk =   0.1250000
        k(    2) = (   0.0000000   0.2118458   0.0000000), wk =   0.2500000
        k(    3) = (   0.0000000  -0.4236915   0.0000000), wk =   0.1250000
        k(    4) = (   0.2500000   0.0000000   0.0000000), wk =   0.2500000
        k(    5) = (   0.2500000   0.2118458   0.0000000), wk =   0.2500000
        k(    6) = (   0.2500000  -0.4236915   0.0000000), wk =   0.2500000
        k(    7) = (  -0.5000000   0.0000000   0.0000000), wk =   0.1250000
        k(    8) = (  -0.5000000   0.2118458   0.0000000), wk =   0.2500000
        k(    9) = (  -0.5000000  -0.4236915   0.0000000), wk =   0.1250000
        k(   10) = (  -0.2500000   0.2118458   0.0000000), wk =   0.2500000

     Largest allocated arrays     est. size (Mb)     dimensions
     Largest temporary arrays     est. size (Mb)     dimensions

     Check: negative/imaginary core charge=   -0.000003    0.000000

     Initial potential from superposition of free atoms
     Check: negative starting charge=   -0.003307

     starting charge  228.97806, renormalised to  229.00000

     negative rho (up, down):  0.331E-02 0.000E+00
     Number of +U iterations with fixed ns =  0
     Starting occupations:
 --- enter write_ns ---
 LDA+U parameters:
U( 2)     =  6.50000000
alpha( 2) =  0.00000000
atom    3   Tr[ns(na)] =   3.00000
    eigenvalues:
  0.300  0.300  0.300  0.300  0.300
    eigenvectors:
  1.000  0.000  0.000  0.000  0.000
  0.000  1.000  0.000  0.000  0.000
  0.000  0.000  1.000  0.000  0.000
  0.000  0.000  0.000  1.000  0.000
  0.000  0.000  0.000  0.000  1.000
    occupations:
  0.300  0.000  0.000  0.000  0.000
  0.000  0.300  0.000  0.000  0.000
  0.000  0.000  0.300  0.000  0.000
  0.000  0.000  0.000  0.300  0.000
  0.000  0.000  0.000  0.000  0.300
atom    4   Tr[ns(na)] =   3.00000
    eigenvalues:
  0.300  0.300  0.300  0.300  0.300
    eigenvectors:
  1.000  0.000  0.000  0.000  0.000
  0.000  1.000  0.000  0.000  0.000
  0.000  0.000  1.000  0.000  0.000
  0.000  0.000  0.000  1.000  0.000
  0.000  0.000  0.000  0.000  1.000
    occupations:
  0.300  0.000  0.000  0.000  0.000
  0.000  0.300  0.000  0.000  0.000
  0.000  0.000  0.300  0.000  0.000
  0.000  0.000  0.000  0.300  0.000
  0.000  0.000  0.000  0.000  0.300
atom    9   Tr[ns(na)] =   3.00000
    eigenvalues:
  0.300  0.300  0.300  0.300  0.300
    eigenvectors:
  1.000  0.000  0.000  0.000  0.000
  0.000  1.000  0.000  0.000  0.000
  0.000  0.000  1.000  0.000  0.000
  0.000  0.000  0.000  1.000  0.000
  0.000  0.000  0.000  0.000  1.000
    occupations:
  0.300  0.000  0.000  0.000  0.000
  0.000  0.300  0.000  0.000  0.000
  0.000  0.000  0.300  0.000  0.000
  0.000  0.000  0.000  0.300  0.000
  0.000  0.000  0.000  0.000  0.300
atom   10   Tr[ns(na)] =   3.00000
    eigenvalues:
  0.300  0.300  0.300  0.300  0.300
    eigenvectors:
  1.000  0.000  0.000  0.000  0.000
  0.000  1.000  0.000  0.000  0.000
  0.000  0.000  1.000  0.000  0.000
  0.000  0.000  0.000  1.000  0.000
  0.000  0.000  0.000  0.000  1.000
    occupations:
  0.300  0.000  0.000  0.000  0.000
  0.000  0.300  0.000  0.000  0.000
  0.000  0.000  0.300  0.000  0.000
  0.000  0.000  0.000  0.300  0.000
  0.000  0.000  0.000  0.000  0.300
atom   16   Tr[ns(na)] =   3.00000
    eigenvalues:
  0.300  0.300  0.300  0.300  0.300
    eigenvectors:
  1.000  0.000  0.000  0.000  0.000
  0.000  1.000  0.000  0.000  0.000
  0.000  0.000  1.000  0.000  0.000
  0.000  0.000  0.000  1.000  0.000
  0.000  0.000  0.000  0.000  1.000
    occupations:
  0.300  0.000  0.000  0.000  0.000
  0.000  0.300  0.000  0.000  0.000
  0.000  0.000  0.300  0.000  0.000
  0.000  0.000  0.000  0.300  0.000
  0.000  0.000  0.000  0.000  0.300
atom   17   Tr[ns(na)] =   3.00000
    eigenvalues:
  0.300  0.300  0.300  0.300  0.300
    eigenvectors:
  1.000  0.000  0.000  0.000  0.000
  0.000  1.000  0.000  0.000  0.000
  0.000  0.000  1.000  0.000  0.000
  0.000  0.000  0.000  1.000  0.000
  0.000  0.000  0.000  0.000  1.000
    occupations:
  0.300  0.000  0.000  0.000  0.000
  0.000  0.300  0.000  0.000  0.000
  0.000  0.000  0.300  0.000  0.000
  0.000  0.000  0.000  0.300  0.000
  0.000  0.000  0.000  0.000  0.300
atom   22   Tr[ns(na)] =   3.00000
    eigenvalues:
  0.300  0.300  0.300  0.300  0.300
    eigenvectors:
  1.000  0.000  0.000  0.000  0.000
  0.000  1.000  0.000  0.000  0.000
  0.000  0.000  1.000  0.000  0.000
[...]
  0.000  0.000  1.000  0.000  0.000
  0.000  1.000  0.000  0.000  0.000
  1.000  0.000  0.000  0.000  0.000
  0.000  0.000  0.000  0.000  1.000
  0.000  0.000  0.000  1.000  0.000
    occupations:
  0.504  0.000  0.000 -0.001 -0.000
  0.000  0.334 -0.000  0.001  0.001
  0.000 -0.000  0.315 -0.002 -0.000
 -0.001  0.001 -0.002  0.828 -0.000
 -0.000  0.001 -0.000 -0.000  0.533
atom   16   Tr[ns(na)] =   5.09314
    eigenvalues:
  0.324  0.329  0.515  0.600  0.778
    eigenvectors:
  0.000  0.000  0.001  0.337  0.663
  0.000  0.000  0.999  0.000  0.000
  0.545  0.455  0.000  0.000  0.000
  0.000  0.000  0.000  0.663  0.337
  0.455  0.545  0.000  0.000  0.000
    occupations:
  0.718  0.004  0.001 -0.084  0.003
  0.004  0.515  0.001 -0.001  0.001
  0.001  0.001  0.326 -0.000  0.002
 -0.084 -0.001 -0.000  0.660 -0.001
  0.003  0.001  0.002 -0.001  0.327
atom   17   Tr[ns(na)] =   5.12981
    eigenvalues:
  0.320  0.346  0.554  0.585  0.761
    eigenvectors:
  0.003  0.000  0.000  0.997  0.000
  0.996  0.000  0.000  0.003  0.001
  0.000  1.000  0.000  0.000  0.000
  0.001  0.000  0.000  0.000  0.999
  0.000  0.000  1.000  0.000  0.000
    occupations:
  0.584  0.014  0.000 -0.001 -0.000
  0.014  0.322 -0.000 -0.014  0.000
  0.000 -0.000  0.346 -0.000  0.001
 -0.001 -0.014 -0.000  0.760  0.000
 -0.000  0.000  0.001  0.000  0.554
atom   22   Tr[ns(na)] =   5.23906
    eigenvalues:
  0.416  0.456  0.475  0.635  0.637
    eigenvectors:
  0.000  0.871  0.000  0.114  0.015
  0.000  0.000  0.000  0.116  0.884
  0.999  0.000  0.000  0.000  0.000
  0.000  0.129  0.000  0.770  0.101
  0.000  0.000  0.999  0.000  0.000
    occupations:
  0.479 -0.000 -0.000  0.060 -0.000
 -0.000  0.636 -0.000  0.001  0.000
 -0.000 -0.000  0.416  0.002 -0.001
  0.060  0.001  0.002  0.612  0.000
 -0.000  0.000 -0.001  0.000  0.475
atom   23   Tr[ns(na)] =   5.18376
    eigenvalues:
  0.319  0.469  0.563  0.606  0.635
    eigenvectors:
  0.001  0.000  0.000  0.866  0.133
  0.000  0.996  0.004  0.000  0.000
  0.999  0.000  0.000  0.001  0.001
  0.000  0.000  0.000  0.134  0.866
  0.000  0.004  0.996  0.000  0.000
    occupations:
  0.610 -0.000  0.010  0.010 -0.000
 -0.000  0.469 -0.000 -0.000 -0.006
  0.010 -0.000  0.320  0.005  0.000
  0.010 -0.000  0.005  0.631 -0.000
 -0.000 -0.006  0.000 -0.000  0.563
N of occupied +U levels =  41.1400714
 --- exit write_ns ---

     Threshold (ethr) on eigenvalues was too large:
     Diagonalizing with lowered threshold

     Davidson diagonalization with overlap
     ethr =  4.14E-09,  avg # of iterations =  3.0

[...]

     total energy              =   -1591.17471875 Ry
     Harris-Foulkes estimate   =   -1591.17471875 Ry
     estimated scf accuracy    <       0.00000002 Ry

     iteration #  9     ecut=    40.00 Ry     beta=0.70
     Davidson diagonalization with overlap
     ethr =  7.85E-12,  avg # of iterations =  1.0

     negative rho (up, down):  0.342E-02 0.000E+00

     End of self-consistent calculation
 --- enter write_ns ---
 LDA+U parameters:
U( 2)     =  6.50000000
alpha( 2) =  0.00000000
atom    3   Tr[ns(na)] =   5.09333
    eigenvalues:
  0.324  0.329  0.515  0.600  0.779
    eigenvectors:
  0.000  0.000  0.001  0.337  0.663
  0.000  0.000  0.999  0.000  0.000
  0.533  0.467  0.000  0.000  0.000
  0.000  0.000  0.000  0.663  0.337
  0.467  0.533  0.000  0.000  0.000
    occupations:
  0.718 -0.004  0.001 -0.084 -0.003
 -0.004  0.515 -0.001  0.001  0.001
  0.001 -0.001  0.326 -0.000 -0.002
 -0.084  0.001 -0.000  0.660  0.001
 -0.003  0.001 -0.002  0.001  0.327
atom    4   Tr[ns(na)] =   5.13478
    eigenvalues:
  0.319  0.346  0.553  0.584  0.765
    eigenvectors:
  0.003  0.000  0.000  0.997  0.000
  0.996  0.000  0.000  0.003  0.001
  0.000  1.000  0.000  0.000  0.000
  0.001  0.000  0.000  0.000  0.999
  0.000  0.000  1.000  0.000  0.000
    occupations:
  0.583  0.014  0.000 -0.001 -0.000
  0.014  0.320 -0.001 -0.013  0.000
  0.000 -0.001  0.346 -0.000  0.001
 -0.001 -0.013 -0.000  0.764  0.000
 -0.000  0.000  0.001  0.000  0.553
atom    9   Tr[ns(na)] =   5.23911
    eigenvalues:
  0.417  0.456  0.475  0.635  0.637
    eigenvectors:
  0.000  0.870  0.000  0.115  0.015
  0.000  0.000  0.000  0.116  0.884
  0.999  0.000  0.000  0.000  0.000
  0.000  0.129  0.000  0.770  0.101
  0.000  0.000  0.999  0.000  0.000
    occupations:
  0.479  0.000 -0.000  0.060  0.000
  0.000  0.636  0.000 -0.001  0.000
 -0.000  0.000  0.417  0.002  0.001
  0.060 -0.001  0.002  0.612 -0.000
  0.000  0.000  0.001 -0.000  0.475
atom   10   Tr[ns(na)] =   5.02791
    eigenvalues:
  0.315  0.334  0.504  0.533  0.828
    eigenvectors:
  0.000  0.000  1.000  0.000  0.000
  0.000  1.000  0.000  0.000  0.000
  1.000  0.000  0.000  0.000  0.000
  0.000  0.000  0.000  0.000  1.000
  0.000  0.000  0.000  1.000  0.000
    occupations:
  0.504  0.000  0.000 -0.001 -0.000
  0.000  0.334 -0.000  0.001  0.001
  0.000 -0.000  0.315 -0.002 -0.000
 -0.001  0.001 -0.002  0.828 -0.000
 -0.000  0.001 -0.000 -0.000  0.533
atom   16   Tr[ns(na)] =   5.09345
    eigenvalues:
  0.324  0.329  0.515  0.600  0.778
    eigenvectors:
  0.000  0.000  0.001  0.337  0.663
  0.000  0.000  0.999  0.000  0.000
  0.544  0.456  0.000  0.000  0.000
  0.000  0.000  0.000  0.663  0.337
  0.456  0.544  0.000  0.000  0.000
    occupations:
  0.718  0.004  0.001 -0.084  0.003
  0.004  0.515  0.001 -0.001  0.001
  0.001  0.001  0.326 -0.000  0.002
 -0.084 -0.001 -0.000  0.660 -0.001
  0.003  0.001  0.002 -0.001  0.327
atom   17   Tr[ns(na)] =   5.12974
    eigenvalues:
  0.320  0.346  0.554  0.585  0.761
    eigenvectors:
  0.003  0.000  0.000  0.997  0.000
  0.996  0.000  0.000  0.003  0.001
  0.000  1.000  0.000  0.000  0.000
  0.001  0.000  0.000  0.000  0.999
  0.000  0.000  1.000  0.000  0.000
    occupations:
  0.584  0.014  0.000 -0.001 -0.000
  0.014  0.322 -0.000 -0.014  0.000
  0.000 -0.000  0.346 -0.000  0.001
 -0.001 -0.014 -0.000  0.760  0.000
 -0.000  0.000  0.001  0.000  0.554
atom   22   Tr[ns(na)] =   5.23939
    eigenvalues:
  0.416  0.456  0.475  0.635  0.637
    eigenvectors:
  0.000  0.871  0.000  0.114  0.015
  0.000  0.000  0.000  0.119  0.881
  0.999  0.000  0.000  0.000  0.000
  0.000  0.129  0.000  0.767  0.104
  0.000  0.000  0.999  0.000  0.000
    occupations:
  0.479 -0.000 -0.000  0.060 -0.000
 -0.000  0.636 -0.000  0.001  0.000
 -0.000 -0.000  0.416  0.002 -0.001
  0.060  0.001  0.002  0.612  0.000
 -0.000  0.000 -0.001  0.000  0.475
atom   23   Tr[ns(na)] =   5.18253
    eigenvalues:
  0.319  0.469  0.563  0.606  0.634
    eigenvectors:
  0.001  0.000  0.000  0.862  0.137
  0.000  0.996  0.004  0.000  0.000
  0.999  0.000  0.000  0.001  0.001
  0.000  0.000  0.000  0.137  0.862
  0.000  0.004  0.996  0.000  0.000
    occupations:
  0.610 -0.000  0.009  0.010 -0.000
 -0.000  0.469 -0.000 -0.000 -0.006
  0.009 -0.000  0.320  0.005  0.000
  0.010 -0.000  0.005  0.630 -0.000
 -0.000 -0.006  0.000 -0.000  0.563
N of occupied +U levels =  41.1402530
 --- exit write_ns ---

[...]

          k = 0.2500-0.4237 0.0000 ( 32188 PWs)   bands (ev):

[...]

          k =-0.2500 0.2118 0.0000 ( 32165 PWs)   bands (ev):

   -56.4217 -56.3518 -55.7865 -55.7366 -55.7257 -55.5102 -55.4610 -55.4418
   -33.1317 -32.6496 -32.5069 -32.4551 -32.4474 -32.3847 -32.3331 -32.2418
   -32.1908 -32.0702 -32.0248 -32.0000 -31.9569 -31.9454 -31.8313 -31.7241
   -31.6609 -31.5481 -31.4694 -31.3723 -31.2653 -31.2437 -31.2212 -31.2130
   -22.5058 -20.1055 -19.9467 -19.1849 -19.1739 -18.8537 -18.7657 -18.7295
   -18.6921 -18.6605 -18.6155 -18.5712 -17.9016 -17.8884 -17.8608 -17.7963
   -17.7654 -17.6876 -17.6548 -16.1143  -8.8205  -8.3024  -7.7538  -7.2169
    -7.1481  -7.0508  -6.8177  -6.5637  -6.4217  -6.3097  -6.2905  -6.1444
    -6.1080  -6.0476  -5.8519  -5.7914  -5.7094  -5.4611  -5.3319  -5.3123
    -5.2693  -5.0577  -4.9011  -4.8226  -4.6667  -4.4291  -4.3835  -4.3618
    -4.2298  -4.1238  -4.0144  -3.9627  -3.9262  -3.8893  -3.8225  -3.7480
    -3.7098  -3.6153  -3.5974  -3.5195  -3.3907  -3.3139  -3.2555  -3.2242
    -3.1508  -3.0106  -2.9599  -2.8836  -2.8429  -2.8222  -2.7338  -2.5565
    -2.4839  -2.4519  -2.2985  -2.2741  -2.0666  -1.8681  -1.0537  -0.7668
    -0.0685  -0.0072   1.4614   1.7416   1.8340   1.8924   1.9424   2.0173
     2.0810   2.3516   2.4226   2.4987   2.6868   2.7262   2.7578   2.8583
     2.9113   3.0024   3.0930   3.1594   3.3116   3.3613   3.4253   3.6376
     3.9604   4.2194   4.3707   4.4224   4.7132   4.7877   4.9333   5.0569
     5.1622   5.2113   5.2640   5.3677   5.4260   5.6790   5.7807   5.8117
     5.9168   6.0199   6.0510   6.1494   6.3652   6.4408   6.5362   6.6663
     6.7092   6.7729   6.8382   6.9598   7.0639   7.2545   7.3615   7.4173
     7.4865   7.8013   7.8772   8.0116   8.0621   8.1479   8.2866   8.3391
     8.5182   8.5963   8.7251   8.8134   8.9408   8.9680   9.0659   9.2570
     9.3071   9.4253   9.4823   9.5692   9.6824   9.8287   9.8687   9.9568
    10.0650  10.1458  10.2294  10.3315  10.4349  10.4685  10.6151  10.8008
    10.8576  10.9885  11.0378  11.1313  11.1715  11.2297  11.3049  11.3867
    11.4773  11.5939  11.6116  11.6481  11.6973  11.8800  11.9178  12.0140
    12.1207  12.1937  12.2433  12.3328  12.4560  12.5514  12.5984  12.7109
    12.7475  12.7856  12.8514  12.9270  12.9567  12.9952  13.0600  13.1732
    13.2051  13.2957  13.3668  13.4290  13.5337  13.6019  13.6526  13.7177
    13.7774  13.8532  13.9072  14.0037  14.0508  14.0745  14.1395  14.2395
    14.3177  14.3998  14.4271  14.4984  14.6490  14.7454  14.7735  14.8790
    14.9522  15.0612  15.1672  15.2495  15.3159  15.3273  15.4019  15.4501
    15.4966  15.5533  15.5824  15.7163  15.7728  15.8129  15.8783  15.9036
    15.9888  16.0706  16.1244  16.2074  16.2811  16.3691  16.3868  16.4416
    16.5573  16.6643  16.7088  16.7416  16.7912  16.8799  16.9205  17.0406
    17.0711  17.1328  17.1887  17.2408  17.3254  17.3812  17.4997  17.5164
    17.5700  17.6307  17.6965  17.8353  17.8719  17.9425  17.9662  18.0676
    18.1270  18.2269  18.2895  18.3418  18.4173  18.5550  18.5862  18.6480
    18.6633  18.7652  18.8345  18.8801  18.9722  19.0108  19.0772  19.0992
    19.2047  19.2827  19.2947  19.3828  19.4411  19.4629  19.5076  19.5792
    19.6760  19.7538  19.7789  19.8141  19.8756  19.9157  19.9773  20.0310
    20.0631  20.1169  20.1725  20.2389  20.2889  20.3639  20.4168

     the Fermi energy is     1.1234 ev

!    total energy              =   -1591.17471875 Ry
     Harris-Foulkes estimate   =   -1591.17471875 Ry
     estimated scf accuracy    <          9.2E-09 Ry

     The total energy is the sum of the following terms:

     one-electron contribution =  -19266.29789662 Ry
     hartree contribution      =    9666.44974243 Ry
     xc contribution           =    -294.75321454 Ry
     ewald contribution        =    8299.07769754 Ry
     Hubbard energy            =       4.34871294 Ry
     smearing contrib. (-TS)   =       0.00023950 Ry

     convergence has been achieved in   9 iterations

     Forces acting on atoms (Ry/au):

     negative rho (up, down):  0.342E-02 0.000E+00
     atom    1 type  1   force =     0.00019781   -0.00032593   -0.00008373
     atom    2 type  1   force =    -0.00007008    0.00035140    0.00027814
     atom    3 type  2   force =     0.03032241   -0.00008623   -0.00014754
     atom    4 type  2   force =    -0.00121919   -0.00000286   -0.00021730
     atom    5 type  1   force =    -0.00117332   -0.02926284    0.00011521
     atom    6 type  1   force =    -0.00102721    0.02922376    0.00012807
     atom    7 type  1   force =    -0.00015903   -0.00029809   -0.00016174
     atom    8 type  1   force =     0.00070456    0.00118342    0.00017573
     atom    9 type  2   force =     0.00233829   -0.00096912    0.00018756
     atom   10 type  2   force =     0.00033066   -0.00034901   -0.00043953
     atom   11 type  1   force =     0.00209146    0.01282062   -0.00047567
     atom   12 type  1   force =     0.00497500   -0.00676630   -0.00021685
     atom   13 type  1   force =     0.00015855   -0.00156388    0.00053193
     atom   14 type  1   force =     0.00020441   -0.00001240   -0.00001959
     atom   15 type  1   force =    -0.00008094    0.00015665   -0.00005176
     atom   16 type  2   force =    -0.03002178   -0.00013778   -0.00014250
     atom   17 type  2   force =    -0.00158905   -0.00008343   -0.00032033
     atom   18 type  1   force =     0.00162867   -0.02922513    0.00011079
     atom   19 type  1   force =     0.00142271    0.02918942    0.00013042
     atom   20 type  1   force =    -0.00013509   -0.00310089   -0.00012417
     atom   21 type  1   force =     0.00056993    0.00092921    0.00006735
     atom   22 type  2   force =    -0.00222912   -0.00096681    0.00023971
     atom   23 type  2   force =    -0.00018599   -0.00151803   -0.00035082
     atom   24 type  1   force =    -0.00218386    0.01277940   -0.00054515
     atom   25 type  1   force =    -0.00505405   -0.00674534   -0.00029265
     atom   26 type  1   force =     0.00006502   -0.00482281    0.00063448
     atom   27 type  3   force =     0.00001083    0.00013050    0.00061029
     atom   28 type  3   force =     0.00000857   -0.00024344    0.00006547
     atom   29 type  3   force =     0.00003376    0.00004794    0.00020505
     atom   30 type  3   force =     0.00002984    0.00001544    0.00027004
     atom   31 type  1   force =     0.00003093    0.00077820    0.00091536
     atom   32 type  1   force =     0.00000643   -0.00063499   -0.00057556
     atom   33 type  3   force =    -0.00000114   -0.00049065   -0.00050072

     Total force =     0.002326     Total SCF correction =     0.000215

     entering subroutine stress ...

     negative rho (up, down):  0.342E-02 0.000E+00
          total   stress  (Ry/bohr**3)                   (kbar)     P=   -1.14
  -0.00000991  -0.00000002   0.00000074         -1.46     -0.00      0.11
  -0.00000002   0.00002027  -0.00000116         -0.00      2.98     -0.17
   0.00000074  -0.00000116  -0.00003355          0.11     -0.17     -4.94

     bfgs converged in  15 scf cycles and  14 bfgs steps
     (criteria: energy < 0.10E-03, force < 0.10E-02)

     End of BFGS Geometry Optimization

     Final energy   =   -1591.1747187475 Ry
Begin final coordinates

ATOMIC_POSITIONS (crystal)
O0       0.000000000   0.000000000   0.370652238    0   0   1
O0       0.000000000   0.500000000   0.387345435    0   0   1
Nb1      0.250000000   0.500000000   0.443074534    0   0   1
Nb1      0.000000000   0.000000000   0.443606441    0   0   1
O0       0.250000000   0.790000000   0.447415239    0   0   1
O0       0.250000000   0.210000000   0.447390296    0   0   1
O0       0.000000000   0.500000000   0.499171704    0   0   1
O0       0.000000000   0.000000000   0.524802431    0   0   1
Nb1      0.250000000   0.000000000   0.577794411    0   0   1
Nb1      0.000000000   0.500000000   0.568502886    0   0   1
O0       0.250000000   0.710000000   0.578415008    0   0   1
O0       0.250000000   0.290000000   0.579071410    0   0   1
O0       0.000000000   0.000000000   0.622362210    0   0   1
O0       0.500000000   0.000000000   0.370847275    0   0   1
O0       0.500000000   0.500000000   0.387624118    0   0   1
Nb1      0.750000000   0.500000000   0.443075851    0   0   1
Nb1      0.500000000   0.000000000   0.443819029    0   0   1
O0       0.750000000   0.790000000   0.447402789    0   0   1
O0       0.750000000   0.210000000   0.447391541    0   0   1
O0       0.500000000   0.500000000   0.500900214    0   0   1
O0       0.500000000   0.000000000   0.524895455    0   0   1
Nb1      0.750000000   0.000000000   0.577842143    0   0   1
Nb1      0.500000000   0.500000000   0.575749851    0   0   1
O0       0.750000000   0.710000000   0.578358563    0   0   1
O0       0.750000000   0.290000000   0.579015016    0   0   1
O0       0.500000000   0.000000000   0.621957883    0   0   1
H2      -0.000428462   0.505488324   0.351207225
H2       0.499584931   0.500416036   0.351456751
H2       0.152177583   0.000934884   0.355737680
H2       0.652015849   0.000647011   0.355851998
O0       0.500051494   0.513982351   0.649771438
O0       0.500009834   0.349202735   0.682341941
H2       0.499992074   0.416588297   0.714408995
End final coordinates

     General routines

     Parallel routines
     Hubbard U routines

   This run was terminated on:   0: 7:32   2Jun2014

   JOB DONE.
Running PBS batch system epilogue script
Job id: 373371.audhumbla.fysik.dtu.dk
Username: zhonxu
Groupname: campgst
Jobname: NbO2/Eads-2-layers/OOH-U-6.5
Sessionid: 22895
Queuename: verylong
Accounting:
This job has allocated the following 16 nodes:
c037 c037 c037 c037 c037 c037 c037 c037 c019 c019 c019 c019 c019 c019 c019 c019
Finished epilogue job 373371.audhumbla.fysik.dtu.dk for zhonxu