     Program PWSCF v.5.0.2 (svn rev. 9656) starts on 15May2014 at  8:45:17

     Current dimensions of program PWSCF are:
     Max number of different atomic species (ntypx) = 10
     Max number of k-points (npk) =  40000
     Max angular momentum in pseudopotentials (lmaxx) =  3
     Reading input from pwscf.in
Warning: card &CELL ignored
Warning: card / ignored

     Subspace diagonalization in iterative solution of the eigenvalue problem:
     a serial algorithm will be used

     Found symmetry operation: I + ( -0.5000  0.0000  0.0000)
     This is a supercell, fractional translations are disabled

     bravais-lattice index     =            0
     lattice parameter (alat)  =      12.2076  a.u.
     unit-cell volume          =    7496.5096 (a.u.)^3
     number of atoms/cell      =           30
     number of atomic types    =            3
     number of electrons       =       240.00
     number of Kohn-Sham states=          360
     kinetic-energy cutoff     =      40.0000  Ry
     charge density cutoff     =     500.0000  Ry
     convergence threshold     =      1.0E-06
     mixing beta               =       0.7000
     number of iterations used =            8  plain     mixing
     Exchange-correlation      = SLA  PW   PBE  PBE ( 1 4 3 4 0)
     EXX-fraction              =        0.00
     nstep                     =           50

     celldm(1)=  12.207631  celldm(2)=   0.000000  celldm(3)=   0.000000
     celldm(4)=   0.000000  celldm(5)=   0.000000  celldm(6)=   0.000000

     crystal axes: (cart. coord. in units of alat)
               a(1) = (   1.000000   0.000000   0.000000 )
               a(2) = (   0.000000   1.004836   0.000000 )
               a(3) = (   0.000000   0.000000   4.100811 )

     reciprocal axes: (cart. coord. in units 2 pi/alat)
               b(1) = (  1.000000  0.000000  0.000000 )
               b(2) = (  0.000000  0.995187  0.000000 )
               b(3) = (  0.000000  0.000000  0.243854 )

     PseudoPot. # 1 for O  read from file:
     /home/camp/zhonxu/pseudo/o_pbe_v1.01.uspp.F.UPF
     MD5 check sum: 2bcb18d16ea4b960afae9ec6d52f22d2
     Pseudo is Ultrasoft + core correction, Zval =  6.0
     Generated by new atomic code, or converted to UPF format
     Using radial grid of  737 points,  5 beta functions with:
                l(1) =   0
                l(2) =   0
                l(3) =   1
                l(4) =   1
                l(5) =   2
     Q(r) pseudized with  8 coefficients,  rinner =    0.900   0.900   0.900
                                                       0.900   0.900

     PseudoPot. # 2 for Pt read from file:
     /home/camp/zhonxu/pseudo/pt_pbe_v1.uspp.F.UPF
     MD5 check sum: 4c71d6ad5ef119f1eb26a4d0b7884226
     Pseudo is Ultrasoft + core correction, Zval = 16.0
     Generated by new atomic code, or converted to UPF format
     Using radial grid of  985 points,  6 beta functions with:
                l(1) =   0
                l(2) =   0
                l(3) =   1
                l(4) =   1
                l(5) =   2
                l(6) =   2
     Q(r) pseudized with  8 coefficients,  rinner =    1.300   1.300   1.300
                                                       1.300   1.300

     PseudoPot. # 3 for H  read from file:
     /home/camp/zhonxu/pseudo/h_pbe_v1.uspp.F.UPF
     MD5 check sum: 3408e3ff4ec8b0a4e358431e7e038a48
     Pseudo is Ultrasoft, Zval =  1.0
     Generated by new atomic code, or converted to UPF format
     Using radial grid of  615 points,  2 beta functions with:
                l(1) =   0
                l(2) =   0
     Q(r) pseudized with  8 coefficients,  rinner =    0.700

     atomic species   valence    mass     pseudopotential
        O0             6.00    15.99940     O ( 1.00)
        Pt1           16.00   195.08000     Pt( 1.00)
        H2             1.00     1.00794     H ( 1.00)

     Simplified LDA+U calculation (l_max = 2) with parameters (eV):
     atomic species    L          U    alpha       J0     beta
        Pt1            2     0.0000   0.0000   0.0000   0.0000

     No symmetry found

   Cartesian axes

     site n.     atom                  positions (alat units)
         1           O0  tau(   1) = (   0.0000000   0.0000000   1.5457188  )
         2           O0  tau(   2) = (   0.0000000   0.5024180   1.6369208  )
         3           Pt1 tau(   3) = (   0.2500000   0.5024180   1.8413872  )
         4           Pt1 tau(   4) = (   0.0000000   0.0000000   1.8534436  )
         5           O0  tau(   5) = (   0.2500000   0.8139171   1.8157162  )
         6           O0  tau(   6) = (   0.2500000   0.1909188   1.8824364  )
         7           O0  tau(   7) = (   0.0000000   0.5024180   2.0315829  )
         8           O0  tau(   8) = (   0.0000000   0.0000000   2.1708464  )
         9           Pt1 tau(   9) = (   0.2500000   0.0000000   2.3625593  )
        10           Pt1 tau(  10) = (   0.0000000   0.5024180   2.3549318  )
        11           O0  tau(  11) = (   0.2500000   0.6933368   2.3911010  )
        12           O0  tau(  12) = (   0.2500000   0.3114991   2.3934384  )
        13           O0  tau(  13) = (   0.0000000   0.0000000   2.5491052  )
        14           O0  tau(  14) = (   0.5000000   0.0000000   1.5457188  )
        15           O0  tau(  15) = (   0.5000000   0.5024180   1.6369208  )
        16           Pt1 tau(  16) = (   0.7500000   0.5024180   1.8413872  )
        17           Pt1 tau(  17) = (   0.5000000   0.0000000   1.8534436  )
        18           O0  tau(  18) = (   0.7500000   0.8139171   1.8157162  )
        19           O0  tau(  19) = (   0.7500000   0.1909188   1.8824364  )
        20           O0  tau(  20) = (   0.5000000   0.5024180   2.0315829  )
        21           O0  tau(  21) = (   0.5000000   0.0000000   2.1708464  )
        22           Pt1 tau(  22) = (   0.7500000   0.0000000   2.3625593  )
        23           Pt1 tau(  23) = (   0.5000000   0.5024180   2.3549318  )
        24           O0  tau(  24) = (   0.7500000   0.6933368   2.3911010  )
        25           O0  tau(  25) = (   0.7500000   0.3114991   2.3934384  )
        26           O0  tau(  26) = (   0.5000000   0.0000000   2.5491052  )
        27           H2  tau(  27) = (  -0.0000500   0.6431553   1.5728661  )
        28           H2  tau(  28) = (   0.4999500   0.6431553   1.5728661  )
        29           H2  tau(  29) = (   0.1440700   0.0315318   1.5048747  )
        30           H2  tau(  30) = (   0.6440700   0.0315318   1.5048747  )

     number of k points=    10  Methfessel-Paxton smearing, width (Ry)=  0.0100
                       cart. coord. in units 2pi/alat
        k(    1) = (   0.0000000   0.0000000   0.0000000), wk =   0.1250000
        k(    2) = (   0.0000000   0.2487968   0.0000000), wk =   0.2500000
        k(    3) = (   0.0000000  -0.4975937   0.0000000), wk =   0.1250000
        k(    4) = (   0.2500000   0.0000000   0.0000000), wk =   0.2500000
        k(    5) = (   0.2500000   0.2487968   0.0000000), wk =   0.2500000
        k(    6) = (   0.2500000  -0.4975937   0.0000000), wk =   0.2500000
        k(    7) = (  -0.5000000   0.0000000   0.0000000), wk =   0.1250000
        k(    8) = (  -0.5000000   0.2487968   0.0000000), wk =   0.2500000
        k(    9) = (  -0.5000000  -0.4975937   0.0000000), wk =   0.1250000
        k(   10) = (  -0.2500000   0.2487968   0.0000000), wk =   0.2500000

     Largest allocated arrays     est. size (Mb)     dimensions
     Largest temporary arrays     est. size (Mb)     dimensions

     Check: negative/imaginary core charge=   -0.000003    0.000000

     Initial potential from superposition of free atoms
     Check: negative starting charge=   -1.537272

     starting charge  235.99985, renormalised to  240.00000

     negative rho (up, down):  0.156E+01 0.000E+00
     Number of +U iterations with fixed ns =  0
     Starting occupations:
 --- enter write_ns ---
 LDA+U parameters:
U( 2)     =  0.00000000
alpha( 2) =  0.00000000
atom    3   Tr[ns(na)] =   8.00000
    eigenvalues:
  0.800  0.800  0.800  0.800  0.800
    eigenvectors:
  1.000  0.000  0.000  0.000  0.000
  0.000  1.000  0.000  0.000  0.000
  0.000  0.000  1.000  0.000  0.000
  0.000  0.000  0.000  1.000  0.000
  0.000  0.000  0.000  0.000  1.000
    occupations:
  0.800  0.000  0.000  0.000  0.000
  0.000  0.800  0.000  0.000  0.000
  0.000  0.000  0.800  0.000  0.000
  0.000  0.000  0.000  0.800  0.000
  0.000  0.000  0.000  0.000  0.800
atom    4   Tr[ns(na)] =   8.00000
    eigenvalues:
  0.800  0.800  0.800  0.800  0.800
    eigenvectors:
  1.000  0.000  0.000  0.000  0.000
  0.000  1.000  0.000  0.000  0.000
  0.000  0.000  1.000  0.000  0.000
  0.000  0.000  0.000  1.000  0.000
  0.000  0.000  0.000  0.000  1.000
    occupations:
  0.800  0.000  0.000  0.000  0.000
  0.000  0.800  0.000  0.000  0.000
  0.000  0.000  0.800  0.000  0.000
  0.000  0.000  0.000  0.800  0.000
  0.000  0.000  0.000  0.000  0.800
atom    9   Tr[ns(na)] =   8.00000
    eigenvalues:
  0.800  0.800  0.800  0.800  0.800
    eigenvectors:
  1.000  0.000  0.000  0.000  0.000
  0.000  1.000  0.000  0.000  0.000
  0.000  0.000  1.000  0.000  0.000
  0.000  0.000  0.000  1.000  0.000
  0.000  0.000  0.000  0.000  1.000
    occupations:
  0.800  0.000  0.000  0.000  0.000
  0.000  0.800  0.000  0.000  0.000
  0.000  0.000  0.800  0.000  0.000
  0.000  0.000  0.000  0.800  0.000
  0.000  0.000  0.000  0.000  0.800
atom   10   Tr[ns(na)] =   8.00000
    eigenvalues:
  0.800  0.800  0.800  0.800  0.800
    eigenvectors:
  1.000  0.000  0.000  0.000  0.000
  0.000  1.000  0.000  0.000  0.000
  0.000  0.000  1.000  0.000  0.000
  0.000  0.000  0.000  1.000  0.000
  0.000  0.000  0.000  0.000  1.000
    occupations:
  0.800  0.000  0.000  0.000  0.000
  0.000  0.800  0.000  0.000  0.000
  0.000  0.000  0.800  0.000  0.000
  0.000  0.000  0.000  0.800  0.000
  0.000  0.000  0.000  0.000  0.800
atom   16   Tr[ns(na)] =   8.00000
    eigenvalues:
  0.800  0.800  0.800  0.800  0.800
    eigenvectors:
  1.000  0.000  0.000  0.000  0.000
  0.000  1.000  0.000  0.000  0.000
  0.000  0.000  1.000  0.000  0.000
  0.000  0.000  0.000  1.000  0.000
  0.000  0.000  0.000  0.000  1.000
    occupations:
  0.800  0.000  0.000  0.000  0.000
  0.000  0.800  0.000  0.000  0.000
  0.000  0.000  0.800  0.000  0.000
  0.000  0.000  0.000  0.800  0.000
  0.000  0.000  0.000  0.000  0.800
atom   17   Tr[ns(na)] =   8.00000
    eigenvalues:
  0.800  0.800  0.800  0.800  0.800
    eigenvectors:
  1.000  0.000  0.000  0.000  0.000
  0.000  1.000  0.000  0.000  0.000
  0.000  0.000  1.000  0.000  0.000
  0.000  0.000  0.000  1.000  0.000
  0.000  0.000  0.000  0.000  1.000
    occupations:
  0.800  0.000  0.000  0.000  0.000
  0.000  0.800  0.000  0.000  0.000
  0.000  0.000  0.800  0.000  0.000
  0.000  0.000  0.000  0.800  0.000
  0.000  0.000  0.000  0.000  0.800
atom   22   Tr[ns(na)] =   8.00000
    eigenvalues:
  0.800  0.800  0.800  0.800  0.800
    eigenvectors:
  1.000  0.000  0.000  0.000  0.000
  0.000  1.000  0.000  0.000  0.000
  0.000  0.000  1.000  0.000  0.000
  0.000  0.000  0.000  1.000  0.000
  0.000  0.000  0.000  0.000  1.000
    occupations:
[...]
     Harris-Foulkes estimate   =   -2248.81373572 Ry
     estimated scf accuracy    <       0.00000319 Ry

     iteration # 25     ecut=    40.00 Ry     beta=0.70
     Davidson diagonalization with overlap
     ethr =  5.71E-10,  avg # of iterations =  1.0

     negative rho (up, down):  0.158E+01 0.000E+00

     End of self-consistent calculation
 --- enter write_ns ---
 LDA+U parameters:
U( 2)     =  0.00000000
alpha( 2) =  0.00000000
atom    3   Tr[ns(na)] =   8.65220
    eigenvalues:
  0.689  0.694  0.976  0.982  0.985
    eigenvectors:
  0.181  0.000  0.731  0.000  0.088
  0.000  1.000  0.000  0.000  0.000
  0.002  0.000  0.121  0.000  0.877
  0.817  0.000  0.148  0.000  0.035
  0.000  0.000  0.000  1.000  0.000
    occupations:
  0.925 -0.000  0.003 -0.111  0.000
 -0.000  0.694  0.000  0.000 -0.001
  0.003  0.000  0.983  0.013 -0.000
 -0.111  0.000  0.013  0.742  0.000
  0.000 -0.001 -0.000  0.000  0.982
atom    4   Tr[ns(na)] =   8.62659
    eigenvalues:
  0.681  0.699  0.973  0.979  0.982
    eigenvectors:
  0.000  0.987  0.006  0.001  0.005
  0.007  0.000  0.037  0.951  0.004
  0.000  0.004  0.876  0.026  0.094
  0.000  0.009  0.080  0.014  0.897
  0.993  0.000  0.000  0.007  0.000
    occupations:
  0.702 -0.005 -0.016  0.026 -0.001
 -0.005  0.976  0.001  0.000  0.025
 -0.016  0.001  0.973  0.004  0.000
  0.026  0.000  0.004  0.979  0.000
 -0.001  0.025  0.000  0.000  0.683
atom    9   Tr[ns(na)] =   8.58786
    eigenvalues:
  0.704  0.713  0.945  0.949  0.982
    eigenvectors:
  0.000  0.145  0.000  0.000  0.854
  0.998  0.002  0.000  0.000  0.000
  0.000  0.000  1.000  0.000  0.000
  0.002  0.852  0.000  0.000  0.146
  0.000  0.000  0.000  1.000  0.000
    occupations:
  0.943  0.000 -0.000 -0.095  0.000
  0.000  0.704  0.000  0.000 -0.000
 -0.000  0.000  0.945 -0.001 -0.000
 -0.095  0.000 -0.001  0.752  0.000
  0.000 -0.000 -0.000  0.000  0.949
atom   10   Tr[ns(na)] =   8.67086
    eigenvalues:
  0.653  0.774  0.951  0.976  0.981
    eigenvectors:
  0.000  0.985  0.000  0.000  0.015
  0.000  0.000  1.000  0.000  0.000
  0.000  0.000  0.000  0.999  0.000
  0.000  0.015  0.000  0.001  0.985
  1.000  0.000  0.000  0.000  0.000
    occupations:
  0.777  0.000  0.002  0.025  0.000
  0.000  0.951 -0.000  0.000 -0.001
  0.002 -0.000  0.976 -0.000 -0.000
  0.025  0.000 -0.000  0.978 -0.000
  0.000 -0.001 -0.000 -0.000  0.653
atom   16   Tr[ns(na)] =   8.65220
    eigenvalues:
  0.689  0.694  0.976  0.982  0.985
    eigenvectors:
  0.181  0.000  0.731  0.000  0.088
  0.000  1.000  0.000  0.000  0.000
  0.002  0.000  0.121  0.000  0.877
  0.817  0.000  0.148  0.000  0.035
  0.000  0.000  0.000  1.000  0.000
    occupations:
  0.925 -0.000  0.003 -0.111  0.000
 -0.000  0.694  0.000  0.000 -0.001
  0.003  0.000  0.983  0.013 -0.000
 -0.111  0.000  0.013  0.742  0.000
  0.000 -0.001 -0.000  0.000  0.982
atom   17   Tr[ns(na)] =   8.62660
    eigenvalues:
  0.681  0.699  0.973  0.979  0.982
    eigenvectors:
  0.000  0.987  0.006  0.001  0.005
  0.007  0.000  0.037  0.951  0.004
  0.000  0.004  0.876  0.026  0.094
  0.000  0.009  0.080  0.014  0.897
  0.993  0.000  0.000  0.007  0.000
    occupations:
  0.702 -0.005 -0.016  0.026 -0.001
 -0.005  0.976  0.001  0.000  0.025
 -0.016  0.001  0.973  0.004  0.000
  0.026  0.000  0.004  0.979  0.000
 -0.001  0.025  0.000  0.000  0.683
atom   22   Tr[ns(na)] =   8.58786
    eigenvalues:
  0.704  0.713  0.945  0.949  0.982
    eigenvectors:
  0.000  0.145  0.000  0.000  0.854
  0.998  0.002  0.000  0.000  0.000
  0.000  0.000  1.000  0.000  0.000
  0.002  0.852  0.000  0.000  0.146
  0.000  0.000  0.000  1.000  0.000
    occupations:
  0.943  0.000 -0.000 -0.095  0.000
  0.000  0.704  0.000  0.000 -0.000
 -0.000  0.000  0.945 -0.001 -0.000
 -0.095  0.000 -0.001  0.752  0.000
  0.000 -0.000 -0.000  0.000  0.949
atom   23   Tr[ns(na)] =   8.67097
    eigenvalues:
  0.653  0.774  0.951  0.976  0.981
    eigenvectors:
  0.000  0.985  0.000  0.000  0.015
  0.000  0.000  1.000  0.000  0.000
  0.000  0.000  0.000  0.999  0.000
  0.000  0.015  0.000  0.001  0.985
  1.000  0.000  0.000  0.000  0.000
    occupations:
  0.777  0.000  0.002  0.025  0.000
  0.000  0.951 -0.000  0.000 -0.001
  0.002 -0.000  0.976 -0.000 -0.000
  0.025  0.000 -0.000  0.978 -0.000
  0.000 -0.001 -0.000 -0.000  0.653
N of occupied +U levels =  69.0751427
 --- exit write_ns ---

          k = 0.0000 0.0000 0.0000 ( 32157 PWs)   bands (ev):

   -55.8953 -55.8408 -55.7977 -55.7943 -55.7189 -55.6987 -55.6654 -55.6450
   -55.5377 -55.5323 -55.5280 -55.5203 -55.4869 -55.4826 -55.4107 -55.4057
   -55.3749 -55.3687 -55.2467 -55.1917 -54.8895 -54.8821 -54.6539 -54.6503
   -22.0068 -21.6510 -21.2698 -21.1124 -20.4587 -20.4255 -20.3907 -20.2416
   -20.2172 -20.2044 -20.1469 -20.1085 -20.0530 -19.8168 -19.7926 -19.7549
   -18.8951 -18.7534 -10.4361 -10.3130 -10.0418  -9.3991  -9.1491  -9.0934
    -9.0138  -8.9954  -8.9075  -8.8092  -8.7459  -8.7431  -8.7388  -8.6912
    -8.4500  -8.2933  -8.1967  -8.1934  -7.7905  -7.6018  -7.5974  -7.5511
    -7.4071  -7.1163  -7.0433  -6.8344  -6.6656  -6.3189  -6.0115  -5.9805
    -5.9239  -5.8083  -5.7714  -5.7443  -5.7046  -5.6848  -5.6163  -5.5108
    -5.4651  -5.2227  -5.0842  -4.9925  -4.9839  -4.9140  -4.7505  -4.7363
    -4.7192  -4.7153  -4.6681  -4.6501  -4.5960  -4.4816  -4.4499  -4.3203
    -4.2917  -4.2663  -4.2107  -3.9645  -3.9076  -3.8981  -3.6687  -3.4826
    -3.4758  -3.3322  -3.1050  -3.0203  -2.9266  -2.7764  -2.7660  -2.5378
    -2.3441  -2.2180  -2.1368  -1.9863  -1.9839  -1.8839  -1.8753  -1.5079
    -1.2874  -1.2662  -0.5093  -0.4296  -0.4071  -0.2465  -0.1073   0.0526
     0.1952   0.5804   0.9193   1.3852   1.4023   1.4404   1.5927   1.9102
     2.3291   3.1837   4.1396   4.5809   4.6391   5.4937   5.5476   5.7982
     5.8101   5.9455   6.2925   6.5479   6.5987   6.7919   6.9075   6.9950
     7.0599   7.0716   7.1575   7.2431   7.5480   7.5783   7.6794   7.6992
     7.7806   7.8122   7.8679   7.9954   8.0425   8.0974   8.1171   8.2147
     8.3119   8.4364   8.4530   8.5465   8.6499   8.8238   8.8711   8.9957
     9.0604   9.0925   9.4069   9.4981   9.5166   9.6131   9.7367   9.8428
     9.9163   9.9169  10.0697  10.1630  10.2781  10.4361  10.5920  10.6013
    10.7294  10.7820  10.8834  10.9399  10.9522  11.0207  11.0700  11.0889
    11.2759  11.3666  11.3712  11.3837  11.4467  11.4956  11.5745  11.6933
    11.8632  11.8684  11.9176  11.9553  12.0375  12.1404  12.1891  12.1900
    12.2856  12.3678  12.4162  12.4752  12.4911  12.6534  12.7653  12.9312
    12.9509  13.2298  13.3003  13.3106  13.3422  13.3904  13.5342  13.5728
    13.6474  13.6979  13.9306  13.9706  13.9965  14.0968  14.2356  14.2804
    14.4228  14.5011  14.5230  14.5661  14.6406  14.7028  14.7100  14.9725
    15.1455  15.2194  15.2343  15.3304  15.4029  15.4856  15.5229  15.5984
    15.7148  15.7574  15.8259  15.8517  15.9492  16.1534  16.2034  16.2706
    16.2986  16.3356  16.4389  16.4886  16.5282  16.5998  16.6092  16.6550
    16.7128  16.7585  16.7608  16.8781  16.9428  16.9750  17.1114  17.2071
    17.2965  17.2983  17.3463  17.3721  17.4026  17.6342  17.7290  17.7757
    17.8495  17.8554  17.9714  17.9930  18.0754  18.1149  18.1477  18.1520
    18.2147  18.4333  18.4651  18.5541  18.5670  18.6131  18.6459  18.7932
    18.8226  18.8771  18.8994  18.9391  18.9994  19.0123  19.0506  19.0853
    19.1144  19.1710  19.3049  19.3331  19.5101  19.5489  19.5896  19.6265
    19.6605  19.6977  19.7029  19.8728  19.9348  20.0180  20.0503  20.1286
    20.1450  20.1618  20.1642  20.3869  20.5145  20.5853  20.6220  20.7777
    20.8377  20.8393  20.8773  20.8868  20.9688  21.1085  21.1785  21.2501
    21.2778  21.3692  21.3751  21.4128  21.4248  21.5654  21.6256  21.6847
    21.7418  21.7763  21.7852  21.8089  21.8526  21.9061  21.9076  21.9457

[...]

          k = 0.2500-0.4976 0.0000 ( 32026 PWs)   bands (ev):

[...]

          k =-0.5000 0.0000 0.0000 ( 31984 PWs)   bands (ev):

[...]

          k =-0.2500 0.2488 0.0000 ( 32025 PWs)   bands (ev):

   -55.8874 -55.8487 -55.7971 -55.7948 -55.7112 -55.6909 -55.6731 -55.6530
   -55.5363 -55.5328 -55.5269 -55.5215 -55.4865 -55.4833 -55.4099 -55.4064
   -55.3741 -55.3696 -55.2387 -55.1997 -54.8884 -54.8832 -54.6533 -54.6508
   -21.9186 -21.6806 -21.0881 -20.9341 -20.5842 -20.4913 -20.3952 -20.2642
   -20.2592 -20.1856 -20.1433 -20.0833 -20.0552 -19.9479 -19.8801 -19.8410
   -18.9185 -18.8014 -10.0031  -9.7763  -9.7236  -9.5838  -9.1680  -9.1349
    -9.0672  -8.9184  -8.8155  -8.8086  -8.6221  -8.6024  -8.5828  -8.3937
    -8.3676  -8.2946  -8.0672  -8.0211  -7.7966  -7.7102  -7.5749  -7.4713
    -7.3552  -7.0108  -6.8880  -6.8272  -6.6822  -6.6239  -6.6065  -6.5240
    -6.4219  -6.3169  -6.2659  -6.2129  -6.1106  -6.0520  -5.8509  -5.8338
    -5.5877  -5.5196  -5.3951  -5.3637  -5.3039  -5.1177  -5.0157  -4.9158
    -4.8350  -4.7428  -4.5946  -4.3872  -4.2529  -4.2313  -4.0809  -3.9842
    -3.8602  -3.8154  -3.7692  -3.6416  -3.5680  -3.5217  -3.5144  -3.3673
    -3.3075  -3.2783  -3.2534  -2.9997  -2.9485  -2.9020  -2.5675  -2.4102
    -2.3324  -2.2851  -2.1024  -2.0896  -2.0157  -1.9096  -1.6168  -1.5403
    -1.5230  -1.2211  -0.9395  -0.6330  -0.2269  -0.1743   0.0175   0.3708
     0.6275   0.7937   0.9651   1.0119   1.2795   1.3031   1.4685   1.6588
     3.0761   3.6598   4.5808   4.9852   5.0666   5.1265   5.2334   5.3978
     5.6883   5.9592   6.0492   6.2442   6.4267   6.5022   6.6087   6.6388
     6.7651   6.8332   7.0299   7.0757   7.2722   7.3887   7.4159   7.5262
     7.5632   7.7372   7.8251   7.9587   8.0551   8.1532   8.2410   8.2943
     8.3221   8.4386   8.5567   8.6434   8.7553   8.8500   9.0264   9.1267
     9.2959   9.3439   9.4472   9.5446   9.6704   9.7412   9.8754   9.9624
    10.1082  10.1656  10.2071  10.2178  10.4276  10.5024  10.5362  10.6434
    10.6722  10.8206  10.8210  10.9732  11.1412  11.2482  11.3471  11.3746
    11.4091  11.5241  11.6290  11.7574  11.7790  11.8318  11.8634  11.9285
    11.9747  12.1439  12.1576  12.2096  12.3190  12.3349  12.4245  12.5133
    12.5583  12.6107  12.7173  12.7766  12.8586  12.8785  13.0097  13.0653
    13.1408  13.2249  13.4112  13.4841  13.5751  13.6245  13.6948  13.7894
    13.8279  13.8797  13.9914  14.0192  14.1250  14.2434  14.3539  14.3759
    14.4644  14.5820  14.6656  14.7015  14.8129  14.9187  14.9729  15.1484
    15.1975  15.2206  15.3390  15.3651  15.4500  15.5196  15.5464  15.6292
    15.6293  15.6749  15.7512  15.8109  15.8414  15.9201  16.0116  16.0399
    16.1525  16.1629  16.2163  16.2734  16.2951  16.3174  16.4050  16.4831
    16.5783  16.6077  16.6158  16.6425  16.6591  16.7532  16.7908  16.8920
    16.9205  17.0316  17.0589  17.1180  17.1335  17.1619  17.2052  17.2376
    17.2751  17.2874  17.3924  17.3978  17.4648  17.4665  17.5260  17.6076
    17.6826  17.7471  17.7702  17.8995  18.0122  18.0706  18.0995  18.1849
    18.1966  18.3288  18.3688  18.3740  18.5148  18.5459  18.6753  18.6824
    18.7128  18.8829  18.9235  19.0130  19.0285  19.0997  19.1335  19.2522
    19.3095  19.3717  19.4025  19.5435  19.5897  19.7338  19.7956  19.8306
    19.8969  19.9430  19.9710  20.0193  20.0298  20.0688  20.2426  20.2595
    20.3249  20.3280  20.4870  20.5027  20.6053  20.6969  20.7507  20.7993
    20.8034  20.9414  20.9515  21.0095  21.0249  21.2146  21.2534  21.2571
    21.3483  21.4288  21.4414  21.5279  21.5748  21.6198  21.6387  21.7518

     the Fermi energy is    -1.4904 ev

!    total energy              =   -2248.81373539 Ry
     Harris-Foulkes estimate   =   -2248.81373544 Ry
     estimated scf accuracy    <       0.00000006 Ry

     The total energy is the sum of the following terms:

     one-electron contribution =  -22773.93724225 Ry
     hartree contribution      =   11426.49195714 Ry
     xc contribution           =    -565.05209422 Ry
     ewald contribution        =    9663.68434580 Ry
     Hubbard energy            =       0.00000000 Ry
     smearing contrib. (-TS)   =      -0.00070185 Ry

     convergence has been achieved in  25 iterations

     Forces acting on atoms (Ry/au):

     negative rho (up, down):  0.158E+01 0.000E+00
     atom    1 type  1   force =    -0.00755130   -0.00518400    0.00047880
     atom    2 type  1   force =     0.00010859    0.00498119    0.00062322
     atom    3 type  2   force =    -0.00048613    0.00165337   -0.00024404
     atom    4 type  2   force =     0.01056919    0.00216747    0.00046574
     atom    5 type  1   force =     0.00099959   -0.00273887   -0.00080072
     atom    6 type  1   force =     0.00000169    0.00144580   -0.00070446
     atom    7 type  1   force =     0.00004910    0.00468759    0.00052181
     atom    8 type  1   force =    -0.00393730   -0.00745030    0.00018125
     atom    9 type  2   force =     0.00179597    0.00089134    0.00007848
     atom   10 type  2   force =    -0.00004482   -0.00179053   -0.00075895
     atom   11 type  1   force =    -0.00002192   -0.00670357    0.00016838
     atom   12 type  1   force =     0.00005972    0.00792877    0.00027042
     atom   13 type  1   force =    -0.00114707   -0.00034404   -0.00033503
     atom   14 type  1   force =    -0.00755214   -0.00518375    0.00047779
     atom   15 type  1   force =     0.00010924    0.00498194    0.00062012
     atom   16 type  2   force =    -0.00046833    0.00165324   -0.00024373
     atom   17 type  2   force =     0.01057079    0.00216768    0.00046094
     atom   18 type  1   force =     0.00100984   -0.00273873   -0.00080026
     atom   19 type  1   force =     0.00001261    0.00144560   -0.00070436
     atom   20 type  1   force =     0.00005034    0.00468762    0.00047867
     atom   21 type  1   force =    -0.00393425   -0.00745097    0.00017753
     atom   22 type  2   force =     0.00182186    0.00089136    0.00007838
     atom   23 type  2   force =    -0.00004095   -0.00179004   -0.00074702
     atom   24 type  1   force =     0.00002133   -0.00670310    0.00016757
     atom   25 type  1   force =     0.00009971    0.00792822    0.00026963
     atom   26 type  1   force =    -0.00114424   -0.00034343   -0.00031603
     atom   27 type  3   force =     0.00001400    0.00004005    0.00030183
     atom   28 type  3   force =     0.00001402    0.00004084    0.00030126
     atom   29 type  3   force =    -0.00048964    0.00041463   -0.00023365
     atom   30 type  3   force =    -0.00048949    0.00041464   -0.00023355

     Total force =     0.002701     Total SCF correction =     0.001013
     SCF correction compared to forces is large: reduce conv_thr to get better values

     BFGS Geometry Optimization

     bfgs converged in   1 scf cycles and   0 bfgs steps
     (criteria: energy < 0.10E-03, force < 0.10E-02)

     End of BFGS Geometry Optimization

     Final energy   =   -2248.8137353871 Ry
Begin final coordinates

ATOMIC_POSITIONS (crystal)
O0       0.000000000   0.000000000   0.376930000    0   0   1
O0       0.000000000   0.500000000   0.399170000    0   0   1
Pt1      0.250000000   0.500000000   0.449030000    0   0   1
Pt1      0.000000000   0.000000000   0.451970000    0   0   1
O0       0.250000000   0.810000000   0.442770000    0   0   1
O0       0.250000000   0.190000000   0.459040000    0   0   1
O0       0.000000000   0.500000000   0.495410000    0   0   1
O0       0.000000000   0.000000000   0.529370000    0   0   1
Pt1      0.250000000   0.000000000   0.576120000    0   0   1
Pt1      0.000000000   0.500000000   0.574260000    0   0   1
O0       0.250000000   0.690000000   0.583080000    0   0   1
O0       0.250000000   0.310000000   0.583650000    0   0   1
O0       0.000000000   0.000000000   0.621610000    0   0   1
O0       0.500000000   0.000000000   0.376930000    0   0   1
O0       0.500000000   0.500000000   0.399170000    0   0   1
Pt1      0.750000000   0.500000000   0.449030000    0   0   1
Pt1      0.500000000   0.000000000   0.451970000    0   0   1
O0       0.750000000   0.810000000   0.442770000    0   0   1
O0       0.750000000   0.190000000   0.459040000    0   0   1
O0       0.500000000   0.500000000   0.495410000    0   0   1
O0       0.500000000   0.000000000   0.529370000    0   0   1
Pt1      0.750000000   0.000000000   0.576120000    0   0   1
Pt1      0.500000000   0.500000000   0.574260000    0   0   1
O0       0.750000000   0.690000000   0.583080000    0   0   1
O0       0.750000000   0.310000000   0.583650000    0   0   1
O0       0.500000000   0.000000000   0.621610000    0   0   1
H2      -0.000050000   0.640060000   0.383550000
H2       0.499950000   0.640060000   0.383550000
H2       0.144070000   0.031380000   0.366970000
H2       0.644070000   0.031380000   0.366970000
End final coordinates

     General routines

     Parallel routines
     Hubbard U routines

   This run was terminated on:  10:22:55  15May2014

   JOB DONE.