     Program PWSCF v.5.0.2 (svn rev. 9656) starts on 14Feb2014 at  8:40:50

     Current dimensions of program PWSCF are:
     Max number of different atomic species (ntypx) = 10
     Max number of k-points (npk) =  40000
     Max angular momentum in pseudopotentials (lmaxx) =  3
     Reading input from alpha_-0.15/alpha_-0.15.in
Warning: card &IONS ignored
Warning: card / ignored
Warning: card &CELL ignored
Warning: card / ignored

     Subspace diagonalization in iterative solution of the eigenvalue problem:
     a serial algorithm will be used

     bravais-lattice index     =            0
     lattice parameter (alat)  =      17.2721  a.u.
     unit-cell volume          =    3202.1180 (a.u.)^3
     number of atoms/cell      =           48
     number of atomic types    =            3
     number of electrons       =       400.00
     number of Kohn-Sham states=          600
     kinetic-energy cutoff     =      40.0000  Ry
     charge density cutoff     =     500.0000  Ry
     convergence threshold     =      1.0E-06
     mixing beta               =       0.7000
     number of iterations used =            8  plain     mixing
     Exchange-correlation      = SLA  PW   PBE  PBE ( 1 4 3 4 0)
     EXX-fraction              =        0.00

     celldm(1)=  17.272097  celldm(2)=   0.000000  celldm(3)=   0.000000
     celldm(4)=   0.000000  celldm(5)=   0.000000  celldm(6)=   0.000000

     crystal axes: (cart. coord. in units of alat)
               a(1) = (   1.000000   0.000000   0.000000 )
               a(2) = (   0.000000   1.000000   0.000000 )
               a(3) = (   0.000000   0.000000   0.621444 )

     reciprocal axes: (cart. coord. in units 2 pi/alat)
               b(1) = (  1.000000  0.000000  0.000000 )
               b(2) = (  0.000000  1.000000  0.000000 )
               b(3) = (  0.000000  0.000000  1.609155 )

     PseudoPot. # 1 for V  read from file:
     /home/camp/zhonxu/pseudo/v_pbe_v1.uspp.F.UPF
     MD5 check sum: f3d00ac417565f5fd6449f790f2b64f9
     Pseudo is Ultrasoft + core correction, Zval = 13.0
     Generated by new atomic code, or converted to UPF format
     Using radial grid of  853 points,  6 beta functions with:
                l(1) =   0
                l(2) =   0
                l(3) =   1
                l(4) =   1
                l(5) =   2
                l(6) =   2
     Q(r) pseudized with  6 coefficients,  rinner =    1.100   1.100   1.100
                                                       1.100   1.100

     PseudoPot. # 2 for V  read from file:
     /home/camp/zhonxu/pseudo/v_pbe_v1.uspp.F.UPF
     MD5 check sum: f3d00ac417565f5fd6449f790f2b64f9
     Pseudo is Ultrasoft + core correction, Zval = 13.0
     Generated by new atomic code, or converted to UPF format
     Using radial grid of  853 points,  6 beta functions with:
                l(1) =   0
                l(2) =   0
                l(3) =   1
                l(4) =   1
                l(5) =   2
                l(6) =   2
     Q(r) pseudized with  6 coefficients,  rinner =    1.100   1.100   1.100
                                                       1.100   1.100

     PseudoPot. # 3 for O  read from file:
     /home/camp/zhonxu/pseudo/o_pbe_v1.01.uspp.F.UPF
     MD5 check sum: 2bcb18d16ea4b960afae9ec6d52f22d2
     Pseudo is Ultrasoft + core correction, Zval =  6.0
     Generated by new atomic code, or converted to UPF format
     Using radial grid of  737 points,  5 beta functions with:
                l(1) =   0
                l(2) =   0
                l(3) =   1
                l(4) =   1
                l(5) =   2
     Q(r) pseudized with  8 coefficients,  rinner =    0.900   0.900   0.900
                                                       0.900   0.900

     atomic species   valence    mass     pseudopotential
        V0            13.00    50.94150     V ( 1.00)
        V1            13.00    50.94150     V ( 1.00)
        O2             6.00    15.99940     O ( 1.00)

     Starting magnetic structure
     atomic species   magnetization
        V0           0.600
        V1           0.600
        O2           0.000

     Simplified LDA+U calculation (l_max = 2) with parameters (eV):
     atomic species    L          U    alpha       J0     beta
        V0             2     0.0000  -0.1500   0.0000   0.0000
        V1             2     0.0000   0.0000   0.0000   0.0000
        O2             1     0.0000   0.0000   0.0000   0.0000

      8 Sym. Ops., with inversion, found

   Cartesian axes

     site n.     atom                  positions (alat units)
         1           V0  tau(   1) = (   0.0000000   0.0000000   0.0000000  )
         2           V1  tau(   2) = (   0.2500000   0.2500000   0.1553611  )
         3           V1  tau(   3) = (   0.0000000   0.0000000   0.3107221  )
         4           V1  tau(   4) = (   0.2500000   0.2500000   0.4660832  )
         5           V1  tau(   5) = (   0.0000000   0.5000000   0.0000000  )
         6           V1  tau(   6) = (   0.2500000   0.7500000   0.1553611  )
         7           V1  tau(   7) = (   0.0000000   0.5000000   0.3107221  )
         8           V1  tau(   8) = (   0.2500000   0.7500000   0.4660832  )
         9           V1  tau(   9) = (   0.5000000   0.0000000   0.0000000  )
        10           V1  tau(  10) = (   0.7500000   0.2500000   0.1553611  )
        11           V1  tau(  11) = (   0.5000000   0.0000000   0.3107221  )
        12           V1  tau(  12) = (   0.7500000   0.2500000   0.4660832  )
        13           V1  tau(  13) = (   0.5000000   0.5000000   0.0000000  )
        14           V1  tau(  14) = (   0.7500000   0.7500000   0.1553611  )
        15           V1  tau(  15) = (   0.5000000   0.5000000   0.3107221  )
        16           V1  tau(  16) = (   0.7500000   0.7500000   0.4660832  )
        17           O2  tau(  17) = (   0.1500000   0.1500000   0.0000000  )
        18           O2  tau(  18) = (  -0.1500000  -0.1500000   0.0000000  )
        19           O2  tau(  19) = (   0.4000000   0.1000000   0.1553611  )
        20           O2  tau(  20) = (   0.1000000   0.4000000   0.1553611  )
        21           O2  tau(  21) = (   0.1500000   0.1500000   0.3107221  )
        22           O2  tau(  22) = (  -0.1500000  -0.1500000   0.3107221  )
        23           O2  tau(  23) = (   0.4000000   0.1000000   0.4660832  )
        24           O2  tau(  24) = (   0.1000000   0.4000000   0.4660832  )
        25           O2  tau(  25) = (   0.1500000   0.6500000   0.0000000  )
        26           O2  tau(  26) = (  -0.1500000   0.3500000   0.0000000  )
        27           O2  tau(  27) = (   0.4000000   0.6000000   0.1553611  )
        28           O2  tau(  28) = (   0.1000000   0.9000000   0.1553611  )
        29           O2  tau(  29) = (   0.1500000   0.6500000   0.3107221  )
        30           O2  tau(  30) = (  -0.1500000   0.3500000   0.3107221  )
        31           O2  tau(  31) = (   0.4000000   0.6000000   0.4660832  )
        32           O2  tau(  32) = (   0.1000000   0.9000000   0.4660832  )
        33           O2  tau(  33) = (   0.6500000   0.1500000   0.0000000  )
        34           O2  tau(  34) = (   0.3500000  -0.1500000   0.0000000  )
        35           O2  tau(  35) = (   0.9000000   0.1000000   0.1553611  )
        36           O2  tau(  36) = (   0.6000000   0.4000000   0.1553611  )
        37           O2  tau(  37) = (   0.6500000   0.1500000   0.3107221  )
        38           O2  tau(  38) = (   0.3500000  -0.1500000   0.3107221  )
        39           O2  tau(  39) = (   0.9000000   0.1000000   0.4660832  )
        40           O2  tau(  40) = (   0.6000000   0.4000000   0.4660832  )
        41           O2  tau(  41) = (   0.6500000   0.6500000   0.0000000  )
        42           O2  tau(  42) = (   0.3500000   0.3500000   0.0000000  )
        43           O2  tau(  43) = (   0.9000000   0.6000000   0.1553611  )
        44           O2  tau(  44) = (   0.6000000   0.9000000   0.1553611  )
        45           O2  tau(  45) = (   0.6500000   0.6500000   0.3107221  )
        46           O2  tau(  46) = (   0.3500000   0.3500000   0.3107221  )
        47           O2  tau(  47) = (   0.9000000   0.6000000   0.4660832  )
        48           O2  tau(  48) = (   0.6000000   0.9000000   0.4660832  )

     number of k points=    42  Methfessel-Paxton smearing, width (Ry)=  0.0100
                       cart. coord. in units 2pi/alat
        k(    1) = (   0.0000000   0.0000000   0.0000000), wk =   0.0156250
        k(    2) = (   0.0000000   0.0000000   0.4022887), wk =   0.0312500
        k(    3) = (   0.0000000   0.0000000  -0.8045775), wk =   0.0156250
        k(    4) = (   0.0000000   0.2500000   0.0000000), wk =   0.0625000
        k(    5) = (   0.0000000   0.2500000   0.4022887), wk =   0.1250000
        k(    6) = (   0.0000000   0.2500000  -0.8045775), wk =   0.0625000
        k(    7) = (   0.0000000  -0.5000000   0.0000000), wk =   0.0312500
        k(    8) = (   0.0000000  -0.5000000   0.4022887), wk =   0.0625000
        k(    9) = (   0.0000000  -0.5000000  -0.8045775), wk =   0.0312500
        k(   10) = (   0.2500000   0.2500000   0.0000000), wk =   0.0312500
        k(   11) = (   0.2500000   0.2500000   0.4022887), wk =   0.0625000
        k(   12) = (   0.2500000   0.2500000  -0.8045775), wk =   0.0312500
        k(   13) = (   0.2500000  -0.5000000   0.0000000), wk =   0.0625000
        k(   14) = (   0.2500000  -0.5000000   0.4022887), wk =   0.1250000
        k(   15) = (   0.2500000  -0.5000000  -0.8045775), wk =   0.0625000
        k(   16) = (  -0.5000000  -0.5000000   0.0000000), wk =   0.0156250
        k(   17) = (  -0.5000000  -0.5000000   0.4022887), wk =   0.0312500
        k(   18) = (  -0.5000000  -0.5000000  -0.8045775), wk =   0.0156250
        k(   19) = (  -0.2500000   0.2500000   0.0000000), wk =   0.0312500
        k(   20) = (  -0.2500000   0.2500000  -0.4022887), wk =   0.0625000
        k(   21) = (  -0.2500000   0.2500000   0.8045775), wk =   0.0312500
        k(   22) = (   0.0000000   0.0000000   0.0000000), wk =   0.0156250
        k(   23) = (   0.0000000   0.0000000   0.4022887), wk =   0.0312500
        k(   24) = (   0.0000000   0.0000000  -0.8045775), wk =   0.0156250
        k(   25) = (   0.0000000   0.2500000   0.0000000), wk =   0.0625000
        k(   26) = (   0.0000000   0.2500000   0.4022887), wk =   0.1250000
        k(   27) = (   0.0000000   0.2500000  -0.8045775), wk =   0.0625000
        k(   28) = (   0.0000000  -0.5000000   0.0000000), wk =   0.0312500
        k(   29) = (   0.0000000  -0.5000000   0.4022887), wk =   0.0625000
        k(   30) = (   0.0000000  -0.5000000  -0.8045775), wk =   0.0312500
        k(   31) = (   0.2500000   0.2500000   0.0000000), wk =   0.0312500
        k(   32) = (   0.2500000   0.2500000   0.4022887), wk =   0.0625000
        k(   33) = (   0.2500000   0.2500000  -0.8045775), wk =   0.0312500
        k(   34) = (   0.2500000  -0.5000000   0.0000000), wk =   0.0625000
        k(   35) = (   0.2500000  -0.5000000   0.4022887), wk =   0.1250000
        k(   36) = (   0.2500000  -0.5000000  -0.8045775), wk =   0.0625000
[...]
  0.877  0.887  0.888
    eigenvectors:
  0.000  1.000  0.000
  0.500  0.000  0.500
  0.500  0.000  0.500
    occupations:
  0.887 -0.000 -0.000
 -0.000  0.883  0.005
 -0.000  0.005  0.883
   spin  2
    eigenvalues:
  0.894  0.907  0.911
    eigenvectors:
  0.000  1.000  0.000
  0.500  0.000  0.500
  0.500  0.000  0.500
    occupations:
  0.907 -0.000 -0.000
 -0.000  0.903 -0.008
 -0.000 -0.008  0.903
atomic mag. moment =    -0.059575
atom   42   Tr[ns(na)] (up, down, total) =   2.65231  2.71188  5.36419
   spin  1
    eigenvalues:
  0.877  0.887  0.888
    eigenvectors:
  0.000  1.000  0.000
  0.500  0.000  0.500
  0.500  0.000  0.500
    occupations:
  0.887 -0.000 -0.000
 -0.000  0.883  0.005
 -0.000  0.005  0.883
   spin  2
    eigenvalues:
  0.894  0.907  0.911
    eigenvectors:
  0.000  1.000  0.000
  0.500  0.000  0.500
  0.500  0.000  0.500
    occupations:
  0.907 -0.000 -0.000
 -0.000  0.903 -0.008
 -0.000 -0.008  0.903
atomic mag. moment =    -0.059575
atom   43   Tr[ns(na)] (up, down, total) =   2.65231  2.71189  5.36420
   spin  1
    eigenvalues:
  0.877  0.887  0.888
    eigenvectors:
  0.000  1.000  0.000
  0.500  0.000  0.500
  0.500  0.000  0.500
    occupations:
  0.887  0.000  0.000
  0.000  0.883 -0.006
  0.000 -0.006  0.883
   spin  2
    eigenvalues:
  0.894  0.907  0.911
    eigenvectors:
  0.000  1.000  0.000
  0.500  0.000  0.500
  0.500  0.000  0.500
    occupations:
  0.907 -0.000 -0.000
 -0.000  0.903  0.008
 -0.000  0.008  0.903
atomic mag. moment =    -0.059582
atom   44   Tr[ns(na)] (up, down, total) =   2.65231  2.71189  5.36420
   spin  1
    eigenvalues:
  0.877  0.887  0.888
    eigenvectors:
  0.000  1.000  0.000
  0.500  0.000  0.500
  0.500  0.000  0.500
    occupations:
  0.887  0.000  0.000
  0.000  0.883 -0.006
  0.000 -0.006  0.883
   spin  2
    eigenvalues:
  0.894  0.907  0.911
    eigenvectors:
  0.000  1.000  0.000
  0.500  0.000  0.500
  0.500  0.000  0.500
    occupations:
  0.907 -0.000 -0.000
 -0.000  0.903  0.008
 -0.000  0.008  0.903
atomic mag. moment =    -0.059582
atom   45   Tr[ns(na)] (up, down, total) =   2.65232  2.71187  5.36419
   spin  1
    eigenvalues:
  0.877  0.887  0.888
    eigenvectors:
  0.000  1.000  0.000
  0.500  0.000  0.500
  0.500  0.000  0.500
    occupations:
  0.887 -0.000 -0.000
 -0.000  0.883  0.005
 -0.000  0.005  0.883
   spin  2
    eigenvalues:
  0.894  0.907  0.911
    eigenvectors:
  0.000  1.000  0.000
  0.500  0.000  0.500
  0.500  0.000  0.500
    occupations:
  0.907 -0.000 -0.000
 -0.000  0.903 -0.008
 -0.000 -0.008  0.903
atomic mag. moment =    -0.059552
atom   46   Tr[ns(na)] (up, down, total) =   2.65232  2.71187  5.36419
   spin  1
    eigenvalues:
  0.877  0.887  0.888
    eigenvectors:
  0.000  1.000  0.000
  0.500  0.000  0.500
  0.500  0.000  0.500
    occupations:
  0.887 -0.000 -0.000
 -0.000  0.883  0.005
 -0.000  0.005  0.883
   spin  2
    eigenvalues:
  0.894  0.907  0.911
    eigenvectors:
  0.000  1.000  0.000
  0.500  0.000  0.500
  0.500  0.000  0.500
    occupations:
  0.907 -0.000 -0.000
 -0.000  0.903 -0.008
 -0.000 -0.008  0.903
atomic mag. moment =    -0.059552
atom   47   Tr[ns(na)] (up, down, total) =   2.65231  2.71189  5.36420
   spin  1
    eigenvalues:
  0.877  0.887  0.888
    eigenvectors:
  0.000  1.000  0.000
  0.500  0.000  0.500
  0.500  0.000  0.500
    occupations:
  0.887 -0.000 -0.000
 -0.000  0.883 -0.006
 -0.000 -0.006  0.883
   spin  2
    eigenvalues:
  0.894  0.907  0.911
    eigenvectors:
  0.000  1.000  0.000
  0.500  0.000  0.500
  0.500  0.000  0.500
    occupations:
  0.907  0.000  0.000
  0.000  0.903  0.008
  0.000  0.008  0.903
atomic mag. moment =    -0.059582
atom   48   Tr[ns(na)] (up, down, total) =   2.65231  2.71189  5.36420
   spin  1
    eigenvalues:
  0.877  0.887  0.888
    eigenvectors:
  0.000  1.000  0.000
  0.500  0.000  0.500
  0.500  0.000  0.500
    occupations:
  0.887 -0.000 -0.000
 -0.000  0.883 -0.006
 -0.000 -0.006  0.883
   spin  2
    eigenvalues:
  0.894  0.907  0.911
    eigenvectors:
  0.000  1.000  0.000
  0.500  0.000  0.500
  0.500  0.000  0.500
    occupations:
  0.907  0.000  0.000
  0.000  0.903  0.008
  0.000  0.008  0.903
atomic mag. moment =    -0.059582
N of occupied +U levels = 243.5145761
 --- exit write_ns ---

 ------ SPIN UP ------------

          k = 0.0000 0.0000 0.0000 ( 13729 PWs)   bands (ev):

   -55.1777 -55.1740 -55.1740 -55.1739 -55.1739 -55.1738 -55.1704 -55.1608
   -55.1399 -55.1399 -55.1399 -55.1398 -55.1398 -55.1398 -55.1397 -55.0050
   -29.2582 -29.2581 -29.2580 -29.2567 -29.2552 -29.2551 -29.2549 -29.2011
   -29.0089 -29.0088 -29.0002 -28.9996 -28.9640 -28.9639 -28.9639 -28.9613
   -28.9612 -28.9609 -28.9537 -28.9501 -28.9332 -28.9328 -28.9323 -28.9313
   -28.9299 -28.9299 -28.9297 -28.9216 -28.9208 -28.9183 -28.9162 -28.9124
   -28.9118 -28.9118 -28.9117 -28.9117 -28.9117 -28.9030 -28.8931 -28.8930
   -28.8925 -28.8925 -28.8924 -28.8924 -28.8923 -28.8256 -28.7982 -28.7740
    -9.0750  -8.2997  -8.2996  -8.2993  -8.2991  -8.2839  -8.2795  -7.7820
    -7.7733  -7.7704  -7.7703  -7.6334  -7.5852  -7.5791  -7.4980  -7.4961
    -7.4856  -7.4806  -7.3720  -7.3698  -7.2886  -7.2884  -7.2869  -7.2810
    -7.2809  -7.2806  -7.1787  -7.1786  -7.1781  -7.1776  -7.1379  -7.1378
     3.1569   3.4801   3.4838   3.7570   3.9762   3.9825   3.9845   3.9853
     4.0932   4.0992   4.1004   4.1023   4.1680   4.3511   4.3579   4.3762
     4.3769   4.5504   4.5543   4.8838   4.8840   4.8872   4.8873   5.3351
     5.3410   5.4471   5.4476   5.4821   5.4853   5.5435   5.5464   5.5724
     5.5757   5.6205   5.6269   5.6269   5.6270   5.7810   5.7821   5.7825
     5.7829   5.8278   5.8308   5.8326   5.8330   5.9994   6.0031   6.0038
     6.0041   6.1156   6.1187   6.1503   6.1530   6.4622   6.4626   6.5323
     6.5331   6.8408   6.8418   6.8420   6.8421   6.8787   6.8831   6.9384
     6.9413   7.1243   7.1246   7.1271   7.1272   7.5076   7.7433   7.7457
     7.7457   7.7468   7.8109   7.8125   7.9823   7.9836   8.1726   8.1729
     8.2195   8.2203   8.4388   8.4395   8.4395   8.4396   8.7021   8.7032
     8.7470   8.7477   8.7478   8.7478   8.8776   9.0138   9.0138   9.4269
     9.9284   9.9555   9.9578  10.0946  10.0969  10.0987  10.0987  10.1618
    10.6097  10.6104  10.6249  10.6266  10.6268  10.6274  10.6285  10.6292
    10.6975  11.0156  11.0163  11.2341  11.2341  11.2346  11.2352  11.3346
    11.3351  11.3983  11.3990  11.4677  11.4678  11.4679  11.4696  11.4809
    11.4818  11.4847  11.4865  11.9178  11.9179  11.9180  11.9213  11.9840
    11.9850  12.2460  12.2463  12.2474  12.2475  12.3149  12.3166  12.7265
    12.8443  13.2548  13.2552  13.2572  13.2574  13.8925  13.8952  14.1834
    14.1846  14.4316  14.4348  14.5560  14.5561  14.5564  14.5629  14.6017
    14.6023  14.6038  14.6085  14.6694  14.6695  14.6697  14.6768  14.9756
    14.9777  14.9893  14.9928  15.7578  15.7580  15.7615  15.7624  16.0999
    17.7264  20.0899  20.0908  20.0918  20.0933  21.2940  21.2949  21.4245
    21.4250  21.6196  21.6210  22.2676  22.2681  22.2694  22.2706  22.4813
    22.4817  22.7029  22.7056  23.1067  23.1086  23.1097  23.1103  23.2458
    23.2475  24.1577  24.1586  24.1597  24.1603  24.4965  24.6659  24.6677
    25.0761  25.0768  25.2703  25.3149  25.3170  25.3815  25.5216  25.5221
    25.5231  25.5252  25.6242  25.6257  25.7610  25.7611  25.7627  25.7643
    26.9257  26.9265  26.9810  26.9841  26.9863  26.9877  26.9884  26.9932
    27.1249  27.1285  27.3316  27.4233  27.4252  27.4258  27.4271  27.5140
    27.5155  27.5164  27.5166  27.6011  27.6017  27.6033  27.6117  27.6857
    27.6859  28.3411  28.3422  28.3693  28.3723  28.9268  28.9300  28.9414
    28.9427  29.6450  29.6456  29.6484  29.6491  29.9184  29.9220  30.2739
    30.9583  31.3460  31.3494  31.7164  31.7178  32.2524  32.2526  32.2539
    32.2543  32.6073  32.6101  32.6111  32.6118  33.0025  33.0045  33.0079
    33.0127  33.0832  33.0837  33.0847  33.0950  33.1927  33.1935  33.1937
    33.1978  33.3051  33.3079  33.8185  33.8197  33.9097  34.0430  34.0485
    34.5781  34.8513  34.8517  35.2557  35.2565  35.2572  35.2607  35.5299
    35.5324  35.9153  35.9163  35.9199  35.9439  35.9452  35.9455  35.9479
    36.0177  36.4700  36.4741  37.0105  37.0121  37.2929  37.2929  37.3284
    37.3317  37.3529  37.3532  37.3548  37.3593  37.5042  37.5044  37.5704
    37.5720  37.5731  37.5739  37.7779  37.7790  37.7791  37.7820  38.2011
    38.2017  38.2022  38.2071  38.4392  38.4398  38.4404  38.4411  38.4428
    38.6591  38.6602  39.1784  39.1793  40.2834  40.2844  41.1133  41.1255
    41.1288  41.7310  41.7325  41.7403  41.7421  41.7913  41.9139  41.9152
    42.4125  42.4129  42.4154  42.4203  42.8823  42.8865  42.9232  42.9235
    42.9255  42.9280  43.0474  43.1406  43.1417  43.1429  43.1431  43.4108
    43.4119  43.4383  43.4392  43.4822  43.4823  43.4851  43.4879  43.6011
    43.6045  43.6849  43.6860  43.6870  43.6877  44.4962  44.6097  44.6128
    44.8367  44.8373  44.8642  44.8644  45.5233  45.5264  45.6584  45.6617
    45.6853  45.6878  45.6882  45.6896  45.7295  45.7838  45.7854  46.5253
    46.5253  46.5261  46.5282  46.6235  46.6238  46.6244  46.6250  46.6389
    46.6390  46.8581  46.8588  46.9714  46.9715  46.9734  46.9765  47.0765
    47.0777  47.2486  47.2534  47.4962  47.4962  47.4996  47.5030  47.6202
    47.8318  47.8342  47.8353  47.8360  47.8462  47.8482  47.9305  47.9348
    48.2888  48.2898  48.5156  48.5170  48.6125  48.6148  48.8244  48.8247
    48.8361  48.8362  48.8368  48.8387  49.3692  49.3721  49.4053  49.4057
    49.4069  49.4102  49.5884  50.0548  50.0553  50.0553  50.0558  50.0845
    50.0872  50.0910  50.0918  50.0934  50.0961  50.1915  50.1918  50.1928
    50.1930  50.2743  50.2755  50.4497  50.8288  50.8303  50.8310  50.8377
    50.8378  50.8393  51.3762  51.3796  51.5855  51.5885  52.0714  52.1387
    52.1440  52.2125  52.2140  52.2816  52.2824  52.2826  52.2834  52.3579
    52.3587  52.4895  52.5264  52.5269  52.5270  52.5301  53.2775  53.2790

[...]

          k =-0.5000-0.5000 0.0000 ( 13640 PWs)   bands (ev):

[...]

 ------ SPIN DOWN ----------

[...]

          k = 0.2500-0.5000-0.8046 ( 13684 PWs)   bands (ev):

[...]

          k =-0.2500 0.2500 0.8046 ( 13696 PWs)   bands (ev):

   -54.0021 -54.0016 -54.0007 -54.0003 -54.0002 -53.9999 -53.9997 -53.9990
   -53.9987 -53.9983 -53.9981 -53.9980 -53.9979 -53.9967 -53.9964 -53.8558
   -27.9930 -27.9914 -27.9907 -27.9902 -27.9897 -27.9889 -27.9874 -27.9859
   -27.9854 -27.9849 -27.9844 -27.9843 -27.9843 -27.9802 -27.9796 -27.8557
   -27.8293 -27.8279 -27.8256 -27.8191 -27.8187 -27.8183 -27.8169 -27.8169
   -27.8160 -27.8155 -27.8115 -27.8074 -27.8028 -27.8026 -27.8022 -27.7683
   -27.7681 -27.7679 -27.7678 -27.7607 -27.7579 -27.7565 -27.7559 -27.7555
   -27.7554 -27.7543 -27.7539 -27.7478 -27.7467 -27.7456 -27.6632 -27.6260
    -8.4384  -8.4374  -8.1604  -8.1602  -8.1597  -8.1584  -8.0038  -8.0033
    -7.8176  -7.8164  -7.7520  -7.7494  -7.7493  -7.7487  -7.4730  -7.4720
    -7.4719  -7.4681  -7.4545  -7.4544  -7.4460  -7.4443  -7.4390  -7.4360
    -7.4360  -7.4354  -7.4197  -7.4158  -7.4149  -7.4147  -7.3874  -7.3864
     4.2391   4.2399   4.2774   4.2782   4.4820   4.4851   4.4851   4.4857
     4.5358   4.5381   4.6325   4.6380   4.6876   4.6919   4.7325   4.7337
     4.7954   4.7955   4.7974   4.7984   4.8357   4.8374   4.9337   4.9387
     4.9391   4.9417   5.0210   5.0260   5.0262   5.0264   5.1558   5.1563
     5.5303   5.5334   5.7140   5.7193   5.7197   5.7212   5.8956   5.8965
     6.1126   6.1130   6.1132   6.1140   6.1919   6.1931   6.2643   6.2678
     6.2682   6.2683   6.5165   6.5170   6.5445   6.5450   6.8399   6.8416
     6.8627   6.8627   6.8627   6.8635   7.1367   7.1379   7.1386   7.1400
     7.1571   7.1595   7.1724   7.1727   7.4222   7.4233   7.4410   7.4424
     7.5800   7.5814   7.7118   7.7120   7.7131   7.7136   7.7845   7.7878
     7.9984   8.0000   8.0597   8.0606   8.2712   8.2727   8.2728   8.2730
     8.3494   8.3502   8.7002   8.7005   8.7006   8.7012   8.9565   8.9566
    11.5447  11.5457  11.7167  11.7195  11.7200  11.7200  11.8881  11.8882
    11.9460  11.9484  11.9599  11.9601  12.0839  12.0865  12.0865  12.0867
    12.1696  12.1703  12.2496  12.2521  12.2527  12.2527  12.2759  12.2766
    12.3220  12.3225  12.4390  12.4391  12.5399  12.5412  12.5787  12.5790
    12.5790  12.5795  12.6791  12.6798  12.8182  12.8182  12.8183  12.8186
    12.8529  12.8529  13.0694  13.0694  13.0695  13.0708  13.3345  13.3355
    14.0866  14.0866  14.0868  14.0896  14.2585  14.2588  14.4924  14.4925
    14.4925  14.4965  14.5063  14.5098  14.7981  14.7997  15.0830  15.0850
    15.0854  15.0868  15.0871  15.0883  15.3788  15.3788  15.3816  15.3828
    15.5746  15.5757  15.9389  15.9389  15.9398  15.9451  16.0060  16.0077
    19.8609  19.8628  20.7830  20.7841  20.7846  20.7865  21.3467  21.3476
    22.0782  22.0810  22.1782  22.1786  22.1790  22.1812  23.4084  23.4097
    23.6757  23.6776  23.7184  23.7219  24.2617  24.2632  24.2638  24.2640
    24.2818  24.2840  25.0419  25.0432  25.1065  25.1089  25.2418  25.2443
    25.2454  25.2469  25.4572  25.4591  25.4596  25.4617  25.6007  25.6034
    25.6761  25.6764  25.6858  25.6866  25.6867  25.6898  26.1865  26.1891
    26.9265  26.9272  26.9278  26.9310  27.2166  27.2189  27.2505  27.2513
    27.3532  27.3537  27.3555  27.3592  27.4154  27.4183  27.4962  27.4992
    27.8128  27.8133  27.8152  27.8177  28.2969  28.2987  28.3545  28.3587
    28.6329  28.6333  28.8366  28.8418  29.0343  29.0356  29.0370  29.0390
    29.2613  29.2636  29.6838  29.6873  29.6886  29.6898  29.7015  29.7017
    30.3631  30.3697  30.5509  30.5514  30.5518  30.5572  31.5358  31.5389
    31.7082  31.7110  31.7113  31.7124  32.1845  32.1856  32.5375  32.5423
    33.9062  33.9086  34.0670  34.0693  34.0698  34.0713  34.3171  34.3172
    34.4747  34.4776  34.7723  34.7745  35.0422  35.0449  35.0570  35.0598
    35.2138  35.2138  35.2142  35.2147  35.6760  35.6774  35.8032  35.8037
    35.8042  35.8095  36.1884  36.1886  36.1890  36.1897  36.3340  36.3360
    36.5571  36.5597  36.7119  36.7130  36.7135  36.7153  37.0881  37.0882
    37.4031  37.4054  37.8128  37.8140  37.8161  37.8177  38.2729  38.2729
    38.2731  38.2797  38.5391  38.5397  38.5979  38.5983  39.1252  39.1261
    39.2482  39.2496  39.2500  39.2542  39.2684  39.2688  39.3959  39.3979
    39.7563  39.7569  40.0931  40.0939  40.0945  40.0951  40.1545  40.1562
    40.2963  40.2967  40.2974  40.2987  40.9079  40.9092  41.1445  41.1458
    42.2308  42.2310  42.2327  42.2346  42.2429  42.2434  42.5615  42.5618
    42.8345  42.8358  42.9175  42.9186  42.9847  42.9850  42.9857  42.9866
    43.3421  43.3427  43.7431  43.7461  44.0544  44.0547  44.0549  44.0553
    44.7119  44.7146  44.7349  44.7362  44.7365  44.7395  45.1584  45.1611
    45.1624  45.1628  46.1630  46.1651  46.3373  46.3373  46.3386  46.3392
    46.3746  46.3750  46.4051  46.4075  46.4080  46.4080  46.4884  46.4905
    46.5220  46.5234  46.6864  46.6884  47.0017  47.0018  47.0038  47.0043
    47.3024  47.3032  48.0421  48.0423  48.1576  48.1598  48.1830  48.1844
    48.1847  48.1850  48.3404  48.3404  48.3423  48.3428  48.4327  48.4332
    48.8720  48.8732  48.9549  48.9567  48.9578  48.9598  49.3203  49.3206
    49.3214  49.3260  49.3749  49.3757  49.4841  49.4845  49.5325  49.5370
    49.5551  49.5558  49.5896  49.5900  49.8492  49.8493  49.8513  49.8526
    49.9290  49.9297  49.9316  49.9317  50.0179  50.0201  50.1784  50.1793
    50.1802  50.1817  50.2414  50.2421  50.3734  50.3747  50.3759  50.3772
    50.5367  50.5381  50.6853  50.6864  50.9233  50.9246  51.0232  51.0233
    51.0234  51.0235  51.2559  51.2564  51.2569  51.2584  51.3838  51.3875
    51.4972  51.4974  51.6162  51.6166  51.6170  51.6210  52.0338  52.0341
    52.0355  52.0378  52.1190  52.1212  52.5760  52.5769  52.7877  52.7883

     the Fermi energy is    10.9425 ev

!    total energy              =   -3356.43653740 Ry
     Harris-Foulkes estimate   =   -3356.43653744 Ry
     estimated scf accuracy    <       0.00000005 Ry

     The total energy is the sum of the following terms:

     one-electron contribution =   -1296.49870138 Ry
     hartree contribution      =     845.59508119 Ry
     xc contribution           =    -537.24395255 Ry
     ewald contribution        =   -2368.23960066 Ry
     Hubbard energy            =      -0.04979580 Ry
     smearing contrib. (-TS)   =       0.00043179 Ry

     total magnetization       =    16.02 Bohr mag/cell
     absolute magnetization    =    19.66 Bohr mag/cell

     convergence has been achieved in  19 iterations

     Writing output data file pwscf.save

     General routines

     Parallel routines
     Hubbard U routines

   This run was terminated on:  16: 3: 7  14Feb2014

   JOB DONE.