     Program PWSCF v.5.0.2 (svn rev. 9656) starts on 15Feb2014 at  1:41:19

     Current dimensions of program PWSCF are:
     Max number of different atomic species (ntypx) = 10
     Max number of k-points (npk) =  40000
     Max angular momentum in pseudopotentials (lmaxx) =  3
     Reading input from alpha_0.07/alpha_0.07.in
Warning: card &IONS ignored
Warning: card / ignored
Warning: card &CELL ignored
Warning: card / ignored

     Subspace diagonalization in iterative solution of the eigenvalue problem:
     a serial algorithm will be used

     bravais-lattice index     =            0
     lattice parameter (alat)  =      17.2721  a.u.
     unit-cell volume          =    3202.1180 (a.u.)^3
     number of atoms/cell      =           48
     number of atomic types    =            3
     number of electrons       =       400.00
     number of Kohn-Sham states=          600
     kinetic-energy cutoff     =      40.0000  Ry
     charge density cutoff     =     500.0000  Ry
     convergence threshold     =      1.0E-06
     mixing beta               =       0.7000
     number of iterations used =            8  plain     mixing
     Exchange-correlation      = SLA  PW   PBE  PBE ( 1 4 3 4 0)
     EXX-fraction              =        0.00

     celldm(1)=  17.272097  celldm(2)=   0.000000  celldm(3)=   0.000000
     celldm(4)=   0.000000  celldm(5)=   0.000000  celldm(6)=   0.000000

     crystal axes: (cart. coord. in units of alat)
               a(1) = (   1.000000   0.000000   0.000000 )
               a(2) = (   0.000000   1.000000   0.000000 )
               a(3) = (   0.000000   0.000000   0.621444 )

     reciprocal axes: (cart. coord. in units 2 pi/alat)
               b(1) = (  1.000000  0.000000  0.000000 )
               b(2) = (  0.000000  1.000000  0.000000 )
               b(3) = (  0.000000  0.000000  1.609155 )

     PseudoPot. # 1 for V  read from file:
     /home/camp/zhonxu/pseudo/v_pbe_v1.uspp.F.UPF
     MD5 check sum: f3d00ac417565f5fd6449f790f2b64f9
     Pseudo is Ultrasoft + core correction, Zval = 13.0
     Generated by new atomic code, or converted to UPF format
     Using radial grid of  853 points,  6 beta functions with:
                l(1) =   0
                l(2) =   0
                l(3) =   1
                l(4) =   1
                l(5) =   2
                l(6) =   2
     Q(r) pseudized with  6 coefficients,  rinner =    1.100   1.100   1.100
                                                       1.100   1.100

     PseudoPot. # 2 for V  read from file:
     /home/camp/zhonxu/pseudo/v_pbe_v1.uspp.F.UPF
     MD5 check sum: f3d00ac417565f5fd6449f790f2b64f9
     Pseudo is Ultrasoft + core correction, Zval = 13.0
     Generated by new atomic code, or converted to UPF format
     Using radial grid of  853 points,  6 beta functions with:
                l(1) =   0
                l(2) =   0
                l(3) =   1
                l(4) =   1
                l(5) =   2
                l(6) =   2
     Q(r) pseudized with  6 coefficients,  rinner =    1.100   1.100   1.100
                                                       1.100   1.100

     PseudoPot. # 3 for O  read from file:
     /home/camp/zhonxu/pseudo/o_pbe_v1.01.uspp.F.UPF
     MD5 check sum: 2bcb18d16ea4b960afae9ec6d52f22d2
     Pseudo is Ultrasoft + core correction, Zval =  6.0
     Generated by new atomic code, or converted to UPF format
     Using radial grid of  737 points,  5 beta functions with:
                l(1) =   0
                l(2) =   0
                l(3) =   1
                l(4) =   1
                l(5) =   2
     Q(r) pseudized with  8 coefficients,  rinner =    0.900   0.900   0.900
                                                       0.900   0.900

     atomic species   valence    mass     pseudopotential
        V0            13.00    50.94150     V ( 1.00)
        V1            13.00    50.94150     V ( 1.00)
        O2             6.00    15.99940     O ( 1.00)

     Starting magnetic structure
     atomic species   magnetization
        V0           0.600
        V1           0.600
        O2           0.000

     Simplified LDA+U calculation (l_max = 2) with parameters (eV):
     atomic species    L          U    alpha       J0     beta
        V0             2     0.0000   0.0700   0.0000   0.0000
        V1             2     0.0000   0.0000   0.0000   0.0000
        O2             1     0.0000   0.0000   0.0000   0.0000

      8 Sym. Ops., with inversion, found

   Cartesian axes

     site n.     atom                  positions (alat units)
         1           V0  tau(   1) = (   0.0000000   0.0000000   0.0000000  )
         2           V1  tau(   2) = (   0.2500000   0.2500000   0.1553611  )
         3           V1  tau(   3) = (   0.0000000   0.0000000   0.3107221  )
         4           V1  tau(   4) = (   0.2500000   0.2500000   0.4660832  )
         5           V1  tau(   5) = (   0.0000000   0.5000000   0.0000000  )
         6           V1  tau(   6) = (   0.2500000   0.7500000   0.1553611  )
         7           V1  tau(   7) = (   0.0000000   0.5000000   0.3107221  )
         8           V1  tau(   8) = (   0.2500000   0.7500000   0.4660832  )
         9           V1  tau(   9) = (   0.5000000   0.0000000   0.0000000  )
        10           V1  tau(  10) = (   0.7500000   0.2500000   0.1553611  )
        11           V1  tau(  11) = (   0.5000000   0.0000000   0.3107221  )
        12           V1  tau(  12) = (   0.7500000   0.2500000   0.4660832  )
        13           V1  tau(  13) = (   0.5000000   0.5000000   0.0000000  )
        14           V1  tau(  14) = (   0.7500000   0.7500000   0.1553611  )
        15           V1  tau(  15) = (   0.5000000   0.5000000   0.3107221  )
        16           V1  tau(  16) = (   0.7500000   0.7500000   0.4660832  )
        17           O2  tau(  17) = (   0.1500000   0.1500000   0.0000000  )
        18           O2  tau(  18) = (  -0.1500000  -0.1500000   0.0000000  )
        19           O2  tau(  19) = (   0.4000000   0.1000000   0.1553611  )
        20           O2  tau(  20) = (   0.1000000   0.4000000   0.1553611  )
        21           O2  tau(  21) = (   0.1500000   0.1500000   0.3107221  )
        22           O2  tau(  22) = (  -0.1500000  -0.1500000   0.3107221  )
        23           O2  tau(  23) = (   0.4000000   0.1000000   0.4660832  )
        24           O2  tau(  24) = (   0.1000000   0.4000000   0.4660832  )
        25           O2  tau(  25) = (   0.1500000   0.6500000   0.0000000  )
        26           O2  tau(  26) = (  -0.1500000   0.3500000   0.0000000  )
        27           O2  tau(  27) = (   0.4000000   0.6000000   0.1553611  )
        28           O2  tau(  28) = (   0.1000000   0.9000000   0.1553611  )
        29           O2  tau(  29) = (   0.1500000   0.6500000   0.3107221  )
        30           O2  tau(  30) = (  -0.1500000   0.3500000   0.3107221  )
        31           O2  tau(  31) = (   0.4000000   0.6000000   0.4660832  )
        32           O2  tau(  32) = (   0.1000000   0.9000000   0.4660832  )
        33           O2  tau(  33) = (   0.6500000   0.1500000   0.0000000  )
        34           O2  tau(  34) = (   0.3500000  -0.1500000   0.0000000  )
        35           O2  tau(  35) = (   0.9000000   0.1000000   0.1553611  )
        36           O2  tau(  36) = (   0.6000000   0.4000000   0.1553611  )
        37           O2  tau(  37) = (   0.6500000   0.1500000   0.3107221  )
        38           O2  tau(  38) = (   0.3500000  -0.1500000   0.3107221  )
        39           O2  tau(  39) = (   0.9000000   0.1000000   0.4660832  )
        40           O2  tau(  40) = (   0.6000000   0.4000000   0.4660832  )
        41           O2  tau(  41) = (   0.6500000   0.6500000   0.0000000  )
        42           O2  tau(  42) = (   0.3500000   0.3500000   0.0000000  )
        43           O2  tau(  43) = (   0.9000000   0.6000000   0.1553611  )
        44           O2  tau(  44) = (   0.6000000   0.9000000   0.1553611  )
        45           O2  tau(  45) = (   0.6500000   0.6500000   0.3107221  )
        46           O2  tau(  46) = (   0.3500000   0.3500000   0.3107221  )
        47           O2  tau(  47) = (   0.9000000   0.6000000   0.4660832  )
        48           O2  tau(  48) = (   0.6000000   0.9000000   0.4660832  )

     number of k points=    42  Methfessel-Paxton smearing, width (Ry)=  0.0100
                       cart. coord. in units 2pi/alat
        k(    1) = (   0.0000000   0.0000000   0.0000000), wk =   0.0156250
        k(    2) = (   0.0000000   0.0000000   0.4022887), wk =   0.0312500
        k(    3) = (   0.0000000   0.0000000  -0.8045775), wk =   0.0156250
        k(    4) = (   0.0000000   0.2500000   0.0000000), wk =   0.0625000
        k(    5) = (   0.0000000   0.2500000   0.4022887), wk =   0.1250000
        k(    6) = (   0.0000000   0.2500000  -0.8045775), wk =   0.0625000
        k(    7) = (   0.0000000  -0.5000000   0.0000000), wk =   0.0312500
        k(    8) = (   0.0000000  -0.5000000   0.4022887), wk =   0.0625000
        k(    9) = (   0.0000000  -0.5000000  -0.8045775), wk =   0.0312500
        k(   10) = (   0.2500000   0.2500000   0.0000000), wk =   0.0312500
        k(   11) = (   0.2500000   0.2500000   0.4022887), wk =   0.0625000
        k(   12) = (   0.2500000   0.2500000  -0.8045775), wk =   0.0312500
        k(   13) = (   0.2500000  -0.5000000   0.0000000), wk =   0.0625000
        k(   14) = (   0.2500000  -0.5000000   0.4022887), wk =   0.1250000
        k(   15) = (   0.2500000  -0.5000000  -0.8045775), wk =   0.0625000
        k(   16) = (  -0.5000000  -0.5000000   0.0000000), wk =   0.0156250
        k(   17) = (  -0.5000000  -0.5000000   0.4022887), wk =   0.0312500
        k(   18) = (  -0.5000000  -0.5000000  -0.8045775), wk =   0.0156250
        k(   19) = (  -0.2500000   0.2500000   0.0000000), wk =   0.0312500
        k(   20) = (  -0.2500000   0.2500000  -0.4022887), wk =   0.0625000
        k(   21) = (  -0.2500000   0.2500000   0.8045775), wk =   0.0312500
        k(   22) = (   0.0000000   0.0000000   0.0000000), wk =   0.0156250
        k(   23) = (   0.0000000   0.0000000   0.4022887), wk =   0.0312500
        k(   24) = (   0.0000000   0.0000000  -0.8045775), wk =   0.0156250
        k(   25) = (   0.0000000   0.2500000   0.0000000), wk =   0.0625000
        k(   26) = (   0.0000000   0.2500000   0.4022887), wk =   0.1250000
        k(   27) = (   0.0000000   0.2500000  -0.8045775), wk =   0.0625000
        k(   28) = (   0.0000000  -0.5000000   0.0000000), wk =   0.0312500
        k(   29) = (   0.0000000  -0.5000000   0.4022887), wk =   0.0625000
        k(   30) = (   0.0000000  -0.5000000  -0.8045775), wk =   0.0312500
        k(   31) = (   0.2500000   0.2500000   0.0000000), wk =   0.0312500
        k(   32) = (   0.2500000   0.2500000   0.4022887), wk =   0.0625000
        k(   33) = (   0.2500000   0.2500000  -0.8045775), wk =   0.0312500
        k(   34) = (   0.2500000  -0.5000000   0.0000000), wk =   0.0625000
        k(   35) = (   0.2500000  -0.5000000   0.4022887), wk =   0.1250000
        k(   36) = (   0.2500000  -0.5000000  -0.8045775), wk =   0.0625000
[...]
  0.877  0.887  0.888
    eigenvectors:
  0.000  1.000  0.000
  0.500  0.000  0.500
  0.500  0.000  0.500
    occupations:
  0.887 -0.000 -0.000
 -0.000  0.883  0.006
 -0.000  0.006  0.883
   spin  2
    eigenvalues:
  0.894  0.907  0.911
    eigenvectors:
  0.000  1.000  0.000
  0.500  0.000  0.500
  0.500  0.000  0.500
    occupations:
  0.907 -0.000 -0.000
 -0.000  0.903 -0.008
 -0.000 -0.008  0.903
atomic mag. moment =    -0.059612
atom   42   Tr[ns(na)] (up, down, total) =   2.65228  2.71190  5.36418
   spin  1
    eigenvalues:
  0.877  0.887  0.888
    eigenvectors:
  0.000  1.000  0.000
  0.500  0.000  0.500
  0.500  0.000  0.500
    occupations:
  0.887 -0.000 -0.000
 -0.000  0.883  0.006
 -0.000  0.006  0.883
   spin  2
    eigenvalues:
  0.894  0.907  0.911
    eigenvectors:
  0.000  1.000  0.000
  0.500  0.000  0.500
  0.500  0.000  0.500
    occupations:
  0.907 -0.000 -0.000
 -0.000  0.903 -0.008
 -0.000 -0.008  0.903
atomic mag. moment =    -0.059612
atom   43   Tr[ns(na)] (up, down, total) =   2.65231  2.71190  5.36421
   spin  1
    eigenvalues:
  0.877  0.887  0.888
    eigenvectors:
  0.000  1.000  0.000
  0.500  0.000  0.500
  0.500  0.000  0.500
    occupations:
  0.887 -0.000 -0.000
 -0.000  0.883 -0.006
 -0.000 -0.006  0.883
   spin  2
    eigenvalues:
  0.894  0.907  0.911
    eigenvectors:
  0.000  1.000  0.000
  0.500  0.000  0.500
  0.500  0.000  0.500
    occupations:
  0.907  0.000  0.000
  0.000  0.903  0.008
  0.000  0.008  0.903
atomic mag. moment =    -0.059597
atom   44   Tr[ns(na)] (up, down, total) =   2.65231  2.71190  5.36421
   spin  1
    eigenvalues:
  0.877  0.887  0.888
    eigenvectors:
  0.000  1.000  0.000
  0.500  0.000  0.500
  0.500  0.000  0.500
    occupations:
  0.887 -0.000 -0.000
 -0.000  0.883 -0.006
 -0.000 -0.006  0.883
   spin  2
    eigenvalues:
  0.894  0.907  0.911
    eigenvectors:
  0.000  1.000  0.000
  0.500  0.000  0.500
  0.500  0.000  0.500
    occupations:
  0.907  0.000  0.000
  0.000  0.903  0.008
  0.000  0.008  0.903
atomic mag. moment =    -0.059597
atom   45   Tr[ns(na)] (up, down, total) =   2.65229  2.71191  5.36420
   spin  1
    eigenvalues:
  0.877  0.887  0.888
    eigenvectors:
  0.000  1.000  0.000
  0.500  0.000  0.500
  0.500  0.000  0.500
    occupations:
  0.887 -0.000 -0.000
 -0.000  0.883  0.006
 -0.000  0.006  0.883
   spin  2
    eigenvalues:
  0.894  0.907  0.911
    eigenvectors:
  0.000  1.000  0.000
  0.500  0.000  0.500
  0.500  0.000  0.500
    occupations:
  0.907 -0.000 -0.000
 -0.000  0.903 -0.008
 -0.000 -0.008  0.903
atomic mag. moment =    -0.059618
atom   46   Tr[ns(na)] (up, down, total) =   2.65229  2.71191  5.36420
   spin  1
    eigenvalues:
  0.877  0.887  0.888
    eigenvectors:
  0.000  1.000  0.000
  0.500  0.000  0.500
  0.500  0.000  0.500
    occupations:
  0.887 -0.000 -0.000
 -0.000  0.883  0.006
 -0.000  0.006  0.883
   spin  2
    eigenvalues:
  0.894  0.907  0.911
    eigenvectors:
  0.000  1.000  0.000
  0.500  0.000  0.500
  0.500  0.000  0.500
    occupations:
  0.907 -0.000 -0.000
 -0.000  0.903 -0.008
 -0.000 -0.008  0.903
atomic mag. moment =    -0.059618
atom   47   Tr[ns(na)] (up, down, total) =   2.65231  2.71190  5.36421
   spin  1
    eigenvalues:
  0.877  0.887  0.888
    eigenvectors:
  0.000  1.000  0.000
  0.500  0.000  0.500
  0.500  0.000  0.500
    occupations:
  0.887  0.000  0.000
  0.000  0.883 -0.006
  0.000 -0.006  0.883
   spin  2
    eigenvalues:
  0.894  0.907  0.911
    eigenvectors:
  0.000  1.000  0.000
  0.500  0.000  0.500
  0.500  0.000  0.500
    occupations:
  0.907 -0.000 -0.000
 -0.000  0.903  0.008
 -0.000  0.008  0.903
atomic mag. moment =    -0.059597
atom   48   Tr[ns(na)] (up, down, total) =   2.65231  2.71190  5.36421
   spin  1
    eigenvalues:
  0.877  0.887  0.888
    eigenvectors:
  0.000  1.000  0.000
  0.500  0.000  0.500
  0.500  0.000  0.500
    occupations:
  0.887  0.000  0.000
  0.000  0.883 -0.006
  0.000 -0.006  0.883
   spin  2
    eigenvalues:
  0.894  0.907  0.911
    eigenvectors:
  0.000  1.000  0.000
  0.500  0.000  0.500
  0.500  0.000  0.500
    occupations:
  0.907 -0.000 -0.000
 -0.000  0.903  0.008
 -0.000  0.008  0.903
atomic mag. moment =    -0.059597
N of occupied +U levels = 243.4985377
 --- exit write_ns ---

 ------ SPIN UP ------------

          k = 0.0000 0.0000 0.0000 ( 13729 PWs)   bands (ev):

   -55.2271 -55.1739 -55.1703 -55.1702 -55.1702 -55.1702 -55.1701 -55.1666
   -55.1480 -55.1362 -55.1362 -55.1361 -55.1361 -55.1361 -55.1361 -55.1360
   -29.2887 -29.2546 -29.2546 -29.2545 -29.2528 -29.2515 -29.2514 -29.2512
   -29.0274 -29.0247 -29.0035 -29.0034 -28.9827 -28.9795 -28.9603 -28.9603
   -28.9602 -28.9576 -28.9573 -28.9572 -28.9434 -28.9393 -28.9294 -28.9291
   -28.9285 -28.9274 -28.9263 -28.9261 -28.9259 -28.9257 -28.9171 -28.9164
   -28.9136 -28.9120 -28.9081 -28.9080 -28.9080 -28.9080 -28.9080 -28.9031
   -28.8988 -28.8894 -28.8893 -28.8888 -28.8888 -28.8888 -28.8887 -28.8887
    -9.0723  -8.2961  -8.2961  -8.2960  -8.2958  -8.2764  -8.2742  -7.7668
    -7.7668  -7.7655  -7.7618  -7.6253  -7.5759  -7.5731  -7.4932  -7.4922
    -7.4775  -7.4748  -7.3670  -7.3660  -7.2856  -7.2855  -7.2777  -7.2776
    -7.2775  -7.2746  -7.1757  -7.1754  -7.1751  -7.1751  -7.1349  -7.1349
     3.1625   3.4875   3.4891   3.7651   3.9886   3.9890   3.9897   3.9927
     4.1029   4.1038   4.1043   4.1074   4.1789   4.3602   4.3635   4.3791
     4.3795   4.5569   4.5587   4.8908   4.8908   4.8924   4.8924   5.3437
     5.3465   5.4502   5.4504   5.4898   5.4910   5.5508   5.5520   5.5787
     5.5803   5.6305   5.6305   5.6305   5.6338   5.7837   5.7838   5.7840
     5.7846   5.8360   5.8362   5.8371   5.8383   6.0071   6.0073   6.0076
     6.0094   6.1206   6.1220   6.1548   6.1561   6.4650   6.4652   6.5349
     6.5353   6.8438   6.8439   6.8439   6.8444   6.8869   6.8887   6.9452
     6.9467   7.1308   7.1308   7.1320   7.1321   7.5104   7.7488   7.7493
     7.7493   7.7505   7.8149   7.8156   7.9877   7.9884   8.1757   8.1758
     8.2227   8.2230   8.4429   8.4429   8.4429   8.4432   8.7060   8.7065
     8.7513   8.7514   8.7514   8.7517   8.8809   9.0173   9.0174   9.4315
     9.9338   9.9612   9.9624  10.1021  10.1022  10.1030  10.1041  10.1664
    10.6141  10.6144  10.6300  10.6303  10.6303  10.6312  10.6328  10.6331
    10.7021  11.0201  11.0204  11.2374  11.2376  11.2377  11.2379  11.3382
    11.3385  11.4013  11.4016  11.4703  11.4714  11.4714  11.4715  11.4839
    11.4845  11.4878  11.4883  11.9199  11.9214  11.9214  11.9216  11.9870
    11.9875  12.2489  12.2490  12.2494  12.2496  12.3180  12.3188  12.7287
    12.8451  13.2572  13.2573  13.2582  13.2584  13.8940  13.8954  14.1851
    14.1857  14.4333  14.4350  14.5568  14.5597  14.5597  14.5599  14.6027
    14.6052  14.6065  14.6073  14.6703  14.6731  14.6731  14.6731  14.9771
    14.9785  14.9911  14.9922  15.7593  15.7598  15.7613  15.7614  16.1001
    17.7278  20.0924  20.0931  20.0936  20.0940  21.2964  21.2969  21.4250
    21.4252  21.6215  21.6221  22.2694  22.2700  22.2706  22.2708  22.4830
    22.4831  22.7043  22.7056  23.1083  23.1085  23.1091  23.1099  23.2457
    23.2465  24.1602  24.1604  24.1610  24.1614  24.4994  24.6668  24.6676
    25.0786  25.0789  25.2688  25.3167  25.3177  25.3811  25.5229  25.5238
    25.5243  25.5246  25.6249  25.6256  25.7623  25.7631  25.7638  25.7639
    26.9261  26.9266  26.9826  26.9843  26.9861  26.9884  26.9889  26.9893
    27.1262  27.1279  27.3325  27.4245  27.4252  27.4255  27.4264  27.5146
    27.5149  27.5154  27.5160  27.6002  27.6037  27.6044  27.6047  27.6851
    27.6852  28.3402  28.3407  28.3685  28.3699  28.9270  28.9286  28.9422
    28.9428  29.6455  29.6459  29.6472  29.6474  29.9171  29.9187  30.2750
    30.9565  31.3470  31.3487  31.7159  31.7166  32.2539  32.2541  32.2547
    32.2548  32.6083  32.6086  32.6090  32.6104  33.0039  33.0048  33.0081
    33.0109  33.0816  33.0858  33.0863  33.0865  33.1923  33.1942  33.1943
    33.1947  33.3054  33.3067  33.8190  33.8196  33.9109  34.0437  34.0463
    34.5765  34.8524  34.8526  35.2558  35.2574  35.2576  35.2581  35.5306
    35.5318  35.9165  35.9172  35.9189  35.9451  35.9462  35.9463  35.9469
    36.0158  36.4701  36.4720  37.0108  37.0116  37.2928  37.2929  37.3299
    37.3314  37.3528  37.3547  37.3555  37.3556  37.5044  37.5044  37.5709
    37.5712  37.5717  37.5725  37.7787  37.7800  37.7801  37.7806  38.2007
    38.2030  38.2032  38.2035  38.4400  38.4402  38.4403  38.4408  38.4409
    38.6591  38.6596  39.1798  39.1802  40.2835  40.2839  41.1118  41.1258
    41.1273  41.7298  41.7304  41.7402  41.7411  41.7894  41.9144  41.9150
    42.4124  42.4146  42.4157  42.4159  42.8831  42.8853  42.9237  42.9250
    42.9258  42.9260  43.0489  43.1420  43.1421  43.1427  43.1432  43.4120
    43.4125  43.4384  43.4388  43.4818  43.4832  43.4844  43.4845  43.6020
    43.6035  43.6862  43.6865  43.6870  43.6875  44.4958  44.6104  44.6119
    44.8358  44.8361  44.8643  44.8644  45.5241  45.5256  45.6586  45.6601
    45.6866  45.6873  45.6875  45.6886  45.7294  45.7851  45.7859  46.5253
    46.5263  46.5267  46.5267  46.6248  46.6251  46.6254  46.6255  46.6391
    46.6392  46.8579  46.8582  46.9720  46.9734  46.9743  46.9743  47.0769
    47.0774  47.2489  47.2512  47.4954  47.4971  47.4986  47.4987  47.6200
    47.8330  47.8333  47.8339  47.8350  47.8469  47.8479  47.9314  47.9333
    48.2898  48.2902  48.5170  48.5177  48.6132  48.6144  48.8231  48.8232
    48.8361  48.8369  48.8372  48.8373  49.3699  49.3712  49.4051  49.4066
    49.4072  49.4073  49.5882  50.0551  50.0552  50.0553  50.0556  50.0846
    50.0857  50.0911  50.0924  50.0931  50.0935  50.1922  50.1922  50.1926
    50.1928  50.2751  50.2757  50.4481  50.8281  50.8312  50.8315  50.8321
    50.8394  50.8402  51.3776  51.3792  51.5854  51.5868  52.0730  52.1390
    52.1415  52.2135  52.2142  52.2820  52.2822  52.2823  52.2827  52.3588
    52.3592  52.4902  52.5274  52.5287  52.5288  52.5290  53.2789  53.2790

[...]

          k =-0.5000-0.5000 0.0000 ( 13640 PWs)   bands (ev):

[...]

 ------ SPIN DOWN ----------

[...]

          k = 0.2500-0.5000-0.8046 ( 13684 PWs)   bands (ev):

[...]

          k =-0.2500 0.2500 0.8046 ( 13696 PWs)   bands (ev):

   -54.0630 -53.9982 -53.9979 -53.9967 -53.9967 -53.9965 -53.9962 -53.9959
   -53.9955 -53.9949 -53.9947 -53.9944 -53.9944 -53.9941 -53.9931 -53.9926
   -28.0471 -27.9881 -27.9877 -27.9871 -27.9865 -27.9861 -27.9850 -27.9827
   -27.9822 -27.9815 -27.9811 -27.9807 -27.9806 -27.9803 -27.9764 -27.9755
   -27.8704 -27.8446 -27.8259 -27.8241 -27.8222 -27.8159 -27.8152 -27.8137
   -27.8137 -27.8136 -27.8120 -27.8114 -27.8104 -27.7991 -27.7990 -27.7989
   -27.7862 -27.7648 -27.7648 -27.7647 -27.7646 -27.7533 -27.7529 -27.7519
   -27.7518 -27.7513 -27.7507 -27.7498 -27.7480 -27.7445 -27.7432 -27.7422
    -8.4350  -8.4345  -8.1571  -8.1566  -8.1563  -8.1562  -7.9982  -7.9980
    -7.8126  -7.8121  -7.7458  -7.7455  -7.7454  -7.7443  -7.4696  -7.4690
    -7.4621  -7.4609  -7.4477  -7.4470  -7.4386  -7.4385  -7.4326  -7.4323
    -7.4322  -7.4294  -7.4114  -7.4113  -7.4101  -7.4078  -7.3840  -7.3836
     4.2437   4.2440   4.2820   4.2823   4.4882   4.4885   4.4886   4.4899
     4.5408   4.5418   4.6407   4.6431   4.6950   4.6970   4.7378   4.7383
     4.8020   4.8025   4.8032   4.8034   4.8429   4.8436   4.9412   4.9424
     4.9426   4.9450   5.0297   5.0298   5.0299   5.0323   5.1621   5.1624
     5.5379   5.5393   5.7226   5.7233   5.7235   5.7260   5.8994   5.8998
     6.1179   6.1182   6.1184   6.1186   6.1975   6.1980   6.2720   6.2720
     6.2722   6.2739   6.5201   6.5203   6.5481   6.5484   6.8457   6.8465
     6.8659   6.8662   6.8663   6.8663   7.1412   7.1421   7.1425   7.1430
     7.1602   7.1613   7.1759   7.1759   7.4253   7.4259   7.4445   7.4451
     7.5868   7.5874   7.7166   7.7168   7.7174   7.7175   7.7912   7.7928
     8.0029   8.0036   8.0639   8.0643   8.2764   8.2765   8.2765   8.2772
     8.3534   8.3538   8.7044   8.7046   8.7047   8.7048   8.9603   8.9603
    11.5507  11.5511  11.7238  11.7238  11.7240  11.7253  11.8920  11.8921
    11.9520  11.9530  11.9635  11.9636  12.0902  12.0902  12.0903  12.0914
    12.1743  12.1745  12.2563  12.2563  12.2568  12.2575  12.2807  12.2810
    12.3258  12.3260  12.4425  12.4426  12.5451  12.5456  12.5824  12.5825
    12.5825  12.5827  12.6838  12.6841  12.8215  12.8216  12.8216  12.8217
    12.8561  12.8561  13.0722  13.0729  13.0729  13.0729  13.3373  13.3378
    14.0886  14.0900  14.0901  14.0901  14.2607  14.2608  14.4932  14.4958
    14.4959  14.4959  14.5086  14.5097  14.7988  14.7996  15.0845  15.0864
    15.0878  15.0883  15.0900  15.0904  15.3804  15.3810  15.3823  15.3823
    15.5762  15.5767  15.9393  15.9420  15.9424  15.9424  16.0071  16.0077
    19.8629  19.8637  20.7856  20.7864  20.7867  20.7872  21.3486  21.3491
    22.0811  22.0824  22.1801  22.1811  22.1813  22.1815  23.4101  23.4107
    23.6763  23.6771  23.7197  23.7214  24.2637  24.2638  24.2641  24.2648
    24.2836  24.2846  25.0427  25.0434  25.1077  25.1089  25.2430  25.2437
    25.2442  25.2454  25.4585  25.4595  25.4597  25.4607  25.6027  25.6039
    25.6762  25.6763  25.6874  25.6888  25.6889  25.6892  26.1875  26.1887
    26.9275  26.9290  26.9293  26.9296  27.2177  27.2187  27.2516  27.2520
    27.3530  27.3547  27.3557  27.3559  27.4149  27.4162  27.4975  27.4988
    27.8131  27.8143  27.8152  27.8154  28.2978  28.2988  28.3538  28.3557
    28.6336  28.6338  28.8373  28.8398  29.0350  29.0359  29.0366  29.0372
    29.2606  29.2616  29.6840  29.6846  29.6850  29.6868  29.7028  29.7028
    30.3624  30.3655  30.5507  30.5533  30.5534  30.5537  31.5362  31.5377
    31.7094  31.7099  31.7100  31.7113  32.1826  32.1832  32.5371  32.5394
    33.9061  33.9072  34.0672  34.0679  34.0682  34.0692  34.3177  34.3177
    34.4732  34.4745  34.7732  34.7743  35.0432  35.0444  35.0580  35.0593
    35.2150  35.2153  35.2155  35.2155  35.6756  35.6763  35.8031  35.8056
    35.8058  35.8061  36.1891  36.1894  36.1896  36.1897  36.3339  36.3349
    36.5561  36.5573  36.7126  36.7135  36.7137  36.7142  37.0890  37.0891
    37.4038  37.4048  37.8134  37.8141  37.8151  37.8157  38.2706  38.2737
    38.2738  38.2738  38.5402  38.5405  38.5996  38.5999  39.1251  39.1255
    39.2478  39.2498  39.2500  39.2506  39.2674  39.2676  39.3952  39.3961
    39.7562  39.7565  40.0950  40.0952  40.0955  40.0959  40.1557  40.1565
    40.2967  40.2973  40.2976  40.2978  40.9095  40.9102  41.1445  41.1451
    42.2305  42.2315  42.2323  42.2324  42.2435  42.2438  42.5619  42.5621
    42.8358  42.8364  42.9182  42.9187  42.9846  42.9850  42.9853  42.9855
    43.3426  43.3429  43.7435  43.7450  44.0543  44.0545  44.0546  44.0548
    44.7114  44.7127  44.7355  44.7369  44.7370  44.7377  45.1580  45.1599
    45.1613  45.1621  46.1642  46.1652  46.3376  46.3379  46.3385  46.3386
    46.3749  46.3752  46.4065  46.4065  46.4068  46.4079  46.4891  46.4900
    46.5214  46.5220  46.6863  46.6872  47.0031  47.0033  47.0043  47.0043
    47.3009  47.3013  48.0411  48.0412  48.1575  48.1586  48.1843  48.1844
    48.1846  48.1852  48.3412  48.3414  48.3423  48.3423  48.4329  48.4332
    48.8715  48.8721  48.9557  48.9566  48.9571  48.9580  49.3196  49.3217
    49.3221  49.3223  49.3767  49.3771  49.4831  49.4834  49.5328  49.5350
    49.5553  49.5555  49.5905  49.5907  49.8494  49.8500  49.8509  49.8510
    49.9301  49.9303  49.9311  49.9315  50.0168  50.0178  50.1785  50.1793
    50.1796  50.1800  50.2436  50.2439  50.3736  50.3742  50.3759  50.3765
    50.5370  50.5376  50.6863  50.6868  50.9243  50.9249  51.0238  51.0239
    51.0239  51.0240  51.2569  51.2576  51.2578  51.2581  51.3844  51.3862
    51.4994  51.4995  51.6151  51.6170  51.6172  51.6174  52.0332  52.0343
    52.0349  52.0351  52.1190  52.1200  52.5774  52.5778  52.7887  52.7890

     the Fermi energy is    10.9462 ev

!    total energy              =   -3356.36381232 Ry
     Harris-Foulkes estimate   =   -3356.36381247 Ry
     estimated scf accuracy    <       0.00000019 Ry

     The total energy is the sum of the following terms:

     one-electron contribution =   -1296.43532952 Ry
     hartree contribution      =     845.53008655 Ry
     xc contribution           =    -537.24243586 Ry
     ewald contribution        =   -2368.23960066 Ry
     Hubbard energy            =       0.02304111 Ry
     smearing contrib. (-TS)   =       0.00042608 Ry

     total magnetization       =    16.02 Bohr mag/cell
     absolute magnetization    =    19.67 Bohr mag/cell

     convergence has been achieved in  16 iterations

     Writing output data file pwscf.save

     General routines

     Parallel routines
     Hubbard U routines

   This run was terminated on:   7:59: 5  15Feb2014

   JOB DONE.