     Program PWSCF v.5.0.2 (svn rev. 9656) starts on 14Feb2014 at 16: 6:41

     Current dimensions of program PWSCF are:
     Max number of different atomic species (ntypx) = 10
     Max number of k-points (npk) =  40000
     Max angular momentum in pseudopotentials (lmaxx) =  3
     Reading input from alpha_-0.07/alpha_-0.07.in
Warning: card &IONS ignored
Warning: card / ignored
Warning: card &CELL ignored
Warning: card / ignored

     Subspace diagonalization in iterative solution of the eigenvalue problem:
     a serial algorithm will be used

     bravais-lattice index     =            0
     lattice parameter (alat)  =      17.2721  a.u.
     unit-cell volume          =    3202.1180 (a.u.)^3
     number of atoms/cell      =           48
     number of atomic types    =            3
     number of electrons       =       400.00
     number of Kohn-Sham states=          600
     kinetic-energy cutoff     =      40.0000  Ry
     charge density cutoff     =     500.0000  Ry
     convergence threshold     =      1.0E-06
     mixing beta               =       0.7000
     number of iterations used =            8  plain     mixing
     Exchange-correlation      = SLA  PW   PBE  PBE ( 1 4 3 4 0)
     EXX-fraction              =        0.00

     celldm(1)=  17.272097  celldm(2)=   0.000000  celldm(3)=   0.000000
     celldm(4)=   0.000000  celldm(5)=   0.000000  celldm(6)=   0.000000

     crystal axes: (cart. coord. in units of alat)
               a(1) = (   1.000000   0.000000   0.000000 )
               a(2) = (   0.000000   1.000000   0.000000 )
               a(3) = (   0.000000   0.000000   0.621444 )

     reciprocal axes: (cart. coord. in units 2 pi/alat)
               b(1) = (  1.000000  0.000000  0.000000 )
               b(2) = (  0.000000  1.000000  0.000000 )
               b(3) = (  0.000000  0.000000  1.609155 )

     PseudoPot. # 1 for V  read from file:
     /home/camp/zhonxu/pseudo/v_pbe_v1.uspp.F.UPF
     MD5 check sum: f3d00ac417565f5fd6449f790f2b64f9
     Pseudo is Ultrasoft + core correction, Zval = 13.0
     Generated by new atomic code, or converted to UPF format
     Using radial grid of  853 points,  6 beta functions with:
                l(1) =   0
                l(2) =   0
                l(3) =   1
                l(4) =   1
                l(5) =   2
                l(6) =   2
     Q(r) pseudized with  6 coefficients,  rinner =    1.100   1.100   1.100
                                                       1.100   1.100

     PseudoPot. # 2 for V  read from file:
     /home/camp/zhonxu/pseudo/v_pbe_v1.uspp.F.UPF
     MD5 check sum: f3d00ac417565f5fd6449f790f2b64f9
     Pseudo is Ultrasoft + core correction, Zval = 13.0
     Generated by new atomic code, or converted to UPF format
     Using radial grid of  853 points,  6 beta functions with:
                l(1) =   0
                l(2) =   0
                l(3) =   1
                l(4) =   1
                l(5) =   2
                l(6) =   2
     Q(r) pseudized with  6 coefficients,  rinner =    1.100   1.100   1.100
                                                       1.100   1.100

     PseudoPot. # 3 for O  read from file:
     /home/camp/zhonxu/pseudo/o_pbe_v1.01.uspp.F.UPF
     MD5 check sum: 2bcb18d16ea4b960afae9ec6d52f22d2
     Pseudo is Ultrasoft + core correction, Zval =  6.0
     Generated by new atomic code, or converted to UPF format
     Using radial grid of  737 points,  5 beta functions with:
                l(1) =   0
                l(2) =   0
                l(3) =   1
                l(4) =   1
                l(5) =   2
     Q(r) pseudized with  8 coefficients,  rinner =    0.900   0.900   0.900
                                                       0.900   0.900

     atomic species   valence    mass     pseudopotential
        V0            13.00    50.94150     V ( 1.00)
        V1            13.00    50.94150     V ( 1.00)
        O2             6.00    15.99940     O ( 1.00)

     Starting magnetic structure
     atomic species   magnetization
        V0           0.600
        V1           0.600
        O2           0.000

     Simplified LDA+U calculation (l_max = 2) with parameters (eV):
     atomic species    L          U    alpha       J0     beta
        V0             2     0.0000  -0.0700   0.0000   0.0000
        V1             2     0.0000   0.0000   0.0000   0.0000
        O2             1     0.0000   0.0000   0.0000   0.0000

      8 Sym. Ops., with inversion, found

   Cartesian axes

     site n.     atom                  positions (alat units)
         1           V0  tau(   1) = (   0.0000000   0.0000000   0.0000000  )
         2           V1  tau(   2) = (   0.2500000   0.2500000   0.1553611  )
         3           V1  tau(   3) = (   0.0000000   0.0000000   0.3107221  )
         4           V1  tau(   4) = (   0.2500000   0.2500000   0.4660832  )
         5           V1  tau(   5) = (   0.0000000   0.5000000   0.0000000  )
         6           V1  tau(   6) = (   0.2500000   0.7500000   0.1553611  )
         7           V1  tau(   7) = (   0.0000000   0.5000000   0.3107221  )
         8           V1  tau(   8) = (   0.2500000   0.7500000   0.4660832  )
         9           V1  tau(   9) = (   0.5000000   0.0000000   0.0000000  )
        10           V1  tau(  10) = (   0.7500000   0.2500000   0.1553611  )
        11           V1  tau(  11) = (   0.5000000   0.0000000   0.3107221  )
        12           V1  tau(  12) = (   0.7500000   0.2500000   0.4660832  )
        13           V1  tau(  13) = (   0.5000000   0.5000000   0.0000000  )
        14           V1  tau(  14) = (   0.7500000   0.7500000   0.1553611  )
        15           V1  tau(  15) = (   0.5000000   0.5000000   0.3107221  )
        16           V1  tau(  16) = (   0.7500000   0.7500000   0.4660832  )
        17           O2  tau(  17) = (   0.1500000   0.1500000   0.0000000  )
        18           O2  tau(  18) = (  -0.1500000  -0.1500000   0.0000000  )
        19           O2  tau(  19) = (   0.4000000   0.1000000   0.1553611  )
        20           O2  tau(  20) = (   0.1000000   0.4000000   0.1553611  )
        21           O2  tau(  21) = (   0.1500000   0.1500000   0.3107221  )
        22           O2  tau(  22) = (  -0.1500000  -0.1500000   0.3107221  )
        23           O2  tau(  23) = (   0.4000000   0.1000000   0.4660832  )
        24           O2  tau(  24) = (   0.1000000   0.4000000   0.4660832  )
        25           O2  tau(  25) = (   0.1500000   0.6500000   0.0000000  )
        26           O2  tau(  26) = (  -0.1500000   0.3500000   0.0000000  )
        27           O2  tau(  27) = (   0.4000000   0.6000000   0.1553611  )
        28           O2  tau(  28) = (   0.1000000   0.9000000   0.1553611  )
        29           O2  tau(  29) = (   0.1500000   0.6500000   0.3107221  )
        30           O2  tau(  30) = (  -0.1500000   0.3500000   0.3107221  )
        31           O2  tau(  31) = (   0.4000000   0.6000000   0.4660832  )
        32           O2  tau(  32) = (   0.1000000   0.9000000   0.4660832  )
        33           O2  tau(  33) = (   0.6500000   0.1500000   0.0000000  )
        34           O2  tau(  34) = (   0.3500000  -0.1500000   0.0000000  )
        35           O2  tau(  35) = (   0.9000000   0.1000000   0.1553611  )
        36           O2  tau(  36) = (   0.6000000   0.4000000   0.1553611  )
        37           O2  tau(  37) = (   0.6500000   0.1500000   0.3107221  )
        38           O2  tau(  38) = (   0.3500000  -0.1500000   0.3107221  )
        39           O2  tau(  39) = (   0.9000000   0.1000000   0.4660832  )
        40           O2  tau(  40) = (   0.6000000   0.4000000   0.4660832  )
        41           O2  tau(  41) = (   0.6500000   0.6500000   0.0000000  )
        42           O2  tau(  42) = (   0.3500000   0.3500000   0.0000000  )
        43           O2  tau(  43) = (   0.9000000   0.6000000   0.1553611  )
        44           O2  tau(  44) = (   0.6000000   0.9000000   0.1553611  )
        45           O2  tau(  45) = (   0.6500000   0.6500000   0.3107221  )
        46           O2  tau(  46) = (   0.3500000   0.3500000   0.3107221  )
        47           O2  tau(  47) = (   0.9000000   0.6000000   0.4660832  )
        48           O2  tau(  48) = (   0.6000000   0.9000000   0.4660832  )

     number of k points=    42  Methfessel-Paxton smearing, width (Ry)=  0.0100
                       cart. coord. in units 2pi/alat
        k(    1) = (   0.0000000   0.0000000   0.0000000), wk =   0.0156250
        k(    2) = (   0.0000000   0.0000000   0.4022887), wk =   0.0312500
        k(    3) = (   0.0000000   0.0000000  -0.8045775), wk =   0.0156250
        k(    4) = (   0.0000000   0.2500000   0.0000000), wk =   0.0625000
        k(    5) = (   0.0000000   0.2500000   0.4022887), wk =   0.1250000
        k(    6) = (   0.0000000   0.2500000  -0.8045775), wk =   0.0625000
        k(    7) = (   0.0000000  -0.5000000   0.0000000), wk =   0.0312500
        k(    8) = (   0.0000000  -0.5000000   0.4022887), wk =   0.0625000
        k(    9) = (   0.0000000  -0.5000000  -0.8045775), wk =   0.0312500
        k(   10) = (   0.2500000   0.2500000   0.0000000), wk =   0.0312500
        k(   11) = (   0.2500000   0.2500000   0.4022887), wk =   0.0625000
        k(   12) = (   0.2500000   0.2500000  -0.8045775), wk =   0.0312500
        k(   13) = (   0.2500000  -0.5000000   0.0000000), wk =   0.0625000
        k(   14) = (   0.2500000  -0.5000000   0.4022887), wk =   0.1250000
        k(   15) = (   0.2500000  -0.5000000  -0.8045775), wk =   0.0625000
        k(   16) = (  -0.5000000  -0.5000000   0.0000000), wk =   0.0156250
        k(   17) = (  -0.5000000  -0.5000000   0.4022887), wk =   0.0312500
        k(   18) = (  -0.5000000  -0.5000000  -0.8045775), wk =   0.0156250
        k(   19) = (  -0.2500000   0.2500000   0.0000000), wk =   0.0312500
        k(   20) = (  -0.2500000   0.2500000  -0.4022887), wk =   0.0625000
        k(   21) = (  -0.2500000   0.2500000   0.8045775), wk =   0.0312500
        k(   22) = (   0.0000000   0.0000000   0.0000000), wk =   0.0156250
        k(   23) = (   0.0000000   0.0000000   0.4022887), wk =   0.0312500
        k(   24) = (   0.0000000   0.0000000  -0.8045775), wk =   0.0156250
        k(   25) = (   0.0000000   0.2500000   0.0000000), wk =   0.0625000
        k(   26) = (   0.0000000   0.2500000   0.4022887), wk =   0.1250000
        k(   27) = (   0.0000000   0.2500000  -0.8045775), wk =   0.0625000
        k(   28) = (   0.0000000  -0.5000000   0.0000000), wk =   0.0312500
        k(   29) = (   0.0000000  -0.5000000   0.4022887), wk =   0.0625000
        k(   30) = (   0.0000000  -0.5000000  -0.8045775), wk =   0.0312500
        k(   31) = (   0.2500000   0.2500000   0.0000000), wk =   0.0312500
        k(   32) = (   0.2500000   0.2500000   0.4022887), wk =   0.0625000
        k(   33) = (   0.2500000   0.2500000  -0.8045775), wk =   0.0312500
        k(   34) = (   0.2500000  -0.5000000   0.0000000), wk =   0.0625000
        k(   35) = (   0.2500000  -0.5000000   0.4022887), wk =   0.1250000
        k(   36) = (   0.2500000  -0.5000000  -0.8045775), wk =   0.0625000
[...]
  0.877  0.887  0.888
    eigenvectors:
  0.000  1.000  0.000
  0.500  0.000  0.500
  0.500  0.000  0.500
    occupations:
  0.887 -0.000 -0.000
 -0.000  0.883  0.006
 -0.000  0.006  0.883
   spin  2
    eigenvalues:
  0.894  0.907  0.911
    eigenvectors:
  0.000  1.000  0.000
  0.500  0.000  0.500
  0.500  0.000  0.500
    occupations:
  0.907 -0.000 -0.000
 -0.000  0.903 -0.008
 -0.000 -0.008  0.903
atomic mag. moment =    -0.059579
atom   42   Tr[ns(na)] (up, down, total) =   2.65231  2.71189  5.36421
   spin  1
    eigenvalues:
  0.877  0.887  0.888
    eigenvectors:
  0.000  1.000  0.000
  0.500  0.000  0.500
  0.500  0.000  0.500
    occupations:
  0.887 -0.000 -0.000
 -0.000  0.883  0.006
 -0.000  0.006  0.883
   spin  2
    eigenvalues:
  0.894  0.907  0.911
    eigenvectors:
  0.000  1.000  0.000
  0.500  0.000  0.500
  0.500  0.000  0.500
    occupations:
  0.907 -0.000 -0.000
 -0.000  0.903 -0.008
 -0.000 -0.008  0.903
atomic mag. moment =    -0.059579
atom   43   Tr[ns(na)] (up, down, total) =   2.65231  2.71189  5.36421
   spin  1
    eigenvalues:
  0.877  0.887  0.888
    eigenvectors:
  0.000  1.000  0.000
  0.500  0.000  0.500
  0.500  0.000  0.500
    occupations:
  0.887  0.000 -0.000
  0.000  0.883 -0.006
 -0.000 -0.006  0.883
   spin  2
    eigenvalues:
  0.894  0.907  0.911
    eigenvectors:
  0.000  1.000  0.000
  0.500  0.000  0.500
  0.500  0.000  0.500
    occupations:
  0.907 -0.000 -0.000
 -0.000  0.903  0.008
 -0.000  0.008  0.903
atomic mag. moment =    -0.059577
atom   44   Tr[ns(na)] (up, down, total) =   2.65231  2.71189  5.36421
   spin  1
    eigenvalues:
  0.877  0.887  0.888
    eigenvectors:
  0.000  1.000  0.000
  0.500  0.000  0.500
  0.500  0.000  0.500
    occupations:
  0.887 -0.000  0.000
 -0.000  0.883 -0.006
  0.000 -0.006  0.883
   spin  2
    eigenvalues:
  0.894  0.907  0.911
    eigenvectors:
  0.000  1.000  0.000
  0.500  0.000  0.500
  0.500  0.000  0.500
    occupations:
  0.907 -0.000 -0.000
 -0.000  0.903  0.008
 -0.000  0.008  0.903
atomic mag. moment =    -0.059577
atom   45   Tr[ns(na)] (up, down, total) =   2.65227  2.71185  5.36412
   spin  1
    eigenvalues:
  0.877  0.887  0.888
    eigenvectors:
  0.000  1.000  0.000
  0.500  0.000  0.500
  0.500  0.000  0.500
    occupations:
  0.887 -0.000 -0.000
 -0.000  0.883  0.006
 -0.000  0.006  0.883
   spin  2
    eigenvalues:
  0.894  0.907  0.911
    eigenvectors:
  0.000  1.000  0.000
  0.500  0.000  0.500
  0.500  0.000  0.500
    occupations:
  0.907 -0.000 -0.000
 -0.000  0.903 -0.008
 -0.000 -0.008  0.903
atomic mag. moment =    -0.059584
atom   46   Tr[ns(na)] (up, down, total) =   2.65227  2.71185  5.36412
   spin  1
    eigenvalues:
  0.877  0.887  0.888
    eigenvectors:
  0.000  1.000  0.000
  0.500  0.000  0.500
  0.500  0.000  0.500
    occupations:
  0.887 -0.000 -0.000
 -0.000  0.883  0.006
 -0.000  0.006  0.883
   spin  2
    eigenvalues:
  0.894  0.907  0.911
    eigenvectors:
  0.000  1.000  0.000
  0.500  0.000  0.500
  0.500  0.000  0.500
    occupations:
  0.907 -0.000 -0.000
 -0.000  0.903 -0.008
 -0.000 -0.008  0.903
atomic mag. moment =    -0.059584
atom   47   Tr[ns(na)] (up, down, total) =   2.65231  2.71189  5.36421
   spin  1
    eigenvalues:
  0.877  0.887  0.888
    eigenvectors:
  0.000  1.000  0.000
  0.500  0.000  0.500
  0.500  0.000  0.500
    occupations:
  0.887 -0.000  0.000
 -0.000  0.883 -0.006
  0.000 -0.006  0.883
   spin  2
    eigenvalues:
  0.894  0.907  0.911
    eigenvectors:
  0.000  1.000  0.000
  0.500  0.000  0.500
  0.500  0.000  0.500
    occupations:
  0.907  0.000  0.000
  0.000  0.903  0.008
  0.000  0.008  0.903
atomic mag. moment =    -0.059577
atom   48   Tr[ns(na)] (up, down, total) =   2.65231  2.71189  5.36421
   spin  1
    eigenvalues:
  0.877  0.887  0.888
    eigenvectors:
  0.000  1.000  0.000
  0.500  0.000  0.500
  0.500  0.000  0.500
    occupations:
  0.887  0.000 -0.000
  0.000  0.883 -0.006
 -0.000 -0.006  0.883
   spin  2
    eigenvalues:
  0.894  0.907  0.911
    eigenvectors:
  0.000  1.000  0.000
  0.500  0.000  0.500
  0.500  0.000  0.500
    occupations:
  0.907  0.000  0.000
  0.000  0.903  0.008
  0.000  0.008  0.903
atomic mag. moment =    -0.059577
N of occupied +U levels = 243.5087755
 --- exit write_ns ---

 ------ SPIN UP ------------

          k = 0.0000 0.0000 0.0000 ( 13729 PWs)   bands (ev):

   -55.1764 -55.1728 -55.1726 -55.1726 -55.1726 -55.1725 -55.1691 -55.1600
   -55.1387 -55.1387 -55.1385 -55.1385 -55.1385 -55.1384 -55.1384 -55.0812
   -29.2570 -29.2568 -29.2568 -29.2553 -29.2539 -29.2539 -29.2536 -29.2256
   -29.0080 -29.0079 -28.9999 -28.9995 -28.9627 -28.9627 -28.9626 -28.9601
   -28.9597 -28.9597 -28.9532 -28.9522 -28.9318 -28.9316 -28.9309 -28.9298
   -28.9287 -28.9285 -28.9285 -28.9204 -28.9197 -28.9172 -28.9150 -28.9113
   -28.9106 -28.9104 -28.9104 -28.9104 -28.9103 -28.9020 -28.8918 -28.8918
   -28.8912 -28.8912 -28.8911 -28.8911 -28.8910 -28.8727 -28.8698 -28.8424
    -9.0740  -8.2984  -8.2981  -8.2981  -8.2980  -8.2805  -8.2784  -7.7743
    -7.7704  -7.7692  -7.7691  -7.6304  -7.5808  -7.5779  -7.4959  -7.4950
    -7.4819  -7.4795  -7.3698  -7.3688  -7.2874  -7.2874  -7.2826  -7.2798
    -7.2798  -7.2795  -7.1775  -7.1774  -7.1771  -7.1768  -7.1368  -7.1368
     3.1590   3.4835   3.4852   3.7599   3.9823   3.9853   3.9861   3.9864
     4.0983   4.1010   4.1016   4.1026   4.1719   4.3556   4.3588   4.3773
     4.3777   4.5534   4.5552   4.8870   4.8871   4.8884   4.8885   5.3392
     5.3420   5.4483   5.4485   5.4855   5.4869   5.5466   5.5480   5.5753
     5.5768   5.6252   5.6281   5.6282   5.6282   5.7823   5.7828   5.7830
     5.7832   5.8317   5.8330   5.8339   5.8341   6.0030   6.0047   6.0050
     6.0052   6.1180   6.1194   6.1523   6.1536   6.4633   6.4635   6.5334
     6.5338   6.8421   6.8426   6.8426   6.8427   6.8825   6.8844   6.9413
     6.9427   7.1272   7.1272   7.1284   7.1285   7.5086   7.7459   7.7469
     7.7470   7.7476   7.8126   7.8134   7.9845   7.9851   8.1738   8.1739
     8.2208   8.2211   8.4404   8.4407   8.4407   8.4408   8.7037   8.7042
     8.7487   8.7490   8.7491   8.7491   8.8788   9.0151   9.0151   9.4285
     9.9304   9.9579   9.9590  10.0981  10.0992  10.0999  10.0999  10.1635
    10.6114  10.6117  10.6273  10.6278  10.6280  10.6283  10.6302  10.6305
    10.6991  11.0174  11.0177  11.2353  11.2354  11.2357  11.2361  11.3360
    11.3362  11.3995  11.3998  11.4689  11.4691  11.4691  11.4703  11.4822
    11.4827  11.4859  11.4867  11.9190  11.9192  11.9192  11.9209  11.9853
    11.9858  12.2472  12.2474  12.2480  12.2481  12.3163  12.3171  12.7273
    12.8446  13.2560  13.2562  13.2573  13.2574  13.8935  13.8948  14.1842
    14.1848  14.4328  14.4343  14.5573  14.5574  14.5575  14.5607  14.6030
    14.6034  14.6050  14.6073  14.6706  14.6708  14.6709  14.6742  14.9766
    14.9777  14.9903  14.9918  15.7590  15.7591  15.7609  15.7613  16.1000
    17.7269  20.0914  20.0918  20.0923  20.0930  21.2950  21.2954  21.4248
    21.4250  21.6205  21.6212  22.2688  22.2690  22.2696  22.2702  22.4820
    22.4821  22.7039  22.7051  23.1079  23.1088  23.1093  23.1096  23.2460
    23.2468  24.1590  24.1595  24.1600  24.1602  24.4976  24.6665  24.6673
    25.0771  25.0774  25.2698  25.3159  25.3169  25.3814  25.5226  25.5229
    25.5234  25.5244  25.6247  25.6254  25.7620  25.7621  25.7628  25.7636
    26.9261  26.9265  26.9822  26.9838  26.9874  26.9880  26.9884  26.9907
    27.1260  27.1277  27.3320  27.4244  27.4253  27.4256  27.4263  27.5147
    27.5154  27.5159  27.5160  27.6024  27.6026  27.6034  27.6073  27.6855
    27.6855  28.3409  28.3415  28.3695  28.3709  28.9274  28.9290  28.9419
    28.9425  29.6459  29.6461  29.6475  29.6478  29.9185  29.9202  30.2743
    30.9576  31.3470  31.3486  31.7165  31.7171  32.2532  32.2533  32.2540
    32.2542  32.6084  32.6097  32.6102  32.6105  33.0034  33.0043  33.0090
    33.0115  33.0843  33.0846  33.0851  33.0898  33.1934  33.1938  33.1939
    33.1959  33.3057  33.3070  33.8189  33.8195  33.9101  34.0442  34.0467
    34.5775  34.8518  34.8519  35.2565  35.2569  35.2573  35.2589  35.5306
    35.5317  35.9157  35.9173  35.9189  35.9450  35.9456  35.9458  35.9469
    36.0170  36.4707  36.4726  37.0109  37.0116  37.2930  37.2930  37.3294
    37.3310  37.3539  37.3540  37.3548  37.3569  37.5043  37.5044  37.5711
    37.5719  37.5724  37.5728  37.7788  37.7794  37.7794  37.7808  38.2020
    38.2022  38.2025  38.2048  38.4398  38.4401  38.4404  38.4407  38.4420
    38.6593  38.6598  39.1791  39.1795  40.2836  40.2841  41.1127  41.1261
    41.1277  41.7308  41.7315  41.7406  41.7414  41.7906  41.9143  41.9149
    42.4137  42.4139  42.4151  42.4174  42.8833  42.8854  42.9242  42.9243
    42.9253  42.9265  43.0479  43.1415  43.1420  43.1426  43.1427  43.4114
    43.4119  43.4385  43.4389  43.4830  43.4831  43.4844  43.4857  43.6020
    43.6036  43.6858  43.6863  43.6868  43.6871  44.4960  44.6105  44.6119
    44.8365  44.8368  44.8643  44.8644  45.5241  45.5256  45.6590  45.6606
    45.6865  45.6876  45.6879  45.6886  45.7294  45.7845  45.7853  46.5258
    46.5258  46.5262  46.5272  46.6242  46.6244  46.6246  46.6249  46.6390
    46.6390  46.8581  46.8585  46.9725  46.9725  46.9734  46.9749  47.0769
    47.0774  47.2495  47.2518  47.4970  47.4971  47.4987  47.5003  47.6201
    47.8329  47.8340  47.8346  47.8350  47.8468  47.8478  47.9315  47.9335
    48.2893  48.2898  48.5163  48.5170  48.6131  48.6142  48.8240  48.8241
    48.8365  48.8366  48.8368  48.8377  49.3699  49.3713  49.4060  49.4062
    49.4068  49.4083  49.5883  50.0551  50.0553  50.0554  50.0556  50.0849
    50.0861  50.0919  50.0923  50.0931  50.0944  50.1919  50.1921  50.1926
    50.1926  50.2748  50.2753  50.4492  50.8300  50.8307  50.8311  50.8342
    50.8386  50.8394  51.3773  51.3789  51.5860  51.5874  52.0720  52.1397
    52.1422  52.2131  52.2138  52.2820  52.2824  52.2825  52.2828  52.3584
    52.3587  52.4899  52.5273  52.5276  52.5276  52.5291  53.2780  53.2787

[...]

          k =-0.5000-0.5000 0.0000 ( 13640 PWs)   bands (ev):

[...]

 ------ SPIN DOWN ----------

[...]

          k = 0.2500-0.5000-0.8046 ( 13684 PWs)   bands (ev):

[...]

          k =-0.2500 0.2500 0.8046 ( 13696 PWs)   bands (ev):

   -54.0007 -54.0003 -53.9992 -53.9991 -53.9991 -53.9986 -53.9984 -53.9978
   -53.9974 -53.9970 -53.9969 -53.9968 -53.9967 -53.9954 -53.9952 -53.9299
   -27.9910 -27.9901 -27.9891 -27.9889 -27.9887 -27.9876 -27.9858 -27.9846
   -27.9838 -27.9836 -27.9835 -27.9830 -27.9830 -27.9790 -27.9782 -27.9213
   -27.8282 -27.8267 -27.8244 -27.8181 -27.8181 -27.8175 -27.8159 -27.8158
   -27.8155 -27.8144 -27.8134 -27.8085 -27.8016 -27.8014 -27.8009 -27.7693
   -27.7671 -27.7669 -27.7668 -27.7663 -27.7561 -27.7552 -27.7545 -27.7544
   -27.7542 -27.7530 -27.7527 -27.7467 -27.7456 -27.7444 -27.7223 -27.6956
    -8.4370  -8.4366  -8.1588  -8.1588  -8.1586  -8.1580  -8.0017  -8.0014
    -7.8156  -7.8150  -7.7490  -7.7480  -7.7478  -7.7477  -7.4714  -7.4711
    -7.4670  -7.4655  -7.4517  -7.4513  -7.4431  -7.4424  -7.4367  -7.4346
    -7.4346  -7.4345  -7.4162  -7.4142  -7.4136  -7.4136  -7.3859  -7.3856
     4.2409   4.2413   4.2792   4.2796   4.4850   4.4863   4.4863   4.4867
     4.5380   4.5390   4.6364   4.6390   4.6910   4.6931   4.7347   4.7351
     4.7983   4.7984   4.7992   4.7997   4.8386   4.8394   4.9378   4.9401
     4.9402   4.9415   5.0251   5.0273   5.0275   5.0276   5.1582   5.1584
     5.5336   5.5350   5.7183   5.7208   5.7210   5.7217   5.8971   5.8975
     6.1148   6.1150   6.1150   6.1154   6.1941   6.1946   6.2677   6.2694
     6.2696   6.2696   6.5180   6.5180   6.5460   6.5461   6.8422   6.8431
     6.8639   6.8640   6.8640   6.8644   7.1390   7.1396   7.1398   7.1407
     7.1586   7.1597   7.1736   7.1737   7.4235   7.4241   7.4425   7.4431
     7.5827   7.5834   7.7138   7.7139   7.7145   7.7147   7.7875   7.7890
     8.0003   8.0010   8.0613   8.0618   8.2734   8.2741   8.2741   8.2741
     8.3510   8.3513   8.7019   8.7020   8.7021   8.7022   8.9578   8.9580
    11.5471  11.5475  11.7199  11.7211  11.7213  11.7213  11.8895  11.8896
    11.9487  11.9497  11.9612  11.9613  12.0869  12.0878  12.0879  12.0879
    12.1715  12.1716  12.2530  12.2538  12.2538  12.2539  12.2778  12.2780
    12.3234  12.3236  12.4402  12.4403  12.5421  12.5426  12.5801  12.5803
    12.5803  12.5804  12.6810  12.6812  12.8194  12.8194  12.8196  12.8197
    12.8540  12.8540  13.0705  13.0706  13.0708  13.0715  13.3357  13.3362
    14.0878  14.0878  14.0880  14.0894  14.2593  14.2595  14.4935  14.4937
    14.4938  14.4960  14.5074  14.5090  14.7986  14.7994  15.0842  15.0861
    15.0861  15.0864  15.0882  15.0887  15.3800  15.3800  15.3814  15.3821
    15.5753  15.5759  15.9401  15.9401  15.9406  15.9432  16.0066  16.0073
    19.8619  19.8628  20.7845  20.7851  20.7852  20.7861  21.3476  21.3480
    22.0797  22.0810  22.1794  22.1795  22.1798  22.1808  23.4092  23.4098
    23.6762  23.6771  23.7195  23.7211  24.2628  24.2635  24.2638  24.2639
    24.2828  24.2838  25.0424  25.0431  25.1073  25.1085  25.2431  25.2443
    25.2447  25.2455  25.4584  25.4593  25.4596  25.4606  25.6019  25.6031
    25.6762  25.6763  25.6870  25.6874  25.6874  25.6889  26.1873  26.1885
    26.9276  26.9280  26.9282  26.9297  27.2174  27.2184  27.2511  27.2515
    27.3542  27.3544  27.3553  27.3571  27.4156  27.4170  27.4971  27.4985
    27.8138  27.8140  27.8149  27.8161  28.2975  28.2984  28.3549  28.3569
    28.6332  28.6334  28.8377  28.8402  29.0354  29.0360  29.0366  29.0376
    29.2614  29.2625  29.6849  29.6865  29.6871  29.6877  29.7020  29.7020
    30.3640  30.3671  30.5519  30.5521  30.5523  30.5549  31.5364  31.5379
    31.7093  31.7107  31.7107  31.7113  32.1840  32.1845  32.5381  32.5405
    33.9066  33.9077  34.0678  34.0689  34.0691  34.0699  34.3173  34.3173
    34.4746  34.4760  34.7730  34.7741  35.0430  35.0443  35.0579  35.0591
    35.2144  35.2144  35.2146  35.2148  35.6761  35.6768  35.8043  35.8044
    35.8047  35.8072  36.1888  36.1889  36.1891  36.1894  36.3343  36.3352
    36.5572  36.5584  36.7127  36.7133  36.7135  36.7144  37.0884  37.0885
    37.4037  37.4048  37.8138  37.8144  37.8154  37.8161  38.2732  38.2733
    38.2733  38.2765  38.5396  38.5399  38.5986  38.5988  39.1253  39.1257
    39.2491  39.2498  39.2499  39.2519  39.2681  39.2683  39.3960  39.3969
    39.7564  39.7566  40.0941  40.0945  40.0948  40.0950  40.1553  40.1561
    40.2968  40.2970  40.2973  40.2980  40.9087  40.9093  41.1447  41.1453
    42.2314  42.2315  42.2322  42.2332  42.2432  42.2435  42.5617  42.5618
    42.8352  42.8358  42.9179  42.9184  42.9849  42.9852  42.9854  42.9859
    43.3423  43.3427  43.7437  43.7452  44.0545  44.0547  44.0548  44.0549
    44.7122  44.7135  44.7359  44.7365  44.7367  44.7381  45.1590  45.1608
    45.1615  45.1622  46.1638  46.1648  46.3377  46.3378  46.3384  46.3387
    46.3748  46.3750  46.4061  46.4073  46.4074  46.4074  46.4890  46.4899
    46.5220  46.5226  46.6867  46.6876  47.0026  47.0027  47.0036  47.0039
    47.3020  47.3024  48.0418  48.0419  48.1580  48.1590  48.1838  48.1844
    48.1846  48.1848  48.3410  48.3411  48.3419  48.3422  48.4329  48.4331
    48.8720  48.8726  48.9560  48.9568  48.9574  48.9583  49.3210  49.3211
    49.3215  49.3237  49.3757  49.3760  49.4838  49.4841  49.5334  49.5355
    49.5552  49.5555  49.5900  49.5901  49.8498  49.8498  49.8508  49.8515
    49.9299  49.9302  49.9311  49.9312  50.0178  50.0189  50.1790  50.1794
    50.1798  50.1806  50.2423  50.2426  50.3737  50.3743  50.3761  50.3767
    50.5370  50.5377  50.6858  50.6863  50.9239  50.9245  51.0235  51.0235
    51.0235  51.0236  51.2567  51.2569  51.2571  51.2579  51.3847  51.3864
    51.4980  51.4981  51.6166  51.6168  51.6170  51.6189  52.0342  52.0344
    52.0351  52.0362  52.1193  52.1204  52.5767  52.5770  52.7882  52.7884

     the Fermi energy is    10.9438 ev

!    total energy              =   -3356.41001912 Ry
     Harris-Foulkes estimate   =   -3356.41001982 Ry
     estimated scf accuracy    <       0.00000079 Ry

     The total energy is the sum of the following terms:

     one-electron contribution =   -1296.47568972 Ry
     hartree contribution      =     845.57148233 Ry
     xc contribution           =    -537.24347753 Ry
     ewald contribution        =   -2368.23960066 Ry
     Hubbard energy            =      -0.02316318 Ry
     smearing contrib. (-TS)   =       0.00042965 Ry

     total magnetization       =    16.02 Bohr mag/cell
     absolute magnetization    =    19.66 Bohr mag/cell

     convergence has been achieved in  16 iterations

     Writing output data file pwscf.save

     General routines

     Parallel routines
     Hubbard U routines

   This run was terminated on:  22:35:12  14Feb2014

   JOB DONE.