     Program PWSCF v.5.0.2 (svn rev. 9656) starts on 25May2014 at  6:28:57

     Current dimensions of program PWSCF are:
     Max number of different atomic species (ntypx) = 10
     Max number of k-points (npk) =  40000
     Max angular momentum in pseudopotentials (lmaxx) =  3
     Reading input from pwscf.in
Warning: card &CELL ignored
Warning: card / ignored

     Subspace diagonalization in iterative solution of the eigenvalue problem:
     a serial algorithm will be used

     bravais-lattice index     =            0
     lattice parameter (alat)  =      11.7919  a.u.
     unit-cell volume          =    7123.6633 (a.u.)^3
     number of atoms/cell      =           30
     number of atomic types    =            3
     number of electrons       =       240.00
     number of Kohn-Sham states=          348
     kinetic-energy cutoff     =      40.0000  Ry
     charge density cutoff     =     500.0000  Ry
     convergence threshold     =      1.0E-06
     mixing beta               =       0.7000
     number of iterations used =            8  plain     mixing
     Exchange-correlation      = SLA  PW   PBE  PBE ( 1 4 3 4 0)
     EXX-fraction              =        0.00
     nstep                     =           50

     celldm(1)=  11.791891  celldm(2)=   0.000000  celldm(3)=   0.000000
     celldm(4)=   0.000000  celldm(5)=   0.000000  celldm(6)=   0.000000

     crystal axes: (cart. coord. in units of alat)
               a(1) = (   1.000000   0.000000   0.000000 )
               a(2) = (   0.000000   1.026665   0.000000 )
               a(3) = (   0.000000   0.000000   4.231793 )

     reciprocal axes: (cart. coord. in units 2 pi/alat)
               b(1) = (  1.000000  0.000000  0.000000 )
               b(2) = (  0.000000  0.974028  0.000000 )
               b(3) = (  0.000000  0.000000  0.236306 )

     PseudoPot. # 1 for O  read from file:
     /home/camp/zhonxu/pseudo/o_pbe_v1.01.uspp.F.UPF
     MD5 check sum: 2bcb18d16ea4b960afae9ec6d52f22d2
     Pseudo is Ultrasoft + core correction, Zval =  6.0
     Generated by new atomic code, or converted to UPF format
     Using radial grid of  737 points,  5 beta functions with:
                l(1) =   0
                l(2) =   0
                l(3) =   1
                l(4) =   1
                l(5) =   2
     Q(r) pseudized with  8 coefficients,  rinner =    0.900   0.900   0.900
                                                       0.900   0.900

     PseudoPot. # 2 for Ru read from file:
     /home/camp/zhonxu/pseudo/ru_pbe_v1.uspp.F.UPF
     MD5 check sum: df00be1c11b23341d9806d8f1dfa10cf
     Pseudo is Ultrasoft + core correction, Zval = 16.0
     Generated by new atomic code, or converted to UPF format
     Using radial grid of  967 points,  6 beta functions with:
                l(1) =   0
                l(2) =   0
                l(3) =   1
                l(4) =   1
                l(5) =   2
                l(6) =   2
     Q(r) pseudized with  8 coefficients,  rinner =    1.300   1.300   1.300
                                                       1.300   1.300

     PseudoPot. # 3 for H  read from file:
     /home/camp/zhonxu/pseudo/h_pbe_v1.uspp.F.UPF
     MD5 check sum: 3408e3ff4ec8b0a4e358431e7e038a48
     Pseudo is Ultrasoft, Zval =  1.0
     Generated by new atomic code, or converted to UPF format
     Using radial grid of  615 points,  2 beta functions with:
                l(1) =   0
                l(2) =   0
     Q(r) pseudized with  8 coefficients,  rinner =    0.700

     atomic species   valence    mass     pseudopotential
        O0             6.00    15.99940     O ( 1.00)
        Ru1           16.00   101.07000     Ru( 1.00)
        H2             1.00     1.00794     H ( 1.00)

     Simplified LDA+U calculation (l_max = 2) with parameters (eV):
     atomic species    L          U    alpha       J0     beta
        Ru1            2     7.5000   0.0000   0.0000   0.0000

     No symmetry found

   Cartesian axes

     site n.     atom                  positions (alat units)
         1           O0  tau(   1) = (   0.0000000   0.0000000   1.6154446  )
         2           O0  tau(   2) = (   0.0000000   0.5133323   1.6985147  )
         3           Ru1 tau(   3) = (   0.2500000   0.5133323   1.9112469  )
         4           Ru1 tau(   4) = (   0.0000000   0.0000000   1.9257197  )
         5           O0  tau(   5) = (   0.2500000   0.8315984   1.9225035  )
         6           O0  tau(   6) = (   0.2500000   0.1950663   1.9213609  )
         7           O0  tau(   7) = (   0.0000000   0.5133323   2.1147962  )
         8           O0  tau(   8) = (   0.0000000   0.0000000   2.2329055  )
         9           Ru1 tau(   9) = (   0.2500000   0.0000000   2.4696320  )
        10           Ru1 tau(  10) = (   0.0000000   0.5133323   2.4119103  )
        11           O0  tau(  11) = (   0.2500000   0.7083986   2.4470342  )
        12           O0  tau(  12) = (   0.2500000   0.3182660   2.4480075  )
        13           O0  tau(  13) = (   0.0000000   0.0000000   2.6255312  )
        14           O0  tau(  14) = (   0.5000000   0.0000000   1.6152330  )
        15           O0  tau(  15) = (   0.5000000   0.5133323   1.6983454  )
        16           Ru1 tau(  16) = (   0.7500000   0.5133323   1.9123895  )
        17           Ru1 tau(  17) = (   0.5000000   0.0000000   1.9253811  )
        18           O0  tau(  18) = (   0.7500000   0.8315984   1.9218264  )
        19           O0  tau(  19) = (   0.7500000   0.1950663   1.9211916  )
        20           O0  tau(  20) = (   0.5000000   0.5133323   2.1147115  )
        21           O0  tau(  21) = (   0.5000000   0.0000000   2.2326939  )
        22           Ru1 tau(  22) = (   0.7500000   0.0000000   2.4344235  )
        23           Ru1 tau(  23) = (   0.5000000   0.5133323   2.4120796  )
        24           O0  tau(  24) = (   0.7500000   0.7083986   2.4286259  )
        25           O0  tau(  25) = (   0.7500000   0.3182660   2.4296416  )
        26           O0  tau(  26) = (   0.5000000   0.0000000   2.6262506  )
        27           H2  tau(  27) = (  -0.0004400   0.6360496   1.5997447  )
        28           H2  tau(  28) = (   0.4993300   0.6362138   1.5997447  )
        29           H2  tau(  29) = (   0.1465600   0.0241882   1.5601774  )
        30           H2  tau(  30) = (   0.6465900   0.0242601   1.5600081  )

     number of k points=    10  Methfessel-Paxton smearing, width (Ry)=  0.0100
                       cart. coord. in units 2pi/alat
        k(    1) = (   0.0000000   0.0000000   0.0000000), wk =   0.1250000
        k(    2) = (   0.0000000   0.2435070   0.0000000), wk =   0.2500000
        k(    3) = (   0.0000000  -0.4870139   0.0000000), wk =   0.1250000
        k(    4) = (   0.2500000   0.0000000   0.0000000), wk =   0.2500000
        k(    5) = (   0.2500000   0.2435070   0.0000000), wk =   0.2500000
        k(    6) = (   0.2500000  -0.4870139   0.0000000), wk =   0.2500000
        k(    7) = (  -0.5000000   0.0000000   0.0000000), wk =   0.1250000
        k(    8) = (  -0.5000000   0.2435070   0.0000000), wk =   0.2500000
        k(    9) = (  -0.5000000  -0.4870139   0.0000000), wk =   0.1250000
        k(   10) = (  -0.2500000   0.2435070   0.0000000), wk =   0.2500000

     Largest allocated arrays     est. size (Mb)     dimensions
     Largest temporary arrays     est. size (Mb)     dimensions

     Check: negative/imaginary core charge=   -0.000003    0.000000

     Initial potential from superposition of free atoms
     Check: negative starting charge=   -0.521480

     starting charge  231.99981, renormalised to  240.00000

     negative rho (up, down):  0.539E+00 0.000E+00
     Number of +U iterations with fixed ns =  0
     Starting occupations:
 --- enter write_ns ---
 LDA+U parameters:
U( 2)     =  7.50000000
alpha( 2) =  0.00000000
atom    3   Tr[ns(na)] =   6.00000
    eigenvalues:
  0.600  0.600  0.600  0.600  0.600
    eigenvectors:
  1.000  0.000  0.000  0.000  0.000
  0.000  1.000  0.000  0.000  0.000
  0.000  0.000  1.000  0.000  0.000
  0.000  0.000  0.000  1.000  0.000
  0.000  0.000  0.000  0.000  1.000
    occupations:
  0.600  0.000  0.000  0.000  0.000
  0.000  0.600  0.000  0.000  0.000
  0.000  0.000  0.600  0.000  0.000
  0.000  0.000  0.000  0.600  0.000
  0.000  0.000  0.000  0.000  0.600
atom    4   Tr[ns(na)] =   6.00000
    eigenvalues:
  0.600  0.600  0.600  0.600  0.600
    eigenvectors:
  1.000  0.000  0.000  0.000  0.000
  0.000  1.000  0.000  0.000  0.000
  0.000  0.000  1.000  0.000  0.000
  0.000  0.000  0.000  1.000  0.000
  0.000  0.000  0.000  0.000  1.000
    occupations:
  0.600  0.000  0.000  0.000  0.000
  0.000  0.600  0.000  0.000  0.000
  0.000  0.000  0.600  0.000  0.000
  0.000  0.000  0.000  0.600  0.000
  0.000  0.000  0.000  0.000  0.600
atom    9   Tr[ns(na)] =   6.00000
    eigenvalues:
  0.600  0.600  0.600  0.600  0.600
    eigenvectors:
  1.000  0.000  0.000  0.000  0.000
  0.000  1.000  0.000  0.000  0.000
  0.000  0.000  1.000  0.000  0.000
  0.000  0.000  0.000  1.000  0.000
  0.000  0.000  0.000  0.000  1.000
    occupations:
  0.600  0.000  0.000  0.000  0.000
  0.000  0.600  0.000  0.000  0.000
  0.000  0.000  0.600  0.000  0.000
  0.000  0.000  0.000  0.600  0.000
  0.000  0.000  0.000  0.000  0.600
atom   10   Tr[ns(na)] =   6.00000
    eigenvalues:
  0.600  0.600  0.600  0.600  0.600
    eigenvectors:
  1.000  0.000  0.000  0.000  0.000
  0.000  1.000  0.000  0.000  0.000
  0.000  0.000  1.000  0.000  0.000
  0.000  0.000  0.000  1.000  0.000
  0.000  0.000  0.000  0.000  1.000
    occupations:
  0.600  0.000  0.000  0.000  0.000
  0.000  0.600  0.000  0.000  0.000
  0.000  0.000  0.600  0.000  0.000
  0.000  0.000  0.000  0.600  0.000
  0.000  0.000  0.000  0.000  0.600
atom   16   Tr[ns(na)] =   6.00000
    eigenvalues:
  0.600  0.600  0.600  0.600  0.600
    eigenvectors:
  1.000  0.000  0.000  0.000  0.000
  0.000  1.000  0.000  0.000  0.000
  0.000  0.000  1.000  0.000  0.000
  0.000  0.000  0.000  1.000  0.000
  0.000  0.000  0.000  0.000  1.000
    occupations:
  0.600  0.000  0.000  0.000  0.000
  0.000  0.600  0.000  0.000  0.000
  0.000  0.000  0.600  0.000  0.000
  0.000  0.000  0.000  0.600  0.000
  0.000  0.000  0.000  0.000  0.600
atom   17   Tr[ns(na)] =   6.00000
    eigenvalues:
  0.600  0.600  0.600  0.600  0.600
    eigenvectors:
  1.000  0.000  0.000  0.000  0.000
  0.000  1.000  0.000  0.000  0.000
  0.000  0.000  1.000  0.000  0.000
  0.000  0.000  0.000  1.000  0.000
  0.000  0.000  0.000  0.000  1.000
    occupations:
  0.600  0.000  0.000  0.000  0.000
  0.000  0.600  0.000  0.000  0.000
  0.000  0.000  0.600  0.000  0.000
  0.000  0.000  0.000  0.600  0.000
  0.000  0.000  0.000  0.000  0.600
atom   22   Tr[ns(na)] =   6.00000
    eigenvalues:
  0.600  0.600  0.600  0.600  0.600
    eigenvectors:
  1.000  0.000  0.000  0.000  0.000
  0.000  1.000  0.000  0.000  0.000
  0.000  0.000  1.000  0.000  0.000
  0.000  0.000  0.000  1.000  0.000
  0.000  0.000  0.000  0.000  1.000
    occupations:
  0.600  0.000  0.000  0.000  0.000
  0.000  0.600  0.000  0.000  0.000
  0.000  0.000  0.600  0.000  0.000
  0.000  0.000  0.000  0.600  0.000
[...]
  0.003 -0.002  0.002  0.000  0.549
atom    9   Tr[ns(na)] =   7.22360
    eigenvalues:
  0.560  0.602  0.623  0.907  0.920
    eigenvectors:
  0.900  0.000  0.099  0.000  0.001
  0.001  0.997  0.001  0.000  0.000
  0.000  0.000  0.000  1.000  0.000
  0.098  0.002  0.900  0.000  0.000
  0.000  0.000  0.000  0.000  0.999
    occupations:
  0.566  0.002 -0.004 -0.019  0.009
  0.002  0.602  0.002 -0.000  0.001
 -0.004  0.002  0.907  0.000  0.000
 -0.019 -0.000  0.000  0.617 -0.003
  0.009  0.001  0.000 -0.003  0.919
atom   10   Tr[ns(na)] =   7.30839
    eigenvalues:
  0.484  0.517  0.787  0.887  0.978
    eigenvectors:
  0.986  0.000  0.000  0.001  0.013
  0.000  0.000  0.000  0.988  0.012
  0.000  0.000  0.999  0.000  0.000
  0.014  0.000  0.000  0.012  0.974
  0.000  1.000  0.000  0.000  0.000
    occupations:
  0.491 -0.005  0.001  0.058 -0.000
 -0.005  0.888 -0.000  0.011 -0.001
  0.001 -0.000  0.787 -0.003  0.005
  0.058  0.011 -0.003  0.970 -0.000
 -0.000 -0.001  0.005 -0.000  0.517
atom   16   Tr[ns(na)] =   7.27815
    eigenvalues:
  0.486  0.541  0.695  0.933  0.984
    eigenvectors:
  0.000  0.178  0.007  0.000  0.815
  1.000  0.000  0.000  0.000  0.000
  0.000  0.003  0.983  0.000  0.014
  0.000  0.819  0.010  0.000  0.171
  0.000  0.000  0.000  1.000  0.000
    occupations:
  0.903  0.000  0.035 -0.167 -0.000
  0.000  0.487 -0.000 -0.000 -0.008
  0.035 -0.000  0.699 -0.007 -0.000
 -0.167 -0.000 -0.007  0.618 -0.001
 -0.000 -0.008 -0.000 -0.001  0.932
atom   17   Tr[ns(na)] =   7.26938
    eigenvalues:
  0.549  0.595  0.608  0.895  0.987
    eigenvectors:
  0.002  0.003  0.976  0.000  0.019
  0.000  0.012  0.000  0.988  0.000
  0.000  0.985  0.003  0.012  0.000
  0.000  0.000  0.019  0.000  0.981
  0.998  0.000  0.002  0.000  0.000
    occupations:
  0.615 -0.004  0.000  0.051  0.003
 -0.004  0.891  0.032  0.001 -0.001
  0.000  0.032  0.598  0.002 -0.000
  0.051  0.001  0.002  0.980  0.000
  0.003 -0.001 -0.000  0.000  0.550
atom   22   Tr[ns(na)] =   7.32559
    eigenvalues:
  0.524  0.549  0.707  0.907  0.976
    eigenvectors:
  0.000  0.160  0.000  0.000  0.840
  0.999  0.001  0.000  0.000  0.000
  0.000  0.000  1.000  0.000  0.000
  0.000  0.839  0.000  0.000  0.160
  0.000  0.000  0.000  1.000  0.000
    occupations:
  0.907  0.001 -0.002 -0.156  0.000
  0.001  0.524  0.001  0.000  0.000
 -0.002  0.001  0.707  0.000  0.000
 -0.156  0.000  0.000  0.618 -0.001
  0.000  0.000  0.000 -0.001  0.907
atom   23   Tr[ns(na)] =   7.30911
    eigenvalues:
  0.482  0.516  0.793  0.885  0.978
    eigenvectors:
  0.986  0.000  0.000  0.001  0.013
  0.000  0.000  0.002  0.986  0.012
  0.000  0.000  0.997  0.002  0.000
  0.014  0.000  0.000  0.011  0.975
  0.000  1.000  0.000  0.000  0.000
    occupations:
  0.489  0.006  0.001  0.057 -0.000
  0.006  0.886 -0.004 -0.011 -0.001
  0.001 -0.004  0.793 -0.003 -0.005
  0.057 -0.011 -0.003  0.970 -0.000
 -0.000 -0.001 -0.005 -0.000  0.516
N of occupied +U levels =  58.2546040
 --- exit write_ns ---

     Threshold (ethr) on eigenvalues was too large:
     Diagonalizing with lowered threshold

     Davidson diagonalization with overlap
     ethr =  8.51E-09,  avg # of iterations =  3.0

[...]

     total energy              =   -2127.46164342 Ry
     Harris-Foulkes estimate   =   -2127.46164342 Ry
     estimated scf accuracy    <       0.00000002 Ry

     iteration # 17     ecut=    40.00 Ry     beta=0.70
     Davidson diagonalization with overlap
     ethr =  7.50E-12,  avg # of iterations =  1.0

     negative rho (up, down):  0.569E+00 0.000E+00

     End of self-consistent calculation
 --- enter write_ns ---
 LDA+U parameters:
U( 2)     =  7.50000000
alpha( 2) =  0.00000000
atom    3   Tr[ns(na)] =   7.27193
    eigenvalues:
  0.489  0.542  0.682  0.938  0.985
    eigenvectors:
  0.000  0.177  0.010  0.000  0.813
  1.000  0.000  0.000  0.000  0.000
  0.000  0.004  0.977  0.000  0.019
  0.000  0.819  0.013  0.000  0.168
  0.000  0.000  0.000  0.999  0.000
    occupations:
  0.904 -0.000  0.041 -0.165 -0.001
 -0.000  0.489 -0.001 -0.000 -0.009
  0.041 -0.001  0.688 -0.009  0.004
 -0.165 -0.000 -0.009  0.618 -0.000
 -0.001 -0.009  0.004 -0.000  0.937
atom    4   Tr[ns(na)] =   7.26846
    eigenvalues:
  0.549  0.594  0.608  0.896  0.987
    eigenvectors:
  0.002  0.000  0.979  0.000  0.019
  0.000  0.011  0.000  0.989  0.000
  0.002  0.987  0.000  0.011  0.000
  0.000  0.000  0.019  0.000  0.981
  0.996  0.002  0.002  0.000  0.000
    occupations:
  0.615 -0.001 -0.000  0.051  0.003
 -0.001  0.892  0.032 -0.001 -0.002
 -0.000  0.032  0.598  0.002  0.002
  0.051 -0.001  0.002  0.980  0.000
  0.003 -0.002  0.002  0.000  0.549
atom    9   Tr[ns(na)] =   7.22531
    eigenvalues:
  0.560  0.602  0.623  0.907  0.920
    eigenvectors:
  0.900  0.000  0.099  0.000  0.001
  0.001  0.997  0.001  0.000  0.000
  0.000  0.000  0.000  1.000  0.000
  0.098  0.002  0.900  0.000  0.000
  0.000  0.000  0.000  0.000  0.999
    occupations:
  0.567  0.002 -0.004 -0.019  0.009
  0.002  0.602  0.002 -0.000  0.001
 -0.004  0.002  0.907  0.000  0.000
 -0.019 -0.000  0.000  0.617 -0.003
  0.009  0.001  0.000 -0.003  0.920
atom   10   Tr[ns(na)] =   7.30703
    eigenvalues:
  0.484  0.517  0.787  0.887  0.978
    eigenvectors:
  0.986  0.000  0.000  0.001  0.013
  0.000  0.000  0.000  0.988  0.012
  0.000  0.000  0.999  0.000  0.000
  0.014  0.000  0.000  0.012  0.974
  0.000  1.000  0.000  0.000  0.000
    occupations:
  0.491 -0.005  0.001  0.058 -0.000
 -0.005  0.888 -0.000  0.011 -0.001
  0.001 -0.000  0.787 -0.003  0.005
  0.058  0.011 -0.003  0.970 -0.000
 -0.000 -0.001  0.005 -0.000  0.517
atom   16   Tr[ns(na)] =   7.27891
    eigenvalues:
  0.486  0.541  0.695  0.933  0.984
    eigenvectors:
  0.000  0.178  0.007  0.000  0.815
  1.000  0.000  0.000  0.000  0.000
  0.000  0.003  0.983  0.000  0.014
  0.000  0.819  0.010  0.000  0.171
  0.000  0.000  0.000  1.000  0.000
    occupations:
  0.903  0.000  0.035 -0.167 -0.000
  0.000  0.487 -0.000 -0.000 -0.008
  0.035 -0.000  0.699 -0.007 -0.000
 -0.167 -0.000 -0.007  0.618 -0.001
 -0.000 -0.008 -0.000 -0.001  0.933
atom   17   Tr[ns(na)] =   7.26890
    eigenvalues:
  0.549  0.595  0.608  0.895  0.987
    eigenvectors:
  0.002  0.003  0.976  0.000  0.019
  0.000  0.012  0.000  0.988  0.000
  0.000  0.985  0.003  0.012  0.000
  0.000  0.000  0.019  0.000  0.981
  0.998  0.000  0.002  0.000  0.000
    occupations:
  0.615 -0.004  0.000  0.051  0.003
 -0.004  0.891  0.032  0.001 -0.001
  0.000  0.032  0.598  0.002 -0.000
  0.051  0.001  0.002  0.980  0.000
  0.003 -0.001 -0.000  0.000  0.549
atom   22   Tr[ns(na)] =   7.32539
    eigenvalues:
  0.524  0.550  0.706  0.907  0.976
    eigenvectors:
  0.000  0.160  0.000  0.000  0.840
  0.999  0.001  0.000  0.000  0.000
  0.000  0.000  1.000  0.000  0.000
  0.000  0.839  0.000  0.000  0.160
  0.000  0.000  0.000  1.000  0.000
    occupations:
  0.907  0.001 -0.002 -0.156  0.000
  0.001  0.524  0.001  0.000  0.000
 -0.002  0.001  0.707  0.000  0.000
 -0.156  0.000  0.000  0.618 -0.001
  0.000  0.000  0.000 -0.001  0.907
atom   23   Tr[ns(na)] =   7.30789
    eigenvalues:
  0.482  0.516  0.792  0.885  0.978
    eigenvectors:
  0.986  0.000  0.000  0.001  0.013
  0.000  0.000  0.002  0.986  0.012
  0.000  0.000  0.997  0.002  0.000
  0.014  0.000  0.000  0.011  0.975
  0.000  1.000  0.000  0.000  0.000
    occupations:
  0.489  0.006  0.001  0.057 -0.000
  0.006  0.886 -0.004 -0.011 -0.001
  0.001 -0.004  0.792 -0.003 -0.005
  0.057 -0.011 -0.003  0.970 -0.000
 -0.000 -0.001 -0.005 -0.000  0.516
N of occupied +U levels =  58.2538295
 --- exit write_ns ---

[...]

          k = 0.2500-0.4870 0.0000 ( 30468 PWs)   bands (ev):

[...]

          k =-0.2500 0.2435 0.0000 ( 30434 PWs)   bands (ev):

   -74.0956 -73.4689 -73.4608 -73.0554 -73.0464 -73.0460 -73.0349 -73.0047
   -44.3641 -44.3601 -43.7991 -43.7887 -43.5898 -43.5032 -43.4874 -43.4534
   -43.4290 -43.2866 -43.2679 -43.2407 -43.2115 -43.1135 -43.1064 -43.0921
   -43.0519 -43.0242 -42.9645 -42.9378 -42.8856 -42.8746 -42.8410 -42.7612
   -20.5701 -20.2083 -20.1928 -20.0486 -19.9228 -19.8711 -19.8043 -19.7021
   -19.6668 -19.5409 -19.4900 -19.2674 -19.1991 -19.1464 -19.1188 -19.0038
   -18.9487 -18.9217  -9.6196  -9.2239  -9.1556  -9.0864  -9.0460  -8.8359
    -8.6396  -8.5924  -7.9581  -7.8948  -7.7525  -7.6974  -7.5677  -7.4983
    -7.4745  -7.3957  -7.2862  -7.1879  -7.1263  -6.8476  -6.6560  -6.5320
    -6.3530  -6.2121  -6.1705  -6.0680  -6.0262  -5.8967  -5.7785  -5.7230
    -5.6289  -5.5510  -5.4502  -5.3308  -5.2177  -5.1150  -4.9965  -4.9608
    -4.9241  -4.8480  -4.6987  -4.5363  -4.3548  -4.2292  -4.1523  -4.1216
    -4.0485  -3.8973  -3.8536  -3.7213  -3.5251  -3.4250  -3.2993  -3.0858
    -3.0298  -2.9301  -2.8999  -2.7902  -2.7327  -2.6849  -2.5851  -2.4363
    -2.3471  -2.3107  -2.2023  -2.1469  -1.8313  -1.7804  -1.6239  -1.3439
    -0.9080  -0.8310  -0.7140  -0.6214  -0.4695  -0.3928  -0.2165   0.1645
     1.2459   1.4039   1.6342   2.0807   2.2135   2.6375   2.8749   3.0677
     3.2391   3.4253   3.5977   3.6967   3.8004   3.9032   3.9941   4.0833
     4.1286   4.4257   4.6056   5.0466   5.5175   5.6759   5.7532   6.0540
     6.0922   6.3383   6.4747   6.4791   6.7826   6.8271   6.8897   7.1510
     7.4346   7.5053   7.8264   7.8682   7.9480   8.1894   8.2161   8.3231
     8.5214   8.5557   8.7341   8.7481   8.8986   9.0428   9.1823   9.2736
     9.3235   9.5043   9.5513   9.7597   9.7981   9.9755   9.9966  10.0715
    10.1051  10.2352  10.3246  10.3987  10.4544  10.5997  10.6063  10.8020
    10.8687  10.8776  11.0781  11.1907  11.3311  11.3878  11.4600  11.5276
    11.5864  11.6580  11.7524  11.8471  11.8854  11.9854  12.0281  12.1024
    12.1635  12.3069  12.3995  12.4309  12.5681  12.6155  12.6889  12.7368
    12.7859  12.8953  12.9708  12.9947  13.1118  13.1794  13.2383  13.3463
    13.3969  13.4893  13.6365  13.6979  13.7352  13.8026  13.8801  14.0037
    14.0851  14.1478  14.2530  14.3285  14.3942  14.4301  14.5807  14.6369
    14.6725  14.8087  14.8829  14.9922  15.0311  15.0828  15.1470  15.2639
    15.3321  15.4266  15.4548  15.5141  15.6592  15.7233  15.7723  15.8010
    15.8237  15.9097  15.9493  15.9877  16.0286  16.0951  16.1351  16.1872
    16.3009  16.4397  16.4653  16.5361  16.5810  16.6978  16.7168  16.8309
    16.8780  16.9158  17.0264  17.0413  17.1733  17.2250  17.3557  17.3779
    17.4371  17.4822  17.5162  17.5686  17.6442  17.6624  17.7096  17.8474
    17.8642  17.9072  17.9554  18.0178  18.0574  18.1298  18.1787  18.3164
    18.3232  18.4476  18.5677  18.6429  18.6762  18.7383  18.7930  18.8808
    18.9600  19.0248  19.1066  19.1954  19.2419  19.2704  19.3814  19.4341
    19.4990  19.6516  19.7305  19.7649  19.8386  19.8676  19.9184  20.0221
    20.1761  20.2111  20.2681  20.4309  20.4780  20.5849  20.6665  20.7346
    20.8085  20.8344  20.9234  20.9478  21.0409  21.0850  21.1135  21.1546
    21.2336  21.2917  21.3123  21.3439  21.3842  21.4843  21.5216  21.5871
    21.6862  21.7588  21.8458  21.8744

     the Fermi energy is    -1.1986 ev

!    total energy              =   -2127.46164341 Ry
     Harris-Foulkes estimate   =   -2127.46164342 Ry
     estimated scf accuracy    <          5.9E-09 Ry

     The total energy is the sum of the following terms:

     one-electron contribution =  -24445.44981740 Ry
     hartree contribution      =   12247.79799311 Ry
     xc contribution           =    -330.99714938 Ry
     ewald contribution        =   10397.59872770 Ry
     Hubbard energy            =       3.58849028 Ry
     smearing contrib. (-TS)   =       0.00011227 Ry

     convergence has been achieved in  17 iterations

     Forces acting on atoms (Ry/au):

     negative rho (up, down):  0.569E+00 0.000E+00
     atom    1 type  1   force =    -0.00507074   -0.00696769    0.00013923
     atom    2 type  1   force =     0.00017391    0.00178722    0.00006966
     atom    3 type  2   force =     0.00087853    0.00544371    0.00059719
     atom    4 type  2   force =     0.00442901    0.00467084   -0.00018708
     atom    5 type  1   force =    -0.00189121   -0.05043194    0.00044253
     atom    6 type  1   force =     0.00465438    0.04943328    0.00029022
     atom    7 type  1   force =     0.00164021   -0.00176287    0.00042001
     atom    8 type  1   force =     0.03391263   -0.00003058   -0.00010201
     atom    9 type  2   force =     0.00269287   -0.00018640   -0.00084050
     atom   10 type  2   force =     0.00701287   -0.00225587    0.00079351
     atom   11 type  1   force =    -0.00192993    0.00978167   -0.00000015
     atom   12 type  1   force =     0.00117727   -0.00836653    0.00000014
     atom   13 type  1   force =     0.03593615   -0.00075529   -0.00089950
     atom   14 type  1   force =    -0.00473598   -0.00688576   -0.00000973
     atom   15 type  1   force =    -0.00025209    0.00145388   -0.00000719
     atom   16 type  2   force =    -0.00087566    0.00375349    0.00079980
     atom   17 type  2   force =     0.00558710    0.00408845   -0.00027149
     atom   18 type  1   force =    -0.00261265   -0.04738653   -0.00000835
     atom   19 type  1   force =     0.00498964    0.04736618    0.00012915
     atom   20 type  1   force =    -0.00244935   -0.00146535    0.00037507
     atom   21 type  1   force =    -0.03796483   -0.00106930   -0.00011357
     atom   22 type  2   force =     0.00013732    0.00170916   -0.00075913
     atom   23 type  2   force =    -0.00646249   -0.00245713    0.00081298
     atom   24 type  1   force =    -0.00092631    0.03673905    0.00032820
     atom   25 type  1   force =     0.00121120   -0.03807779    0.00048665
     atom   26 type  1   force =    -0.03855934    0.00143139   -0.00073640
     atom   27 type  3   force =    -0.00001291    0.00025573   -0.00016994
     atom   28 type  3   force =    -0.00000458    0.00039086   -0.00005597
     atom   29 type  3   force =    -0.00036050   -0.00010880   -0.00073242
     atom   30 type  3   force =    -0.00032451   -0.00009707   -0.00079093

     Total force =     0.002776     Total SCF correction =     0.000356
     SCF correction compared to forces is large: reduce conv_thr to get better values

     entering subroutine stress ...

     negative rho (up, down):  0.569E+00 0.000E+00
          total   stress  (Ry/bohr**3)                   (kbar)     P=   -5.44
  -0.00002174   0.00000537   0.00000255         -3.20      0.79      0.37
   0.00000537  -0.00005454   0.00000206          0.79     -8.02      0.30
   0.00000255   0.00000206  -0.00003470          0.37      0.30     -5.10

     bfgs converged in   7 scf cycles and   6 bfgs steps
     (criteria: energy < 0.10E-03, force < 0.10E-02)

     End of BFGS Geometry Optimization

     Final energy   =   -2127.4616434136 Ry
Begin final coordinates

ATOMIC_POSITIONS (crystal)
O0       0.000000000   0.000000000   0.381344658    0   0   1
O0       0.000000000   0.500000000   0.402142378    0   0   1
Ru1      0.250000000   0.500000000   0.452154928    0   0   1
Ru1      0.000000000   0.000000000   0.454549642    0   0   1
O0       0.250000000   0.810000000   0.453855029    0   0   1
O0       0.250000000   0.190000000   0.453667376    0   0   1
O0       0.000000000   0.500000000   0.499829620    0   0   1
O0       0.000000000   0.000000000   0.527241532    0   0   1
Ru1      0.250000000   0.000000000   0.583408373    0   0   1
Ru1      0.000000000   0.500000000   0.570044850    0   0   1
O0       0.250000000   0.690000000   0.578654871    0   0   1
O0       0.250000000   0.310000000   0.578695258    0   0   1
O0       0.000000000   0.000000000   0.620374220    0   0   1
O0       0.500000000   0.000000000   0.381322291    0   0   1
O0       0.500000000   0.500000000   0.402068403    0   0   1
Ru1      0.750000000   0.500000000   0.452378855    0   0   1
Ru1      0.500000000   0.000000000   0.454486100    0   0   1
O0       0.750000000   0.810000000   0.453849105    0   0   1
O0       0.750000000   0.190000000   0.453710571    0   0   1
O0       0.500000000   0.500000000   0.499781558    0   0   1
O0       0.500000000   0.000000000   0.527174227    0   0   1
Ru1      0.750000000   0.000000000   0.574922993    0   0   1
Ru1      0.500000000   0.500000000   0.570082556    0   0   1
O0       0.750000000   0.690000000   0.573636928    0   0   1
O0       0.750000000   0.310000000   0.573722779    0   0   1
O0       0.500000000   0.000000000   0.620458966    0   0   1
H2      -0.000625098   0.618309577   0.378353312
H2       0.499170533   0.618646158   0.378379587
H2       0.148148054   0.023702811   0.369338753
H2       0.648044006   0.023710250   0.369240279
End final coordinates

     General routines

     Parallel routines
     Hubbard U routines

   This run was terminated on:  17: 9:51  25May2014

   JOB DONE.