     Program PWSCF v.5.0.2 (svn rev. 9656) starts on  6May2014 at 13:47:52

     Current dimensions of program PWSCF are:
     Max number of different atomic species (ntypx) = 10
     Max number of k-points (npk) =  40000
     Max angular momentum in pseudopotentials (lmaxx) =  3
     Reading input from pwscf.in
Warning: card &CELL ignored
Warning: card / ignored

     Subspace diagonalization in iterative solution of the eigenvalue problem:
     a serial algorithm will be used

     Found symmetry operation: I + ( -0.5000  0.0000  0.0000)
     This is a supercell, fractional translations are disabled

     bravais-lattice index     =            0
     lattice parameter (alat)  =      11.2250  a.u.
     unit-cell volume          =    7005.5484 (a.u.)^3
     number of atoms/cell      =           30
     number of atomic types    =            3
     number of electrons       =       208.00
     number of Kohn-Sham states=          300
     kinetic-energy cutoff     =      40.0000  Ry
     charge density cutoff     =     500.0000  Ry
     convergence threshold     =      1.0E-06
     mixing beta               =       0.7000
     number of iterations used =            8  plain     mixing
     Exchange-correlation      = SLA  PW   PBE  PBE ( 1 4 3 4 0)
     EXX-fraction              =        0.00
     nstep                     =           50

     celldm(1)=  11.224973  celldm(2)=   0.000000  celldm(3)=   0.000000
     celldm(4)=   0.000000  celldm(5)=   0.000000  celldm(6)=   0.000000

     crystal axes: (cart. coord. in units of alat)
               a(1) = (   1.000000   0.000000   0.000000 )
               a(2) = (   0.000000   1.107086   0.000000 )
               a(3) = (   0.000000   0.000000   4.474090 )

     reciprocal axes: (cart. coord. in units 2 pi/alat)
               b(1) = (  1.000000  0.000000  0.000000 )
               b(2) = (  0.000000  0.903272  0.000000 )
               b(3) = (  0.000000  0.000000  0.223509 )

     PseudoPot. # 1 for O  read from file:
     /home/camp/zhonxu/pseudo/o_pbe_v1.01.uspp.F.UPF
     MD5 check sum: 2bcb18d16ea4b960afae9ec6d52f22d2
     Pseudo is Ultrasoft + core correction, Zval =  6.0
     Generated by new atomic code, or converted to UPF format
     Using radial grid of  737 points,  5 beta functions with:
                l(1) =   0
                l(2) =   0
                l(3) =   1
                l(4) =   1
                l(5) =   2
     Q(r) pseudized with  8 coefficients,  rinner =    0.900   0.900   0.900
                                                       0.900   0.900

     PseudoPot. # 2 for Ti read from file:
     /home/camp/zhonxu/pseudo/ti_pbe_v1.uspp.F.UPF
     MD5 check sum: bcc8f6961b3b91f0cac3ca967d22d0fb
     Pseudo is Ultrasoft + core correction, Zval = 12.0
     Generated by new atomic code, or converted to UPF format
     Using radial grid of  851 points,  6 beta functions with:
                l(1) =   0
                l(2) =   0
                l(3) =   1
                l(4) =   1
                l(5) =   2
                l(6) =   2
     Q(r) pseudized with  6 coefficients,  rinner =    1.000   1.000   1.000
                                                       1.000   1.000

     PseudoPot. # 3 for H  read from file:
     /home/camp/zhonxu/pseudo/h_pbe_v1.uspp.F.UPF
     MD5 check sum: 3408e3ff4ec8b0a4e358431e7e038a48
     Pseudo is Ultrasoft, Zval =  1.0
     Generated by new atomic code, or converted to UPF format
     Using radial grid of  615 points,  2 beta functions with:
                l(1) =   0
                l(2) =   0
     Q(r) pseudized with  8 coefficients,  rinner =    0.700

     atomic species   valence    mass     pseudopotential
        O0             6.00    15.99940     O ( 1.00)
        Ti1           12.00    47.88000     Ti( 1.00)
        H2             1.00     1.00794     H ( 1.00)

     Simplified LDA+U calculation (l_max = 2) with parameters (eV):
     atomic species    L          U    alpha       J0     beta
        Ti1            2     4.0000   0.0000   0.0000   0.0000

     No symmetry found

   Cartesian axes

     site n.     atom                  positions (alat units)
         1           O0  tau(   1) = (   0.0000000   0.0000000   1.6989461  )
         2           O0  tau(   2) = (   0.0000000   0.5535432   1.7901728  )
         3           Ti1 tau(   3) = (   0.2500000   0.5535432   2.0162933  )
         4           Ti1 tau(   4) = (   0.0000000   0.0000000   2.0248388  )
         5           O0  tau(   5) = (   0.2500000   0.8967400   2.0178145  )
         6           O0  tau(   6) = (   0.2500000   0.2103464   2.0226912  )
         7           O0  tau(   7) = (   0.0000000   0.5535432   2.2326603  )
         8           O0  tau(   8) = (   0.0000000   0.0000000   2.3559662  )
         9           Ti1 tau(   9) = (   0.2500000   0.0000000   2.5995804  )
        10           Ti1 tau(  10) = (   0.0000000   0.5535432   2.5483968  )
        11           O0  tau(  11) = (   0.2500000   0.7638896   2.5964932  )
        12           O0  tau(  12) = (   0.2500000   0.3431968   2.5965380  )
        13           O0  tau(  13) = (   0.0000000   0.0000000   2.7842708  )
        14           O0  tau(  14) = (   0.5000000   0.0000000   1.6989461  )
        15           O0  tau(  15) = (   0.5000000   0.5535432   1.7901728  )
        16           Ti1 tau(  16) = (   0.7500000   0.5535432   2.0162933  )
        17           Ti1 tau(  17) = (   0.5000000   0.0000000   2.0248388  )
        18           O0  tau(  18) = (   0.7500000   0.8967400   2.0178145  )
        19           O0  tau(  19) = (   0.7500000   0.2103464   2.0226912  )
        20           O0  tau(  20) = (   0.5000000   0.5535432   2.2326603  )
        21           O0  tau(  21) = (   0.5000000   0.0000000   2.3559662  )
        22           Ti1 tau(  22) = (   0.7500000   0.0000000   2.5995804  )
        23           Ti1 tau(  23) = (   0.5000000   0.5535432   2.5483968  )
        24           O0  tau(  24) = (   0.7500000   0.7638896   2.5964932  )
        25           O0  tau(  25) = (   0.7500000   0.3431968   2.5965380  )
        26           O0  tau(  26) = (   0.5000000   0.0000000   2.7842708  )
        27           H2  tau(  27) = (  -0.0005400   0.6991915   1.7063283  )
        28           H2  tau(  28) = (   0.4994600   0.6991915   1.7063283  )
        29           H2  tau(  29) = (   0.1501800   0.0252084   1.6321479  )
        30           H2  tau(  30) = (   0.6501800   0.0252084   1.6321479  )

     number of k points=    10  Methfessel-Paxton smearing, width (Ry)=  0.0100
                       cart. coord. in units 2pi/alat
        k(    1) = (   0.0000000   0.0000000   0.0000000), wk =   0.1250000
        k(    2) = (   0.0000000   0.2258180   0.0000000), wk =   0.2500000
        k(    3) = (   0.0000000  -0.4516359   0.0000000), wk =   0.1250000
        k(    4) = (   0.2500000   0.0000000   0.0000000), wk =   0.2500000
        k(    5) = (   0.2500000   0.2258180   0.0000000), wk =   0.2500000
        k(    6) = (   0.2500000  -0.4516359   0.0000000), wk =   0.2500000
        k(    7) = (  -0.5000000   0.0000000   0.0000000), wk =   0.1250000
        k(    8) = (  -0.5000000   0.2258180   0.0000000), wk =   0.2500000
        k(    9) = (  -0.5000000  -0.4516359   0.0000000), wk =   0.1250000
        k(   10) = (  -0.2500000   0.2258180   0.0000000), wk =   0.2500000

     Largest allocated arrays     est. size (Mb)     dimensions
     Largest temporary arrays     est. size (Mb)     dimensions

     Check: negative/imaginary core charge=   -0.000005    0.000000

     Initial potential from superposition of free atoms
     Check: negative starting charge=   -0.102816

     starting charge  199.99958, renormalised to  208.00000

     negative rho (up, down):  0.107E+00 0.000E+00
     Number of +U iterations with fixed ns =  0
     Starting occupations:
 --- enter write_ns ---
 LDA+U parameters:
U( 2)     =  4.00000000
alpha( 2) =  0.00000000
atom    3   Tr[ns(na)] =   2.00000
    eigenvalues:
  0.200  0.200  0.200  0.200  0.200
    eigenvectors:
  1.000  0.000  0.000  0.000  0.000
  0.000  1.000  0.000  0.000  0.000
  0.000  0.000  1.000  0.000  0.000
  0.000  0.000  0.000  1.000  0.000
  0.000  0.000  0.000  0.000  1.000
    occupations:
  0.200  0.000  0.000  0.000  0.000
  0.000  0.200  0.000  0.000  0.000
  0.000  0.000  0.200  0.000  0.000
  0.000  0.000  0.000  0.200  0.000
  0.000  0.000  0.000  0.000  0.200
atom    4   Tr[ns(na)] =   2.00000
    eigenvalues:
  0.200  0.200  0.200  0.200  0.200
    eigenvectors:
  1.000  0.000  0.000  0.000  0.000
  0.000  1.000  0.000  0.000  0.000
  0.000  0.000  1.000  0.000  0.000
  0.000  0.000  0.000  1.000  0.000
  0.000  0.000  0.000  0.000  1.000
    occupations:
  0.200  0.000  0.000  0.000  0.000
  0.000  0.200  0.000  0.000  0.000
  0.000  0.000  0.200  0.000  0.000
  0.000  0.000  0.000  0.200  0.000
  0.000  0.000  0.000  0.000  0.200
atom    9   Tr[ns(na)] =   2.00000
    eigenvalues:
  0.200  0.200  0.200  0.200  0.200
    eigenvectors:
  1.000  0.000  0.000  0.000  0.000
  0.000  1.000  0.000  0.000  0.000
  0.000  0.000  1.000  0.000  0.000
  0.000  0.000  0.000  1.000  0.000
  0.000  0.000  0.000  0.000  1.000
    occupations:
  0.200  0.000  0.000  0.000  0.000
  0.000  0.200  0.000  0.000  0.000
  0.000  0.000  0.200  0.000  0.000
  0.000  0.000  0.000  0.200  0.000
  0.000  0.000  0.000  0.000  0.200
atom   10   Tr[ns(na)] =   2.00000
    eigenvalues:
  0.200  0.200  0.200  0.200  0.200
    eigenvectors:
  1.000  0.000  0.000  0.000  0.000
  0.000  1.000  0.000  0.000  0.000
  0.000  0.000  1.000  0.000  0.000
  0.000  0.000  0.000  1.000  0.000
  0.000  0.000  0.000  0.000  1.000
    occupations:
  0.200  0.000  0.000  0.000  0.000
  0.000  0.200  0.000  0.000  0.000
  0.000  0.000  0.200  0.000  0.000
  0.000  0.000  0.000  0.200  0.000
  0.000  0.000  0.000  0.000  0.200
atom   16   Tr[ns(na)] =   2.00000
    eigenvalues:
  0.200  0.200  0.200  0.200  0.200
    eigenvectors:
  1.000  0.000  0.000  0.000  0.000
  0.000  1.000  0.000  0.000  0.000
  0.000  0.000  1.000  0.000  0.000
  0.000  0.000  0.000  1.000  0.000
  0.000  0.000  0.000  0.000  1.000
    occupations:
  0.200  0.000  0.000  0.000  0.000
  0.000  0.200  0.000  0.000  0.000
  0.000  0.000  0.200  0.000  0.000
  0.000  0.000  0.000  0.200  0.000
  0.000  0.000  0.000  0.000  0.200
atom   17   Tr[ns(na)] =   2.00000
    eigenvalues:
  0.200  0.200  0.200  0.200  0.200
    eigenvectors:
  1.000  0.000  0.000  0.000  0.000
  0.000  1.000  0.000  0.000  0.000
  0.000  0.000  1.000  0.000  0.000
  0.000  0.000  0.000  1.000  0.000
  0.000  0.000  0.000  0.000  1.000
    occupations:
  0.200  0.000  0.000  0.000  0.000
  0.000  0.200  0.000  0.000  0.000
  0.000  0.000  0.200  0.000  0.000
  0.000  0.000  0.000  0.200  0.000
  0.000  0.000  0.000  0.000  0.200
atom   22   Tr[ns(na)] =   2.00000
    eigenvalues:
  0.200  0.200  0.200  0.200  0.200
    eigenvectors:
  1.000  0.000  0.000  0.000  0.000
  0.000  1.000  0.000  0.000  0.000
  0.000  0.000  1.000  0.000  0.000
  0.000  0.000  0.000  1.000  0.000
  0.000  0.000  0.000  0.000  1.000
    occupations:
[...]
  0.107  0.000  0.007  0.361 -0.000
 -0.000  0.012 -0.000 -0.000  0.169
atom    4   Tr[ns(na)] =   2.80480
    eigenvalues:
  0.149  0.183  0.210  0.419  0.443
    eigenvectors:
  0.006  0.003  0.000  0.000  0.990
  0.002  0.947  0.048  0.000  0.004
  0.001  0.047  0.952  0.000  0.000
  0.991  0.003  0.000  0.000  0.006
  0.000  0.000  0.000  1.000  0.000
    occupations:
  0.440  0.016  0.004 -0.023 -0.000
  0.016  0.185 -0.006  0.000 -0.002
  0.004 -0.006  0.208  0.001 -0.000
 -0.023  0.000  0.001  0.151 -0.000
 -0.000 -0.002 -0.000 -0.000  0.419
atom    9   Tr[ns(na)] =   2.80113
    eigenvalues:
  0.158  0.202  0.217  0.374  0.449
    eigenvectors:
  0.000  0.000  0.916  0.084  0.000
  0.000  0.000  0.000  0.000  1.000
  1.000  0.000  0.000  0.000  0.000
  0.000  0.000  0.084  0.916  0.000
  0.000  1.000  0.000  0.000  0.000
    occupations:
  0.230 -0.000 -0.000  0.044  0.000
 -0.000  0.449  0.000 -0.000 -0.000
 -0.000  0.000  0.158  0.000  0.000
  0.044 -0.000  0.000  0.361 -0.000
  0.000 -0.000  0.000 -0.000  0.202
atom   10   Tr[ns(na)] =   2.71351
    eigenvalues:
  0.160  0.204  0.215  0.326  0.452
    eigenvectors:
  0.026  0.000  0.000  0.974  0.000
  0.000  0.000  1.000  0.000  0.000
  0.000  1.000  0.000  0.000  0.000
  0.974  0.000  0.000  0.026  0.000
  0.000  0.000  0.000  0.000  1.000
    occupations:
  0.322 -0.000 -0.000 -0.026 -0.000
 -0.000  0.215 -0.000 -0.000  0.000
 -0.000 -0.000  0.204 -0.000  0.000
 -0.026 -0.000 -0.000  0.164 -0.000
 -0.000  0.000  0.000 -0.000  0.452
atom   16   Tr[ns(na)] =   2.67757
    eigenvalues:
  0.145  0.168  0.199  0.413  0.414
    eigenvectors:
  0.784  0.000  0.018  0.000  0.198
  0.000  0.002  0.000  0.997  0.000
  0.019  0.000  0.980  0.000  0.000
  0.197  0.000  0.002  0.000  0.801
  0.000  0.998  0.000  0.002  0.000
    occupations:
  0.199 -0.000 -0.005  0.107 -0.000
 -0.000  0.413  0.000  0.000  0.012
 -0.005  0.000  0.198  0.007 -0.000
  0.107  0.000  0.007  0.361 -0.000
 -0.000  0.012 -0.000 -0.000  0.169
atom   17   Tr[ns(na)] =   2.80480
    eigenvalues:
  0.149  0.183  0.210  0.419  0.443
    eigenvectors:
  0.006  0.003  0.000  0.000  0.990
  0.002  0.947  0.048  0.000  0.004
  0.001  0.047  0.952  0.000  0.000
  0.991  0.003  0.000  0.000  0.006
  0.000  0.000  0.000  1.000  0.000
    occupations:
  0.440  0.016  0.004 -0.023 -0.000
  0.016  0.185 -0.006  0.000 -0.002
  0.004 -0.006  0.208  0.001 -0.000
 -0.023  0.000  0.001  0.151 -0.000
 -0.000 -0.002 -0.000 -0.000  0.419
atom   22   Tr[ns(na)] =   2.80113
    eigenvalues:
  0.158  0.202  0.217  0.374  0.449
    eigenvectors:
  0.000  0.000  0.916  0.084  0.000
  0.000  0.000  0.000  0.000  1.000
  1.000  0.000  0.000  0.000  0.000
  0.000  0.000  0.084  0.916  0.000
  0.000  1.000  0.000  0.000  0.000
    occupations:
  0.230 -0.000 -0.000  0.044  0.000
 -0.000  0.449  0.000 -0.000 -0.000
 -0.000  0.000  0.158  0.000  0.000
  0.044 -0.000  0.000  0.361 -0.000
  0.000 -0.000  0.000 -0.000  0.202
atom   23   Tr[ns(na)] =   2.71351
    eigenvalues:
  0.160  0.204  0.215  0.326  0.452
    eigenvectors:
  0.026  0.000  0.000  0.974  0.000
  0.000  0.000  1.000  0.000  0.000
  0.000  1.000  0.000  0.000  0.000
  0.974  0.000  0.000  0.026  0.000
  0.000  0.000  0.000  0.000  1.000
    occupations:
  0.322 -0.000 -0.000 -0.026 -0.000
 -0.000  0.215 -0.000 -0.000  0.000
 -0.000 -0.000  0.204 -0.000  0.000
 -0.026 -0.000 -0.000  0.164 -0.000
 -0.000  0.000  0.000 -0.000  0.452
N of occupied +U levels =  21.9940215
 --- exit write_ns ---

     Threshold (ethr) on eigenvalues was too large:
     Diagonalizing with lowered threshold

     Davidson diagonalization with overlap
     ethr =  8.68E-09,  avg # of iterations =  2.0

[...]

     total energy              =   -1532.71749854 Ry
     Harris-Foulkes estimate   =   -1532.71749854 Ry
     estimated scf accuracy    <       0.00000001 Ry

     iteration #  8     ecut=    40.00 Ry     beta=0.70
     Davidson diagonalization with overlap
     ethr =  5.32E-12,  avg # of iterations =  1.3

     negative rho (up, down):  0.106E+00 0.000E+00

     End of self-consistent calculation
 --- enter write_ns ---
 LDA+U parameters:
U( 2)     =  4.00000000
alpha( 2) =  0.00000000
atom    3   Tr[ns(na)] =   2.67676
    eigenvalues:
  0.145  0.168  0.198  0.413  0.414
    eigenvectors:
  0.784  0.000  0.018  0.000  0.198
  0.000  0.002  0.000  0.997  0.000
  0.019  0.000  0.980  0.000  0.000
  0.197  0.000  0.002  0.000  0.801
  0.000  0.998  0.000  0.002  0.000
    occupations:
  0.199 -0.000 -0.005  0.107 -0.000
 -0.000  0.413  0.000  0.000  0.012
 -0.005  0.000  0.198  0.007 -0.000
  0.107  0.000  0.007  0.361 -0.000
 -0.000  0.012 -0.000 -0.000  0.169
atom    4   Tr[ns(na)] =   2.80513
    eigenvalues:
  0.149  0.183  0.210  0.419  0.443
    eigenvectors:
  0.006  0.003  0.000  0.000  0.990
  0.002  0.947  0.048  0.000  0.004
  0.001  0.047  0.952  0.000  0.000
  0.991  0.003  0.000  0.000  0.006
  0.000  0.000  0.000  1.000  0.000
    occupations:
  0.440  0.016  0.004 -0.023 -0.000
  0.016  0.185 -0.006  0.000 -0.002
  0.004 -0.006  0.208  0.001 -0.000
 -0.023  0.000  0.001  0.151 -0.000
 -0.000 -0.002 -0.000 -0.000  0.419
atom    9   Tr[ns(na)] =   2.80100
    eigenvalues:
  0.158  0.202  0.217  0.374  0.449
    eigenvectors:
  0.000  0.000  0.916  0.084  0.000
  0.000  0.000  0.000  0.000  1.000
  1.000  0.000  0.000  0.000  0.000
  0.000  0.000  0.084  0.916  0.000
  0.000  1.000  0.000  0.000  0.000
    occupations:
  0.230 -0.000 -0.000  0.044  0.000
 -0.000  0.449  0.000 -0.000 -0.000
 -0.000  0.000  0.158  0.000  0.000
  0.044 -0.000  0.000  0.361 -0.000
  0.000 -0.000  0.000 -0.000  0.202
atom   10   Tr[ns(na)] =   2.71464
    eigenvalues:
  0.160  0.204  0.215  0.326  0.452
    eigenvectors:
  0.026  0.000  0.000  0.974  0.000
  0.000  0.000  1.000  0.000  0.000
  0.000  1.000  0.000  0.000  0.000
  0.974  0.000  0.000  0.026  0.000
  0.000  0.000  0.000  0.000  1.000
    occupations:
  0.322 -0.000 -0.000 -0.026 -0.000
 -0.000  0.215 -0.000 -0.000  0.000
 -0.000 -0.000  0.204 -0.000  0.000
 -0.026 -0.000 -0.000  0.164 -0.000
 -0.000  0.000  0.000 -0.000  0.452
atom   16   Tr[ns(na)] =   2.67676
    eigenvalues:
  0.145  0.168  0.198  0.413  0.414
    eigenvectors:
  0.784  0.000  0.018  0.000  0.198
  0.000  0.002  0.000  0.997  0.000
  0.019  0.000  0.980  0.000  0.000
  0.197  0.000  0.002  0.000  0.801
  0.000  0.998  0.000  0.002  0.000
    occupations:
  0.199 -0.000 -0.005  0.107 -0.000
 -0.000  0.413  0.000  0.000  0.012
 -0.005  0.000  0.198  0.007 -0.000
  0.107  0.000  0.007  0.361 -0.000
 -0.000  0.012 -0.000 -0.000  0.169
atom   17   Tr[ns(na)] =   2.80513
    eigenvalues:
  0.149  0.183  0.210  0.419  0.443
    eigenvectors:
  0.006  0.003  0.000  0.000  0.990
  0.002  0.947  0.048  0.000  0.004
  0.001  0.047  0.952  0.000  0.000
  0.991  0.003  0.000  0.000  0.006
  0.000  0.000  0.000  1.000  0.000
    occupations:
  0.440  0.016  0.004 -0.023 -0.000
  0.016  0.185 -0.006  0.000 -0.002
  0.004 -0.006  0.208  0.001 -0.000
 -0.023  0.000  0.001  0.151 -0.000
 -0.000 -0.002 -0.000 -0.000  0.419
atom   22   Tr[ns(na)] =   2.80100
    eigenvalues:
  0.158  0.202  0.217  0.374  0.449
    eigenvectors:
  0.000  0.000  0.916  0.084  0.000
  0.000  0.000  0.000  0.000  1.000
  1.000  0.000  0.000  0.000  0.000
  0.000  0.000  0.084  0.916  0.000
  0.000  1.000  0.000  0.000  0.000
    occupations:
  0.230 -0.000 -0.000  0.044  0.000
 -0.000  0.449  0.000 -0.000 -0.000
 -0.000  0.000  0.158  0.000  0.000
  0.044 -0.000  0.000  0.361 -0.000
  0.000 -0.000  0.000 -0.000  0.202
atom   23   Tr[ns(na)] =   2.71464
    eigenvalues:
  0.160  0.204  0.215  0.326  0.452
    eigenvectors:
  0.026  0.000  0.000  0.974  0.000
  0.000  0.000  1.000  0.000  0.000
  0.000  1.000  0.000  0.000  0.000
  0.974  0.000  0.000  0.026  0.000
  0.000  0.000  0.000  0.000  1.000
    occupations:
  0.322 -0.000 -0.000 -0.026 -0.000
 -0.000  0.215 -0.000 -0.000  0.000
 -0.000 -0.000  0.204 -0.000  0.000
 -0.026 -0.000 -0.000  0.164 -0.000
 -0.000  0.000  0.000 -0.000  0.452
N of occupied +U levels =  21.9950605
 --- exit write_ns ---

[...]

          k = 0.2500-0.4516 0.0000 ( 29882 PWs)   bands (ev):

[...]

          k =-0.2500 0.2258 0.0000 ( 29912 PWs)   bands (ev):

   -61.6530 -61.6279 -61.2420 -61.2161 -59.9990 -59.9711 -59.5276 -59.5005
   -38.1102 -37.8693 -37.8392 -37.8018 -37.6922 -37.6708 -37.5648 -37.5595
   -37.5371 -37.3918 -37.3290 -37.2780 -36.5369 -36.3131 -36.2410 -36.2277
   -36.0422 -36.0198 -35.8676 -35.8583 -35.8455 -35.7240 -35.6566 -35.5486
   -22.2490 -22.0331 -20.9759 -20.7907 -20.3717 -20.2713 -19.9634 -19.7697
   -19.7487 -19.6511 -19.5396 -19.5031 -19.3760 -19.2457 -18.6660 -18.3155
   -18.0354 -17.9803  -9.8892  -9.6261  -8.1466  -7.9539  -7.8620  -7.8414
    -7.8072  -7.7594  -7.4153  -7.3824  -7.2057  -7.1026  -7.0897  -7.0522
    -6.9921  -6.8140  -6.7633  -6.6611  -6.5059  -6.4247  -6.1368  -6.0878
    -6.0204  -5.8081  -5.7612  -5.6594  -5.6332  -5.4710  -5.3733  -5.3637
    -5.2745  -5.1692  -5.1250  -5.0901  -5.0124  -4.9946  -4.8615  -4.7516
    -4.6681  -4.5397  -4.4475  -4.4254  -3.9369  -3.7414  -3.5421  -3.4596
    -3.3718  -3.3121  -3.1712  -3.1191  -3.1109  -2.8768  -2.8182  -2.6723
    -1.1195  -0.8575  -0.7446  -0.6617  -0.6290  -0.4524  -0.4195  -0.3313
    -0.0489   0.0040   0.1011   0.1691   0.2529   0.4249   0.7132   0.8100
     0.9410   1.0037   1.0843   1.2821   1.3771   1.3834   1.4335   1.5060
     1.5384   1.5891   1.6186   1.7198   1.7503   1.9914   2.0642   2.3905
     2.8810   2.9820   3.1164   3.1932   3.3925   3.4545   3.5871   3.8075
     4.0333   4.1540   4.1986   4.5839   4.9630   4.9712   5.2519   5.7021
     5.7879   5.8814   5.9871   6.1010   6.1727   6.4801   6.4985   6.8185
     6.8583   7.1312   7.2577   7.3854   7.5104   7.6669   7.6850   7.8429
     7.8800   8.0222   8.0332   8.2216   8.4670   8.4937   8.6112   8.6766
     8.8110   8.9658   9.2599   9.3016   9.3092   9.3856   9.4583   9.4822
     9.5092   9.6470   9.8376   9.9989  10.0080  10.1230  10.2148  10.3921
    10.4255  10.5954  10.5978  10.7098  10.8146  10.9179  10.9359  10.9726
    11.1015  11.2317  11.2876  11.3537  11.3791  11.4637  11.5178  11.6411
    11.6578  11.7405  11.8666  11.9521  11.9597  11.9906  12.1079  12.2459
    12.2986  12.3559  12.5202  12.6046  12.6474  12.6484  12.7355  12.8689
    12.8777  12.9735  13.0324  13.2239  13.2369  13.3533  13.3741  13.4513
    13.5542  13.6314  13.6988  13.7127  13.7660  13.8129  13.9111  14.0213
    14.0602  14.1802  14.2164  14.2994  14.4018  14.4845  14.5807  14.5830
    14.6659  14.6716  14.7750  14.9402  14.9754  15.0104  15.1030  15.2516
    15.3320  15.3406  15.4839  15.5043  15.6447  15.7048  15.7250  15.7572
    15.8140  15.8888  15.9354  16.0420  16.1208  16.1316  16.2370  16.3229
    16.3945  16.5767  16.6375  16.6527  16.7708  16.8158  16.8404  16.8653
    16.9161  16.9859  17.0739  17.0775  17.2255  17.2483  17.2966  17.4000
    17.4273  17.4879  17.4941  17.5965  17.7082  17.7853  17.8209  17.9722
    18.0343  18.1760  18.1999  18.2544

     the Fermi energy is    -2.5734 ev

!    total energy              =   -1532.71749854 Ry
     Harris-Foulkes estimate   =   -1532.71749854 Ry
     estimated scf accuracy    <          2.3E-09 Ry

     The total energy is the sum of the following terms:

     one-electron contribution =  -18279.36541189 Ry
     hartree contribution      =    9152.04713891 Ry
     xc contribution           =    -269.71193324 Ry
     ewald contribution        =    7862.12504491 Ry
     Hubbard energy            =       2.18642251 Ry
     smearing contrib. (-TS)   =       0.00124026 Ry

     convergence has been achieved in   8 iterations

     Forces acting on atoms (Ry/au):

     negative rho (up, down):  0.106E+00 0.000E+00
     atom    1 type  1   force =    -0.00187772   -0.01696689    0.00044852
     atom    2 type  1   force =     0.00002721    0.02342537   -0.00042303
     atom    3 type  2   force =     0.00015624   -0.01333816    0.00022745
     atom    4 type  2   force =    -0.00141508    0.00957104    0.00022656
     atom    5 type  1   force =     0.00308884   -0.10903804    0.00003098
     atom    6 type  1   force =    -0.00114950    0.10746649    0.00008477
     atom    7 type  1   force =    -0.00003924    0.00085262    0.00046437
     atom    8 type  1   force =     0.00162325   -0.00165187    0.00046938
     atom    9 type  2   force =    -0.00039851    0.00012696   -0.00005051
     atom   10 type  2   force =    -0.00003439   -0.00036448    0.00069196
     atom   11 type  1   force =     0.00006060   -0.04390566   -0.00031246
     atom   12 type  1   force =    -0.00000944    0.04397963   -0.00031931
     atom   13 type  1   force =     0.00028096   -0.00004979   -0.00037277
     atom   14 type  1   force =    -0.00187773   -0.01696689    0.00044852
     atom   15 type  1   force =     0.00002721    0.02342537   -0.00042303
     atom   16 type  2   force =     0.00015624   -0.01333816    0.00022745
     atom   17 type  2   force =    -0.00141507    0.00957104    0.00022656
     atom   18 type  1   force =     0.00308885   -0.10903804    0.00003099
     atom   19 type  1   force =    -0.00114950    0.10746649    0.00008477
     atom   20 type  1   force =    -0.00003924    0.00085262    0.00046437
     atom   21 type  1   force =     0.00162325   -0.00165187    0.00046938
     atom   22 type  2   force =    -0.00039850    0.00012696   -0.00005051
     atom   23 type  2   force =    -0.00003439   -0.00036448    0.00069196
     atom   24 type  1   force =     0.00006060   -0.04390566   -0.00031246
     atom   25 type  1   force =    -0.00000944    0.04397963   -0.00031931
     atom   26 type  1   force =     0.00028096   -0.00004979   -0.00037276
     atom   27 type  3   force =     0.00002081   -0.00025694   -0.00098186
     atom   28 type  3   force =     0.00002081   -0.00025694   -0.00098186
     atom   29 type  3   force =    -0.00033405    0.00014973   -0.00018406
     atom   30 type  3   force =    -0.00033405    0.00014973   -0.00018406

     Total force =     0.002427     Total SCF correction =     0.000180

     bfgs converged in  10 scf cycles and   9 bfgs steps
     (criteria: energy < 0.10E-03, force < 0.10E-02)

     End of BFGS Geometry Optimization

     Final energy   =   -1532.7174985370 Ry
Begin final coordinates

ATOMIC_POSITIONS (crystal)
O0       0.000000000   0.000000000   0.378499333    0   0   1
O0       0.000000000   0.500000000   0.398836482    0   0   1
Ti1      0.250000000   0.500000000   0.450051291    0   0   1
Ti1      0.000000000   0.000000000   0.452048573    0   0   1
O0       0.250000000   0.810000000   0.450564049    0   0   1
O0       0.250000000   0.190000000   0.451600403    0   0   1
O0       0.000000000   0.500000000   0.498741978    0   0   1
O0       0.000000000   0.000000000   0.527333060    0   0   1
Ti1      0.250000000   0.000000000   0.581704288    0   0   1
Ti1      0.000000000   0.500000000   0.570662563    0   0   1
O0       0.250000000   0.690000000   0.581284841    0   0   1
O0       0.250000000   0.310000000   0.581309465    0   0   1
O0       0.000000000   0.000000000   0.624009536    0   0   1
O0       0.500000000   0.000000000   0.378499333    0   0   1
O0       0.500000000   0.500000000   0.398836482    0   0   1
Ti1      0.750000000   0.500000000   0.450051292    0   0   1
Ti1      0.500000000   0.000000000   0.452048573    0   0   1
O0       0.750000000   0.810000000   0.450564048    0   0   1
O0       0.750000000   0.190000000   0.451600403    0   0   1
O0       0.500000000   0.500000000   0.498741978    0   0   1
O0       0.500000000   0.000000000   0.527333060    0   0   1
Ti1      0.750000000   0.000000000   0.581704288    0   0   1
Ti1      0.500000000   0.500000000   0.570662563    0   0   1
O0       0.750000000   0.690000000   0.581284841    0   0   1
O0       0.750000000   0.310000000   0.581309464    0   0   1
O0       0.500000000   0.000000000   0.624009536    0   0   1
H2      -0.000354464   0.632444331   0.380465105
H2       0.499645538   0.632444332   0.380465105
H2       0.151780386   0.023599285   0.364459034
H2       0.651780385   0.023599282   0.364459034
End final coordinates

     General routines

     Parallel routines
     Hubbard U routines

   This run was terminated on:  19: 7:41   6May2014

   JOB DONE.
Running PBS batch system epilogue script
Job id: 340816.audhumbla.fysik.dtu.dk
Username: zhonxu
Groupname: campgst
Jobname: TiO2/Eads-2-layers/bare-U-4.0
Sessionid: 25544
Queuename: verylong
Accounting:
This job has allocated the following 16 nodes:
a059 a059 a059 a059 a059 a059 a059 a059 a051 a051 a051 a051 a051 a051 a051 a051
Finished epilogue job 340816.audhumbla.fysik.dtu.dk for zhonxu