     Program PWSCF v.5.0.2 (svn rev. 9656) starts on  1Jun2014 at  5:30: 9

     Current dimensions of program PWSCF are:
     Max number of different atomic species (ntypx) = 10
     Max number of k-points (npk) =  40000
     Max angular momentum in pseudopotentials (lmaxx) =  3
     Reading input from pwscf.in
Warning: card &CELL ignored
Warning: card / ignored

     Subspace diagonalization in iterative solution of the eigenvalue problem:
     a serial algorithm will be used

     bravais-lattice index     =            0
     lattice parameter (alat)  =      11.1872  a.u.
     unit-cell volume          =    7531.8600 (a.u.)^3
     number of atoms/cell      =           33
     number of atomic types    =            3
     number of electrons       =       229.00
     number of Kohn-Sham states=          343
     kinetic-energy cutoff     =      40.0000  Ry
     charge density cutoff     =     500.0000  Ry
     convergence threshold     =      1.0E-06
     mixing beta               =       0.7000
     number of iterations used =            8  plain     mixing
     Exchange-correlation      = SLA  PW   PBE  PBE ( 1 4 3 4 0)
     EXX-fraction              =        0.00
     nstep                     =           50

     celldm(1)=  11.187179  celldm(2)=   0.000000  celldm(3)=   0.000000
     celldm(4)=   0.000000  celldm(5)=   0.000000  celldm(6)=   0.000000

     crystal axes: (cart. coord. in units of alat)
               a(1) = (   1.000000   0.000000   0.000000 )
               a(2) = (   0.000000   1.180104   0.000000 )
               a(3) = (   0.000000   0.000000   4.558482 )

     reciprocal axes: (cart. coord. in units 2 pi/alat)
               b(1) = (  1.000000  0.000000  0.000000 )
               b(2) = (  0.000000  0.847383  0.000000 )
               b(3) = (  0.000000  0.000000  0.219371 )

     PseudoPot. # 1 for O  read from file:
     /home/camp/zhonxu/pseudo/o_pbe_v1.01.uspp.F.UPF
     MD5 check sum: 2bcb18d16ea4b960afae9ec6d52f22d2
     Pseudo is Ultrasoft + core correction, Zval =  6.0
     Generated by new atomic code, or converted to UPF format
     Using radial grid of  737 points,  5 beta functions with:
                l(1) =   0
                l(2) =   0
                l(3) =   1
                l(4) =   1
                l(5) =   2
     Q(r) pseudized with  8 coefficients,  rinner =    0.900   0.900   0.900
                                                       0.900   0.900

     PseudoPot. # 2 for Nb read from file:
     /home/camp/zhonxu/pseudo/nb_pbe_v1.uspp.F.UPF
     MD5 check sum: 573aab8a2fa660278ed4a62cd769473f
     Pseudo is Ultrasoft + core correction, Zval = 13.0
     Generated by new atomic code, or converted to UPF format
     Using radial grid of  887 points,  6 beta functions with:
                l(1) =   0
                l(2) =   0
                l(3) =   1
                l(4) =   1
                l(5) =   2
                l(6) =   2
     Q(r) pseudized with  6 coefficients,  rinner =    1.000   1.000   1.000
                                                       1.000   1.000

     PseudoPot. # 3 for H  read from file:
     /home/camp/zhonxu/pseudo/h_pbe_v1.uspp.F.UPF
     MD5 check sum: 3408e3ff4ec8b0a4e358431e7e038a48
     Pseudo is Ultrasoft, Zval =  1.0
     Generated by new atomic code, or converted to UPF format
     Using radial grid of  615 points,  2 beta functions with:
                l(1) =   0
                l(2) =   0
     Q(r) pseudized with  8 coefficients,  rinner =    0.700

     atomic species   valence    mass     pseudopotential
        O0             6.00    15.99940     O ( 1.00)
        Nb1           13.00    92.90640     Nb( 1.00)
        H2             1.00     1.00794     H ( 1.00)

     Simplified LDA+U calculation (l_max = 2) with parameters (eV):
     atomic species    L          U    alpha       J0     beta
        Nb1            2     0.5000   0.0000   0.0000   0.0000

     No symmetry found

   Cartesian axes

     site n.     atom                  positions (alat units)
         1           O0  tau(   1) = (   0.0000000   0.0000000   1.6962113  )
         2           O0  tau(   2) = (   0.0000000   0.5900519   1.7723835  )
         3           Nb1 tau(   3) = (   0.2500000   0.5900519   2.0257895  )
         4           Nb1 tau(   4) = (   0.0000000   0.0000000   2.0274306  )
         5           O0  tau(   5) = (   0.2500000   0.9322821   2.0383253  )
         6           O0  tau(   6) = (   0.2500000   0.2478218   2.0381886  )
         7           O0  tau(   7) = (   0.0000000   0.5900519   2.2790132  )
         8           O0  tau(   8) = (   0.0000000   0.0000000   2.3853170  )
         9           Nb1 tau(   9) = (   0.2500000   0.0000000   2.6318397  )
        10           Nb1 tau(  10) = (   0.0000000   0.5900519   2.5956910  )
        11           O0  tau(  11) = (   0.2500000   0.8378738   2.6232242  )
        12           O0  tau(  12) = (   0.2500000   0.3422301   2.6255034  )
        13           O0  tau(  13) = (   0.0000000   0.0000000   2.8344187  )
        14           O0  tau(  14) = (   0.5000000   0.0000000   1.6974420  )
        15           O0  tau(  15) = (   0.5000000   0.5900519   1.7789021  )
        16           Nb1 tau(  16) = (   0.7500000   0.5900519   2.0259719  )
        17           Nb1 tau(  17) = (   0.5000000   0.0000000   2.0298010  )
        18           O0  tau(  18) = (   0.7500000   0.9322821   2.0382798  )
        19           O0  tau(  19) = (   0.7500000   0.2478218   2.0381886  )
        20           O0  tau(  20) = (   0.5000000   0.5900519   2.2737254  )
        21           O0  tau(  21) = (   0.5000000   0.0000000   2.3845421  )
        22           Nb1 tau(  22) = (   0.7500000   0.0000000   2.6318397  )
        23           Nb1 tau(  23) = (   0.5000000   0.5900519   2.6269166  )
        24           O0  tau(  24) = (   0.7500000   0.8378738   2.6231786  )
        25           O0  tau(  25) = (   0.7500000   0.3422301   2.6254579  )
        26           O0  tau(  26) = (   0.5000000   0.0000000   2.8332335  )
        27           H2  tau(  27) = (  -0.0005200   0.5958463   1.6070929  )
        28           H2  tau(  28) = (   0.4994400   0.5914445   1.6138395  )
        29           H2  tau(  29) = (   0.1507700   0.0008261   1.6243240  )
        30           H2  tau(  30) = (   0.6503900   0.0006019   1.6249166  )
        31           O0  tau(  31) = (   0.5000000   0.6010623   2.9587285  )
        32           O0  tau(  32) = (   0.5000000   0.4103103   3.1155403  )
        33           H2  tau(  33) = (   0.5000000   0.4955964   3.2584031  )

     number of k points=    10  Methfessel-Paxton smearing, width (Ry)=  0.0100
                       cart. coord. in units 2pi/alat
        k(    1) = (   0.0000000   0.0000000   0.0000000), wk =   0.1250000
        k(    2) = (   0.0000000   0.2118458   0.0000000), wk =   0.2500000
        k(    3) = (   0.0000000  -0.4236915   0.0000000), wk =   0.1250000
        k(    4) = (   0.2500000   0.0000000   0.0000000), wk =   0.2500000
        k(    5) = (   0.2500000   0.2118458   0.0000000), wk =   0.2500000
        k(    6) = (   0.2500000  -0.4236915   0.0000000), wk =   0.2500000
        k(    7) = (  -0.5000000   0.0000000   0.0000000), wk =   0.1250000
        k(    8) = (  -0.5000000   0.2118458   0.0000000), wk =   0.2500000
        k(    9) = (  -0.5000000  -0.4236915   0.0000000), wk =   0.1250000
        k(   10) = (  -0.2500000   0.2118458   0.0000000), wk =   0.2500000

     Largest allocated arrays     est. size (Mb)     dimensions
     Largest temporary arrays     est. size (Mb)     dimensions

     Check: negative/imaginary core charge=   -0.000003    0.000000

     Initial potential from superposition of free atoms
     Check: negative starting charge=   -0.003307

     starting charge  228.97806, renormalised to  229.00000

     negative rho (up, down):  0.331E-02 0.000E+00
     Number of +U iterations with fixed ns =  0
     Starting occupations:
 --- enter write_ns ---
 LDA+U parameters:
U( 2)     =  0.50000000
alpha( 2) =  0.00000000
atom    3   Tr[ns(na)] =   3.00000
    eigenvalues:
  0.300  0.300  0.300  0.300  0.300
    eigenvectors:
  1.000  0.000  0.000  0.000  0.000
  0.000  1.000  0.000  0.000  0.000
  0.000  0.000  1.000  0.000  0.000
  0.000  0.000  0.000  1.000  0.000
  0.000  0.000  0.000  0.000  1.000
    occupations:
  0.300  0.000  0.000  0.000  0.000
  0.000  0.300  0.000  0.000  0.000
  0.000  0.000  0.300  0.000  0.000
  0.000  0.000  0.000  0.300  0.000
  0.000  0.000  0.000  0.000  0.300
atom    4   Tr[ns(na)] =   3.00000
    eigenvalues:
  0.300  0.300  0.300  0.300  0.300
    eigenvectors:
  1.000  0.000  0.000  0.000  0.000
  0.000  1.000  0.000  0.000  0.000
  0.000  0.000  1.000  0.000  0.000
  0.000  0.000  0.000  1.000  0.000
  0.000  0.000  0.000  0.000  1.000
    occupations:
  0.300  0.000  0.000  0.000  0.000
  0.000  0.300  0.000  0.000  0.000
  0.000  0.000  0.300  0.000  0.000
  0.000  0.000  0.000  0.300  0.000
  0.000  0.000  0.000  0.000  0.300
atom    9   Tr[ns(na)] =   3.00000
    eigenvalues:
  0.300  0.300  0.300  0.300  0.300
    eigenvectors:
  1.000  0.000  0.000  0.000  0.000
  0.000  1.000  0.000  0.000  0.000
  0.000  0.000  1.000  0.000  0.000
  0.000  0.000  0.000  1.000  0.000
  0.000  0.000  0.000  0.000  1.000
    occupations:
  0.300  0.000  0.000  0.000  0.000
  0.000  0.300  0.000  0.000  0.000
  0.000  0.000  0.300  0.000  0.000
  0.000  0.000  0.000  0.300  0.000
  0.000  0.000  0.000  0.000  0.300
atom   10   Tr[ns(na)] =   3.00000
    eigenvalues:
  0.300  0.300  0.300  0.300  0.300
    eigenvectors:
  1.000  0.000  0.000  0.000  0.000
  0.000  1.000  0.000  0.000  0.000
  0.000  0.000  1.000  0.000  0.000
  0.000  0.000  0.000  1.000  0.000
  0.000  0.000  0.000  0.000  1.000
    occupations:
  0.300  0.000  0.000  0.000  0.000
  0.000  0.300  0.000  0.000  0.000
  0.000  0.000  0.300  0.000  0.000
  0.000  0.000  0.000  0.300  0.000
  0.000  0.000  0.000  0.000  0.300
atom   16   Tr[ns(na)] =   3.00000
    eigenvalues:
  0.300  0.300  0.300  0.300  0.300
    eigenvectors:
  1.000  0.000  0.000  0.000  0.000
  0.000  1.000  0.000  0.000  0.000
  0.000  0.000  1.000  0.000  0.000
  0.000  0.000  0.000  1.000  0.000
  0.000  0.000  0.000  0.000  1.000
    occupations:
  0.300  0.000  0.000  0.000  0.000
  0.000  0.300  0.000  0.000  0.000
  0.000  0.000  0.300  0.000  0.000
  0.000  0.000  0.000  0.300  0.000
  0.000  0.000  0.000  0.000  0.300
atom   17   Tr[ns(na)] =   3.00000
    eigenvalues:
  0.300  0.300  0.300  0.300  0.300
    eigenvectors:
  1.000  0.000  0.000  0.000  0.000
  0.000  1.000  0.000  0.000  0.000
  0.000  0.000  1.000  0.000  0.000
  0.000  0.000  0.000  1.000  0.000
  0.000  0.000  0.000  0.000  1.000
    occupations:
  0.300  0.000  0.000  0.000  0.000
  0.000  0.300  0.000  0.000  0.000
  0.000  0.000  0.300  0.000  0.000
  0.000  0.000  0.000  0.300  0.000
  0.000  0.000  0.000  0.000  0.300
atom   22   Tr[ns(na)] =   3.00000
    eigenvalues:
  0.300  0.300  0.300  0.300  0.300
    eigenvectors:
  1.000  0.000  0.000  0.000  0.000
  0.000  1.000  0.000  0.000  0.000
  0.000  0.000  1.000  0.000  0.000
[...]
    occupations:
  0.480 -0.000  0.000  0.045  0.000
 -0.000  0.607  0.000 -0.001  0.000
  0.000  0.000  0.495  0.000  0.007
  0.045 -0.001  0.000  0.585 -0.000
  0.000  0.000  0.007 -0.000  0.475
atom   10   Tr[ns(na)] =   5.12522
    eigenvalues:
  0.429  0.469  0.505  0.543  0.616
    eigenvectors:
  0.000  0.000  0.998  0.000  0.002
  0.000  1.000  0.000  0.000  0.000
  1.000  0.000  0.000  0.000  0.000
  0.000  0.000  0.002  0.000  0.998
  0.000  0.000  0.000  1.000  0.000
    occupations:
  0.506  0.000 -0.000  0.004 -0.000
  0.000  0.469 -0.000  0.000  0.001
 -0.000 -0.000  0.429  0.000  0.000
  0.004  0.000  0.000  0.615  0.000
 -0.000  0.001  0.000  0.000  0.543
atom   16   Tr[ns(na)] =   5.24105
    eigenvalues:
  0.434  0.447  0.522  0.570  0.647
    eigenvectors:
  0.000  0.000  0.005  0.470  0.524
  0.000  0.000  0.991  0.009  0.000
  0.122  0.878  0.000  0.000  0.000
  0.000  0.000  0.003  0.521  0.476
  0.878  0.122  0.000  0.000  0.000
    occupations:
  0.610  0.004  0.002 -0.038  0.002
  0.004  0.523  0.000  0.002 -0.000
  0.002  0.000  0.446 -0.001 -0.004
 -0.038  0.002 -0.001  0.606 -0.002
  0.002 -0.000 -0.004 -0.002  0.436
atom   17   Tr[ns(na)] =   5.24105
    eigenvalues:
  0.423  0.458  0.547  0.578  0.614
    eigenvectors:
  0.000  0.005  0.000  0.995  0.001
  0.000  0.995  0.000  0.005  0.001
  1.000  0.000  0.000  0.000  0.000
  0.000  0.001  0.000  0.001  0.998
  0.000  0.000  1.000  0.000  0.000
    occupations:
  0.577  0.008 -0.000  0.001  0.000
  0.008  0.459 -0.000 -0.005 -0.000
 -0.000 -0.000  0.423  0.000  0.001
  0.001 -0.005  0.000  0.614  0.000
  0.000 -0.000  0.001  0.000  0.547
atom   22   Tr[ns(na)] =   5.28337
    eigenvalues:
  0.463  0.473  0.498  0.602  0.607
    eigenvectors:
  0.878  0.000  0.000  0.120  0.002
  0.000  0.000  0.000  0.017  0.983
  0.000  0.095  0.905  0.000  0.000
  0.122  0.000  0.000  0.863  0.015
  0.000  0.904  0.095  0.000  0.000
    occupations:
  0.480  0.000  0.000  0.045 -0.000
  0.000  0.607 -0.000  0.001  0.000
  0.000 -0.000  0.495  0.000 -0.007
  0.045  0.001  0.000  0.585  0.000
 -0.000  0.000 -0.007  0.000  0.475
atom   23   Tr[ns(na)] =   5.26015
    eigenvalues:
  0.427  0.482  0.546  0.576  0.599
    eigenvectors:
  0.003  0.000  0.000  0.989  0.008
  0.000  0.996  0.004  0.000  0.000
  0.997  0.000  0.000  0.003  0.000
  0.000  0.000  0.000  0.008  0.992
  0.000  0.004  0.996  0.000  0.000
    occupations:
  0.576  0.000  0.008  0.002 -0.000
  0.000  0.482 -0.000 -0.000 -0.004
  0.008 -0.000  0.427  0.003  0.000
  0.002 -0.000  0.003  0.599 -0.000
 -0.000 -0.004  0.000 -0.000  0.546
N of occupied +U levels =  41.9194366
 --- exit write_ns ---

     Threshold (ethr) on eigenvalues was too large:
     Diagonalizing with lowered threshold

     Davidson diagonalization with overlap
     ethr =  2.34E-09,  avg # of iterations =  3.0

[...]

     total energy              =   -1595.36457008 Ry
     Harris-Foulkes estimate   =   -1595.36457008 Ry
     estimated scf accuracy    <       0.00000002 Ry

     iteration # 10     ecut=    40.00 Ry     beta=0.70
     Davidson diagonalization with overlap
     ethr =  9.25E-12,  avg # of iterations =  1.0

     negative rho (up, down):  0.332E-02 0.000E+00

     End of self-consistent calculation
 --- enter write_ns ---
 LDA+U parameters:
U( 2)     =  0.50000000
alpha( 2) =  0.00000000
atom    3   Tr[ns(na)] =   5.24004
    eigenvalues:
  0.435  0.445  0.522  0.570  0.647
    eigenvectors:
  0.000  0.000  0.005  0.470  0.525
  0.000  0.000  0.992  0.008  0.000
  0.038  0.962  0.000  0.000  0.000
  0.000  0.000  0.003  0.522  0.475
  0.962  0.038  0.000  0.000  0.000
    occupations:
  0.610 -0.004  0.002 -0.039 -0.002
 -0.004  0.523 -0.000 -0.002 -0.000
  0.002 -0.000  0.445 -0.001 -0.002
 -0.039 -0.002 -0.001  0.607  0.002
 -0.002 -0.000 -0.002  0.002  0.435
atom    4   Tr[ns(na)] =   5.24504
    eigenvalues:
  0.420  0.454  0.547  0.577  0.624
    eigenvectors:
  0.000  0.005  0.000  0.995  0.000
  0.000  0.995  0.000  0.005  0.001
  1.000  0.000  0.000  0.000  0.000
  0.000  0.001  0.000  0.000  0.999
  0.000  0.000  1.000  0.000  0.000
    occupations:
  0.576  0.008 -0.000  0.001  0.000
  0.008  0.454 -0.000 -0.005  0.000
 -0.000 -0.000  0.420 -0.000  0.001
  0.001 -0.005 -0.000  0.624  0.000
  0.000  0.000  0.001  0.000  0.547
atom    9   Tr[ns(na)] =   5.28355
    eigenvalues:
  0.463  0.473  0.498  0.602  0.607
    eigenvectors:
  0.878  0.000  0.000  0.119  0.003
  0.000  0.000  0.000  0.022  0.978
  0.000  0.094  0.906  0.000  0.000
  0.122  0.000  0.000  0.859  0.019
  0.000  0.906  0.094  0.000  0.000
    occupations:
  0.480 -0.000  0.000  0.045  0.000
 -0.000  0.607  0.000 -0.001  0.000
  0.000  0.000  0.495  0.000  0.007
  0.045 -0.001  0.000  0.585 -0.000
  0.000  0.000  0.007 -0.000  0.475
atom   10   Tr[ns(na)] =   5.12495
    eigenvalues:
  0.429  0.469  0.505  0.543  0.616
    eigenvectors:
  0.000  0.000  0.998  0.000  0.002
  0.000  1.000  0.000  0.000  0.000
  1.000  0.000  0.000  0.000  0.000
  0.000  0.000  0.002  0.000  0.998
  0.000  0.000  0.000  1.000  0.000
    occupations:
  0.506  0.000 -0.000  0.004 -0.000
  0.000  0.469 -0.000  0.000  0.001
 -0.000 -0.000  0.429  0.000  0.000
  0.004  0.000  0.000  0.615  0.000
 -0.000  0.001  0.000  0.000  0.543
atom   16   Tr[ns(na)] =   5.24048
    eigenvalues:
  0.434  0.447  0.522  0.570  0.646
    eigenvectors:
  0.000  0.000  0.005  0.471  0.524
  0.000  0.000  0.991  0.009  0.000
  0.118  0.882  0.000  0.000  0.000
  0.000  0.000  0.003  0.521  0.476
  0.882  0.118  0.000  0.000  0.000
    occupations:
  0.610  0.004  0.002 -0.038  0.002
  0.004  0.523  0.000  0.002 -0.000
  0.002  0.000  0.446 -0.001 -0.004
 -0.038  0.002 -0.001  0.606 -0.002
  0.002 -0.000 -0.004 -0.002  0.436
atom   17   Tr[ns(na)] =   5.24196
    eigenvalues:
  0.423  0.459  0.547  0.578  0.614
    eigenvectors:
  0.000  0.005  0.000  0.995  0.001
  0.000  0.995  0.000  0.005  0.001
  1.000  0.000  0.000  0.000  0.000
  0.000  0.001  0.000  0.001  0.998
  0.000  0.000  1.000  0.000  0.000
    occupations:
  0.577  0.008 -0.000  0.001  0.000
  0.008  0.459 -0.000 -0.005 -0.000
 -0.000 -0.000  0.423  0.000  0.001
  0.001 -0.005  0.000  0.614  0.000
  0.000 -0.000  0.001  0.000  0.547
atom   22   Tr[ns(na)] =   5.28350
    eigenvalues:
  0.463  0.473  0.498  0.602  0.607
    eigenvectors:
  0.878  0.000  0.000  0.120  0.002
  0.000  0.000  0.000  0.017  0.983
  0.000  0.096  0.904  0.000  0.000
  0.122  0.000  0.000  0.863  0.015
  0.000  0.904  0.096  0.000  0.000
    occupations:
  0.480  0.000  0.000  0.045 -0.000
  0.000  0.607 -0.000  0.001  0.000
  0.000 -0.000  0.495  0.000 -0.007
  0.045  0.001  0.000  0.585  0.000
 -0.000  0.000 -0.007  0.000  0.475
atom   23   Tr[ns(na)] =   5.26004
    eigenvalues:
  0.426  0.482  0.546  0.576  0.599
    eigenvectors:
  0.003  0.000  0.000  0.989  0.008
  0.000  0.996  0.004  0.000  0.000
  0.997  0.000  0.000  0.003  0.000
  0.000  0.000  0.000  0.008  0.992
  0.000  0.004  0.996  0.000  0.000
    occupations:
  0.576  0.000  0.008  0.002 -0.000
  0.000  0.482 -0.000 -0.000 -0.004
  0.008 -0.000  0.427  0.003  0.000
  0.002 -0.000  0.003  0.599 -0.000
 -0.000 -0.004  0.000 -0.000  0.546
N of occupied +U levels =  41.9195655
 --- exit write_ns ---

[...]

          k = 0.2500-0.4237 0.0000 ( 32188 PWs)   bands (ev):

[...]

          k =-0.2500 0.2118 0.0000 ( 32165 PWs)   bands (ev):

   -56.0335 -55.9696 -55.6067 -55.5773 -55.5515 -55.5504 -55.5215 -55.4343
   -32.8402 -32.2342 -32.1378 -32.1174 -32.0921 -32.0902 -32.0573 -32.0202
   -32.0074 -31.9262 -31.9203 -31.9006 -31.8505 -31.8228 -31.7522 -31.6305
   -31.6075 -31.5443 -31.5025 -31.4844 -31.4362 -31.4152 -31.3987 -31.3548
   -22.3466 -20.3112 -19.9850 -19.1301 -18.8393 -18.7728 -18.6489 -18.5751
   -18.4911 -18.4889 -18.4424 -18.3965 -17.9845 -17.8736 -17.8561 -17.7773
   -17.7748 -17.6487 -17.5104 -16.1757  -8.7389  -8.3317  -7.7752  -7.3700
    -6.7798  -6.5807  -6.4966  -6.4030  -6.2910  -6.2738  -6.1339  -6.0627
    -5.9467  -5.9356  -5.7972  -5.7166  -5.6309  -5.6070  -5.4071  -5.3865
    -5.3358  -5.2637  -5.0611  -4.9201  -4.7894  -4.7409  -4.5127  -4.4812
    -4.3935  -4.2959  -4.1346  -4.0608  -4.0238  -3.9624  -3.8198  -3.7779
    -3.7242  -3.7001  -3.6678  -3.6096  -3.5041  -3.4172  -3.3646  -3.3044
    -3.2381  -3.0943  -3.0050  -2.9275  -2.8680  -2.8386  -2.7154  -2.6289
    -2.5461  -2.5120  -2.3743  -2.3448  -2.1214  -1.9287  -0.9063   0.1592
     0.7590   0.8048   1.0500   1.1988   1.4474   1.7300   1.9010   1.9459
     2.0592   2.2292   2.2950   2.3703   2.4955   2.5939   2.7198   2.7637
     2.8278   2.9197   2.9819   3.0847   3.1353   3.1917   3.2236   3.4616
     3.7183   4.1308   4.3356   4.4607   4.6984   4.8243   5.0698   5.3379
     5.3553   5.4107   5.5478   5.5863   5.6964   5.7892   5.8747   5.9162
     6.0417   6.0871   6.1563   6.2466   6.4304   6.5670   6.6245   6.7574
     6.8097   6.9323   6.9581   7.1192   7.2089   7.3925   7.4557   7.5066
     7.6376   7.7767   7.8879   8.0116   8.0755   8.1417   8.3174   8.3637
     8.5136   8.6115   8.7250   8.7824   8.9471   8.9948   9.0576   9.2539
     9.3311   9.3962   9.4573   9.5542   9.6561   9.7622   9.8803   9.9415
    10.0552  10.1219  10.2139  10.3224  10.4056  10.4378  10.6088  10.7665
    10.8386  10.9860  11.0237  11.1022  11.1670  11.2017  11.3272  11.4010
    11.4774  11.5954  11.6315  11.6548  11.6805  11.8470  11.8897  11.9968
    12.1117  12.1686  12.2297  12.3193  12.4474  12.5401  12.6239  12.7046
    12.7276  12.7788  12.8842  12.9134  12.9399  13.0053  13.0621  13.1814
    13.2375  13.3264  13.3554  13.4174  13.5029  13.5789  13.6235  13.6982
    13.7591  13.8635  13.9109  13.9948  14.0365  14.1071  14.1284  14.2391
    14.3010  14.3827  14.4284  14.4681  14.6493  14.7511  14.8360  14.8795
    14.9601  15.1230  15.1533  15.2351  15.2903  15.3289  15.4088  15.4434
    15.4941  15.5615  15.5955  15.6945  15.7575  15.7944  15.8648  15.8985
    15.9869  16.0515  16.1291  16.1904  16.2797  16.3552  16.3689  16.4292
    16.5589  16.6697  16.6930  16.7455  16.7908  16.8682  16.9188  17.0287
    17.0737  17.1046  17.1827  17.2418  17.3098  17.3598  17.4511  17.4662
    17.5596  17.6095  17.6899  17.8208  17.8702  17.9206  17.9652  18.0525
    18.1175  18.2138  18.3022  18.3410  18.3962  18.5311  18.5587  18.6133
    18.6575  18.7264  18.8007  18.8683  18.9483  18.9888  19.0730  19.1013
    19.1761  19.2667  19.2982  19.3483  19.4289  19.4586  19.5049  19.6086
    19.6996  19.7420  19.7648  19.8044  19.8801  19.9185  19.9708  20.0299
    20.0678  20.1483  20.1770  20.2363  20.2798  20.3447  20.4068

     the Fermi energy is     1.1441 ev

!    total energy              =   -1595.36457008 Ry
     Harris-Foulkes estimate   =   -1595.36457008 Ry
     estimated scf accuracy    <          3.2E-09 Ry

     The total energy is the sum of the following terms:

     one-electron contribution =  -19409.39132319 Ry
     hartree contribution      =    9737.86661414 Ry
     xc contribution           =    -294.64491517 Ry
     ewald contribution        =    8370.44692088 Ry
     Hubbard energy            =       0.35933217 Ry
     smearing contrib. (-TS)   =      -0.00119890 Ry

     convergence has been achieved in  10 iterations

     Forces acting on atoms (Ry/au):

     negative rho (up, down):  0.332E-02 0.000E+00
     atom    1 type  1   force =     0.00165215   -0.00023857   -0.00002068
     atom    2 type  1   force =    -0.00071146    0.00026567   -0.00031474
     atom    3 type  2   force =    -0.04117279   -0.00045879    0.00016732
     atom    4 type  2   force =    -0.00464306   -0.00011776   -0.00002470
     atom    5 type  1   force =    -0.00232775   -0.01358646   -0.00002908
     atom    6 type  1   force =    -0.00195935    0.01368592   -0.00003448
     atom    7 type  1   force =    -0.00004028   -0.00025941   -0.00078888
     atom    8 type  1   force =     0.00178776    0.00108200   -0.00015188
     atom    9 type  2   force =    -0.00009639   -0.00043778    0.00020740
     atom   10 type  2   force =     0.00001718    0.00008210    0.00057113
     atom   11 type  1   force =    -0.01465361   -0.01505868    0.00024802
     atom   12 type  1   force =    -0.01266456    0.01818053    0.00023804
     atom   13 type  1   force =     0.00034982   -0.00141126    0.00003853
     atom   14 type  1   force =     0.00064645   -0.00005360   -0.00003680
     atom   15 type  1   force =    -0.00070057   -0.00001884   -0.00011206
     atom   16 type  2   force =     0.04251207   -0.00046331    0.00020158
     atom   17 type  2   force =    -0.00438527    0.00008020    0.00001699
     atom   18 type  1   force =     0.00366671   -0.01337717   -0.00003519
     atom   19 type  1   force =     0.00307436    0.01347942   -0.00003133
     atom   20 type  1   force =     0.00015355   -0.00246690    0.00012994
     atom   21 type  1   force =     0.00183520    0.00047917   -0.00021358
     atom   22 type  2   force =    -0.00039941   -0.00044040    0.00019252
     atom   23 type  2   force =    -0.00004987    0.00182469    0.00006696
     atom   24 type  1   force =     0.01484710   -0.01506217    0.00025338
     atom   25 type  1   force =     0.01285103    0.01817713    0.00025227
     atom   26 type  1   force =     0.00041201   -0.00416684    0.00034090
     atom   27 type  3   force =     0.00000226    0.00016291   -0.00040111
     atom   28 type  3   force =    -0.00000918   -0.00015690    0.00019231
     atom   29 type  3   force =    -0.00002511    0.00004328   -0.00004389
     atom   30 type  3   force =     0.00002737    0.00002127   -0.00004342
     atom   31 type  1   force =    -0.00000310    0.00021137   -0.00038498
     atom   32 type  1   force =     0.00000849   -0.00014413   -0.00001465
     atom   33 type  3   force =    -0.00000179    0.00014332   -0.00043582

     Total force =     0.001533     Total SCF correction =     0.000195
     SCF correction compared to forces is large: reduce conv_thr to get better values

     entering subroutine stress ...

     negative rho (up, down):  0.332E-02 0.000E+00
          total   stress  (Ry/bohr**3)                   (kbar)     P=   -2.08
  -0.00000582  -0.00000006   0.00000212         -0.86     -0.01      0.31
  -0.00000006  -0.00000535  -0.00000000         -0.01     -0.79     -0.00
   0.00000212  -0.00000000  -0.00003132          0.31     -0.00     -4.61

     bfgs converged in   5 scf cycles and   4 bfgs steps
     (criteria: energy < 0.10E-03, force < 0.10E-02)

     End of BFGS Geometry Optimization

     Final energy   =   -1595.3645700763 Ry
Begin final coordinates

ATOMIC_POSITIONS (crystal)
O0       0.000000000   0.000000000   0.372108103    0   0   1
O0       0.000000000   0.500000000   0.388706363    0   0   1
Nb1      0.250000000   0.500000000   0.444369848    0   0   1
Nb1      0.000000000   0.000000000   0.444757739    0   0   1
O0       0.250000000   0.790000000   0.447119766    0   0   1
O0       0.250000000   0.210000000   0.447088068    0   0   1
O0       0.000000000   0.500000000   0.500187711    0   0   1
O0       0.000000000   0.000000000   0.523311103    0   0   1
Nb1      0.250000000   0.000000000   0.577359989    0   0   1
Nb1      0.000000000   0.500000000   0.569470331    0   0   1
O0       0.250000000   0.710000000   0.575501982    0   0   1
O0       0.250000000   0.290000000   0.576000337    0   0   1
O0       0.000000000   0.000000000   0.621818078    0   0   1
O0       0.500000000   0.000000000   0.372370130    0   0   1
O0       0.500000000   0.500000000   0.390304807    0   0   1
Nb1      0.750000000   0.500000000   0.444400136    0   0   1
Nb1      0.500000000   0.000000000   0.445266289    0   0   1
O0       0.750000000   0.790000000   0.447109433    0   0   1
O0       0.750000000   0.210000000   0.447090409    0   0   1
O0       0.500000000   0.500000000   0.498708850    0   0   1
O0       0.500000000   0.000000000   0.523165582    0   0   1
Nb1      0.750000000   0.000000000   0.577356255    0   0   1
Nb1      0.500000000   0.500000000   0.576168827    0   0   1
O0       0.750000000   0.710000000   0.575492009    0   0   1
O0       0.750000000   0.290000000   0.575992762    0   0   1
O0       0.500000000   0.000000000   0.621511892    0   0   1
H2      -0.000520241   0.505016495   0.352442675
H2       0.499432363   0.501083740   0.354089247
H2       0.150736302   0.000729241   0.356319453
H2       0.650350116   0.000526040   0.356451608
O0       0.499998318   0.509216740   0.649020605
O0       0.500005220   0.347948054   0.683404231
H2       0.499997885   0.419936383   0.714795380
End final coordinates

     General routines

     Parallel routines
     Hubbard U routines

   This run was terminated on:  10:21:32   1Jun2014

   JOB DONE.