     Program PWSCF v.5.0.2 (svn rev. 9656) starts on 27Mar2014 at 22:35:23

     Current dimensions of program PWSCF are:
     Max number of different atomic species (ntypx) = 10
     Max number of k-points (npk) =  40000
     Max angular momentum in pseudopotentials (lmaxx) =  3
     Reading input from pwscf.in
Warning: card &CELL ignored
Warning: card / ignored

     Subspace diagonalization in iterative solution of the eigenvalue problem:
     a serial algorithm will be used

     bravais-lattice index     =            0
     lattice parameter (alat)  =      11.7541  a.u.
     unit-cell volume          =    7139.8207 (a.u.)^3
     number of atoms/cell      =           32
     number of atomic types    =            3
     number of electrons       =       239.00
     number of Kohn-Sham states=          358
     kinetic-energy cutoff     =      40.0000  Ry
     charge density cutoff     =     500.0000  Ry
     convergence threshold     =      1.0E-06
     mixing beta               =       0.3000
     number of iterations used =            8  plain     mixing
     Exchange-correlation      = SLA  PW   PBE  PBE ( 1 4 3 4 0)
     EXX-fraction              =        0.00
     nstep                     =           50

     celldm(1)=  11.754097  celldm(2)=   0.000000  celldm(3)=   0.000000
     celldm(4)=   0.000000  celldm(5)=   0.000000  celldm(6)=   0.000000

     crystal axes: (cart. coord. in units of alat)
               a(1) = (   1.000000   0.000000   0.000000 )
               a(2) = (   0.000000   1.034513   0.000000 )
               a(3) = (   0.000000   0.000000   4.249947 )

     reciprocal axes: (cart. coord. in units 2 pi/alat)
               b(1) = (  1.000000  0.000000  0.000000 )
               b(2) = (  0.000000  0.966638  0.000000 )
               b(3) = (  0.000000  0.000000  0.235297 )

     PseudoPot. # 1 for O  read from file:
     /home/camp/zhonxu/pseudo/o_pbe_v1.01.uspp.F.UPF
     MD5 check sum: 2bcb18d16ea4b960afae9ec6d52f22d2
     Pseudo is Ultrasoft + core correction, Zval =  6.0
     Generated by new atomic code, or converted to UPF format
     Using radial grid of  737 points,  5 beta functions with:
                l(1) =   0
                l(2) =   0
                l(3) =   1
                l(4) =   1
                l(5) =   2
     Q(r) pseudized with  8 coefficients,  rinner =    0.900   0.900   0.900
                                                       0.900   0.900

     PseudoPot. # 2 for Rh read from file:
     /home/camp/zhonxu/pseudo/rh_pbe_v1.uspp.F.UPF
     MD5 check sum: 37b626987ad0dd8ec6bf4cc9ef289918
     Pseudo is Ultrasoft + core correction, Zval = 15.0
     Generated by new atomic code, or converted to UPF format
     Using radial grid of  969 points,  7 beta functions with:
                l(1) =   0
                l(2) =   0
                l(3) =   1
                l(4) =   1
                l(5) =   2
                l(6) =   2
                l(7) =   2
     Q(r) pseudized with  6 coefficients,  rinner =    1.050   1.050   1.050
                                                       1.050   1.050

     PseudoPot. # 3 for H  read from file:
     /home/camp/zhonxu/pseudo/h_pbe_v1.uspp.F.UPF
     MD5 check sum: 3408e3ff4ec8b0a4e358431e7e038a48
     Pseudo is Ultrasoft, Zval =  1.0
     Generated by new atomic code, or converted to UPF format
     Using radial grid of  615 points,  2 beta functions with:
                l(1) =   0
                l(2) =   0
     Q(r) pseudized with  8 coefficients,  rinner =    0.700

     atomic species   valence    mass     pseudopotential
        O0             6.00    15.99940     O ( 1.00)
        Rh1           15.00   102.90550     Rh( 1.00)
        H2             1.00     1.00794     H ( 1.00)

     Starting magnetic structure
     atomic species   magnetization
        O0           0.000
        Rh1          0.000
        H2           0.000

     No symmetry found

   Cartesian axes

     site n.     atom                  positions (alat units)
         1           O0  tau(   1) = (   0.0000000   0.0000000   1.6092425  )
         2           O0  tau(   2) = (   0.0000000   0.5172566   1.7020614  )
         3           Rh1 tau(   3) = (   0.2500000   0.5172566   1.9209336  )
         4           Rh1 tau(   4) = (   0.0000000   0.0000000   1.9260761  )
         5           O0  tau(   5) = (   0.2500000   0.8379556   1.9243336  )
         6           O0  tau(   6) = (   0.2500000   0.1965575   1.9234411  )
         7           O0  tau(   7) = (   0.0000000   0.5172566   2.1185137  )
         8           O0  tau(   8) = (   0.0000000   0.0000000   2.2473721  )
         9           Rh1 tau(   9) = (   0.2500000   0.0000000   2.4498821  )
        10           Rh1 tau(  10) = (   0.0000000   0.5172566   2.4276124  )
        11           O0  tau(  11) = (   0.2500000   0.7138141   2.4560020  )
        12           O0  tau(  12) = (   0.2500000   0.3206991   2.4560870  )
        13           O0  tau(  13) = (   0.0000000   0.0000000   2.6421072  )
        14           O0  tau(  14) = (   0.5000000   0.0000000   1.6092425  )
        15           O0  tau(  15) = (   0.5000000   0.5172566   1.7020614  )
        16           Rh1 tau(  16) = (   0.7500000   0.5172566   1.9209336  )
        17           Rh1 tau(  17) = (   0.5000000   0.0000000   1.9260761  )
        18           O0  tau(  18) = (   0.7500000   0.8379556   1.9243336  )
        19           O0  tau(  19) = (   0.7500000   0.1965575   1.9234411  )
        20           O0  tau(  20) = (   0.5000000   0.5172566   2.1185137  )
        21           O0  tau(  21) = (   0.5000000   0.0000000   2.2473721  )
        22           Rh1 tau(  22) = (   0.7500000   0.0000000   2.4498821  )
        23           Rh1 tau(  23) = (   0.5000000   0.5172566   2.4276124  )
        24           O0  tau(  24) = (   0.7500000   0.7138141   2.4560020  )
        25           O0  tau(  25) = (   0.7500000   0.3206991   2.4560870  )
        26           O0  tau(  26) = (   0.5000000   0.0000000   2.6421072  )
        27           H2  tau(  27) = (  -0.0000700   0.6610229   1.6318947  )
        28           H2  tau(  28) = (   0.4999300   0.6610125   1.6318947  )
        29           H2  tau(  29) = (   0.1484400   0.0336527   1.5632581  )
        30           H2  tau(  30) = (   0.6484400   0.0336527   1.5632581  )
        31           O0  tau(  31) = (   0.4966100   0.5169255   2.7405785  )
        32           H2  tau(  32) = (   0.3457800   0.5171635   2.7872854  )

     number of k points=    20  Methfessel-Paxton smearing, width (Ry)=  0.0100
                       cart. coord. in units 2pi/alat
        k(    1) = (   0.0000000   0.0000000   0.0000000), wk =   0.0625000
        k(    2) = (   0.0000000   0.2416596   0.0000000), wk =   0.1250000
        k(    3) = (   0.0000000  -0.4833191   0.0000000), wk =   0.0625000
        k(    4) = (   0.2500000   0.0000000   0.0000000), wk =   0.1250000
        k(    5) = (   0.2500000   0.2416596   0.0000000), wk =   0.1250000
        k(    6) = (   0.2500000  -0.4833191   0.0000000), wk =   0.1250000
        k(    7) = (  -0.5000000   0.0000000   0.0000000), wk =   0.0625000
        k(    8) = (  -0.5000000   0.2416596   0.0000000), wk =   0.1250000
        k(    9) = (  -0.5000000  -0.4833191   0.0000000), wk =   0.0625000
        k(   10) = (  -0.2500000   0.2416596   0.0000000), wk =   0.1250000
        k(   11) = (   0.0000000   0.0000000   0.0000000), wk =   0.0625000
        k(   12) = (   0.0000000   0.2416596   0.0000000), wk =   0.1250000
        k(   13) = (   0.0000000  -0.4833191   0.0000000), wk =   0.0625000
        k(   14) = (   0.2500000   0.0000000   0.0000000), wk =   0.1250000
        k(   15) = (   0.2500000   0.2416596   0.0000000), wk =   0.1250000
        k(   16) = (   0.2500000  -0.4833191   0.0000000), wk =   0.1250000
        k(   17) = (  -0.5000000   0.0000000   0.0000000), wk =   0.0625000
        k(   18) = (  -0.5000000   0.2416596   0.0000000), wk =   0.1250000
        k(   19) = (  -0.5000000  -0.4833191   0.0000000), wk =   0.0625000
        k(   20) = (  -0.2500000   0.2416596   0.0000000), wk =   0.1250000

     Largest allocated arrays     est. size (Mb)     dimensions
     Largest temporary arrays     est. size (Mb)     dimensions

     Check: negative/imaginary core charge=   -0.000003    0.000000

     Initial potential from superposition of free atoms
     Check: negative starting charge=(component1):   -0.321436
     Check: negative starting charge=(component2):   -0.321436

     starting charge  234.99914, renormalised to  239.00000

     negative rho (up, down):  0.327E+00 0.327E+00
     Starting wfc are  177 randomized atomic wfcs

     Self-consistent Calculation

     iteration #  1     ecut=    40.00 Ry     beta=0.30
     Davidson diagonalization with overlap
     ethr =  1.00E-02,  avg # of iterations =  5.8

     negative rho (up, down):  0.331E+00 0.331E+00

     total energy              =   -1975.12051529 Ry
     Harris-Foulkes estimate   =   -1984.89012265 Ry
     estimated scf accuracy    <      20.72561624 Ry

     total magnetization       =     0.00 Bohr mag/cell
     absolute magnetization    =     0.01 Bohr mag/cell

[...]

     End of self-consistent calculation

 ------ SPIN UP ------------

          k = 0.0000 0.0000 0.0000 ( 30479 PWs)   bands (ev):

   -49.6301 -49.5213 -49.5104 -49.4990 -49.4811 -49.4523 -49.4341 -49.4330
   -49.3867 -49.3729 -49.3209 -49.2892 -49.2824 -49.2615 -49.2439 -49.2403
   -49.2309 -49.2080 -49.1286 -49.1162 -49.0892 -49.0755 -49.0697 -48.9815
   -21.6339 -21.1850 -21.1465 -21.0090 -20.6079 -20.5315 -20.3487 -20.2801
   -20.2276 -20.2199 -20.1233 -20.0444 -20.0036 -19.9879 -19.7753 -19.7153
   -19.6870 -18.9510 -18.8268  -9.9336  -9.8667  -9.6895  -9.0023  -8.7869
    -8.7725  -8.6952  -8.6129  -8.6024  -8.5138  -8.4998  -8.3200  -8.2657
    -8.2330  -8.0823  -8.0528  -7.9372  -7.9068  -7.7581  -7.6362  -7.4155
    -7.1928  -7.1093  -7.0302  -6.6727  -6.6302  -6.5989  -6.5260  -6.1348
    -5.9962  -5.8451  -5.7976  -5.7731  -5.5268  -5.4564  -5.3989  -5.3775
    -5.3351  -5.2745  -5.2381  -5.0734  -5.0092  -4.8588  -4.7440  -4.7201
    -4.6958  -4.5618  -4.5186  -4.4726  -4.3167  -4.2758  -3.9693  -3.9567
    -3.9309  -3.9213  -3.7843  -3.7419  -3.6907  -3.6012  -3.4596  -3.3683
    -3.2772  -3.2183  -3.2100  -3.1580  -3.1343  -3.0795  -2.8684  -2.7173
    -2.6374  -2.5088  -2.4430  -2.2081  -2.2054  -1.9895  -1.7162  -1.6694
    -1.6099  -1.4167  -1.3217  -1.1513  -1.0552  -0.4987   0.0954   0.1226
     0.2650   0.2946   0.4205   0.5636   0.8023   1.0737   1.4110   1.7146
     1.7264   1.8358   2.1241   2.3071   2.9866   3.5883   4.1653   4.6165
     4.9085   5.7110   5.7484   6.0409   6.1601   6.6665   6.8344   7.0361
     7.2219   7.3781   7.5450   7.7306   7.8163   7.8786   7.8951   7.9365
     7.9609   8.1036   8.1428   8.1823   8.2366   8.2818   8.4036   8.4552
     8.5145   8.5520   8.6698   8.8236   8.9213   8.9909   9.1140   9.2186
     9.2862   9.4286   9.4696   9.5917   9.6857   9.7332  10.0000  10.0494
    10.2885  10.3734  10.4656  10.5368  10.6691  10.7226  10.8219  10.8566
[...]
     atom   15 type  1   force =     0.00013450    0.00645599   -0.00010715
     atom   16 type  2   force =    -0.02253022    0.00497534   -0.00228251
     atom   17 type  2   force =     0.00882317    0.00922116   -0.00340684
     atom   18 type  1   force =     0.00011943   -0.02940552   -0.00171341
     atom   19 type  1   force =     0.00176040    0.02627590   -0.00105051
     atom   20 type  1   force =     0.00441470   -0.00466031   -0.01959711
     atom   21 type  1   force =    -0.00329542   -0.00047797    0.00164377
     atom   22 type  2   force =    -0.00528110    0.00014598    0.00705685
     atom   23 type  2   force =    -0.00538031   -0.00010537    0.09521023
     atom   24 type  1   force =     0.01509912    0.00982196   -0.02127151
     atom   25 type  1   force =     0.01577145   -0.00971829   -0.02119966
     atom   26 type  1   force =    -0.00182300   -0.00007558   -0.00348063
     atom   27 type  3   force =     0.00013012   -0.00062560   -0.00020668
     atom   28 type  3   force =    -0.00006246    0.00021548    0.00042157
     atom   29 type  3   force =     0.00025232    0.00043841    0.00027451
     atom   30 type  3   force =    -0.00004583    0.00063615    0.00028082
     atom   31 type  1   force =     0.01931928   -0.00006616   -0.00152616
     atom   32 type  3   force =    -0.00387746   -0.00002230    0.00211423

     Total force =     0.019876     Total SCF correction =     0.000463

     BFGS Geometry Optimization

     number of scf cycles    =   1
     number of bfgs steps    =   0

     energy   new            =   -1981.6187232264 Ry

     new trust radius        =       0.0193795767 bohr
     new conv_thr            =       0.0000010000 Ry

ATOMIC_POSITIONS (crystal)
O0       0.000000000   0.000000000   0.378650000    0   0   0
O0       0.000000000   0.500000000   0.400490000    0   0   0
Rh1      0.250000000   0.500000000   0.451990000    0   0   0
Rh1      0.000000000   0.000000000   0.453200000    0   0   0
O0       0.250000000   0.810000000   0.452790000    0   0   0
O0       0.250000000   0.190000000   0.452580000    0   0   0
O0       0.000000000   0.500000000   0.498480000    0   0   0
O0       0.000000000   0.000000000   0.528800000    0   0   0
Rh1      0.250000000   0.000000000   0.576450000    0   0   0
Rh1      0.000000000   0.500000000   0.571210000    0   0   0
O0       0.250000000   0.690000000   0.577890000    0   0   0
O0       0.250000000   0.310000000   0.577910000    0   0   0
O0       0.000000000   0.000000000   0.621680000    0   0   0
O0       0.500000000   0.000000000   0.378650000    0   0   0
O0       0.500000000   0.500000000   0.400490000    0   0   0
Rh1      0.750000000   0.500000000   0.451990000    0   0   0
Rh1      0.500000000   0.000000000   0.453200000    0   0   0
O0       0.750000000   0.810000000   0.452790000    0   0   0
O0       0.750000000   0.190000000   0.452580000    0   0   0
O0       0.500000000   0.500000000   0.498480000    0   0   0
O0       0.500000000   0.000000000   0.528800000    0   0   0
Rh1      0.750000000   0.000000000   0.576450000    0   0   0
Rh1      0.500000000   0.500000000   0.571210000    0   0   0
O0       0.750000000   0.690000000   0.577890000    0   0   0
O0       0.750000000   0.310000000   0.577910000    0   0   0
O0       0.500000000   0.000000000   0.621680000    0   0   0
H2      -0.000070000   0.638970000   0.383980000    0   0   0
H2       0.499930000   0.638960000   0.383980000    0   0   0
H2       0.148440000   0.032530000   0.367830000    0   0   0
H2       0.648440000   0.032530000   0.367830000    0   0   0
O0       0.498253621   0.499674559   0.644819449
H2       0.345450119   0.499908166   0.655882323

     Check: negative starting charge=(component1):   -0.642872
     NEW-OLD atomic charge density approx. for the potential

     Check: negative/imaginary core charge=   -0.000003    0.000000
     Check: negative starting charge=(component1):   -0.642871

[...]

     energy   old            =   -1981.6187232264 Ry
     energy   new            =   -1981.6188285179 Ry

     CASE: energy  _new < energy  _old

[...]

     Threshold (ethr) on eigenvalues was too large:
     Diagonalizing with lowered threshold

     Davidson diagonalization with overlap
     ethr =  2.23E-08,  avg # of iterations =  1.0

[...]

     number of scf cycles    =  13
     number of bfgs steps    =  12

     energy   old            =   -1981.6203617095 Ry
     energy   new            =   -1981.6203989610 Ry

     CASE: energy  _new < energy  _old

     new trust radius        =       0.0097204864 bohr
     new conv_thr            =       0.0000000100 Ry

ATOMIC_POSITIONS (crystal)
O0       0.000000000   0.000000000   0.378650000    0   0   0
O0       0.000000000   0.500000000   0.400490000    0   0   0
Rh1      0.250000000   0.500000000   0.451990000    0   0   0
Rh1      0.000000000   0.000000000   0.453200000    0   0   0
O0       0.250000000   0.810000000   0.452790000    0   0   0
O0       0.250000000   0.190000000   0.452580000    0   0   0
O0       0.000000000   0.500000000   0.498480000    0   0   0
O0       0.000000000   0.000000000   0.528800000    0   0   0
Rh1      0.250000000   0.000000000   0.576450000    0   0   0
Rh1      0.000000000   0.500000000   0.571210000    0   0   0
O0       0.250000000   0.690000000   0.577890000    0   0   0
O0       0.250000000   0.310000000   0.577910000    0   0   0
O0       0.000000000   0.000000000   0.621680000    0   0   0
O0       0.500000000   0.000000000   0.378650000    0   0   0
O0       0.500000000   0.500000000   0.400490000    0   0   0
Rh1      0.750000000   0.500000000   0.451990000    0   0   0
Rh1      0.500000000   0.000000000   0.453200000    0   0   0
O0       0.750000000   0.810000000   0.452790000    0   0   0
O0       0.750000000   0.190000000   0.452580000    0   0   0
O0       0.500000000   0.500000000   0.498480000    0   0   0
O0       0.500000000   0.000000000   0.528800000    0   0   0
Rh1      0.750000000   0.000000000   0.576450000    0   0   0
Rh1      0.500000000   0.500000000   0.571210000    0   0   0
O0       0.750000000   0.690000000   0.577890000    0   0   0
O0       0.750000000   0.310000000   0.577910000    0   0   0
O0       0.500000000   0.000000000   0.621680000    0   0   0
H2      -0.000070000   0.638970000   0.383980000    0   0   0
H2       0.499930000   0.638960000   0.383980000    0   0   0
H2       0.148440000   0.032530000   0.367830000    0   0   0
H2       0.648440000   0.032530000   0.367830000    0   0   0
O0       0.514298316   0.499547429   0.644768564
H2       0.367198606   0.499652911   0.658534678

     Check: negative starting charge=(component1):   -0.642863
     NEW-OLD atomic charge density approx. for the potential

     Check: negative/imaginary core charge=   -0.000003    0.000000
     Check: negative starting charge=(component1):   -0.642863

[...]

     Self-consistent Calculation

[...]

     Threshold (ethr) on eigenvalues was too large:
     Diagonalizing with lowered threshold

     Davidson diagonalization with overlap
     ethr =  7.12E-09,  avg # of iterations =  1.0

[...]

     total energy              =   -1981.62040960 Ry
     Harris-Foulkes estimate   =   -1981.62040960 Ry
     estimated scf accuracy    <       0.00000007 Ry

[...]

     iteration # 15     ecut=    40.00 Ry     beta=0.30
     Davidson diagonalization with overlap
     ethr =  5.57E-12,  avg # of iterations =  1.0

     negative rho (up, down):  0.346E+00 0.346E+00

     End of self-consistent calculation

 ------ SPIN UP ------------

[...]

 ------ SPIN DOWN ----------

[...]

          k = 0.2500-0.4833 0.0000 ( 30510 PWs)   bands (ev):

[...]

          k =-0.2500 0.2417 0.0000 ( 30481 PWs)   bands (ev):

   -49.6028 -49.4973 -49.4844 -49.4579 -49.4464 -49.4260 -49.4087 -49.4071
   -49.3750 -49.3312 -49.2938 -49.2642 -49.2592 -49.2520 -49.2265 -49.2124
   -49.2088 -49.1677 -49.1095 -49.0897 -49.0662 -49.0606 -49.0429 -48.9578
   -21.4772 -21.1783 -20.9646 -20.8424 -20.6507 -20.5234 -20.3897 -20.3389
   -20.1930 -20.1832 -20.0764 -19.9972 -19.9544 -19.9422 -19.9009 -19.7865
   -19.7217 -18.9571 -18.8492  -9.5764  -9.3354  -9.2518  -9.1165  -8.7567
    -8.6865  -8.6168  -8.5879  -8.5603  -8.4993  -8.4247  -8.3733  -8.3611
    -8.1147  -7.9986  -7.9097  -7.7731  -7.7463  -7.5776  -7.4089  -7.2755
    -7.2069  -7.1524  -7.0497  -6.6834  -6.5625  -6.4407  -6.3566  -6.2458
    -6.1992  -6.1454  -6.0773  -6.0510  -5.9575  -5.9102  -5.7462  -5.6842
    -5.6407  -5.5965  -5.3596  -5.2605  -5.1728  -5.0441  -4.9708  -4.8377
    -4.7688  -4.7037  -4.5686  -4.4583  -4.4045  -4.2113  -4.0811  -3.9632
    -3.7276  -3.6302  -3.5490  -3.4770  -3.3466  -3.2246  -3.2101  -3.1447
    -3.1080  -3.0732  -2.9657  -2.8909  -2.8709  -2.8237  -2.7669  -2.6859
    -2.5786  -2.5478  -2.3543  -2.1596  -1.8943  -1.8489  -1.7442  -1.6986
    -1.6596  -1.4969  -1.3765  -1.3142  -0.9462  -0.4645  -0.3191  -0.0867
     0.2776   0.3934   0.7211   0.8461   1.1963   1.2850   1.3965   1.4488
     1.6135   1.7460   1.7957   2.1641   3.6239   4.0411   4.6453   5.0511
     5.3875   5.4412   5.5410   5.9220   6.2148   6.4264   6.4881   6.5154
     6.5900   6.8177   6.9584   7.1490   7.2815   7.4589   7.5018   7.6861
     7.8260   7.9286   8.0138   8.1004   8.2057   8.3818   8.4378   8.5635
     8.7471   8.8012   8.8374   8.9359   9.0999   9.2865   9.4732   9.5643
     9.5737   9.7161   9.7621   9.8074   9.9504  10.0264  10.1519  10.2140
    10.3375  10.3776  10.4376  10.5618  10.6951  10.7495  10.8393  10.9220
    10.9659  11.0488  11.1368  11.2208  11.3061  11.3601  11.4940  11.5802
    11.5962  11.6344  11.7306  11.8339  11.9189  12.0143  12.0740  12.1311
    12.2157  12.2526  12.3323  12.3998  12.5224  12.6240  12.6574  12.7292
    12.7757  12.8496  12.9297  13.0002  13.0625  13.1470  13.1538  13.2434
    13.2989  13.3611  13.4760  13.5443  13.6965  13.7576  13.8353  13.8824
    13.9374  14.0537  14.1065  14.1472  14.2383  14.3243  14.3708  14.4448
    14.5687  14.6147  14.7113  14.8210  14.9768  15.0890  15.1605  15.3010
    15.3673  15.4144  15.5122  15.5622  15.5768  15.6265  15.6970  15.7790
    15.8446  15.8680  15.9713  16.0698  16.0792  16.1357  16.2079  16.2966
    16.3206  16.4198  16.4392  16.4777  16.5182  16.6004  16.6215  16.7245
    16.7637  16.8629  16.9441  16.9996  17.1206  17.2181  17.2457  17.2890
    17.3878  17.4540  17.5191  17.5306  17.6115  17.6688  17.7764  17.8661
    17.8911  17.9742  18.0701  18.1439  18.1553  18.2555  18.2990  18.3532
    18.4654  18.5443  18.6181  18.6905  18.7301  18.7990  18.8367  18.9400
    19.0243  19.0556  19.0975  19.1505  19.2158  19.2587  19.3373  19.4685
    19.5377  19.5938  19.6416  19.7148  19.7857  19.8650  19.9543  20.0685
    20.1554  20.2396  20.2751  20.3831  20.4996  20.5202  20.5951  20.6683
    20.7013  20.7776  20.8211  20.8991  20.9861  21.0377  21.1531  21.1692
    21.2228  21.2778  21.3091  21.3874  21.4018  21.4834  21.5500  21.6946
    21.7555  21.8220  21.8780  21.8943  21.9451  21.9654  22.0421  22.1086
    22.1606  22.2506  22.3833  22.4246  22.4657  22.5162

     the Fermi energy is    -1.7199 ev

!    total energy              =   -1981.62040960 Ry
     Harris-Foulkes estimate   =   -1981.62040960 Ry
     estimated scf accuracy    <          2.9E-09 Ry

     The total energy is the sum of the following terms:

     one-electron contribution =  -23325.79988089 Ry
     hartree contribution      =   11709.98760042 Ry
     xc contribution           =    -372.77216579 Ry
     ewald contribution        =   10006.96511646 Ry
     smearing contrib. (-TS)   =      -0.00107979 Ry

     total magnetization       =     0.00 Bohr mag/cell
     absolute magnetization    =     0.00 Bohr mag/cell

     convergence has been achieved in  15 iterations

     Forces acting on atoms (Ry/au):

     negative rho (up, down):  0.346E+00 0.346E+00
     atom    1 type  1   force =    -0.00732333   -0.01454206    0.00050659
     atom    2 type  1   force =     0.00070476    0.00752063    0.00868352
     atom    3 type  2   force =     0.02022139    0.00588737   -0.00199955
     atom    4 type  2   force =     0.00869703    0.00935648   -0.00039766
     atom    5 type  1   force =    -0.00130613   -0.02944760   -0.00189944
     atom    6 type  1   force =     0.00110391    0.02584994   -0.00130760
     atom    7 type  1   force =     0.00066371   -0.00086913    0.00133044
     atom    8 type  1   force =    -0.00256030   -0.00080453    0.00170565
     atom    9 type  2   force =     0.00768828   -0.00015711    0.00318909
     atom   10 type  2   force =    -0.00956900   -0.00159204    0.00140226
     atom   11 type  1   force =    -0.01515060    0.00850685   -0.01768503
     atom   12 type  1   force =    -0.01514361   -0.00819823   -0.01774301
     atom   13 type  1   force =     0.00007446    0.00006439    0.00056876
     atom   14 type  1   force =    -0.00716571   -0.01467945   -0.00027323
     atom   15 type  1   force =     0.00014740    0.00639748   -0.00006658
     atom   16 type  2   force =    -0.02183619    0.00501289   -0.00191118
     atom   17 type  2   force =     0.00883308    0.00923201   -0.00329400
     atom   18 type  1   force =     0.00018164   -0.02938649   -0.00177353
     atom   19 type  1   force =     0.00184837    0.02623860   -0.00112512
     atom   20 type  1   force =     0.00056150   -0.00462315   -0.01928839
     atom   21 type  1   force =    -0.00306382   -0.00049637    0.00168905
     atom   22 type  2   force =    -0.00529620    0.00020158    0.00677540
     atom   23 type  2   force =     0.00215633   -0.00014637    0.09427608
     atom   24 type  1   force =     0.01794913    0.01155052   -0.02471501
     atom   25 type  1   force =     0.01861139   -0.01148486   -0.02474288
     atom   26 type  1   force =    -0.00166747   -0.00006883   -0.00305128
     atom   27 type  3   force =     0.00003602   -0.00059703   -0.00020662
     atom   28 type  3   force =    -0.00003970    0.00024159    0.00042775
     atom   29 type  3   force =     0.00027225    0.00043784    0.00027556
     atom   30 type  3   force =    -0.00004818    0.00063770    0.00029433
     atom   31 type  1   force =     0.00088915    0.00000575    0.00045411
     atom   32 type  3   force =    -0.00046957   -0.00004835   -0.00009847

     Total force =     0.001109     Total SCF correction =     0.000031

     bfgs converged in  14 scf cycles and  13 bfgs steps
     (criteria: energy < 0.10E-03, force < 0.10E-02)

     End of BFGS Geometry Optimization

     Final energy   =   -1981.6204095976 Ry
Begin final coordinates

ATOMIC_POSITIONS (crystal)
O0       0.000000000   0.000000000   0.378650000    0   0   0
O0       0.000000000   0.500000000   0.400490000    0   0   0
Rh1      0.250000000   0.500000000   0.451990000    0   0   0
Rh1      0.000000000   0.000000000   0.453200000    0   0   0
O0       0.250000000   0.810000000   0.452790000    0   0   0
O0       0.250000000   0.190000000   0.452580000    0   0   0
O0       0.000000000   0.500000000   0.498480000    0   0   0
O0       0.000000000   0.000000000   0.528800000    0   0   0
Rh1      0.250000000   0.000000000   0.576450000    0   0   0
Rh1      0.000000000   0.500000000   0.571210000    0   0   0
O0       0.250000000   0.690000000   0.577890000    0   0   0
O0       0.250000000   0.310000000   0.577910000    0   0   0
O0       0.000000000   0.000000000   0.621680000    0   0   0
O0       0.500000000   0.000000000   0.378650000    0   0   0
O0       0.500000000   0.500000000   0.400490000    0   0   0
Rh1      0.750000000   0.500000000   0.451990000    0   0   0
Rh1      0.500000000   0.000000000   0.453200000    0   0   0
O0       0.750000000   0.810000000   0.452790000    0   0   0
O0       0.750000000   0.190000000   0.452580000    0   0   0
O0       0.500000000   0.500000000   0.498480000    0   0   0
O0       0.500000000   0.000000000   0.528800000    0   0   0
Rh1      0.750000000   0.000000000   0.576450000    0   0   0
Rh1      0.500000000   0.500000000   0.571210000    0   0   0
O0       0.750000000   0.690000000   0.577890000    0   0   0
O0       0.750000000   0.310000000   0.577910000    0   0   0
O0       0.500000000   0.000000000   0.621680000    0   0   0
H2      -0.000070000   0.638970000   0.383980000    0   0   0
H2       0.499930000   0.638960000   0.383980000    0   0   0
H2       0.148440000   0.032530000   0.367830000    0   0   0
H2       0.648440000   0.032530000   0.367830000    0   0   0
O0       0.514298316   0.499547429   0.644768564
H2       0.367198606   0.499652911   0.658534678
End final coordinates

     General routines

     Parallel routines

   This run was terminated on:  21:26:57  29Mar2014

   JOB DONE.