     Program PWSCF v.5.0.2 (svn rev. 9656) starts on  5May2014 at 20:23:18

     Current dimensions of program PWSCF are:
     Max number of different atomic species (ntypx) = 10
     Max number of k-points (npk) =  40000
     Max angular momentum in pseudopotentials (lmaxx) =  3
     Reading input from pwscf.in
Warning: card &CELL ignored
Warning: card / ignored

     Subspace diagonalization in iterative solution of the eigenvalue problem:
     a serial algorithm will be used

     bravais-lattice index     =            0
     lattice parameter (alat)  =      12.0187  a.u.
     unit-cell volume          =    7280.5819 (a.u.)^3
     number of atoms/cell      =           30
     number of atomic types    =            3
     number of electrons       =       232.00
     number of Kohn-Sham states=          348
     kinetic-energy cutoff     =      40.0000  Ry
     charge density cutoff     =     500.0000  Ry
     convergence threshold     =      1.0E-06
     mixing beta               =       0.7000
     number of iterations used =            8  plain     mixing
     Exchange-correlation      = SLA  PW   PBE  PBE ( 1 4 3 4 0)
     EXX-fraction              =        0.00
     nstep                     =           50

     celldm(1)=  12.018658  celldm(2)=   0.000000  celldm(3)=   0.000000
     celldm(4)=   0.000000  celldm(5)=   0.000000  celldm(6)=   0.000000

     crystal axes: (cart. coord. in units of alat)
               a(1) = (   1.000000   0.000000   0.000000 )
               a(2) = (   0.000000   1.009517   0.000000 )
               a(3) = (   0.000000   0.000000   4.154171 )

     reciprocal axes: (cart. coord. in units 2 pi/alat)
               b(1) = (  1.000000  0.000000  0.000000 )
               b(2) = (  0.000000  0.990572  0.000000 )
               b(3) = (  0.000000  0.000000  0.240722 )

     PseudoPot. # 1 for O  read from file:
     /home/camp/zhonxu/pseudo/o_pbe_v1.01.uspp.F.UPF
     MD5 check sum: 2bcb18d16ea4b960afae9ec6d52f22d2
     Pseudo is Ultrasoft + core correction, Zval =  6.0
     Generated by new atomic code, or converted to UPF format
     Using radial grid of  737 points,  5 beta functions with:
                l(1) =   0
                l(2) =   0
                l(3) =   1
                l(4) =   1
                l(5) =   2
     Q(r) pseudized with  8 coefficients,  rinner =    0.900   0.900   0.900
                                                       0.900   0.900

     PseudoPot. # 2 for Ir read from file:
     /home/camp/zhonxu/pseudo/ir_pbe_v1.uspp.F.UPF
     MD5 check sum: abf987a9674477536ede83817f8f8b70
     Pseudo is Ultrasoft + core correction, Zval = 15.0
     Generated by new atomic code, or converted to UPF format
     Using radial grid of  983 points,  7 beta functions with:
                l(1) =   0
                l(2) =   0
                l(3) =   1
                l(4) =   1
                l(5) =   1
                l(6) =   2
                l(7) =   2
     Q(r) pseudized with  8 coefficients,  rinner =    1.350   1.350   1.350
                                                       1.350   1.350

     PseudoPot. # 3 for H  read from file:
     /home/camp/zhonxu/pseudo/h_pbe_v1.uspp.F.UPF
     MD5 check sum: 3408e3ff4ec8b0a4e358431e7e038a48
     Pseudo is Ultrasoft, Zval =  1.0
     Generated by new atomic code, or converted to UPF format
     Using radial grid of  615 points,  2 beta functions with:
                l(1) =   0
                l(2) =   0
     Q(r) pseudized with  8 coefficients,  rinner =    0.700

     atomic species   valence    mass     pseudopotential
        O0             6.00    15.99940     O ( 1.00)
        Ir1           15.00   192.22000     Ir( 1.00)
        H2             1.00     1.00794     H ( 1.00)

     Simplified LDA+U calculation (l_max = 2) with parameters (eV):
     atomic species    L          U    alpha       J0     beta
        Ir1            2     2.5000   0.0000   0.0000   0.0000

     No symmetry found

   Cartesian axes

     site n.     atom                  positions (alat units)
         1           O0  tau(   1) = (   0.0000000   0.0000000   1.5730185  )
         2           O0  tau(   2) = (   0.0000000   0.5047586   1.6673182  )
         3           Ir1 tau(   3) = (   0.2500000   0.5047586   1.8780178  )
         4           Ir1 tau(   4) = (   0.0000000   0.0000000   1.8842906  )
         5           O0  tau(   5) = (   0.2500000   0.8177090   1.8825458  )
         6           O0  tau(   6) = (   0.2500000   0.1918083   1.8810503  )
         7           O0  tau(   7) = (   0.0000000   0.5047586   2.0695666  )
         8           O0  tau(   8) = (   0.0000000   0.0000000   2.1991352  )
         9           Ir1 tau(   9) = (   0.2500000   0.0000000   2.3955860  )
        10           Ir1 tau(  10) = (   0.0000000   0.5047586   2.3764768  )
        11           O0  tau(  11) = (   0.2500000   0.6965669   2.3975800  )
        12           O0  tau(  12) = (   0.2500000   0.3129503   2.3977461  )
        13           O0  tau(  13) = (   0.0000000   0.0000000   2.5806958  )
        14           O0  tau(  14) = (   0.5000000   0.0000000   1.5730185  )
        15           O0  tau(  15) = (   0.5000000   0.5047586   1.6673182  )
        16           Ir1 tau(  16) = (   0.7500000   0.5047586   1.8780178  )
        17           Ir1 tau(  17) = (   0.5000000   0.0000000   1.8842906  )
        18           O0  tau(  18) = (   0.7500000   0.8177090   1.8825458  )
        19           O0  tau(  19) = (   0.7500000   0.1918083   1.8810503  )
        20           O0  tau(  20) = (   0.5000000   0.5047586   2.0695666  )
        21           O0  tau(  21) = (   0.5000000   0.0000000   2.1991352  )
        22           Ir1 tau(  22) = (   0.7500000   0.0000000   2.3955860  )
        23           Ir1 tau(  23) = (   0.5000000   0.5047586   2.3764768  )
        24           O0  tau(  24) = (   0.7500000   0.6965669   2.3975800  )
        25           O0  tau(  25) = (   0.7500000   0.3129503   2.3977461  )
        26           O0  tau(  26) = (   0.5000000   0.0000000   2.5807374  )
        27           H2  tau(  27) = (  -0.0000500   0.6423962   1.5933324  )
        28           H2  tau(  28) = (   0.4999500   0.6423962   1.5933324  )
        29           H2  tau(  29) = (   0.1436500   0.0338188   1.5249132  )
        30           H2  tau(  30) = (   0.6436500   0.0338188   1.5249132  )

     number of k points=    10  Methfessel-Paxton smearing, width (Ry)=  0.0100
                       cart. coord. in units 2pi/alat
        k(    1) = (   0.0000000   0.0000000   0.0000000), wk =   0.1250000
        k(    2) = (   0.0000000   0.2476431   0.0000000), wk =   0.2500000
        k(    3) = (   0.0000000  -0.4952862   0.0000000), wk =   0.1250000
        k(    4) = (   0.2500000   0.0000000   0.0000000), wk =   0.2500000
        k(    5) = (   0.2500000   0.2476431   0.0000000), wk =   0.2500000
        k(    6) = (   0.2500000  -0.4952862   0.0000000), wk =   0.2500000
        k(    7) = (  -0.5000000   0.0000000   0.0000000), wk =   0.1250000
        k(    8) = (  -0.5000000   0.2476431   0.0000000), wk =   0.2500000
        k(    9) = (  -0.5000000  -0.4952862   0.0000000), wk =   0.1250000
        k(   10) = (  -0.2500000   0.2476431   0.0000000), wk =   0.2500000

     Largest allocated arrays     est. size (Mb)     dimensions
     Largest temporary arrays     est. size (Mb)     dimensions

     Check: negative/imaginary core charge=   -0.000003    0.000000

     Initial potential from superposition of free atoms
     Check: negative starting charge=   -3.334716

     starting charge  227.99968, renormalised to  232.00000

     negative rho (up, down):  0.339E+01 0.000E+00
     Number of +U iterations with fixed ns =  0
     Starting occupations:
 --- enter write_ns ---
 LDA+U parameters:
U( 2)     =  2.50000000
alpha( 2) =  0.00000000
atom    3   Tr[ns(na)] =   7.00000
    eigenvalues:
  0.700  0.700  0.700  0.700  0.700
    eigenvectors:
  1.000  0.000  0.000  0.000  0.000
  0.000  1.000  0.000  0.000  0.000
  0.000  0.000  1.000  0.000  0.000
  0.000  0.000  0.000  1.000  0.000
  0.000  0.000  0.000  0.000  1.000
    occupations:
  0.700  0.000  0.000  0.000  0.000
  0.000  0.700  0.000  0.000  0.000
  0.000  0.000  0.700  0.000  0.000
  0.000  0.000  0.000  0.700  0.000
  0.000  0.000  0.000  0.000  0.700
atom    4   Tr[ns(na)] =   7.00000
    eigenvalues:
  0.700  0.700  0.700  0.700  0.700
    eigenvectors:
  1.000  0.000  0.000  0.000  0.000
  0.000  1.000  0.000  0.000  0.000
  0.000  0.000  1.000  0.000  0.000
  0.000  0.000  0.000  1.000  0.000
  0.000  0.000  0.000  0.000  1.000
    occupations:
  0.700  0.000  0.000  0.000  0.000
  0.000  0.700  0.000  0.000  0.000
  0.000  0.000  0.700  0.000  0.000
  0.000  0.000  0.000  0.700  0.000
  0.000  0.000  0.000  0.000  0.700
atom    9   Tr[ns(na)] =   7.00000
    eigenvalues:
  0.700  0.700  0.700  0.700  0.700
    eigenvectors:
  1.000  0.000  0.000  0.000  0.000
  0.000  1.000  0.000  0.000  0.000
  0.000  0.000  1.000  0.000  0.000
  0.000  0.000  0.000  1.000  0.000
  0.000  0.000  0.000  0.000  1.000
    occupations:
  0.700  0.000  0.000  0.000  0.000
  0.000  0.700  0.000  0.000  0.000
  0.000  0.000  0.700  0.000  0.000
  0.000  0.000  0.000  0.700  0.000
  0.000  0.000  0.000  0.000  0.700
atom   10   Tr[ns(na)] =   7.00000
    eigenvalues:
  0.700  0.700  0.700  0.700  0.700
    eigenvectors:
  1.000  0.000  0.000  0.000  0.000
  0.000  1.000  0.000  0.000  0.000
  0.000  0.000  1.000  0.000  0.000
  0.000  0.000  0.000  1.000  0.000
  0.000  0.000  0.000  0.000  1.000
    occupations:
  0.700  0.000  0.000  0.000  0.000
  0.000  0.700  0.000  0.000  0.000
  0.000  0.000  0.700  0.000  0.000
  0.000  0.000  0.000  0.700  0.000
  0.000  0.000  0.000  0.000  0.700
atom   16   Tr[ns(na)] =   7.00000
    eigenvalues:
  0.700  0.700  0.700  0.700  0.700
    eigenvectors:
  1.000  0.000  0.000  0.000  0.000
  0.000  1.000  0.000  0.000  0.000
  0.000  0.000  1.000  0.000  0.000
  0.000  0.000  0.000  1.000  0.000
  0.000  0.000  0.000  0.000  1.000
    occupations:
  0.700  0.000  0.000  0.000  0.000
  0.000  0.700  0.000  0.000  0.000
  0.000  0.000  0.700  0.000  0.000
  0.000  0.000  0.000  0.700  0.000
  0.000  0.000  0.000  0.000  0.700
atom   17   Tr[ns(na)] =   7.00000
    eigenvalues:
  0.700  0.700  0.700  0.700  0.700
    eigenvectors:
  1.000  0.000  0.000  0.000  0.000
  0.000  1.000  0.000  0.000  0.000
  0.000  0.000  1.000  0.000  0.000
  0.000  0.000  0.000  1.000  0.000
  0.000  0.000  0.000  0.000  1.000
    occupations:
  0.700  0.000  0.000  0.000  0.000
  0.000  0.700  0.000  0.000  0.000
  0.000  0.000  0.700  0.000  0.000
  0.000  0.000  0.000  0.700  0.000
  0.000  0.000  0.000  0.000  0.700
atom   22   Tr[ns(na)] =   7.00000
    eigenvalues:
  0.700  0.700  0.700  0.700  0.700
    eigenvectors:
  1.000  0.000  0.000  0.000  0.000
  0.000  1.000  0.000  0.000  0.000
  0.000  0.000  1.000  0.000  0.000
  0.000  0.000  0.000  1.000  0.000
  0.000  0.000  0.000  0.000  1.000
    occupations:
  0.700  0.000  0.000  0.000  0.000
  0.000  0.700  0.000  0.000  0.000
  0.000  0.000  0.700  0.000  0.000
[...]
 -0.001  0.012  0.867 -0.000  0.000
  0.032  0.000 -0.000  0.978  0.000
  0.001 -0.002  0.000  0.000  0.619
atom    9   Tr[ns(na)] =   8.07769
    eigenvalues:
  0.650  0.666  0.851  0.892  0.980
    eigenvectors:
  0.000  0.144  0.000  0.000  0.856
  1.000  0.000  0.000  0.000  0.000
  0.000  0.000  1.000  0.000  0.000
  0.000  0.855  0.000  0.000  0.144
  0.000  0.000  0.000  1.000  0.000
    occupations:
  0.935  0.000 -0.000 -0.111 -0.001
  0.000  0.650  0.000  0.000 -0.000
 -0.000  0.000  0.851 -0.000 -0.000
 -0.111  0.000 -0.000  0.711  0.001
 -0.001 -0.000 -0.000  0.001  0.892
atom   10   Tr[ns(na)] =   8.07243
    eigenvalues:
  0.588  0.609  0.925  0.934  0.980
    eigenvectors:
  0.995  0.000  0.000  0.000  0.005
  0.000  0.000  1.000  0.000  0.000
  0.000  0.000  0.000  1.000  0.000
  0.005  0.000  0.000  0.000  0.995
  0.000  1.000  0.000  0.000  0.000
    occupations:
  0.591  0.000  0.002  0.029 -0.000
  0.000  0.925 -0.000  0.000 -0.000
  0.002 -0.000  0.934  0.000  0.000
  0.029  0.000  0.000  0.978  0.000
 -0.000 -0.000  0.000  0.000  0.609
atom   16   Tr[ns(na)] =   8.12242
    eigenvalues:
  0.602  0.627  0.893  0.967  0.971
    eigenvectors:
  0.000  0.193  0.003  0.002  0.802
  1.000  0.000  0.000  0.000  0.000
  0.000  0.000  0.996  0.000  0.003
  0.000  0.807  0.000  0.000  0.192
  0.000  0.000  0.000  0.998  0.002
    occupations:
  0.904 -0.000  0.003 -0.135  0.000
 -0.000  0.602 -0.000 -0.000 -0.006
  0.003 -0.000  0.894 -0.004  0.001
 -0.135 -0.000 -0.004  0.693 -0.000
  0.000 -0.006  0.001 -0.000  0.967
atom   17   Tr[ns(na)] =   8.09712
    eigenvalues:
  0.619  0.666  0.865  0.918  0.982
    eigenvectors:
  0.000  0.989  0.000  0.000  0.010
  0.000  0.000  0.050  0.950  0.000
  0.000  0.000  0.950  0.050  0.000
  0.000  0.010  0.000  0.000  0.990
  1.000  0.000  0.000  0.000  0.000
    occupations:
  0.669 -0.003 -0.001  0.032  0.001
 -0.003  0.915  0.012  0.000 -0.002
 -0.001  0.012  0.867 -0.000  0.000
  0.032  0.000 -0.000  0.978  0.000
  0.001 -0.002  0.000  0.000  0.619
atom   22   Tr[ns(na)] =   8.07739
    eigenvalues:
  0.650  0.666  0.851  0.892  0.980
    eigenvectors:
  0.000  0.144  0.000  0.000  0.856
  1.000  0.000  0.000  0.000  0.000
  0.000  0.000  1.000  0.000  0.000
  0.000  0.855  0.000  0.000  0.144
  0.000  0.000  0.000  1.000  0.000
    occupations:
  0.935  0.000 -0.000 -0.111 -0.001
  0.000  0.650  0.000  0.000 -0.000
 -0.000  0.000  0.851 -0.000 -0.000
 -0.111  0.000 -0.000  0.711  0.001
 -0.001 -0.000 -0.000  0.001  0.892
atom   23   Tr[ns(na)] =   8.07240
    eigenvalues:
  0.588  0.609  0.925  0.934  0.980
    eigenvectors:
  0.995  0.000  0.000  0.000  0.005
  0.000  0.000  1.000  0.000  0.000
  0.000  0.000  0.000  1.000  0.000
  0.005  0.000  0.000  0.000  0.995
  0.000  1.000  0.000  0.000  0.000
    occupations:
  0.591  0.000  0.002  0.029 -0.000
  0.000  0.925 -0.000  0.000 -0.000
  0.002 -0.000  0.934  0.000  0.000
  0.029  0.000  0.000  0.978  0.000
 -0.000 -0.000  0.000  0.000  0.609
N of occupied +U levels =  64.7386506
 --- exit write_ns ---

     Threshold (ethr) on eigenvalues was too large:
     Diagonalizing with lowered threshold

     Davidson diagonalization with overlap
     ethr =  2.43E-08,  avg # of iterations =  2.0

[...]

     total energy              =   -2073.01790756 Ry
     Harris-Foulkes estimate   =   -2073.01790756 Ry
     estimated scf accuracy    <       0.00000009 Ry

     iteration # 14     ecut=    40.00 Ry     beta=0.70
     Davidson diagonalization with overlap
     ethr =  1.64E-11,  avg # of iterations =  1.0

     negative rho (up, down):  0.313E+01 0.000E+00

     End of self-consistent calculation
 --- enter write_ns ---
 LDA+U parameters:
U( 2)     =  2.50000000
alpha( 2) =  0.00000000
atom    3   Tr[ns(na)] =   8.12163
    eigenvalues:
  0.602  0.627  0.893  0.967  0.971
    eigenvectors:
  0.000  0.193  0.003  0.002  0.802
  1.000  0.000  0.000  0.000  0.000
  0.000  0.000  0.996  0.000  0.003
  0.000  0.807  0.000  0.000  0.192
  0.000  0.000  0.000  0.998  0.002
    occupations:
  0.904 -0.000  0.003 -0.135  0.000
 -0.000  0.603 -0.000 -0.000 -0.006
  0.003 -0.000  0.893 -0.004  0.001
 -0.135 -0.000 -0.004  0.694 -0.000
  0.000 -0.006  0.001 -0.000  0.967
atom    4   Tr[ns(na)] =   8.09597
    eigenvalues:
  0.619  0.666  0.864  0.917  0.982
    eigenvectors:
  0.000  0.989  0.000  0.000  0.010
  0.000  0.000  0.050  0.950  0.000
  0.000  0.000  0.950  0.050  0.000
  0.000  0.010  0.000  0.000  0.990
  1.000  0.000  0.000  0.000  0.000
    occupations:
  0.669 -0.003 -0.001  0.032  0.001
 -0.003  0.915  0.012  0.000 -0.002
 -0.001  0.012  0.867 -0.000  0.000
  0.032  0.000 -0.000  0.978  0.000
  0.001 -0.002  0.000  0.000  0.619
atom    9   Tr[ns(na)] =   8.07834
    eigenvalues:
  0.650  0.666  0.852  0.892  0.980
    eigenvectors:
  0.000  0.144  0.000  0.000  0.856
  1.000  0.000  0.000  0.000  0.000
  0.000  0.000  1.000  0.000  0.000
  0.000  0.855  0.000  0.000  0.144
  0.000  0.000  0.000  1.000  0.000
    occupations:
  0.935  0.000 -0.000 -0.111 -0.001
  0.000  0.650  0.000  0.000 -0.000
 -0.000  0.000  0.852 -0.000 -0.000
 -0.111  0.000 -0.000  0.711  0.001
 -0.001 -0.000 -0.000  0.001  0.892
atom   10   Tr[ns(na)] =   8.07370
    eigenvalues:
  0.589  0.609  0.926  0.934  0.980
    eigenvectors:
  0.995  0.000  0.000  0.000  0.005
  0.000  0.000  1.000  0.000  0.000
  0.000  0.000  0.000  1.000  0.000
  0.005  0.000  0.000  0.000  0.995
  0.000  1.000  0.000  0.000  0.000
    occupations:
  0.591  0.000  0.002  0.029 -0.000
  0.000  0.926 -0.000  0.000 -0.000
  0.002 -0.000  0.934  0.000  0.000
  0.029  0.000  0.000  0.978  0.000
 -0.000 -0.000  0.000  0.000  0.609
atom   16   Tr[ns(na)] =   8.12166
    eigenvalues:
  0.602  0.627  0.893  0.967  0.971
    eigenvectors:
  0.000  0.193  0.003  0.002  0.802
  1.000  0.000  0.000  0.000  0.000
  0.000  0.000  0.996  0.000  0.003
  0.000  0.807  0.000  0.000  0.192
  0.000  0.000  0.000  0.998  0.002
    occupations:
  0.904 -0.000  0.003 -0.135  0.000
 -0.000  0.603 -0.000 -0.000 -0.006
  0.003 -0.000  0.893 -0.004  0.001
 -0.135 -0.000 -0.004  0.694 -0.000
  0.000 -0.006  0.001 -0.000  0.967
atom   17   Tr[ns(na)] =   8.09598
    eigenvalues:
  0.619  0.666  0.864  0.917  0.982
    eigenvectors:
  0.000  0.989  0.000  0.000  0.010
  0.000  0.000  0.050  0.950  0.000
  0.000  0.000  0.950  0.050  0.000
  0.000  0.010  0.000  0.000  0.990
  1.000  0.000  0.000  0.000  0.000
    occupations:
  0.669 -0.003 -0.001  0.032  0.001
 -0.003  0.915  0.012  0.000 -0.002
 -0.001  0.012  0.867 -0.000  0.000
  0.032  0.000 -0.000  0.978  0.000
  0.001 -0.002  0.000  0.000  0.619
atom   22   Tr[ns(na)] =   8.07838
    eigenvalues:
  0.650  0.666  0.852  0.892  0.980
    eigenvectors:
  0.000  0.144  0.000  0.000  0.856
  1.000  0.000  0.000  0.000  0.000
  0.000  0.000  1.000  0.000  0.000
  0.000  0.855  0.000  0.000  0.144
  0.000  0.000  0.000  1.000  0.000
    occupations:
  0.935  0.000 -0.000 -0.111 -0.001
  0.000  0.650  0.000  0.000 -0.000
 -0.000  0.000  0.852 -0.000 -0.000
 -0.111  0.000 -0.000  0.711  0.001
 -0.001 -0.000 -0.000  0.001  0.892
atom   23   Tr[ns(na)] =   8.07370
    eigenvalues:
  0.589  0.609  0.926  0.934  0.980
    eigenvectors:
  0.995  0.000  0.000  0.000  0.005
  0.000  0.000  1.000  0.000  0.000
  0.000  0.000  0.000  1.000  0.000
  0.005  0.000  0.000  0.000  0.995
  0.000  1.000  0.000  0.000  0.000
    occupations:
  0.591  0.000  0.002  0.029 -0.000
  0.000  0.926 -0.000  0.000 -0.000
  0.002 -0.000  0.934  0.000  0.000
  0.029  0.000  0.000  0.978  0.000
 -0.000 -0.000  0.000  0.000  0.609
N of occupied +U levels =  64.7393517
 --- exit write_ns ---

[...]

          k = 0.2500-0.4953 0.0000 ( 31088 PWs)   bands (ev):

[...]

          k =-0.2500 0.2476 0.0000 ( 31099 PWs)   bands (ev):

   -50.8166 -50.8120 -50.7991 -50.7470 -50.7397 -50.7247 -50.6774 -50.6045
   -50.5832 -50.5814 -50.5721 -50.5603 -50.5555 -50.5089 -50.4676 -50.4559
   -50.4521 -50.3988 -50.3856 -50.3766 -50.3347 -50.3241 -50.2185 -50.2077
   -21.4640 -21.0779 -21.0493 -20.9909 -20.6308 -20.5035 -20.4459 -20.4289
   -20.3253 -20.2035 -20.0977 -20.0352 -19.9045 -19.8780 -19.7556 -19.5811
   -18.7284 -18.6233 -10.0074  -9.8502  -9.7887  -9.4570  -8.9857  -8.9706
    -8.9543  -8.7621  -8.7043  -8.6952  -8.6178  -8.5496  -8.4400  -8.3982
    -8.1567  -8.1477  -8.0106  -7.8121  -7.4875  -7.4725  -7.3494  -7.2128
    -7.1435  -6.8639  -6.7514  -6.6348  -6.5311  -6.3671  -6.2817  -6.2365
    -6.1323  -6.0837  -5.9504  -5.9099  -5.8861  -5.7566  -5.6356  -5.5686
    -5.3422  -5.2409  -5.0923  -4.9316  -4.8925  -4.6776  -4.6229  -4.5712
    -4.4188  -4.2447  -4.1626  -3.8525  -3.7198  -3.5050  -3.3862  -3.3120
    -3.2637  -3.0993  -2.9446  -2.9132  -2.7888  -2.7677  -2.7325  -2.6109
    -2.5953  -2.4944  -2.4270  -2.2772  -2.1627  -2.1067  -1.8728  -1.6511
    -1.3532  -1.1988  -1.1933  -0.9690  -0.9689  -0.7217  -0.5475  -0.3970
    -0.1185   0.0707   0.9842   1.1315   1.6124   1.6654   1.7966   2.1891
     2.3916   2.6750   2.8716   2.8998   3.1852   3.2211   3.3489   3.4289
     3.7777   4.3293   4.7581   5.1694   5.4087   5.5865   5.6895   5.8799
     6.1384   6.2942   6.5410   6.5826   6.6351   6.8231   7.0486   7.0852
     7.3065   7.3828   7.4523   7.6345   7.6839   7.8747   7.9962   8.0749
     8.1615   8.3523   8.4467   8.4534   8.5750   8.7565   8.8127   8.8738
     8.9152   9.1318   9.1666   9.1685   9.1701   9.2396   9.2680   9.2694
     9.3314   9.3640   9.3650   9.3917   9.3930   9.5273   9.6257   9.6948
     9.7503   9.9178  10.0206  10.0931  10.1848  10.3068  10.3075  10.4074
    10.4200  10.4811  10.5858  10.7490  10.8026  10.8242  10.9460  11.0285
    11.0304  11.2375  11.3403  11.4213  11.5441  11.5718  11.7006  11.7416
    11.7892  11.9381  12.0694  12.1322  12.1697  12.2906  12.2972  12.3859
    12.5205  12.5962  12.6251  12.7006  12.7264  12.7922  12.8239  12.9118
    13.0660  13.1021  13.1418  13.2145  13.2937  13.3362  13.4598  13.5946
    13.5960  13.7357  13.8598  13.8717  13.9837  13.9876  14.0616  14.1292
    14.2570  14.3484  14.4076  14.5046  14.5585  14.7422  14.7467  14.8719
    14.8763  15.1930  15.2062  15.3591  15.3634  15.5073  15.5434  15.5715
    15.6197  15.7540  15.7748  15.8258  15.8660  15.9034  15.9779  16.0485
    16.0616  16.1215  16.1526  16.2637  16.3345  16.3696  16.4267  16.4347
    16.5768  16.6500  16.7079  16.7474  16.7922  16.8287  17.0805  17.1437
    17.1914  17.3516  17.3690  17.4402  17.4407  17.4806  17.5638  17.5840
    17.6478  17.7288  17.7370  17.8395  17.9019  17.9177  17.9689  17.9779
    18.1804  18.2267  18.3080  18.3825  18.4604  18.4863  18.5820  18.6150
    18.7850  18.8416  18.9210  18.9480  19.0426  19.1164  19.1309  19.2001
    19.2684  19.2855  19.3497  19.4445  19.5708  19.6096  19.7148  19.7473
    19.8304  19.9259  19.9766  20.0711  20.1195  20.2826  20.3408  20.3442
    20.4494  20.5369  20.5919  20.6321  20.6692  20.7717  20.8007  20.8779
    20.8812  20.9587  21.0149  21.1210  21.1356  21.2738  21.3233  21.3468
    21.3546  21.4316  21.4691  21.5460

     the Fermi energy is    -0.9800 ev

!    total energy              =   -2073.01790756 Ry
     Harris-Foulkes estimate   =   -2073.01790756 Ry
     estimated scf accuracy    <          5.2E-09 Ry

     The total energy is the sum of the following terms:

     one-electron contribution =  -22037.57402567 Ry
     hartree contribution      =   11060.71912594 Ry
     xc contribution           =    -569.34110462 Ry
     ewald contribution        =    9472.21637736 Ry
     Hubbard energy            =       0.96323381 Ry
     smearing contrib. (-TS)   =      -0.00151438 Ry

     convergence has been achieved in  14 iterations

     Forces acting on atoms (Ry/au):

     negative rho (up, down):  0.313E+01 0.000E+00
     atom    1 type  1   force =    -0.00749311   -0.01359968   -0.00005413
     atom    2 type  1   force =     0.00010067    0.00505595   -0.00021638
     atom    3 type  2   force =     0.00004485    0.00519747   -0.00061701
     atom    4 type  2   force =     0.00922566    0.00775215   -0.00046538
     atom    5 type  1   force =    -0.00335486   -0.01621450   -0.00009103
     atom    6 type  1   force =     0.00466146    0.01440425   -0.00001545
     atom    7 type  1   force =    -0.00037508   -0.00176848    0.00082532
     atom    8 type  1   force =    -0.00328232   -0.00048097   -0.00003039
     atom    9 type  2   force =     0.00120026    0.00012021   -0.00032236
     atom   10 type  2   force =     0.00000993   -0.00135985   -0.00075450
     atom   11 type  1   force =    -0.00009082    0.01246639    0.00056208
     atom   12 type  1   force =     0.00020408   -0.01204060    0.00057252
     atom   13 type  1   force =    -0.00084562   -0.00010761   -0.00016698
     atom   14 type  1   force =    -0.00747474   -0.01359292   -0.00009494
     atom   15 type  1   force =     0.00008820    0.00505987   -0.00022266
     atom   16 type  2   force =     0.00004627    0.00519770   -0.00061875
     atom   17 type  2   force =     0.00921200    0.00775265   -0.00044074
     atom   18 type  1   force =    -0.00334882   -0.01621002   -0.00009139
     atom   19 type  1   force =     0.00466713    0.01440055   -0.00001642
     atom   20 type  1   force =    -0.00039369   -0.00176841    0.00082927
     atom   21 type  1   force =    -0.00330133   -0.00048100    0.00001600
     atom   22 type  2   force =     0.00119078    0.00012118   -0.00032096
     atom   23 type  2   force =     0.00000439   -0.00135980   -0.00075352
     atom   24 type  1   force =    -0.00009093    0.01245947    0.00056439
     atom   25 type  1   force =     0.00020399   -0.01203380    0.00057511
     atom   26 type  1   force =    -0.00086191   -0.00010760   -0.00017853
     atom   27 type  3   force =     0.00001679    0.00027509    0.00079941
     atom   28 type  3   force =     0.00001644    0.00026947    0.00080187
     atom   29 type  3   force =     0.00002269    0.00029975   -0.00004221
     atom   30 type  3   force =    -0.00000236    0.00029312   -0.00003225

     Total force =     0.002641     Total SCF correction =     0.000196

     bfgs converged in   8 scf cycles and   7 bfgs steps
     (criteria: energy < 0.10E-03, force < 0.10E-02)

     End of BFGS Geometry Optimization

     Final energy   =   -2073.0179075574 Ry
Begin final coordinates

ATOMIC_POSITIONS (crystal)
O0       0.000000000   0.000000000   0.378876557    0   0   1
O0       0.000000000   0.500000000   0.401941225    0   0   1
Ir1      0.250000000   0.500000000   0.452486022    0   0   1
Ir1      0.000000000   0.000000000   0.453582333    0   0   1
O0       0.250000000   0.810000000   0.453354648    0   0   1
O0       0.250000000   0.190000000   0.452919289    0   0   1
O0       0.000000000   0.500000000   0.498771187    0   0   1
O0       0.000000000   0.000000000   0.529149658    0   0   1
Ir1      0.250000000   0.000000000   0.576142982    0   0   1
Ir1      0.000000000   0.500000000   0.572051238    0   0   1
O0       0.250000000   0.690000000   0.576357089    0   0   1
O0       0.250000000   0.310000000   0.576387907    0   0   1
O0       0.000000000   0.000000000   0.620768962    0   0   1
O0       0.500000000   0.000000000   0.378877182    0   0   1
O0       0.500000000   0.500000000   0.401941378    0   0   1
Ir1      0.750000000   0.500000000   0.452486057    0   0   1
Ir1      0.500000000   0.000000000   0.453581329    0   0   1
O0       0.750000000   0.810000000   0.453354576    0   0   1
O0       0.750000000   0.190000000   0.452919269    0   0   1
O0       0.500000000   0.500000000   0.498770968    0   0   1
O0       0.500000000   0.000000000   0.529147569    0   0   1
Ir1      0.750000000   0.000000000   0.576142929    0   0   1
Ir1      0.500000000   0.500000000   0.572051098    0   0   1
O0       0.750000000   0.690000000   0.576357349    0   0   1
O0       0.750000000   0.310000000   0.576388156    0   0   1
O0       0.500000000   0.000000000   0.620769205    0   0   1
H2      -0.000152853   0.636040047   0.384091768
H2       0.499847210   0.636040186   0.384091768
H2       0.143498569   0.034197480   0.367305410
H2       0.643499516   0.034198165   0.367304892
End final coordinates

     General routines

     Parallel routines
     Hubbard U routines

   This run was terminated on:   3:53:51   6May2014

   JOB DONE.
Running PBS batch system epilogue script
Job id: 340762.audhumbla.fysik.dtu.dk
Username: zhonxu
Groupname: campgst
Jobname: IrO2/Eads-2-layers/bare-U-2.5
Sessionid: 8939
Queuename: verylong
Accounting:
This job has allocated the following 16 nodes:
b022 b022 b022 b022 b022 b022 b022 b022 b010 b010 b010 b010 b010 b010 b010 b010
Finished epilogue job 340762.audhumbla.fysik.dtu.dk for zhonxu