     Program PWSCF v.5.0.2 (svn rev. 9656) starts on  5May2014 at  1:10: 3

     Current dimensions of program PWSCF are:
     Max number of different atomic species (ntypx) = 10
     Max number of k-points (npk) =  40000
     Max angular momentum in pseudopotentials (lmaxx) =  3
     Reading input from pwscf.in
Warning: card &CELL ignored
Warning: card / ignored

     Subspace diagonalization in iterative solution of the eigenvalue problem:
     a serial algorithm will be used

     bravais-lattice index     =            0
     lattice parameter (alat)  =      10.9604  a.u.
     unit-cell volume          =    6350.6732 (a.u.)^3
     number of atoms/cell      =           32
     number of atomic types    =            3
     number of electrons       =       231.00 (up: 123.00, down: 108.00)
     number of Kohn-Sham states=          334
     kinetic-energy cutoff     =      40.0000  Ry
     charge density cutoff     =     500.0000  Ry
     convergence threshold     =      1.0E-06
     mixing beta               =       0.7000
     number of iterations used =            8  plain     mixing
     Exchange-correlation      = SLA  PW   PBE  PBE ( 1 4 3 4 0)
     EXX-fraction              =        0.00
     nstep                     =           50

     celldm(1)=  10.960412  celldm(2)=   0.000000  celldm(3)=   0.000000
     celldm(4)=   0.000000  celldm(5)=   0.000000  celldm(6)=   0.000000

     crystal axes: (cart. coord. in units of alat)
               a(1) = (   1.000000   0.000000   0.000000 )
               a(2) = (   0.000000   1.067975   0.000000 )
               a(3) = (   0.000000   0.000000   4.516251 )

     reciprocal axes: (cart. coord. in units 2 pi/alat)
               b(1) = (  1.000000  0.000000  0.000000 )
               b(2) = (  0.000000  0.936351  0.000000 )
               b(3) = (  0.000000  0.000000  0.221423 )

     PseudoPot. # 1 for O  read from file:
     /home/camp/zhonxu/pseudo/o_pbe_v1.01.uspp.F.UPF
     MD5 check sum: 2bcb18d16ea4b960afae9ec6d52f22d2
     Pseudo is Ultrasoft + core correction, Zval =  6.0
     Generated by new atomic code, or converted to UPF format
     Using radial grid of  737 points,  5 beta functions with:
                l(1) =   0
                l(2) =   0
                l(3) =   1
                l(4) =   1
                l(5) =   2
     Q(r) pseudized with  8 coefficients,  rinner =    0.900   0.900   0.900
                                                       0.900   0.900

     PseudoPot. # 2 for Cr read from file:
     /home/camp/zhonxu/pseudo/cr_pbe_v1.uspp.F.UPF
     MD5 check sum: 68b6f918d1762dccfb11451fe85b0e0e
     Pseudo is Ultrasoft + core correction, Zval = 14.0
     Generated by new atomic code, or converted to UPF format
     Using radial grid of  857 points,  6 beta functions with:
                l(1) =   0
                l(2) =   0
                l(3) =   1
                l(4) =   1
                l(5) =   2
                l(6) =   2
     Q(r) pseudized with  6 coefficients,  rinner =    1.000   1.000   1.000
                                                       1.000   1.000

     PseudoPot. # 3 for H  read from file:
     /home/camp/zhonxu/pseudo/h_pbe_v1.uspp.F.UPF
     MD5 check sum: 3408e3ff4ec8b0a4e358431e7e038a48
     Pseudo is Ultrasoft, Zval =  1.0
     Generated by new atomic code, or converted to UPF format
     Using radial grid of  615 points,  2 beta functions with:
                l(1) =   0
                l(2) =   0
     Q(r) pseudized with  8 coefficients,  rinner =    0.700

     atomic species   valence    mass     pseudopotential
        O0             6.00    15.99940     O ( 1.00)
        Cr1           14.00    51.99600     Cr( 1.00)
        H2             1.00     1.00794     H ( 1.00)

     Starting magnetic structure
     atomic species   magnetization
        O0           0.000
        Cr1          0.600
        H2           0.000

     Simplified LDA+U calculation (l_max = 2) with parameters (eV):
     atomic species    L          U    alpha       J0     beta
        Cr1            2     2.0000   0.0000   0.0000   0.0000

     No symmetry found

   Cartesian axes

     site n.     atom                  positions (alat units)
         1           O0  tau(   1) = (   0.0000000   0.0000000   1.7072332  )
         2           O0  tau(   2) = (   0.0000000   0.5339875   1.8068165  )
         3           Cr1 tau(   3) = (   0.2500000   0.5339875   2.0386808  )
         4           Cr1 tau(   4) = (   0.0000000   0.0000000   2.0275709  )
         5           O0  tau(   5) = (   0.2500000   0.8543801   2.0319968  )
         6           O0  tau(   6) = (   0.2500000   0.2135950   2.0327194  )
         7           O0  tau(   7) = (   0.0000000   0.5339875   2.2464284  )
         8           O0  tau(   8) = (   0.0000000   0.0000000   2.3629476  )
         9           Cr1 tau(   9) = (   0.2500000   0.0000000   2.5576884  )
        10           Cr1 tau(  10) = (   0.0000000   0.5339875   2.5509140  )
        11           O0  tau(  11) = (   0.2500000   0.7475825   2.5906119  )
        12           O0  tau(  12) = (   0.2500000   0.3203925   2.5906119  )
        13           O0  tau(  13) = (   0.0000000   0.0000000   2.7911334  )
        14           O0  tau(  14) = (   0.5000000   0.0000000   1.7073235  )
        15           O0  tau(  15) = (   0.5000000   0.5339875   1.8079456  )
        16           Cr1 tau(  16) = (   0.7500000   0.5339875   2.0392228  )
        17           Cr1 tau(  17) = (   0.5000000   0.0000000   2.0278870  )
        18           O0  tau(  18) = (   0.7500000   0.8543801   2.0322226  )
        19           O0  tau(  19) = (   0.7500000   0.2135950   2.0329904  )
        20           O0  tau(  20) = (   0.5000000   0.5339875   2.2544673  )
        21           O0  tau(  21) = (   0.5000000   0.0000000   2.3630380  )
        22           Cr1 tau(  22) = (   0.7500000   0.0000000   2.6360002  )
        23           Cr1 tau(  23) = (   0.5000000   0.5339875   2.6018573  )
        24           O0  tau(  24) = (   0.7500000   0.7475825   2.5939087  )
        25           O0  tau(  25) = (   0.7500000   0.3203925   2.5936377  )
        26           O0  tau(  26) = (   0.5000000   0.0000000   2.7879720  )
        27           H2  tau(  27) = (  -0.0006000   0.6814001   1.7205110  )
        28           H2  tau(  28) = (   0.4996600   0.6814535   1.7215045  )
        29           H2  tau(  29) = (   0.1566500   0.0338121   1.6478896  )
        30           H2  tau(  30) = (   0.6567200   0.0335237   1.6481606  )
        31           O0  tau(  31) = (   0.5143900   0.5336458   2.9144271  )
        32           H2  tau(  32) = (   0.3645400   0.5319370   2.9931001  )

     number of k points=    20  Methfessel-Paxton smearing, width (Ry)=  0.0100
                       cart. coord. in units 2pi/alat
        k(    1) = (   0.0000000   0.0000000   0.0000000), wk =   0.0625000
        k(    2) = (   0.0000000   0.2340879   0.0000000), wk =   0.1250000
        k(    3) = (   0.0000000  -0.4681757   0.0000000), wk =   0.0625000
        k(    4) = (   0.2500000   0.0000000   0.0000000), wk =   0.1250000
        k(    5) = (   0.2500000   0.2340879   0.0000000), wk =   0.1250000
        k(    6) = (   0.2500000  -0.4681757   0.0000000), wk =   0.1250000
        k(    7) = (  -0.5000000   0.0000000   0.0000000), wk =   0.0625000
        k(    8) = (  -0.5000000   0.2340879   0.0000000), wk =   0.1250000
        k(    9) = (  -0.5000000  -0.4681757   0.0000000), wk =   0.0625000
        k(   10) = (  -0.2500000   0.2340879   0.0000000), wk =   0.1250000
        k(   11) = (   0.0000000   0.0000000   0.0000000), wk =   0.0625000
        k(   12) = (   0.0000000   0.2340879   0.0000000), wk =   0.1250000
        k(   13) = (   0.0000000  -0.4681757   0.0000000), wk =   0.0625000
        k(   14) = (   0.2500000   0.0000000   0.0000000), wk =   0.1250000
        k(   15) = (   0.2500000   0.2340879   0.0000000), wk =   0.1250000
        k(   16) = (   0.2500000  -0.4681757   0.0000000), wk =   0.1250000
        k(   17) = (  -0.5000000   0.0000000   0.0000000), wk =   0.0625000
        k(   18) = (  -0.5000000   0.2340879   0.0000000), wk =   0.1250000
        k(   19) = (  -0.5000000  -0.4681757   0.0000000), wk =   0.0625000
        k(   20) = (  -0.2500000   0.2340879   0.0000000), wk =   0.1250000

     Largest allocated arrays     est. size (Mb)     dimensions
     Largest temporary arrays     est. size (Mb)     dimensions

     Check: negative/imaginary core charge=   -0.000012    0.000000

     Initial potential from superposition of free atoms
     Check: negative starting charge=(component1):   -0.001476
     Check: negative starting charge=(component2):   -0.000504

     starting charge  222.99983, renormalised to  231.00000

     negative rho (up, down):  0.153E-02 0.522E-03
     Number of +U iterations with fixed ns =  0
     Starting occupations:
 --- enter write_ns ---
 LDA+U parameters:
U( 2)     =  2.00000000
alpha( 2) =  0.00000000
atom    3   Tr[ns(na)] (up, down, total) =   5.00000  0.00000  5.00000
   spin  1
    eigenvalues:
  1.000  1.000  1.000  1.000  1.000
    eigenvectors:
  1.000  0.000  0.000  0.000  0.000
  0.000  1.000  0.000  0.000  0.000
  0.000  0.000  1.000  0.000  0.000
  0.000  0.000  0.000  1.000  0.000
  0.000  0.000  0.000  0.000  1.000
    occupations:
  1.000  0.000  0.000  0.000  0.000
  0.000  1.000  0.000  0.000  0.000
  0.000  0.000  1.000  0.000  0.000
  0.000  0.000  0.000  1.000  0.000
  0.000  0.000  0.000  0.000  1.000
   spin  2
    eigenvalues:
  0.000  0.000  0.000  0.000  0.000
    eigenvectors:
  1.000  0.000  0.000  0.000  0.000
  0.000  1.000  0.000  0.000  0.000
  0.000  0.000  1.000  0.000  0.000
  0.000  0.000  0.000  1.000  0.000
  0.000  0.000  0.000  0.000  1.000
    occupations:
  0.000  0.000  0.000  0.000  0.000
  0.000  0.000  0.000  0.000  0.000
  0.000  0.000  0.000  0.000  0.000
  0.000  0.000  0.000  0.000  0.000
  0.000  0.000  0.000  0.000  0.000
atomic mag. moment =     5.000000
atom    4   Tr[ns(na)] (up, down, total) =   5.00000  0.00000  5.00000
   spin  1
    eigenvalues:
  1.000  1.000  1.000  1.000  1.000
    eigenvectors:
  1.000  0.000  0.000  0.000  0.000
  0.000  1.000  0.000  0.000  0.000
  0.000  0.000  1.000  0.000  0.000
  0.000  0.000  0.000  1.000  0.000
  0.000  0.000  0.000  0.000  1.000
    occupations:
  1.000  0.000  0.000  0.000  0.000
  0.000  1.000  0.000  0.000  0.000
  0.000  0.000  1.000  0.000  0.000
  0.000  0.000  0.000  1.000  0.000
  0.000  0.000  0.000  0.000  1.000
   spin  2
    eigenvalues:
  0.000  0.000  0.000  0.000  0.000
    eigenvectors:
  1.000  0.000  0.000  0.000  0.000
  0.000  1.000  0.000  0.000  0.000
  0.000  0.000  1.000  0.000  0.000
  0.000  0.000  0.000  1.000  0.000
  0.000  0.000  0.000  0.000  1.000
    occupations:
  0.000  0.000  0.000  0.000  0.000
  0.000  0.000  0.000  0.000  0.000
  0.000  0.000  0.000  0.000  0.000
  0.000  0.000  0.000  0.000  0.000
  0.000  0.000  0.000  0.000  0.000
atomic mag. moment =     5.000000
atom    9   Tr[ns(na)] (up, down, total) =   5.00000  0.00000  5.00000
   spin  1
    eigenvalues:
  1.000  1.000  1.000  1.000  1.000
[...]
  0.001 -0.008 -0.005 -0.001  0.909
   spin  2
    eigenvalues:
  0.105  0.129  0.157  0.352  0.376
    eigenvectors:
  0.758  0.000  0.018  0.003  0.221
  0.000  0.002  0.000  0.983  0.015
  0.020  0.002  0.978  0.000  0.000
  0.222  0.000  0.002  0.012  0.764
  0.000  0.996  0.002  0.002  0.000
    occupations:
  0.167 -0.003 -0.004  0.113  0.000
 -0.003  0.352  0.000 -0.002  0.011
 -0.004  0.000  0.156  0.008 -0.001
  0.113 -0.002  0.008  0.315 -0.000
  0.000  0.011 -0.001 -0.000  0.129
atomic mag. moment =     2.419918
atom    4   Tr[ns(na)] (up, down, total) =   3.45115  1.21999  4.67114
   spin  1
    eigenvalues:
  0.485  0.531  0.582  0.869  0.984
    eigenvectors:
  0.002  0.992  0.000  0.001  0.005
  0.000  0.001  0.015  0.984  0.000
  0.000  0.000  0.985  0.015  0.000
  0.000  0.005  0.000  0.000  0.995
  0.998  0.002  0.000  0.000  0.000
    occupations:
  0.533 -0.012 -0.001  0.031  0.002
 -0.012  0.865  0.035  0.003 -0.000
 -0.001  0.035  0.586  0.002 -0.001
  0.031  0.003  0.002  0.982 -0.000
  0.002 -0.000 -0.001 -0.000  0.485
   spin  2
    eigenvalues:
  0.112  0.144  0.188  0.376  0.400
    eigenvectors:
  0.003  0.003  0.000  0.002  0.993
  0.002  0.955  0.040  0.000  0.003
  0.000  0.040  0.960  0.000  0.000
  0.995  0.002  0.000  0.000  0.002
  0.000  0.000  0.000  0.998  0.002
    occupations:
  0.398  0.014  0.003 -0.014  0.001
  0.014  0.147 -0.008  0.001 -0.000
  0.003 -0.008  0.186  0.000  0.000
 -0.014  0.001  0.000  0.113  0.000
  0.001 -0.000  0.000  0.000  0.376
atomic mag. moment =     2.231159
atom    9   Tr[ns(na)] (up, down, total) =   3.48218  1.22776  4.70994
   spin  1
    eigenvalues:
  0.497  0.508  0.642  0.855  0.980
    eigenvectors:
  0.021  0.155  0.000  0.000  0.825
  0.890  0.110  0.000  0.000  0.000
  0.000  0.000  0.980  0.020  0.000
  0.089  0.736  0.000  0.000  0.175
  0.000  0.000  0.020  0.980  0.000
    occupations:
  0.897  0.004 -0.001 -0.180 -0.000
  0.004  0.498  0.002  0.002 -0.000
 -0.001  0.002  0.646 -0.001 -0.030
 -0.180  0.002 -0.001  0.589  0.002
 -0.000 -0.000 -0.030  0.002  0.851
   spin  2
    eigenvalues:
  0.127  0.157  0.175  0.382  0.387
    eigenvectors:
  0.814  0.000  0.000  0.027  0.160
  0.000  0.000  0.000  0.859  0.141
  0.000  0.045  0.955  0.000  0.000
  0.186  0.000  0.000  0.114  0.699
  0.000  0.955  0.045  0.000  0.000
    occupations:
  0.175  0.000  0.000  0.101 -0.000
  0.000  0.383 -0.000  0.002  0.000
  0.000 -0.000  0.174  0.000  0.004
  0.101  0.002  0.000  0.338 -0.000
 -0.000  0.000  0.004 -0.000  0.158
atomic mag. moment =     2.254414
atom   10   Tr[ns(na)] (up, down, total) =   3.58230  1.07245  4.65475
   spin  1
    eigenvalues:
  0.475  0.500  0.746  0.878  0.982
    eigenvectors:
  0.000  0.996  0.000  0.000  0.004
  0.000  0.001  0.000  0.971  0.028
  0.001  0.000  0.999  0.000  0.000
  0.000  0.004  0.000  0.029  0.968
  0.999  0.000  0.001  0.000  0.000
    occupations:
  0.502 -0.010  0.001  0.029 -0.000
 -0.010  0.881 -0.001 -0.017  0.000
  0.001 -0.001  0.746  0.000  0.007
  0.029 -0.017  0.000  0.978  0.000
 -0.000  0.000  0.007  0.000  0.475
   spin  2
    eigenvalues:
  0.103  0.152  0.161  0.299  0.358
    eigenvectors:
  0.006  0.000  0.000  0.994  0.000
  0.001  0.999  0.000  0.000  0.000
  0.000  0.000  1.000  0.000  0.000
  0.993  0.001  0.000  0.006  0.000
  0.000  0.000  0.000  0.000  1.000
    occupations:
  0.298  0.000 -0.000 -0.015 -0.000
  0.000  0.152  0.000  0.002 -0.000
 -0.000  0.000  0.161  0.000  0.002
 -0.015  0.002  0.000  0.104  0.000
 -0.000 -0.000  0.002  0.000  0.358
atomic mag. moment =     2.509849
atom   16   Tr[ns(na)] (up, down, total) =   3.53669  1.12269  4.65938
   spin  1
    eigenvalues:
  0.463  0.506  0.674  0.911  0.982
    eigenvectors:
  0.003  0.220  0.002  0.000  0.775
  0.988  0.012  0.000  0.000  0.000
  0.000  0.000  0.996  0.001  0.003
  0.009  0.768  0.001  0.000  0.222
  0.000  0.000  0.001  0.999  0.000
    occupations:
  0.875  0.002  0.015 -0.198 -0.001
  0.002  0.464 -0.001  0.004 -0.008
  0.015 -0.001  0.676 -0.007  0.007
 -0.198  0.004 -0.007  0.612 -0.000
 -0.001 -0.008  0.007 -0.000  0.910
   spin  2
    eigenvalues:
  0.106  0.129  0.158  0.353  0.377
    eigenvectors:
  0.757  0.000  0.018  0.002  0.222
  0.000  0.002  0.000  0.984  0.013
  0.020  0.003  0.977  0.000  0.000
  0.223  0.000  0.002  0.011  0.764
  0.000  0.995  0.003  0.002  0.000
    occupations:
  0.168  0.003 -0.004  0.113 -0.000
  0.003  0.353 -0.000  0.002  0.011
 -0.004 -0.000  0.157  0.008  0.001
  0.113  0.002  0.008  0.316  0.000
 -0.000  0.011  0.001  0.000  0.130
atomic mag. moment =     2.413994
atom   17   Tr[ns(na)] (up, down, total) =   3.46629  1.20163  4.66792
   spin  1
    eigenvalues:
  0.482  0.529  0.606  0.865  0.984
    eigenvectors:
  0.002  0.993  0.000  0.001  0.004
  0.000  0.001  0.015  0.984  0.000
  0.000  0.000  0.984  0.015  0.000
  0.000  0.004  0.000  0.000  0.996
  0.998  0.002  0.000  0.000  0.000
    occupations:
  0.531 -0.011 -0.002  0.029  0.002
 -0.011  0.861  0.032  0.000 -0.000
 -0.002  0.032  0.610  0.000  0.002
  0.029  0.000  0.000  0.982 -0.000
  0.002 -0.000  0.002 -0.000  0.482
   spin  2
    eigenvalues:
  0.111  0.141  0.182  0.372  0.396
    eigenvectors:
  0.003  0.004  0.000  0.001  0.992
  0.002  0.949  0.045  0.000  0.004
  0.000  0.045  0.955  0.000  0.000
  0.995  0.003  0.000  0.000  0.003
  0.000  0.000  0.000  0.999  0.001
    occupations:
  0.394  0.016  0.003 -0.014  0.001
  0.016  0.144 -0.008  0.001 -0.000
  0.003 -0.008  0.181  0.000 -0.000
 -0.014  0.001  0.000  0.111  0.000
  0.001 -0.000 -0.000  0.000  0.372
atomic mag. moment =     2.264662
atom   22   Tr[ns(na)] (up, down, total) =   3.05179  1.77761  4.82940
   spin  1
    eigenvalues:
  0.521  0.545  0.559  0.657  0.770
    eigenvectors:
  0.995  0.004  0.000  0.000  0.000
  0.004  0.995  0.000  0.000  0.000
  0.000  0.000  0.000  0.015  0.985
  0.000  0.000  0.999  0.000  0.000
  0.000  0.000  0.000  0.985  0.015
    occupations:
  0.521  0.002 -0.002 -0.001  0.001
  0.002  0.545  0.001 -0.000  0.000
 -0.002  0.001  0.768  0.000 -0.014
 -0.001 -0.000  0.000  0.559 -0.001
  0.001  0.000 -0.014 -0.001  0.658
   spin  2
    eigenvalues:
  0.238  0.295  0.318  0.460  0.466
    eigenvectors:
  0.000  0.000  0.989  0.010  0.001
  0.000  0.000  0.000  0.085  0.915
  0.999  0.001  0.000  0.000  0.000
  0.000  0.000  0.011  0.905  0.084
  0.001  0.999  0.000  0.000  0.000
    occupations:
  0.320 -0.000  0.000  0.015 -0.000
 -0.000  0.465 -0.000 -0.001  0.000
  0.000 -0.000  0.238 -0.000 -0.002
  0.015 -0.001 -0.000  0.459  0.000
 -0.000  0.000 -0.002  0.000  0.295
atomic mag. moment =     1.274176
atom   23   Tr[ns(na)] (up, down, total) =   3.46021  1.20143  4.66164
   spin  1
    eigenvalues:
  0.476  0.522  0.573  0.916  0.974
    eigenvectors:
  0.000  0.994  0.001  0.000  0.005
  0.000  0.000  0.000  0.958  0.042
  0.006  0.001  0.994  0.000  0.000
  0.000  0.005  0.000  0.042  0.953
  0.994  0.000  0.006  0.000  0.000
    occupations:
  0.524  0.003 -0.001  0.033  0.000
  0.003  0.919  0.003  0.011 -0.000
 -0.001  0.003  0.572 -0.002 -0.007
  0.033  0.011 -0.002  0.969 -0.000
  0.000 -0.000 -0.007 -0.000  0.476
   spin  2
    eigenvalues:
  0.109  0.136  0.189  0.374  0.394
    eigenvectors:
  0.002  0.002  0.000  0.000  0.996
  0.004  0.994  0.000  0.000  0.002
  0.000  0.000  1.000  0.000  0.000
  0.994  0.004  0.000  0.000  0.002
  0.000  0.000  0.000  1.000  0.000
    occupations:
  0.393  0.011  0.000 -0.012  0.000
  0.011  0.136 -0.001 -0.002 -0.000
  0.000 -0.001  0.189  0.000 -0.003
 -0.012 -0.002  0.000  0.109 -0.000
  0.000 -0.000 -0.003 -0.000  0.374
atomic mag. moment =     2.258787
N of occupied +U levels =  37.5139656
 --- exit write_ns ---

 ------ SPIN UP ------------

[...]

 ------ SPIN DOWN ----------

[...]

          k = 0.2500-0.4682 0.0000 ( 27150 PWs)   bands (ev):

[...]

          k =-0.2500 0.2341 0.0000 ( 27132 PWs)   bands (ev):

   -74.2443 -72.6729 -72.6626 -72.5869 -72.5815 -72.5123 -72.3871 -72.3635
   -45.9160 -45.5385 -45.3011 -44.2750 -44.2661 -44.2201 -44.1775 -44.1725
   -44.1560 -44.0958 -44.0078 -43.9831 -43.9636 -43.8839 -43.8128 -43.8014
   -43.7757 -43.7620 -43.7582 -43.7078 -43.6258 -43.6144 -43.5192 -43.3884
   -21.1749 -20.7855 -20.6053 -20.5295 -20.4137 -20.2473 -20.0796 -20.0073
   -19.9548 -19.9023 -19.7821 -19.6996 -19.6111 -19.5863 -19.5673 -19.4842
   -19.3545 -19.3126 -19.2596  -8.6610  -8.4381  -8.1389  -8.0672  -7.9016
    -7.8795  -7.6141  -7.5374  -7.4731  -7.3878  -7.3134  -7.2121  -7.0964
    -7.0541  -6.8783  -6.8388  -6.7625  -6.6986  -6.5706  -6.4085  -6.3657
    -6.2741  -6.1643  -5.9654  -5.9101  -5.7355  -5.6541  -5.5802  -5.4186
    -5.3573  -5.2959  -5.2597  -5.2381  -5.1340  -5.0145  -4.9768  -4.9512
    -4.8027  -4.7265  -4.5410  -4.4026  -4.3553  -4.2385  -4.1729  -4.0947
    -4.0346  -3.9694  -3.8935  -3.8283  -3.7173  -3.5840  -3.5362  -3.5258
    -3.2801  -3.2556  -3.1315  -2.9099  -0.2826  -0.2432  -0.2198   0.3273
     0.3682   0.4559   0.5551   0.6291   0.6695   0.7111   0.8368   0.8986
     0.9297   1.0318   1.0716   1.1401   1.1905   1.2631   1.3292   1.3489
     1.4146   1.5403   1.5900   1.6222   1.6725   1.7867   2.0165   2.1808
     2.2811   2.5643   2.7243   2.7667   2.8612   3.0007   3.0915   3.1618
     3.2297   3.4668   3.6708   3.7253   3.9101   3.9842   4.3517   4.8091
     5.3348   5.7204   5.8842   5.8951   6.1721   6.2849   6.4335   6.5906
     6.7666   6.9102   7.0359   7.3340   7.4580   7.6822   7.8875   8.0020
     8.1094   8.3229   8.4045   8.5296   8.6740   8.8173   8.9946   9.1284
     9.2674   9.3269   9.4644   9.5578   9.6402   9.8016   9.8576  10.0266
    10.1436  10.2392  10.3258  10.4411  10.5247  10.6161  10.7140  10.8330
    10.9340  11.0198  11.1291  11.2351  11.2790  11.4173  11.4789  11.5924
    11.6689  11.7499  11.8836  11.9829  12.0797  12.1429  12.1770  12.2722
    12.3617  12.4107  12.5796  12.6721  12.7251  12.8338  12.9193  12.9772
    12.9991  13.0817  13.1420  13.1692  13.2176  13.3177  13.3553  13.4456
    13.5329  13.6366  13.7174  13.7857  13.8831  13.9035  14.0013  14.0789
    14.1359  14.2199  14.3576  14.4851  14.5417  14.6040  14.6734  14.7774
    14.8315  14.8692  14.9941  15.0673  15.1048  15.2648  15.3543  15.4127
    15.5137  15.5885  15.6300  15.7092  15.7523  15.7903  15.8966  15.9946
    16.0127  16.1217  16.2198  16.2545  16.3107  16.4188  16.4861  16.5217
    16.6092  16.7249  16.7630  16.8459  16.8898  16.9592  17.0128  17.1221
    17.2129  17.2380  17.3145  17.4192  17.4536  17.5293  17.5727  17.6159
    17.7191  17.7471  17.7649  17.8571  17.9464  18.0501  18.1081  18.1667
    18.2451  18.3062  18.3615  18.3958  18.4475  18.6262  18.7321  18.7866
    18.8273  18.9019  18.9502  19.0038  19.0921  19.1435  19.2486  19.3049
    19.4031  19.4386  19.5234  19.5946  19.6372  19.6706  19.7482  19.8536
    19.8836  20.0025  20.1062  20.1862  20.2375  20.3367  20.3884  20.5131
    20.5882  20.7133  20.7707  20.8299  20.9032  20.9573  21.0470  21.1345
    21.1969  21.2362  21.3379  21.3954  21.4113  21.5298

     the spin up/dw Fermi energies are    -1.6844   -2.7191 ev

!    total energy              =   -2026.03456273 Ry
     Harris-Foulkes estimate   =   -2026.03456274 Ry
     estimated scf accuracy    <          5.8E-09 Ry

     The total energy is the sum of the following terms:

     one-electron contribution =  -24191.75917404 Ry
     hartree contribution      =   12115.39315534 Ry
     xc contribution           =    -322.80243348 Ry
     ewald contribution        =   10372.10824457 Ry
     Hubbard energy            =       1.02525510 Ry
     smearing contrib. (-TS)   =       0.00038978 Ry

     total magnetization       =    15.00 Bohr mag/cell
     absolute magnetization    =    20.91 Bohr mag/cell

     convergence has been achieved in  18 iterations

     Forces acting on atoms (Ry/au):

     negative rho (up, down):  0.506E-02 0.178E-02
     atom    1 type  1   force =    -0.00329597   -0.01123831   -0.00013976
     atom    2 type  1   force =    -0.00024565    0.00676500    0.00002544
     atom    3 type  2   force =     0.03336946   -0.00250243   -0.00045715
     atom    4 type  2   force =    -0.00124875    0.00775921    0.00035749
     atom    5 type  1   force =     0.00022794    0.00609804    0.00015632
     atom    6 type  1   force =    -0.00031929   -0.00428624    0.00016518
     atom    7 type  1   force =     0.00257345   -0.00161910   -0.00020738
     atom    8 type  1   force =    -0.01449615   -0.00105027   -0.00059498
     atom    9 type  2   force =     0.00638140    0.00128631   -0.00026535
     atom   10 type  2   force =    -0.00284978    0.00006294   -0.00016412
     atom   11 type  1   force =    -0.02540548   -0.03324925    0.00010655
     atom   12 type  1   force =    -0.02528604    0.03230892    0.00014430
     atom   13 type  1   force =    -0.04390469    0.00004373    0.00076138
     atom   14 type  1   force =    -0.00632041   -0.01202150   -0.00023403
     atom   15 type  1   force =     0.00056150    0.00737959   -0.00032831
     atom   16 type  2   force =    -0.03533732   -0.00176731   -0.00037621
     atom   17 type  2   force =     0.00705540    0.00771804    0.00039184
     atom   18 type  1   force =     0.00261744    0.00583975    0.00019479
     atom   19 type  1   force =     0.00209694   -0.00431493    0.00017530
     atom   20 type  1   force =     0.00120989   -0.00204290    0.00011810
     atom   21 type  1   force =     0.01054800    0.00004181   -0.00079199
     atom   22 type  2   force =    -0.00160454    0.00008128    0.00093924
     atom   23 type  2   force =    -0.00873284    0.00026443    0.00004188
     atom   24 type  1   force =     0.02806255   -0.01519838   -0.00030090
     atom   25 type  1   force =     0.02818502    0.01517180   -0.00031978
     atom   26 type  1   force =     0.04611012   -0.00009297    0.00054762
     atom   27 type  3   force =    -0.00000697   -0.00044910   -0.00041961
     atom   28 type  3   force =    -0.00003404   -0.00023991   -0.00053969
     atom   29 type  3   force =     0.00022510   -0.00047933    0.00002904
     atom   30 type  3   force =     0.00011847   -0.00021891   -0.00014867
     atom   31 type  1   force =     0.00044602    0.00002407    0.00049414
     atom   32 type  3   force =    -0.00070077   -0.00007410    0.00063933

     Total force =     0.002550     Total SCF correction =     0.000183

     bfgs converged in   9 scf cycles and   8 bfgs steps
     (criteria: energy < 0.10E-03, force < 0.10E-02)

     End of BFGS Geometry Optimization

     Final energy   =   -2026.0345627346 Ry
Begin final coordinates

ATOMIC_POSITIONS (crystal)
O0       0.000000000   0.000000000   0.377779807    0   0   1
O0       0.000000000   0.500000000   0.399089932    0   0   1
Cr1      0.250000000   0.500000000   0.450857361    0   0   1
Cr1      0.000000000   0.000000000   0.449149280    0   0   1
O0       0.250000000   0.800000000   0.449754078    0   0   1
O0       0.250000000   0.200000000   0.449881896    0   0   1
O0       0.000000000   0.500000000   0.497541274    0   0   1
O0       0.000000000   0.000000000   0.523057634    0   0   1
Cr1      0.250000000   0.000000000   0.567803822    0   0   1
Cr1      0.000000000   0.500000000   0.565333164    0   0   1
O0       0.250000000   0.700000000   0.573916244    0   0   1
O0       0.250000000   0.300000000   0.573934934    0   0   1
O0       0.000000000   0.000000000   0.618018525    0   0   1
O0       0.500000000   0.000000000   0.377688369    0   0   1
O0       0.500000000   0.500000000   0.399626667    0   0   1
Cr1      0.750000000   0.500000000   0.450874002    0   0   1
Cr1      0.500000000   0.000000000   0.449237705    0   0   1
O0       0.750000000   0.800000000   0.449795874    0   0   1
O0       0.750000000   0.200000000   0.449885479    0   0   1
O0       0.500000000   0.500000000   0.499812239    0   0   1
O0       0.500000000   0.000000000   0.523363822    0   0   1
Cr1      0.750000000   0.000000000   0.583183383    0   0   1
Cr1      0.500000000   0.500000000   0.576119379    0   0   1
O0       0.750000000   0.700000000   0.574833557    0   0   1
O0       0.750000000   0.300000000   0.574785870    0   0   1
O0       0.500000000   0.000000000   0.617635120    0   0   1
H2      -0.000586279   0.639228402   0.380523536
H2       0.499588500   0.638743230   0.380804690
H2       0.157418461   0.030569410   0.364855064
H2       0.657130401   0.030812163   0.364767395
O0       0.515024219   0.499708602   0.645959783
H2       0.363904676   0.497969115   0.662860115
End final coordinates

     General routines

     Parallel routines
     Hubbard U routines

   This run was terminated on:  16:42:31   5May2014

   JOB DONE.