     Program PWSCF v.5.0.2 (svn rev. 9656) starts on  9May2014 at  7:34:57

     Current dimensions of program PWSCF are:
     Max number of different atomic species (ntypx) = 10
     Max number of k-points (npk) =  40000
     Max angular momentum in pseudopotentials (lmaxx) =  3
     Reading input from pwscf.in
Warning: card &CELL ignored
Warning: card / ignored

     Subspace diagonalization in iterative solution of the eigenvalue problem:
     a serial algorithm will be used

     bravais-lattice index     =            0
     lattice parameter (alat)  =      10.1289  a.u.
     unit-cell volume          =    6836.7721 (a.u.)^3
     number of atoms/cell      =           30
     number of atomic types    =            3
     number of electrons       =       232.00
     number of Kohn-Sham states=          348
     kinetic-energy cutoff     =      40.0000  Ry
     charge density cutoff     =     500.0000  Ry
     convergence threshold     =      1.0E-06
     mixing beta               =       0.7000
     number of iterations used =            8  plain     mixing
     Exchange-correlation      = SLA  PW   PBE  PBE ( 1 4 3 4 0)
     EXX-fraction              =        0.00
     nstep                     =           50

     celldm(1)=  10.128932  celldm(2)=   0.000000  celldm(3)=   0.000000
     celldm(4)=   0.000000  celldm(5)=   0.000000  celldm(6)=   0.000000

     crystal axes: (cart. coord. in units of alat)
               a(1) = (   1.000000   0.000000   0.000000 )
               a(2) = (   0.000000   1.306037   0.000000 )
               a(3) = (   0.000000   0.000000   5.037380 )

     reciprocal axes: (cart. coord. in units 2 pi/alat)
               b(1) = (  1.000000  0.000000  0.000000 )
               b(2) = (  0.000000  0.765675  0.000000 )
               b(3) = (  0.000000  0.000000  0.198516 )

     PseudoPot. # 1 for O  read from file:
     /home/camp/zhonxu/pseudo/o_pbe_v1.01.uspp.F.UPF
     MD5 check sum: 2bcb18d16ea4b960afae9ec6d52f22d2
     Pseudo is Ultrasoft + core correction, Zval =  6.0
     Generated by new atomic code, or converted to UPF format
     Using radial grid of  737 points,  5 beta functions with:
                l(1) =   0
                l(2) =   0
                l(3) =   1
                l(4) =   1
                l(5) =   2
     Q(r) pseudized with  8 coefficients,  rinner =    0.900   0.900   0.900
                                                       0.900   0.900

     PseudoPot. # 2 for Re read from file:
     /home/camp/zhonxu/pseudo/re_pbe_v1.uspp.F.UPF
     MD5 check sum: 6f5a5dcaf9c96c20d0ffdde0de57afc6
     Pseudo is Ultrasoft + core correction, Zval = 15.0
     Generated by new atomic code, or converted to UPF format
     Using radial grid of  981 points,  8 beta functions with:
                l(1) =   0
                l(2) =   0
                l(3) =   1
                l(4) =   1
                l(5) =   2
                l(6) =   2
                l(7) =   3
                l(8) =   3
     Q(r) pseudized with  8 coefficients,  rinner =    1.000   1.000   1.000
                                                       1.000   1.000   1.000
                                                       1.000

     PseudoPot. # 3 for H  read from file:
     /home/camp/zhonxu/pseudo/h_pbe_v1.uspp.F.UPF
     MD5 check sum: 3408e3ff4ec8b0a4e358431e7e038a48
     Pseudo is Ultrasoft, Zval =  1.0
     Generated by new atomic code, or converted to UPF format
     Using radial grid of  615 points,  2 beta functions with:
                l(1) =   0
                l(2) =   0
     Q(r) pseudized with  8 coefficients,  rinner =    0.700

     atomic species   valence    mass     pseudopotential
        O0             6.00    15.99940     O ( 1.00)
        Re1           15.00   186.20700     Re( 1.00)
        H2             1.00     1.00794     H ( 1.00)

     Simplified LDA+U calculation (l_max = 2) with parameters (eV):
     atomic species    L          U    alpha       J0     beta
        Re1            2     3.5000   0.0000   0.0000   0.0000

     No symmetry found

   Cartesian axes

     site n.     atom                  positions (alat units)
         1           O0  tau(   1) = (   0.0000000   0.0000000   1.8688176  )
         2           O0  tau(   2) = (   0.0000000   0.6530184   1.9243296  )
         3           Re1 tau(   3) = (   0.2500000   0.6530184   2.2228951  )
         4           Re1 tau(   4) = (   0.0000000   0.0000000   2.2352367  )
         5           O0  tau(   5) = (   0.2500000   1.0187087   2.2249100  )
         6           O0  tau(   6) = (   0.2500000   0.2873281   2.2250611  )
         7           O0  tau(   7) = (   0.0000000   0.6530184   2.5071041  )
         8           O0  tau(   8) = (   0.0000000   0.0000000   2.5966183  )
         9           Re1 tau(   9) = (   0.2500000   0.0000000   2.8989619  )
        10           Re1 tau(  10) = (   0.0000000   0.6530184   2.8608793  )
        11           O0  tau(  11) = (   0.2500000   0.9403465   2.8908013  )
        12           O0  tau(  12) = (   0.2500000   0.3656903   2.8907005  )
        13           O0  tau(  13) = (   0.0000000   0.0000000   3.1620138  )
        14           O0  tau(  14) = (   0.5000000   0.0000000   1.8688176  )
        15           O0  tau(  15) = (   0.5000000   0.6530184   1.9243296  )
        16           Re1 tau(  16) = (   0.7500000   0.6530184   2.2228951  )
        17           Re1 tau(  17) = (   0.5000000   0.0000000   2.2352367  )
        18           O0  tau(  18) = (   0.7500000   1.0187087   2.2249604  )
        19           O0  tau(  19) = (   0.7500000   0.2873281   2.2250611  )
        20           O0  tau(  20) = (   0.5000000   0.6530184   2.5071041  )
        21           O0  tau(  21) = (   0.5000000   0.0000000   2.5966183  )
        22           Re1 tau(  22) = (   0.7500000   0.0000000   2.8989619  )
        23           Re1 tau(  23) = (   0.5000000   0.6530184   2.8609296  )
        24           O0  tau(  24) = (   0.7500000   0.9403465   2.8908013  )
        25           O0  tau(  25) = (   0.7500000   0.3656903   2.8907005  )
        26           O0  tau(  26) = (   0.5000000   0.0000000   3.1620138  )
        27           H2  tau(  27) = (  -0.0003800   0.8172395   1.8403061  )
        28           H2  tau(  28) = (   0.4996200   0.8172395   1.8403061  )
        29           H2  tau(  29) = (   0.1698700   0.0284977   1.7974380  )
        30           H2  tau(  30) = (   0.6698800   0.0284977   1.7974380  )

     number of k points=    10  Methfessel-Paxton smearing, width (Ry)=  0.0100
                       cart. coord. in units 2pi/alat
        k(    1) = (   0.0000000   0.0000000   0.0000000), wk =   0.1250000
        k(    2) = (   0.0000000   0.1914188   0.0000000), wk =   0.2500000
        k(    3) = (   0.0000000  -0.3828376   0.0000000), wk =   0.1250000
        k(    4) = (   0.2500000   0.0000000   0.0000000), wk =   0.2500000
        k(    5) = (   0.2500000   0.1914188   0.0000000), wk =   0.2500000
        k(    6) = (   0.2500000  -0.3828376   0.0000000), wk =   0.2500000
        k(    7) = (  -0.5000000   0.0000000   0.0000000), wk =   0.1250000
        k(    8) = (  -0.5000000   0.1914188   0.0000000), wk =   0.2500000
        k(    9) = (  -0.5000000  -0.3828376   0.0000000), wk =   0.1250000
        k(   10) = (  -0.2500000   0.1914188   0.0000000), wk =   0.2500000

     Largest allocated arrays     est. size (Mb)     dimensions
     Largest temporary arrays     est. size (Mb)     dimensions

     Check: negative/imaginary core charge=   -0.000003    0.000000

     Initial potential from superposition of free atoms
     Check: negative starting charge=   -0.237311

     starting charge  227.99958, renormalised to  232.00000

     negative rho (up, down):  0.241E+00 0.000E+00
     Number of +U iterations with fixed ns =  0
     Starting occupations:
 --- enter write_ns ---
 LDA+U parameters:
U( 2)     =  3.50000000
alpha( 2) =  0.00000000
atom    3   Tr[ns(na)] =   5.00000
    eigenvalues:
  0.500  0.500  0.500  0.500  0.500
    eigenvectors:
  1.000  0.000  0.000  0.000  0.000
  0.000  1.000  0.000  0.000  0.000
  0.000  0.000  1.000  0.000  0.000
  0.000  0.000  0.000  1.000  0.000
  0.000  0.000  0.000  0.000  1.000
    occupations:
  0.500  0.000  0.000  0.000  0.000
  0.000  0.500  0.000  0.000  0.000
  0.000  0.000  0.500  0.000  0.000
  0.000  0.000  0.000  0.500  0.000
  0.000  0.000  0.000  0.000  0.500
atom    4   Tr[ns(na)] =   5.00000
    eigenvalues:
  0.500  0.500  0.500  0.500  0.500
    eigenvectors:
  1.000  0.000  0.000  0.000  0.000
  0.000  1.000  0.000  0.000  0.000
  0.000  0.000  1.000  0.000  0.000
  0.000  0.000  0.000  1.000  0.000
  0.000  0.000  0.000  0.000  1.000
    occupations:
  0.500  0.000  0.000  0.000  0.000
  0.000  0.500  0.000  0.000  0.000
  0.000  0.000  0.500  0.000  0.000
  0.000  0.000  0.000  0.500  0.000
  0.000  0.000  0.000  0.000  0.500
atom    9   Tr[ns(na)] =   5.00000
    eigenvalues:
  0.500  0.500  0.500  0.500  0.500
    eigenvectors:
  1.000  0.000  0.000  0.000  0.000
  0.000  1.000  0.000  0.000  0.000
  0.000  0.000  1.000  0.000  0.000
  0.000  0.000  0.000  1.000  0.000
  0.000  0.000  0.000  0.000  1.000
    occupations:
  0.500  0.000  0.000  0.000  0.000
  0.000  0.500  0.000  0.000  0.000
  0.000  0.000  0.500  0.000  0.000
  0.000  0.000  0.000  0.500  0.000
  0.000  0.000  0.000  0.000  0.500
atom   10   Tr[ns(na)] =   5.00000
    eigenvalues:
  0.500  0.500  0.500  0.500  0.500
    eigenvectors:
  1.000  0.000  0.000  0.000  0.000
  0.000  1.000  0.000  0.000  0.000
  0.000  0.000  1.000  0.000  0.000
  0.000  0.000  0.000  1.000  0.000
  0.000  0.000  0.000  0.000  1.000
    occupations:
  0.500  0.000  0.000  0.000  0.000
  0.000  0.500  0.000  0.000  0.000
  0.000  0.000  0.500  0.000  0.000
  0.000  0.000  0.000  0.500  0.000
  0.000  0.000  0.000  0.000  0.500
atom   16   Tr[ns(na)] =   5.00000
    eigenvalues:
  0.500  0.500  0.500  0.500  0.500
    eigenvectors:
  1.000  0.000  0.000  0.000  0.000
  0.000  1.000  0.000  0.000  0.000
  0.000  0.000  1.000  0.000  0.000
  0.000  0.000  0.000  1.000  0.000
  0.000  0.000  0.000  0.000  1.000
    occupations:
  0.500  0.000  0.000  0.000  0.000
  0.000  0.500  0.000  0.000  0.000
  0.000  0.000  0.500  0.000  0.000
  0.000  0.000  0.000  0.500  0.000
  0.000  0.000  0.000  0.000  0.500
atom   17   Tr[ns(na)] =   5.00000
    eigenvalues:
  0.500  0.500  0.500  0.500  0.500
    eigenvectors:
  1.000  0.000  0.000  0.000  0.000
  0.000  1.000  0.000  0.000  0.000
  0.000  0.000  1.000  0.000  0.000
  0.000  0.000  0.000  1.000  0.000
  0.000  0.000  0.000  0.000  1.000
    occupations:
  0.500  0.000  0.000  0.000  0.000
  0.000  0.500  0.000  0.000  0.000
  0.000  0.000  0.500  0.000  0.000
  0.000  0.000  0.000  0.500  0.000
  0.000  0.000  0.000  0.000  0.500
atom   22   Tr[ns(na)] =   5.00000
    eigenvalues:
  0.500  0.500  0.500  0.500  0.500
    eigenvectors:
  1.000  0.000  0.000  0.000  0.000
  0.000  1.000  0.000  0.000  0.000
  0.000  0.000  1.000  0.000  0.000
  0.000  0.000  0.000  1.000  0.000
  0.000  0.000  0.000  0.000  1.000
    occupations:
[...]
 -0.000 -0.009  0.001  0.000  0.815
atom    4   Tr[ns(na)] =   6.55903
    eigenvalues:
  0.569  0.607  0.608  0.712  0.783
    eigenvectors:
  0.000  0.627  0.360  0.001  0.012
  0.000  0.000  0.006  0.994  0.000
  0.000  0.364  0.631  0.005  0.000
  0.000  0.008  0.004  0.000  0.988
  1.000  0.000  0.000  0.000  0.000
    occupations:
  0.609  0.003  0.000 -0.019  0.001
  0.003  0.712  0.008 -0.000 -0.002
  0.000  0.008  0.608  0.001 -0.000
 -0.019 -0.000  0.001  0.781 -0.000
  0.001 -0.002 -0.000 -0.000  0.569
atom    9   Tr[ns(na)] =   6.56388
    eigenvalues:
  0.591  0.604  0.607  0.727  0.753
    eigenvectors:
  0.249  0.000  0.000  0.006  0.745
  0.000  0.994  0.005  0.000  0.000
  0.000  0.005  0.995  0.000  0.000
  0.751  0.000  0.000  0.002  0.247
  0.000  0.000  0.000  0.992  0.008
    occupations:
  0.712  0.000 -0.001 -0.070  0.002
  0.000  0.604  0.000  0.000  0.000
 -0.001  0.000  0.607  0.001  0.000
 -0.070  0.000  0.001  0.631 -0.001
  0.002  0.000  0.000 -0.001  0.727
atom   10   Tr[ns(na)] =   6.56104
    eigenvalues:
  0.474  0.534  0.692  0.763  0.817
    eigenvectors:
  0.997  0.000  0.000  0.003  0.000
  0.000  0.000  0.000  0.000  1.000
  0.000  0.000  1.000  0.000  0.000
  0.003  0.000  0.000  0.997  0.000
  0.000  1.000  0.000  0.000  0.000
    occupations:
  0.475  0.000 -0.000 -0.016  0.000
  0.000  0.817  0.001 -0.000  0.001
 -0.000  0.001  0.692  0.000  0.000
 -0.016 -0.000  0.000  0.762 -0.000
  0.000  0.001  0.000 -0.000  0.534
atom   16   Tr[ns(na)] =   6.60053
    eigenvalues:
  0.532  0.567  0.624  0.762  0.816
    eigenvectors:
  0.000  0.355  0.004  0.641  0.000
  0.999  0.000  0.000  0.000  0.001
  0.000  0.001  0.989  0.010  0.000
  0.000  0.644  0.006  0.349  0.000
  0.001  0.000  0.000  0.000  0.999
    occupations:
  0.692  0.000  0.012 -0.092 -0.000
  0.000  0.532  0.000 -0.000 -0.009
  0.012  0.000  0.625 -0.007  0.001
 -0.092 -0.000 -0.007  0.636  0.000
 -0.000 -0.009  0.001  0.000  0.815
atom   17   Tr[ns(na)] =   6.55872
    eigenvalues:
  0.569  0.607  0.608  0.712  0.783
    eigenvectors:
  0.000  0.598  0.389  0.001  0.012
  0.000  0.001  0.005  0.994  0.000
  0.000  0.394  0.601  0.005  0.000
  0.000  0.008  0.004  0.000  0.988
  1.000  0.000  0.000  0.000  0.000
    occupations:
  0.609  0.003  0.000 -0.019  0.001
  0.003  0.712  0.008 -0.000 -0.002
  0.000  0.008  0.608  0.001 -0.000
 -0.019 -0.000  0.001  0.781 -0.000
  0.001 -0.002 -0.000 -0.000  0.569
atom   22   Tr[ns(na)] =   6.56396
    eigenvalues:
  0.591  0.604  0.607  0.727  0.753
    eigenvectors:
  0.249  0.000  0.000  0.006  0.745
  0.000  0.994  0.005  0.000  0.000
  0.000  0.005  0.995  0.000  0.000
  0.751  0.000  0.000  0.002  0.247
  0.000  0.000  0.000  0.992  0.008
    occupations:
  0.712  0.000 -0.001 -0.070  0.002
  0.000  0.604  0.000  0.000  0.000
 -0.001  0.000  0.607  0.001  0.000
 -0.070  0.000  0.001  0.631 -0.001
  0.002  0.000  0.000 -0.001  0.727
atom   23   Tr[ns(na)] =   6.56100
    eigenvalues:
  0.474  0.534  0.692  0.763  0.817
    eigenvectors:
  0.997  0.000  0.000  0.003  0.000
  0.000  0.000  0.000  0.000  1.000
  0.000  0.000  1.000  0.000  0.000
  0.003  0.000  0.000  0.997  0.000
  0.000  1.000  0.000  0.000  0.000
    occupations:
  0.475  0.000 -0.000 -0.016  0.000
  0.000  0.817  0.001 -0.000  0.001
 -0.000  0.001  0.692  0.000  0.000
 -0.016 -0.000  0.000  0.762 -0.000
  0.000  0.001  0.000 -0.000  0.534
N of occupied +U levels =  52.5686578
 --- exit write_ns ---

     Threshold (ethr) on eigenvalues was too large:
     Diagonalizing with lowered threshold

     Davidson diagonalization with overlap
     ethr =  5.56E-09,  avg # of iterations =  2.0

[...]

     total energy              =   -2140.80601698 Ry
     Harris-Foulkes estimate   =   -2140.80601698 Ry
     estimated scf accuracy    <       0.00000003 Ry

     iteration # 14     ecut=    40.00 Ry     beta=0.70
     Davidson diagonalization with overlap
     ethr =  6.37E-12,  avg # of iterations =  1.0

     negative rho (up, down):  0.238E+00 0.000E+00

     End of self-consistent calculation
 --- enter write_ns ---
 LDA+U parameters:
U( 2)     =  3.50000000
alpha( 2) =  0.00000000
atom    3   Tr[ns(na)] =   6.60178
    eigenvalues:
  0.532  0.567  0.624  0.762  0.816
    eigenvectors:
  0.000  0.355  0.004  0.641  0.000
  0.999  0.000  0.000  0.000  0.001
  0.000  0.001  0.989  0.010  0.000
  0.000  0.644  0.006  0.349  0.000
  0.001  0.000  0.000  0.000  0.999
    occupations:
  0.692  0.000  0.012 -0.092 -0.000
  0.000  0.532  0.000 -0.000 -0.009
  0.012  0.000  0.625 -0.007  0.001
 -0.092 -0.000 -0.007  0.636  0.000
 -0.000 -0.009  0.001  0.000  0.815
atom    4   Tr[ns(na)] =   6.55894
    eigenvalues:
  0.569  0.607  0.608  0.712  0.783
    eigenvectors:
  0.000  0.680  0.307  0.001  0.012
  0.000  0.000  0.006  0.994  0.000
  0.000  0.311  0.684  0.005  0.000
  0.000  0.009  0.003  0.000  0.988
  1.000  0.000  0.000  0.000  0.000
    occupations:
  0.609  0.003  0.000 -0.019  0.001
  0.003  0.712  0.008 -0.000 -0.002
  0.000  0.008  0.608  0.001 -0.000
 -0.019 -0.000  0.001  0.781 -0.000
  0.001 -0.002 -0.000 -0.000  0.569
atom    9   Tr[ns(na)] =   6.56407
    eigenvalues:
  0.591  0.604  0.607  0.727  0.753
    eigenvectors:
  0.249  0.000  0.000  0.006  0.745
  0.000  0.994  0.005  0.000  0.000
  0.000  0.005  0.995  0.000  0.000
  0.751  0.000  0.000  0.002  0.247
  0.000  0.000  0.000  0.992  0.008
    occupations:
  0.712  0.000 -0.001 -0.070  0.002
  0.000  0.604  0.000  0.000  0.000
 -0.001  0.000  0.607  0.001  0.000
 -0.070  0.000  0.001  0.631 -0.001
  0.002  0.000  0.000 -0.001  0.728
atom   10   Tr[ns(na)] =   6.55964
    eigenvalues:
  0.474  0.534  0.692  0.763  0.817
    eigenvectors:
  0.997  0.000  0.000  0.003  0.000
  0.000  0.000  0.000  0.000  1.000
  0.000  0.000  1.000  0.000  0.000
  0.003  0.000  0.000  0.997  0.000
  0.000  1.000  0.000  0.000  0.000
    occupations:
  0.475  0.000 -0.000 -0.016  0.000
  0.000  0.817  0.001 -0.000  0.001
 -0.000  0.001  0.692  0.000  0.000
 -0.016 -0.000  0.000  0.762 -0.000
  0.000  0.001  0.000 -0.000  0.534
atom   16   Tr[ns(na)] =   6.60179
    eigenvalues:
  0.532  0.567  0.624  0.762  0.816
    eigenvectors:
  0.000  0.355  0.004  0.641  0.000
  0.999  0.000  0.000  0.000  0.001
  0.000  0.001  0.989  0.010  0.000
  0.000  0.644  0.006  0.349  0.000
  0.001  0.000  0.000  0.000  0.999
    occupations:
  0.692  0.000  0.012 -0.092 -0.000
  0.000  0.532  0.000 -0.000 -0.009
  0.012  0.000  0.625 -0.007  0.001
 -0.092 -0.000 -0.007  0.636  0.000
 -0.000 -0.009  0.001  0.000  0.815
atom   17   Tr[ns(na)] =   6.55890
    eigenvalues:
  0.569  0.607  0.608  0.712  0.783
    eigenvectors:
  0.000  0.676  0.311  0.001  0.012
  0.000  0.000  0.006  0.994  0.000
  0.000  0.314  0.680  0.005  0.000
  0.000  0.009  0.003  0.000  0.988
  1.000  0.000  0.000  0.000  0.000
    occupations:
  0.609  0.003  0.000 -0.019  0.001
  0.003  0.712  0.008 -0.000 -0.002
  0.000  0.008  0.608  0.001 -0.000
 -0.019 -0.000  0.001  0.781 -0.000
  0.001 -0.002 -0.000 -0.000  0.569
atom   22   Tr[ns(na)] =   6.56407
    eigenvalues:
  0.591  0.604  0.607  0.727  0.753
    eigenvectors:
  0.249  0.000  0.000  0.006  0.745
  0.000  0.994  0.005  0.000  0.000
  0.000  0.005  0.995  0.000  0.000
  0.751  0.000  0.000  0.002  0.247
  0.000  0.000  0.000  0.992  0.008
    occupations:
  0.712  0.000 -0.001 -0.070  0.002
  0.000  0.604  0.000  0.000  0.000
 -0.001  0.000  0.607  0.001  0.000
 -0.070  0.000  0.001  0.631 -0.001
  0.002  0.000  0.000 -0.001  0.728
atom   23   Tr[ns(na)] =   6.55969
    eigenvalues:
  0.474  0.534  0.692  0.763  0.817
    eigenvectors:
  0.997  0.000  0.000  0.003  0.000
  0.000  0.000  0.000  0.000  1.000
  0.000  0.000  1.000  0.000  0.000
  0.003  0.000  0.000  0.997  0.000
  0.000  1.000  0.000  0.000  0.000
    occupations:
  0.475  0.000 -0.000 -0.016  0.000
  0.000  0.817  0.001 -0.000  0.001
 -0.000  0.001  0.692  0.000  0.000
 -0.016 -0.000  0.000  0.762 -0.000
  0.000  0.001  0.000 -0.000  0.534
N of occupied +U levels =  52.5688829
 --- exit write_ns ---

[...]

          k = 0.2500-0.3828 0.0000 ( 29202 PWs)   bands (ev):

[...]

          k =-0.2500 0.1914 0.0000 ( 29229 PWs)   bands (ev):

   -81.1512 -81.1122 -80.8952 -80.8552 -80.5726 -80.5336 -80.4717 -80.4321
   -43.2404 -43.1037 -43.0726 -43.0482 -43.0322 -42.9700 -42.9016 -42.8387
   -42.7633 -42.6920 -42.6563 -42.6519 -42.6217 -42.6085 -42.5845 -42.4748
   -42.4625 -42.4591 -42.4132 -42.4045 -42.3986 -42.3596 -42.0269 -41.9802
   -20.8420 -20.4048 -20.3446 -20.2046 -20.0575 -19.9410 -19.8243 -19.7709
   -19.7433 -19.6119 -19.4759 -19.3683 -19.3244 -19.1112 -19.0745 -18.9581
   -18.3117 -18.1171  -9.0420  -8.8167  -8.7873  -8.6575  -8.6214  -8.3599
    -8.3053  -8.2170  -8.0272  -7.8838  -7.8815  -7.8308  -7.6167  -7.4014
    -7.3596  -7.0729  -6.8086  -6.6899  -6.5832  -6.5590  -6.4588  -6.2072
    -6.0649  -6.0364  -5.8177  -5.7643  -5.5712  -5.5670  -5.5240  -5.2719
    -5.1467  -5.0298  -4.9009  -4.8861  -4.8180  -4.7280  -4.6971  -4.6282
    -4.5465  -4.4948  -4.2309  -4.0465  -3.9957  -3.8908  -3.7712  -3.6518
    -3.6472  -3.4196  -3.3486  -3.2215  -3.1509  -2.8970  -2.8304  -2.6803
    -2.3477  -2.2311  -2.0555  -1.4694  -1.1975  -1.0453  -0.9604  -0.3338
    -0.1817   0.2053   0.3263   0.3297   0.6158   0.7490   0.7768   1.0949
     1.2039   1.2771   1.4183   1.4487   1.5874   1.7723   1.7849   1.8519
     2.3660   2.3940   3.6868   3.7386   3.9110   3.9448   4.1348   4.3034
     4.5496   4.5897   4.7983   4.8387   4.9122   4.9509   5.2286   5.4125
     5.7890   5.8787   5.9990   6.2332   6.2501   6.4928   6.6594   6.7110
     6.8554   6.9857   7.2463   7.3403   7.4256   7.6788   7.7688   8.0039
     8.1432   8.3143   8.3259   8.4684   8.5976   8.6298   8.7564   8.8834
     9.0924   9.3437   9.3903   9.4106   9.6037   9.6753   9.7516   9.7602
     9.8317   9.9174   9.9557  10.1411  10.1717  10.2864  10.3215  10.4225
    10.4358  10.6423  10.7459  10.7978  10.9335  11.0396  11.0442  11.2239
    11.3944  11.4339  11.4587  11.6906  11.7883  11.8958  11.9558  12.1023
    12.3099  12.4125  12.4933  12.5015  12.6344  12.6660  12.6934  12.8237
    12.8471  12.9684  13.0210  13.1946  13.2273  13.3297  13.4909  13.5438
    13.6188  13.6727  13.7904  13.8008  13.9024  13.9092  13.9676  14.0459
    14.1221  14.2410  14.2689  14.3244  14.4219  14.5266  14.5540  14.5833
    14.7326  14.7758  14.8060  14.8557  14.8831  14.9331  15.0119  15.0331
    15.0982  15.2214  15.2994  15.3899  15.4993  15.5715  15.6468  15.7229
    15.8806  15.9471  16.0929  16.1107  16.1861  16.2284  16.2677  16.4176
    16.5203  16.5723  16.6264  16.6876  16.7751  16.8546  16.8804  17.0039
    17.1192  17.1263  17.1953  17.3206  17.3505  17.4832  17.5446  17.6599
    17.7029  17.7202  17.7643  17.8900  17.9685  18.0393  18.1006  18.1989
    18.2219  18.3149  18.3167  18.3900  18.5174  18.5340  18.6556  18.6638
    18.7745  18.8816  18.8877  18.9766  19.0671  19.0726  19.1653  19.3135
    19.4441  19.5148  19.5689  19.6582  19.7706  19.9235  19.9713  19.9931
    20.0631  20.1266  20.2289  20.2305  20.4506  20.4778  20.5472  20.5836
    20.6324  20.7490  20.7710  20.8061  20.8614  20.8934  20.9624  21.0505
    21.1388  21.1746  21.2728  21.3068  21.4068  21.4531  21.5089  21.5177
    21.6473  21.6508  21.7573  21.8262  21.9181  21.9418  22.0969  22.1312
    22.1778  22.2442  22.2681  22.3449  22.3596  22.4135  22.4619  22.5378
    22.5449  22.6189  22.6302  22.7143

     the Fermi energy is     0.3932 ev

!    total energy              =   -2140.80601698 Ry
     Harris-Foulkes estimate   =   -2140.80601699 Ry
     estimated scf accuracy    <          2.0E-09 Ry

     The total energy is the sum of the following terms:

     one-electron contribution =  -23534.04131717 Ry
     hartree contribution      =   11782.83601431 Ry
     xc contribution           =    -587.23533655 Ry
     ewald contribution        =   10195.42151976 Ry
     Hubbard energy            =       2.21391445 Ry
     smearing contrib. (-TS)   =      -0.00081178 Ry

     convergence has been achieved in  14 iterations

     Forces acting on atoms (Ry/au):

     negative rho (up, down):  0.238E+00 0.000E+00
     atom    1 type  1   force =    -0.00433834   -0.00654790   -0.00000352
     atom    2 type  1   force =     0.00005391    0.00552304   -0.00056995
     atom    3 type  2   force =    -0.00011740   -0.00412498    0.00000089
     atom    4 type  2   force =     0.00148202    0.00751461   -0.00005666
     atom    5 type  1   force =     0.00179095    0.01053010    0.00004149
     atom    6 type  1   force =     0.00023117   -0.01163291    0.00014726
     atom    7 type  1   force =    -0.00015773   -0.00022969    0.00011551
     atom    8 type  1   force =     0.00280290   -0.00099960   -0.00034459
     atom    9 type  2   force =    -0.00162219    0.00041029    0.00019059
     atom   10 type  2   force =     0.00006891   -0.00130149    0.00002735
     atom   11 type  1   force =     0.00018468   -0.00426817    0.00002503
     atom   12 type  1   force =    -0.00027586    0.00460659    0.00003507
     atom   13 type  1   force =    -0.00044510    0.00024673    0.00029188
     atom   14 type  1   force =    -0.00433218   -0.00654218    0.00000460
     atom   15 type  1   force =     0.00005193    0.00551253   -0.00057055
     atom   16 type  2   force =    -0.00011260   -0.00412494   -0.00000273
     atom   17 type  2   force =     0.00148148    0.00751444   -0.00005698
     atom   18 type  1   force =     0.00178748    0.01053130    0.00005310
     atom   19 type  1   force =     0.00022521   -0.01163378    0.00014846
     atom   20 type  1   force =    -0.00015717   -0.00022891    0.00012305
     atom   21 type  1   force =     0.00280487   -0.00099980   -0.00035039
     atom   22 type  2   force =    -0.00163743    0.00041124    0.00019010
     atom   23 type  2   force =     0.00007041   -0.00130155    0.00003864
     atom   24 type  1   force =     0.00018794   -0.00427043    0.00002219
     atom   25 type  1   force =    -0.00027434    0.00460731    0.00003417
     atom   26 type  1   force =    -0.00044847    0.00024927    0.00029044
     atom   27 type  3   force =    -0.00000219    0.00012506   -0.00039222
     atom   28 type  3   force =    -0.00000129    0.00012685   -0.00039341
     atom   29 type  3   force =     0.00034787    0.00014884    0.00048131
     atom   30 type  3   force =     0.00035059    0.00014815    0.00047988

     Total force =     0.001521     Total SCF correction =     0.000073

     bfgs converged in   8 scf cycles and   7 bfgs steps
     (criteria: energy < 0.10E-03, force < 0.10E-02)

     End of BFGS Geometry Optimization

     Final energy   =   -2140.8060169834 Ry
Begin final coordinates

ATOMIC_POSITIONS (crystal)
O0       0.000000000   0.000000000   0.371595790    0   0   1
O0       0.000000000   0.500000000   0.382313503    0   0   1
Re1      0.250000000   0.500000000   0.441476936    0   0   1
Re1      0.000000000   0.000000000   0.443939759    0   0   1
O0       0.250000000   0.780000000   0.442041848    0   0   1
O0       0.250000000   0.220000000   0.441933795    0   0   1
O0       0.000000000   0.500000000   0.497562349    0   0   1
O0       0.000000000   0.000000000   0.515153158    0   0   1
Re1      0.250000000   0.000000000   0.575312266    0   0   1
Re1      0.000000000   0.500000000   0.567579325    0   0   1
O0       0.250000000   0.720000000   0.573412818    0   0   1
O0       0.250000000   0.280000000   0.573481842    0   0   1
O0       0.000000000   0.000000000   0.627416800    0   0   1
O0       0.500000000   0.000000000   0.371595638    0   0   1
O0       0.500000000   0.500000000   0.382313299    0   0   1
Re1      0.750000000   0.500000000   0.441476950    0   0   1
Re1      0.500000000   0.000000000   0.443939651    0   0   1
O0       0.750000000   0.780000000   0.442040178    0   0   1
O0       0.750000000   0.220000000   0.441933712    0   0   1
O0       0.500000000   0.500000000   0.497561764    0   0   1
O0       0.500000000   0.000000000   0.515152763    0   0   1
Re1      0.750000000   0.000000000   0.575312667    0   0   1
Re1      0.500000000   0.500000000   0.567578904    0   0   1
O0       0.750000000   0.720000000   0.573413621    0   0   1
O0       0.750000000   0.280000000   0.573482399    0   0   1
O0       0.500000000   0.000000000   0.627417009    0   0   1
H2      -0.000382910   0.624506418   0.365185072
H2       0.499616364   0.624506655   0.365185093
H2       0.169351253   0.021930812   0.357175497
H2       0.669351626   0.021930887   0.357175595
End final coordinates

     General routines

     Parallel routines
     Hubbard U routines

   This run was terminated on:  18:22: 2   9May2014

   JOB DONE.