     Program PWSCF v.5.0.2 (svn rev. 9656) starts on 29May2014 at 22:30: 1

     Current dimensions of program PWSCF are:
     Max number of different atomic species (ntypx) = 10
     Max number of k-points (npk) =  40000
     Max angular momentum in pseudopotentials (lmaxx) =  3
     Reading input from pwscf.in
Warning: card &CELL ignored
Warning: card / ignored

     Subspace diagonalization in iterative solution of the eigenvalue problem:
     a serial algorithm will be used

     bravais-lattice index     =            0
     lattice parameter (alat)  =      12.0187  a.u.
     unit-cell volume          =    7280.5819 (a.u.)^3
     number of atoms/cell      =           33
     number of atomic types    =            3
     number of electrons       =       245.00
     number of Kohn-Sham states=          367
     kinetic-energy cutoff     =      40.0000  Ry
     charge density cutoff     =     500.0000  Ry
     convergence threshold     =      1.0E-06
     mixing beta               =       0.7000
     number of iterations used =            8  plain     mixing
     Exchange-correlation      = SLA  PW   PBE  PBE ( 1 4 3 4 0)
     EXX-fraction              =        0.00
     nstep                     =           50

     celldm(1)=  12.018658  celldm(2)=   0.000000  celldm(3)=   0.000000
     celldm(4)=   0.000000  celldm(5)=   0.000000  celldm(6)=   0.000000

     crystal axes: (cart. coord. in units of alat)
               a(1) = (   1.000000   0.000000   0.000000 )
               a(2) = (   0.000000   1.009517   0.000000 )
               a(3) = (   0.000000   0.000000   4.154171 )

     reciprocal axes: (cart. coord. in units 2 pi/alat)
               b(1) = (  1.000000  0.000000  0.000000 )
               b(2) = (  0.000000  0.990572  0.000000 )
               b(3) = (  0.000000  0.000000  0.240722 )

     PseudoPot. # 1 for O  read from file:
     /home/camp/zhonxu/pseudo/o_pbe_v1.01.uspp.F.UPF
     MD5 check sum: 2bcb18d16ea4b960afae9ec6d52f22d2
     Pseudo is Ultrasoft + core correction, Zval =  6.0
     Generated by new atomic code, or converted to UPF format
     Using radial grid of  737 points,  5 beta functions with:
                l(1) =   0
                l(2) =   0
                l(3) =   1
                l(4) =   1
                l(5) =   2
     Q(r) pseudized with  8 coefficients,  rinner =    0.900   0.900   0.900
                                                       0.900   0.900

     PseudoPot. # 2 for Ir read from file:
     /home/camp/zhonxu/pseudo/ir_pbe_v1.uspp.F.UPF
     MD5 check sum: abf987a9674477536ede83817f8f8b70
     Pseudo is Ultrasoft + core correction, Zval = 15.0
     Generated by new atomic code, or converted to UPF format
     Using radial grid of  983 points,  7 beta functions with:
                l(1) =   0
                l(2) =   0
                l(3) =   1
                l(4) =   1
                l(5) =   1
                l(6) =   2
                l(7) =   2
     Q(r) pseudized with  8 coefficients,  rinner =    1.350   1.350   1.350
                                                       1.350   1.350

     PseudoPot. # 3 for H  read from file:
     /home/camp/zhonxu/pseudo/h_pbe_v1.uspp.F.UPF
     MD5 check sum: 3408e3ff4ec8b0a4e358431e7e038a48
     Pseudo is Ultrasoft, Zval =  1.0
     Generated by new atomic code, or converted to UPF format
     Using radial grid of  615 points,  2 beta functions with:
                l(1) =   0
                l(2) =   0
     Q(r) pseudized with  8 coefficients,  rinner =    0.700

     atomic species   valence    mass     pseudopotential
        O0             6.00    15.99940     O ( 1.00)
        Ir1           15.00   192.22000     Ir( 1.00)
        H2             1.00     1.00794     H ( 1.00)

     Simplified LDA+U calculation (l_max = 2) with parameters (eV):
     atomic species    L          U    alpha       J0     beta
        Ir1            2     3.5000   0.0000   0.0000   0.0000

     No symmetry found

   Cartesian axes

     site n.     atom                  positions (alat units)
         1           O0  tau(   1) = (   0.0000000   0.0000000   1.5694875  )
         2           O0  tau(   2) = (   0.0000000   0.5047586   1.6702677  )
         3           Ir1 tau(   3) = (   0.2500000   0.5047586   1.8805934  )
         4           Ir1 tau(   4) = (   0.0000000   0.0000000   1.8807595  )
         5           O0  tau(   5) = (   0.2500000   0.8177090   1.8801779  )
         6           O0  tau(   6) = (   0.2500000   0.1918083   1.8787655  )
         7           O0  tau(   7) = (   0.0000000   0.5047586   2.0695666  )
         8           O0  tau(   8) = (   0.0000000   0.0000000   2.1948564  )
         9           Ir1 tau(   9) = (   0.2500000   0.0000000   2.3901025  )
        10           Ir1 tau(  10) = (   0.0000000   0.5047586   2.3742751  )
        11           O0  tau(  11) = (   0.2500000   0.6965669   2.3856575  )
        12           O0  tau(  12) = (   0.2500000   0.3129503   2.3949628  )
        13           O0  tau(  13) = (   0.0000000   0.0000000   2.5754200  )
        14           O0  tau(  14) = (   0.5000000   0.0000000   1.5694875  )
        15           O0  tau(  15) = (   0.5000000   0.5047586   1.6704338  )
        16           Ir1 tau(  16) = (   0.7500000   0.5047586   1.8805934  )
        17           Ir1 tau(  17) = (   0.5000000   0.0000000   1.8805518  )
        18           O0  tau(  18) = (   0.7500000   0.8177090   1.8801364  )
        19           O0  tau(  19) = (   0.7500000   0.1918083   1.8788486  )
        20           O0  tau(  20) = (   0.5000000   0.5047586   2.0759640  )
        21           O0  tau(  21) = (   0.5000000   0.0000000   2.1945241  )
        22           Ir1 tau(  22) = (   0.7500000   0.0000000   2.3900609  )
        23           Ir1 tau(  23) = (   0.5000000   0.5047586   2.3998648  )
        24           O0  tau(  24) = (   0.7500000   0.6965669   2.3856575  )
        25           O0  tau(  25) = (   0.7500000   0.3129503   2.3949628  )
        26           O0  tau(  26) = (   0.5000000   0.0000000   2.5728445  )
        27           H2  tau(  27) = (   0.0000400   0.6420328   1.5957418  )
        28           H2  tau(  28) = (   0.4999400   0.6424971   1.5965311  )
        29           H2  tau(  29) = (   0.1432100   0.0360095   1.5217560  )
        30           H2  tau(  30) = (   0.6436700   0.0339703   1.5215899  )
        31           O0  tau(  31) = (   0.4997900   0.5432313   2.6993805  )
        32           O0  tau(  32) = (   0.5001800   0.3480815   2.8224271  )
        33           H2  tau(  33) = (   0.4999800   0.4114489   2.9642920  )

     number of k points=    10  Methfessel-Paxton smearing, width (Ry)=  0.0100
                       cart. coord. in units 2pi/alat
        k(    1) = (   0.0000000   0.0000000   0.0000000), wk =   0.1250000
        k(    2) = (   0.0000000   0.2476431   0.0000000), wk =   0.2500000
        k(    3) = (   0.0000000  -0.4952862   0.0000000), wk =   0.1250000
        k(    4) = (   0.2500000   0.0000000   0.0000000), wk =   0.2500000
        k(    5) = (   0.2500000   0.2476431   0.0000000), wk =   0.2500000
        k(    6) = (   0.2500000  -0.4952862   0.0000000), wk =   0.2500000
        k(    7) = (  -0.5000000   0.0000000   0.0000000), wk =   0.1250000
        k(    8) = (  -0.5000000   0.2476431   0.0000000), wk =   0.2500000
        k(    9) = (  -0.5000000  -0.4952862   0.0000000), wk =   0.1250000
        k(   10) = (  -0.2500000   0.2476431   0.0000000), wk =   0.2500000

     Largest allocated arrays     est. size (Mb)     dimensions
     Largest temporary arrays     est. size (Mb)     dimensions

     Check: negative/imaginary core charge=   -0.000003    0.000000

     Initial potential from superposition of free atoms
     Check: negative starting charge=   -3.336869

     starting charge  240.99967, renormalised to  245.00000

     negative rho (up, down):  0.339E+01 0.000E+00
     Number of +U iterations with fixed ns =  0
     Starting occupations:
 --- enter write_ns ---
 LDA+U parameters:
U( 2)     =  3.50000000
alpha( 2) =  0.00000000
atom    3   Tr[ns(na)] =   7.00000
    eigenvalues:
  0.700  0.700  0.700  0.700  0.700
    eigenvectors:
  1.000  0.000  0.000  0.000  0.000
  0.000  1.000  0.000  0.000  0.000
  0.000  0.000  1.000  0.000  0.000
  0.000  0.000  0.000  1.000  0.000
  0.000  0.000  0.000  0.000  1.000
    occupations:
  0.700  0.000  0.000  0.000  0.000
  0.000  0.700  0.000  0.000  0.000
  0.000  0.000  0.700  0.000  0.000
  0.000  0.000  0.000  0.700  0.000
  0.000  0.000  0.000  0.000  0.700
atom    4   Tr[ns(na)] =   7.00000
    eigenvalues:
  0.700  0.700  0.700  0.700  0.700
    eigenvectors:
  1.000  0.000  0.000  0.000  0.000
  0.000  1.000  0.000  0.000  0.000
  0.000  0.000  1.000  0.000  0.000
  0.000  0.000  0.000  1.000  0.000
  0.000  0.000  0.000  0.000  1.000
    occupations:
  0.700  0.000  0.000  0.000  0.000
  0.000  0.700  0.000  0.000  0.000
  0.000  0.000  0.700  0.000  0.000
  0.000  0.000  0.000  0.700  0.000
  0.000  0.000  0.000  0.000  0.700
atom    9   Tr[ns(na)] =   7.00000
    eigenvalues:
  0.700  0.700  0.700  0.700  0.700
    eigenvectors:
  1.000  0.000  0.000  0.000  0.000
  0.000  1.000  0.000  0.000  0.000
  0.000  0.000  1.000  0.000  0.000
  0.000  0.000  0.000  1.000  0.000
  0.000  0.000  0.000  0.000  1.000
    occupations:
  0.700  0.000  0.000  0.000  0.000
  0.000  0.700  0.000  0.000  0.000
  0.000  0.000  0.700  0.000  0.000
  0.000  0.000  0.000  0.700  0.000
  0.000  0.000  0.000  0.000  0.700
atom   10   Tr[ns(na)] =   7.00000
    eigenvalues:
  0.700  0.700  0.700  0.700  0.700
    eigenvectors:
  1.000  0.000  0.000  0.000  0.000
  0.000  1.000  0.000  0.000  0.000
  0.000  0.000  1.000  0.000  0.000
  0.000  0.000  0.000  1.000  0.000
  0.000  0.000  0.000  0.000  1.000
    occupations:
  0.700  0.000  0.000  0.000  0.000
  0.000  0.700  0.000  0.000  0.000
  0.000  0.000  0.700  0.000  0.000
  0.000  0.000  0.000  0.700  0.000
  0.000  0.000  0.000  0.000  0.700
atom   16   Tr[ns(na)] =   7.00000
    eigenvalues:
  0.700  0.700  0.700  0.700  0.700
    eigenvectors:
  1.000  0.000  0.000  0.000  0.000
  0.000  1.000  0.000  0.000  0.000
  0.000  0.000  1.000  0.000  0.000
  0.000  0.000  0.000  1.000  0.000
  0.000  0.000  0.000  0.000  1.000
    occupations:
  0.700  0.000  0.000  0.000  0.000
  0.000  0.700  0.000  0.000  0.000
  0.000  0.000  0.700  0.000  0.000
  0.000  0.000  0.000  0.700  0.000
  0.000  0.000  0.000  0.000  0.700
atom   17   Tr[ns(na)] =   7.00000
    eigenvalues:
  0.700  0.700  0.700  0.700  0.700
    eigenvectors:
  1.000  0.000  0.000  0.000  0.000
  0.000  1.000  0.000  0.000  0.000
  0.000  0.000  1.000  0.000  0.000
  0.000  0.000  0.000  1.000  0.000
  0.000  0.000  0.000  0.000  1.000
    occupations:
  0.700  0.000  0.000  0.000  0.000
  0.000  0.700  0.000  0.000  0.000
  0.000  0.000  0.700  0.000  0.000
  0.000  0.000  0.000  0.700  0.000
  0.000  0.000  0.000  0.000  0.700
atom   22   Tr[ns(na)] =   7.00000
    eigenvalues:
  0.700  0.700  0.700  0.700  0.700
    eigenvectors:
  1.000  0.000  0.000  0.000  0.000
  0.000  1.000  0.000  0.000  0.000
[...]
  0.036  0.000  0.000  0.979  0.000
 -0.000 -0.009 -0.000  0.000  0.610
atom   16   Tr[ns(na)] =   8.13838
    eigenvalues:
  0.606  0.632  0.886  0.967  0.979
    eigenvectors:
  0.006  0.178  0.003  0.001  0.812
  0.975  0.025  0.000  0.000  0.000
  0.000  0.000  0.992  0.004  0.003
  0.019  0.797  0.000  0.000  0.183
  0.000  0.000  0.004  0.994  0.002
    occupations:
  0.915  0.005  0.004 -0.135  0.001
  0.005  0.606 -0.000  0.002 -0.006
  0.004 -0.000  0.887 -0.004 -0.005
 -0.135  0.002 -0.004  0.695 -0.000
  0.001 -0.006 -0.005 -0.000  0.966
atom   17   Tr[ns(na)] =   8.12826
    eigenvalues:
  0.618  0.667  0.874  0.922  0.983
    eigenvectors:
  0.000  0.989  0.000  0.000  0.010
  0.000  0.000  0.052  0.948  0.000
  0.000  0.000  0.948  0.052  0.000
  0.000  0.010  0.000  0.000  0.990
  1.000  0.000  0.000  0.000  0.000
    occupations:
  0.670 -0.003 -0.001  0.032  0.001
 -0.003  0.919  0.011  0.000 -0.002
 -0.001  0.011  0.877 -0.000  0.001
  0.032  0.000 -0.000  0.980  0.000
  0.001 -0.002  0.001  0.000  0.618
atom   22   Tr[ns(na)] =   8.11175
    eigenvalues:
  0.653  0.668  0.854  0.898  0.982
    eigenvectors:
  0.000  0.140  0.001  0.000  0.860
  1.000  0.000  0.000  0.000  0.000
  0.000  0.000  0.993  0.006  0.000
  0.000  0.860  0.000  0.000  0.140
  0.000  0.000  0.006  0.994  0.000
    occupations:
  0.938  0.002  0.001 -0.109  0.000
  0.002  0.653  0.001 -0.001 -0.000
  0.001  0.001  0.855 -0.004  0.003
 -0.109 -0.001 -0.004  0.712  0.000
  0.000 -0.000  0.003  0.000  0.898
atom   23   Tr[ns(na)] =   8.13953
    eigenvalues:
  0.618  0.659  0.861  0.949  0.982
    eigenvectors:
  0.000  0.993  0.000  0.003  0.004
  0.002  0.000  0.998  0.000  0.000
  0.000  0.003  0.000  0.996  0.001
  0.000  0.005  0.000  0.001  0.994
  0.998  0.000  0.002  0.000  0.000
    occupations:
  0.662 -0.000  0.015  0.022 -0.000
 -0.000  0.860 -0.001 -0.000 -0.009
  0.015 -0.001  0.949 -0.002  0.000
  0.022 -0.000 -0.002  0.980 -0.000
 -0.000 -0.009  0.000 -0.000  0.619
N of occupied +U levels =  64.9983661
 --- exit write_ns ---

     Threshold (ethr) on eigenvalues was too large:
     Diagonalizing with lowered threshold

     Davidson diagonalization with overlap
     ethr =  7.22E-09,  avg # of iterations =  2.0

[...]

     total energy              =   -2138.09653241 Ry
     Harris-Foulkes estimate   =   -2138.09653242 Ry
     estimated scf accuracy    <       0.00000014 Ry

     iteration # 14     ecut=    40.00 Ry     beta=0.70
     Davidson diagonalization with overlap
     ethr =  9.78E-12,  avg # of iterations =  1.0

     negative rho (up, down):  0.313E+01 0.000E+00

     End of self-consistent calculation
 --- enter write_ns ---
 LDA+U parameters:
U( 2)     =  3.50000000
alpha( 2) =  0.00000000
atom    3   Tr[ns(na)] =   8.13810
    eigenvalues:
  0.606  0.632  0.886  0.967  0.979
    eigenvectors:
  0.006  0.178  0.003  0.001  0.812
  0.973  0.026  0.000  0.000  0.000
  0.000  0.000  0.989  0.007  0.003
  0.020  0.796  0.000  0.000  0.183
  0.000  0.000  0.007  0.991  0.002
    occupations:
  0.915 -0.005  0.004 -0.135 -0.001
 -0.005  0.606 -0.001 -0.002 -0.005
  0.004 -0.001  0.887 -0.004  0.007
 -0.135 -0.002 -0.004  0.695 -0.000
 -0.001 -0.005  0.007 -0.000  0.966
atom    4   Tr[ns(na)] =   8.12968
    eigenvalues:
  0.618  0.666  0.874  0.923  0.983
    eigenvectors:
  0.000  0.989  0.000  0.000  0.010
  0.000  0.000  0.064  0.936  0.000
  0.000  0.000  0.936  0.064  0.000
  0.000  0.010  0.000  0.000  0.990
  1.000  0.000  0.000  0.000  0.000
    occupations:
  0.670 -0.003 -0.001  0.032  0.001
 -0.003  0.920  0.012  0.000 -0.002
 -0.001  0.012  0.877 -0.000  0.000
  0.032  0.000 -0.000  0.980  0.000
  0.001 -0.002  0.000  0.000  0.618
atom    9   Tr[ns(na)] =   8.11187
    eigenvalues:
  0.653  0.668  0.855  0.898  0.982
    eigenvectors:
  0.000  0.140  0.001  0.000  0.859
  0.998  0.002  0.000  0.000  0.000
  0.000  0.000  0.992  0.007  0.000
  0.001  0.858  0.000  0.000  0.140
  0.000  0.000  0.007  0.993  0.000
    occupations:
  0.938 -0.001  0.001 -0.109 -0.001
 -0.001  0.653 -0.000  0.001 -0.000
  0.001 -0.000  0.855 -0.004 -0.004
 -0.109  0.001 -0.004  0.712  0.001
 -0.001 -0.000 -0.004  0.001  0.898
atom   10   Tr[ns(na)] =   8.10033
    eigenvalues:
  0.584  0.610  0.936  0.939  0.983
    eigenvectors:
  0.991  0.000  0.000  0.000  0.008
  0.000  0.001  0.992  0.008  0.000
  0.000  0.000  0.008  0.992  0.000
  0.008  0.000  0.000  0.000  0.992
  0.000  0.999  0.001  0.000  0.000
    occupations:
  0.587  0.000  0.007  0.036 -0.000
  0.000  0.935 -0.000  0.000 -0.009
  0.007 -0.000  0.938  0.000 -0.000
  0.036  0.000  0.000  0.979  0.000
 -0.000 -0.009 -0.000  0.000  0.610
atom   16   Tr[ns(na)] =   8.13803
    eigenvalues:
  0.606  0.632  0.886  0.967  0.979
    eigenvectors:
  0.006  0.178  0.003  0.001  0.812
  0.975  0.025  0.000  0.000  0.000
  0.000  0.000  0.992  0.005  0.003
  0.019  0.797  0.000  0.000  0.183
  0.000  0.000  0.004  0.994  0.002
    occupations:
  0.915  0.005  0.004 -0.135  0.001
  0.005  0.606 -0.000  0.002 -0.006
  0.004 -0.000  0.887 -0.004 -0.005
 -0.135  0.002 -0.004  0.695 -0.000
  0.001 -0.006 -0.005 -0.000  0.966
atom   17   Tr[ns(na)] =   8.12800
    eigenvalues:
  0.618  0.667  0.874  0.922  0.983
    eigenvectors:
  0.000  0.989  0.000  0.000  0.010
  0.000  0.000  0.052  0.948  0.000
  0.000  0.000  0.948  0.052  0.000
  0.000  0.010  0.000  0.000  0.990
  1.000  0.000  0.000  0.000  0.000
    occupations:
  0.670 -0.003 -0.001  0.032  0.001
 -0.003  0.919  0.011  0.000 -0.002
 -0.001  0.011  0.876 -0.000  0.001
  0.032  0.000 -0.000  0.980  0.000
  0.001 -0.002  0.001  0.000  0.618
atom   22   Tr[ns(na)] =   8.11192
    eigenvalues:
  0.653  0.668  0.854  0.898  0.982
    eigenvectors:
  0.000  0.140  0.001  0.000  0.860
  1.000  0.000  0.000  0.000  0.000
  0.000  0.000  0.993  0.006  0.000
  0.000  0.860  0.000  0.000  0.140
  0.000  0.000  0.006  0.994  0.000
    occupations:
  0.938  0.002  0.001 -0.109  0.000
  0.002  0.653  0.001 -0.001 -0.000
  0.001  0.001  0.855 -0.004  0.003
 -0.109 -0.001 -0.004  0.712  0.000
  0.000 -0.000  0.003  0.000  0.898
atom   23   Tr[ns(na)] =   8.13971
    eigenvalues:
  0.618  0.659  0.861  0.949  0.982
    eigenvectors:
  0.000  0.993  0.000  0.003  0.004
  0.002  0.000  0.998  0.000  0.000
  0.000  0.003  0.000  0.996  0.001
  0.000  0.005  0.000  0.001  0.994
  0.998  0.000  0.002  0.000  0.000
    occupations:
  0.662 -0.000  0.015  0.022 -0.000
 -0.000  0.861 -0.001 -0.000 -0.009
  0.015 -0.001  0.949 -0.002  0.000
  0.022 -0.000 -0.002  0.980 -0.000
 -0.000 -0.009  0.000 -0.000  0.619
N of occupied +U levels =  64.9976263
 --- exit write_ns ---

[...]

          k = 0.2500-0.4953 0.0000 ( 31088 PWs)   bands (ev):

[...]

          k =-0.2500 0.2476 0.0000 ( 31099 PWs)   bands (ev):

   -50.3494 -50.2908 -50.2850 -50.2067 -50.1998 -50.1603 -50.1348 -50.1234
   -50.1196 -50.0845 -50.0493 -50.0286 -49.9683 -49.9571 -49.8903 -49.8875
   -49.8539 -49.8238 -49.8143 -49.8036 -49.7871 -49.7704 -49.7581 -49.6708
   -23.3285 -20.9473 -20.6074 -20.5744 -20.5534 -20.1700 -20.0789 -20.0413
   -19.9745 -19.7810 -19.6525 -19.6264 -19.4815 -19.4245 -19.3265 -19.2340
   -19.1457 -18.3891 -18.2315 -17.2342  -9.6738  -9.5871  -9.4054  -9.1384
    -8.8071  -8.7208  -8.7055  -8.6589  -8.4442  -8.3295  -8.2827  -8.2537
    -8.1940  -8.0317  -7.9312  -7.7784  -7.6674  -7.6265  -7.4942  -7.1372
    -7.1063  -6.8911  -6.8662  -6.7875  -6.7031  -6.5491  -6.3688  -6.2629
    -6.1194  -5.9707  -5.8881  -5.8120  -5.7452  -5.6800  -5.5603  -5.5504
    -5.4860  -5.3815  -5.2896  -5.1015  -5.0280  -4.9978  -4.8543  -4.6537
    -4.5042  -4.4150  -4.2457  -4.1414  -4.0668  -4.0232  -3.8378  -3.7520
    -3.5699  -3.4837  -3.2967  -3.1251  -2.9688  -2.9093  -2.8392  -2.7520
    -2.6808  -2.5597  -2.5201  -2.4556  -2.3417  -2.2690  -2.2469  -2.1688
    -2.0326  -1.9703  -1.9078  -1.7877  -1.5154  -1.2622  -1.0337  -0.9982
    -0.8149  -0.7844  -0.5466  -0.4014  -0.2363  -0.1591   0.0346   0.4814
     1.4705   1.5110   1.7557   2.1106   2.2484   2.6809   2.7873   3.0206
     3.1695   3.3488   3.3886   3.6095   3.6484   3.8303   3.8736   4.0822
     4.2421   4.4602   4.8092   5.3133   5.4123   5.8411   6.0335   6.1001
     6.2907   6.4441   6.5952   6.6842   6.7838   7.0639   7.1978   7.3141
     7.5261   7.6884   7.8557   7.9184   7.9914   8.1699   8.2786   8.3576
     8.3764   8.5053   8.7427   8.8063   8.8795   9.0782   9.1241   9.1748
     9.2224   9.4088   9.5545   9.6272   9.6474   9.7356   9.7731   9.7835
     9.7880   9.7963   9.7966   9.8476   9.8891   9.9546   9.9923   9.9936
    10.0356  10.1427  10.2305  10.3227  10.3760  10.4325  10.5230  10.5727
    10.6564  10.7161  10.8316  10.9365  10.9609  11.0519  11.1659  11.2142
    11.3231  11.3882  11.4683  11.5881  11.7004  11.7597  11.8005  11.9155
    11.9488  12.0738  12.1555  12.2397  12.3536  12.4808  12.5221  12.5515
    12.5920  12.6956  12.8044  12.9057  12.9389  13.0219  13.0998  13.1736
    13.2275  13.3033  13.3844  13.5097  13.6158  13.7033  13.7406  13.8433
    13.9128  13.9589  14.0557  14.1229  14.1637  14.2306  14.3234  14.4196
    14.4654  14.5322  14.6440  14.7317  14.8333  14.8861  15.0648  15.0984
    15.1421  15.2362  15.3924  15.4203  15.5203  15.6179  15.6703  15.6913
    15.7327  15.7857  15.8441  15.9337  15.9657  16.0344  16.0742  16.0820
    16.2216  16.2743  16.3456  16.3930  16.4836  16.5276  16.5575  16.6097
    16.7092  16.7552  16.7826  16.8421  16.9311  16.9785  17.1663  17.2376
    17.3053  17.3336  17.4101  17.4690  17.5289  17.5919  17.6358  17.6894
    17.7348  17.8325  17.8577  17.8908  17.9209  18.0147  18.0628  18.1448
    18.2311  18.3256  18.3852  18.5117  18.6083  18.6990  18.7646  18.7880
    18.8299  18.8744  19.0342  19.0446  19.1039  19.1983  19.2489  19.3671
    19.3851  19.4369  19.5511  19.6349  19.6871  19.7632  19.8120  19.8451
    19.9449  19.9958  20.1339  20.2096  20.2852  20.3553  20.4569  20.5270
    20.5969  20.6628  20.7402  20.7807  20.8016  20.8797  20.9088  21.0413
    21.1113  21.1405  21.1956  21.2564  21.2748  21.3192  21.3437  21.4222
    21.5157  21.5561  21.6627  21.6794  21.7362  21.8378  21.8554  21.9129
    21.9799  22.0058  22.0715  22.1362  22.2111  22.2881  22.3919

     the Fermi energy is    -0.6122 ev

!    total energy              =   -2138.09653241 Ry
     Harris-Foulkes estimate   =   -2138.09653242 Ry
     estimated scf accuracy    <          2.4E-09 Ry

     The total energy is the sum of the following terms:

     one-electron contribution =  -23137.36719493 Ry
     hartree contribution      =   11619.71429064 Ry
     xc contribution           =    -584.19156584 Ry
     ewald contribution        =    9962.41304227 Ry
     Hubbard energy            =       1.33483450 Ry
     smearing contrib. (-TS)   =       0.00006094 Ry

     convergence has been achieved in  14 iterations

     Forces acting on atoms (Ry/au):

     negative rho (up, down):  0.313E+01 0.000E+00
     atom    1 type  1   force =    -0.00750668   -0.01303315   -0.00005352
     atom    2 type  1   force =     0.00014630    0.00437172   -0.00036178
     atom    3 type  2   force =     0.03113176    0.00515406    0.00006520
     atom    4 type  2   force =     0.00883655    0.00745723    0.00013197
     atom    5 type  1   force =    -0.00396806   -0.02103750   -0.00014046
     atom    6 type  1   force =     0.00466564    0.02022481   -0.00004683
     atom    7 type  1   force =    -0.00039856   -0.00384928    0.00005803
     atom    8 type  1   force =    -0.00312895    0.00065578    0.00000200
     atom    9 type  2   force =     0.00691211    0.00104839    0.00002814
     atom   10 type  2   force =    -0.00012239   -0.00017155   -0.00010749
     atom   11 type  1   force =    -0.00379747    0.01810214    0.00009217
     atom   12 type  1   force =     0.00245489   -0.01282835    0.00012254
     atom   13 type  1   force =    -0.00082277   -0.00288839   -0.00022847
     atom   14 type  1   force =    -0.00678067   -0.01311964    0.00013581
     atom   15 type  1   force =     0.00009950    0.00459511   -0.00013415
     atom   16 type  2   force =    -0.03093407    0.00501723    0.00004768
     atom   17 type  2   force =     0.00866881    0.00802152    0.00009110
     atom   18 type  1   force =    -0.00305927   -0.02161096   -0.00013581
     atom   19 type  1   force =     0.00529029    0.01976908   -0.00004492
     atom   20 type  1   force =    -0.00029789   -0.00679584    0.00026814
     atom   21 type  1   force =    -0.00323010    0.00137718   -0.00008343
     atom   22 type  2   force =    -0.00452461    0.00068230    0.00007741
     atom   23 type  2   force =    -0.00038293    0.00309659   -0.00012930
     atom   24 type  1   force =     0.00349600    0.01790675    0.00011181
     atom   25 type  1   force =    -0.00166708   -0.01294998    0.00015953
     atom   26 type  1   force =    -0.00098598   -0.01000907    0.00028860
     atom   27 type  3   force =     0.00000711    0.00027833    0.00016928
     atom   28 type  3   force =     0.00001468    0.00022709    0.00039458
     atom   29 type  3   force =    -0.00003537    0.00008052    0.00015513
     atom   30 type  3   force =    -0.00019321    0.00013951    0.00003636
     atom   31 type  1   force =    -0.00013719   -0.00029673    0.00009955
     atom   32 type  1   force =     0.00024417    0.00062299   -0.00057344
     atom   33 type  3   force =     0.00000545   -0.00023789   -0.00049542

     Total force =     0.001469     Total SCF correction =     0.000191
     SCF correction compared to forces is large: reduce conv_thr to get better values

     entering subroutine stress ...

     negative rho (up, down):  0.313E+01 0.000E+00
          total   stress  (Ry/bohr**3)                   (kbar)     P=  -14.68
  -0.00011634   0.00000683   0.00000383        -17.11      1.01      0.56
   0.00000683  -0.00013407   0.00000477          1.01    -19.72      0.70
   0.00000383   0.00000477  -0.00004897          0.56      0.70     -7.20

     bfgs converged in   9 scf cycles and   8 bfgs steps
     (criteria: energy < 0.10E-03, force < 0.10E-02)

     End of BFGS Geometry Optimization

     Final energy   =   -2138.0965324136 Ry
Begin final coordinates

ATOMIC_POSITIONS (crystal)
O0       0.000000000   0.000000000   0.378125868    0   0   1
O0       0.000000000   0.500000000   0.402670175    0   0   1
Ir1      0.250000000   0.500000000   0.452916353    0   0   1
Ir1      0.000000000   0.000000000   0.452822548    0   0   1
O0       0.250000000   0.810000000   0.452797663    0   0   1
O0       0.250000000   0.190000000   0.452359074    0   0   1
O0       0.000000000   0.500000000   0.498817942    0   0   1
O0       0.000000000   0.000000000   0.528296055    0   0   1
Ir1      0.250000000   0.000000000   0.574985799    0   0   1
Ir1      0.000000000   0.500000000   0.571620885    0   0   1
O0       0.250000000   0.690000000   0.573861130    0   0   1
O0       0.250000000   0.310000000   0.576115553    0   0   1
O0       0.000000000   0.000000000   0.619632956    0   0   1
O0       0.500000000   0.000000000   0.377959127    0   0   1
O0       0.500000000   0.500000000   0.402538149    0   0   1
Ir1      0.750000000   0.500000000   0.452912978    0   0   1
Ir1      0.500000000   0.000000000   0.452623150    0   0   1
O0       0.750000000   0.810000000   0.452790977    0   0   1
O0       0.750000000   0.190000000   0.452375594    0   0   1
O0       0.500000000   0.500000000   0.499881794    0   0   1
O0       0.500000000   0.000000000   0.528188437    0   0   1
Ir1      0.750000000   0.000000000   0.574985955    0   0   1
Ir1      0.500000000   0.500000000   0.577287039    0   0   1
O0       0.750000000   0.690000000   0.573867126    0   0   1
O0       0.750000000   0.310000000   0.576128618    0   0   1
O0       0.500000000   0.000000000   0.619130460    0   0   1
H2      -0.000058438   0.634760388   0.384359377
H2       0.499858742   0.635837112   0.384638486
H2       0.143074092   0.035902081   0.366569656
H2       0.643650777   0.034137967   0.366466514
O0       0.499475705   0.536694411   0.649574144
O0       0.500535431   0.345507289   0.679032776
H2       0.499995193   0.407956470   0.713237643
End final coordinates

     General routines

     Parallel routines
     Hubbard U routines

   This run was terminated on:   9:58: 5  30May2014

   JOB DONE.
Running PBS batch system epilogue script
Job id: 373280.audhumbla.fysik.dtu.dk
Username: zhonxu
Groupname: campgst
Jobname: IrO2/Eads-2-layers/OOH-U-3.5
Sessionid: 11350
Queuename: verylong
Accounting:
This job has allocated the following 16 nodes:
b059 b059 b059 b059 b059 b059 b059 b059 b028 b028 b028 b028 b028 b028 b028 b028
Finished epilogue job 373280.audhumbla.fysik.dtu.dk for zhonxu