     Program PWSCF v.5.0.2 (svn rev. 9656) starts on 24Jan2014 at 13:54:36

     Current dimensions of program PWSCF are:
     Max number of different atomic species (ntypx) = 10
     Max number of k-points (npk) =  40000
     Max angular momentum in pseudopotentials (lmaxx) =  3
     Reading input from TiO2-v-1.10.in

     Subspace diagonalization in iterative solution of the eigenvalue problem:
     a serial algorithm will be used

     bravais-lattice index     =            0
     lattice parameter (alat)  =       9.0461  a.u.
     unit-cell volume          =     477.0499 (a.u.)^3
     number of atoms/cell      =            6
     number of atomic types    =            2
     number of electrons       =        48.00
     number of Kohn-Sham states=           69
     kinetic-energy cutoff     =      40.0000  Ry
     charge density cutoff     =     500.0000  Ry
     convergence threshold     =      1.0E-06
     mixing beta               =       0.3000
     number of iterations used =            8  plain     mixing
     Exchange-correlation      = SLA  PW   PBE  PBE ( 1 4 3 4 0)
     EXX-fraction              =        0.00
     nstep                     =           50

     celldm(1)=   9.046059  celldm(2)=   0.000000  celldm(3)=   0.000000
     celldm(4)=   0.000000  celldm(5)=   0.000000  celldm(6)=   0.000000

     crystal axes: (cart. coord. in units of alat)
               a(1) = (   1.000000   0.000000   0.000000 )
               a(2) = (   0.000000   1.000000   0.000000 )
               a(3) = (   0.000000   0.000000   0.644444 )

     reciprocal axes: (cart. coord. in units 2 pi/alat)
               b(1) = (  1.000000  0.000000  0.000000 )
               b(2) = (  0.000000  1.000000  0.000000 )
               b(3) = (  0.000000  0.000000  1.551724 )

     PseudoPot. # 1 for Ti read from file:
     /home/camp/zhonxu/pseudo/ti_pbe_v1.uspp.F.UPF
     MD5 check sum: bcc8f6961b3b91f0cac3ca967d22d0fb
     Pseudo is Ultrasoft + core correction, Zval = 12.0
     Generated by new atomic code, or converted to UPF format
     Using radial grid of  851 points,  6 beta functions with:
                l(1) =   0
                l(2) =   0
                l(3) =   1
                l(4) =   1
                l(5) =   2
                l(6) =   2
     Q(r) pseudized with  6 coefficients,  rinner =    1.000   1.000   1.000
                                                       1.000   1.000

     PseudoPot. # 2 for O  read from file:
     /home/camp/zhonxu/pseudo/o_pbe_v1.01.uspp.F.UPF
     MD5 check sum: 2bcb18d16ea4b960afae9ec6d52f22d2
     Pseudo is Ultrasoft + core correction, Zval =  6.0
     Generated by new atomic code, or converted to UPF format
     Using radial grid of  737 points,  5 beta functions with:
                l(1) =   0
                l(2) =   0
                l(3) =   1
                l(4) =   1
                l(5) =   2
     Q(r) pseudized with  8 coefficients,  rinner =    0.900   0.900   0.900
                                                       0.900   0.900

     atomic species   valence    mass     pseudopotential
        Ti0           12.00    47.88000     Ti( 1.00)
        O1             6.00    15.99940     O ( 1.00)

     Starting magnetic structure
     atomic species   magnetization
        Ti0          0.000
        O1           0.000

      8 Sym. Ops., with inversion, found
          (note:  8 additional sym.ops. were found but ignored
           their fractional translations are incommensurate with FFT grid)

   Cartesian axes

     site n.     atom                  positions (alat units)
         1           Ti0 tau(   1) = (   0.0000000   0.0000000   0.0000000  )
         2           Ti0 tau(   2) = (   0.5000000   0.5000000   0.3222222  )
         3           O1  tau(   3) = (   0.3050000   0.3050000   0.0000000  )
         4           O1  tau(   4) = (  -0.3050000  -0.3050000   0.0000000  )
         5           O1  tau(   5) = (   0.8050000   0.1950000   0.3222222  )
         6           O1  tau(   6) = (   0.1950000   0.8050000   0.3222222  )

     number of k points=    54  Methfessel-Paxton smearing, width (Ry)=  0.0100
                       cart. coord. in units 2pi/alat
        k(    1) = (   0.0000000   0.0000000   0.0000000), wk =   0.0080000
        k(    2) = (   0.0000000   0.0000000   0.3103448), wk =   0.0160000
        k(    3) = (   0.0000000   0.0000000   0.6206897), wk =   0.0160000
        k(    4) = (   0.0000000   0.2000000   0.0000000), wk =   0.0320000
        k(    5) = (   0.0000000   0.2000000   0.3103448), wk =   0.0640000
        k(    6) = (   0.0000000   0.2000000   0.6206897), wk =   0.0640000
        k(    7) = (   0.0000000   0.4000000   0.0000000), wk =   0.0320000
        k(    8) = (   0.0000000   0.4000000   0.3103448), wk =   0.0640000
        k(    9) = (   0.0000000   0.4000000   0.6206897), wk =   0.0640000
        k(   10) = (   0.2000000   0.2000000   0.0000000), wk =   0.0160000
        k(   11) = (   0.2000000   0.2000000   0.3103448), wk =   0.0320000
        k(   12) = (   0.2000000   0.2000000   0.6206897), wk =   0.0320000
        k(   13) = (   0.2000000   0.4000000   0.0000000), wk =   0.0320000
        k(   14) = (   0.2000000   0.4000000   0.3103448), wk =   0.0640000
        k(   15) = (   0.2000000   0.4000000   0.6206897), wk =   0.0640000
        k(   16) = (   0.4000000   0.4000000   0.0000000), wk =   0.0160000
        k(   17) = (   0.4000000   0.4000000   0.3103448), wk =   0.0320000
        k(   18) = (   0.4000000   0.4000000   0.6206897), wk =   0.0320000
        k(   19) = (  -0.2000000   0.2000000   0.0000000), wk =   0.0160000
        k(   20) = (  -0.2000000   0.2000000  -0.3103448), wk =   0.0320000
        k(   21) = (  -0.2000000   0.2000000  -0.6206897), wk =   0.0320000
        k(   22) = (  -0.2000000   0.4000000   0.0000000), wk =   0.0320000
        k(   23) = (  -0.2000000   0.4000000  -0.3103448), wk =   0.0640000
        k(   24) = (  -0.2000000   0.4000000  -0.6206897), wk =   0.0640000
        k(   25) = (  -0.4000000   0.4000000   0.0000000), wk =   0.0160000
        k(   26) = (  -0.4000000   0.4000000  -0.3103448), wk =   0.0320000
        k(   27) = (  -0.4000000   0.4000000  -0.6206897), wk =   0.0320000
        k(   28) = (   0.0000000   0.0000000   0.0000000), wk =   0.0080000
        k(   29) = (   0.0000000   0.0000000   0.3103448), wk =   0.0160000
        k(   30) = (   0.0000000   0.0000000   0.6206897), wk =   0.0160000
        k(   31) = (   0.0000000   0.2000000   0.0000000), wk =   0.0320000
        k(   32) = (   0.0000000   0.2000000   0.3103448), wk =   0.0640000
        k(   33) = (   0.0000000   0.2000000   0.6206897), wk =   0.0640000
        k(   34) = (   0.0000000   0.4000000   0.0000000), wk =   0.0320000
        k(   35) = (   0.0000000   0.4000000   0.3103448), wk =   0.0640000
        k(   36) = (   0.0000000   0.4000000   0.6206897), wk =   0.0640000
        k(   37) = (   0.2000000   0.2000000   0.0000000), wk =   0.0160000
        k(   38) = (   0.2000000   0.2000000   0.3103448), wk =   0.0320000
        k(   39) = (   0.2000000   0.2000000   0.6206897), wk =   0.0320000
        k(   40) = (   0.2000000   0.4000000   0.0000000), wk =   0.0320000
        k(   41) = (   0.2000000   0.4000000   0.3103448), wk =   0.0640000
        k(   42) = (   0.2000000   0.4000000   0.6206897), wk =   0.0640000
        k(   43) = (   0.4000000   0.4000000   0.0000000), wk =   0.0160000
        k(   44) = (   0.4000000   0.4000000   0.3103448), wk =   0.0320000
        k(   45) = (   0.4000000   0.4000000   0.6206897), wk =   0.0320000
        k(   46) = (  -0.2000000   0.2000000   0.0000000), wk =   0.0160000
        k(   47) = (  -0.2000000   0.2000000  -0.3103448), wk =   0.0320000
        k(   48) = (  -0.2000000   0.2000000  -0.6206897), wk =   0.0320000
        k(   49) = (  -0.2000000   0.4000000   0.0000000), wk =   0.0320000
        k(   50) = (  -0.2000000   0.4000000  -0.3103448), wk =   0.0640000
        k(   51) = (  -0.2000000   0.4000000  -0.6206897), wk =   0.0640000
        k(   52) = (  -0.4000000   0.4000000   0.0000000), wk =   0.0160000
        k(   53) = (  -0.4000000   0.4000000  -0.3103448), wk =   0.0320000
        k(   54) = (  -0.4000000   0.4000000  -0.6206897), wk =   0.0320000

     Largest allocated arrays     est. size (Mb)     dimensions
     Largest temporary arrays     est. size (Mb)     dimensions

     Check: negative/imaginary core charge=   -0.000013    0.000000

     Initial potential from superposition of free atoms
     Check: negative starting charge=(component1):   -0.012551
     Check: negative starting charge=(component2):   -0.012551

     starting charge   45.99991, renormalised to   48.00000

     negative rho (up, down):  0.131E-01 0.131E-01
     Starting wfc are   36 randomized atomic wfcs

     Self-consistent Calculation

     iteration #  1     ecut=    40.00 Ry     beta=0.30
     Davidson diagonalization with overlap
     ethr =  1.00E-02,  avg # of iterations =  5.1

     negative rho (up, down):  0.137E-01 0.137E-01

     total energy              =    -366.18746388 Ry
     Harris-Foulkes estimate   =    -366.77480741 Ry
     estimated scf accuracy    <       1.29724224 Ry

     total magnetization       =    -0.00 Bohr mag/cell
     absolute magnetization    =     0.00 Bohr mag/cell

[...]

     End of self-consistent calculation

 ------ SPIN UP ------------

          k = 0.0000 0.0000 0.0000 (  2023 PWs)   bands (ev):

   -49.8888 -49.8804 -26.1041 -26.1040 -26.0041 -26.0041 -25.9828 -25.9625
   -10.2217  -9.2265  -8.7468  -8.7468   2.1772   2.6855   3.2614   4.0154
     4.0154   5.0923   5.0923   5.5502   6.7068   7.0020   7.0020   7.4274
     9.0147   9.2515   9.4519   9.5197   9.5198  10.9404  11.2375  13.0196
    13.0197  13.8226  14.3811  18.2859  18.2859  21.0403  22.0126  22.7700
    23.6737  25.1773  25.1773  26.1476  26.9517  28.7689  30.1586  30.1586
    30.9026  31.5855  31.5855  31.8755  31.8756  32.0257  32.3466  34.1258
    36.1465  36.2456  37.0660  37.6047  37.6047  38.7998  38.7999  39.1068
    41.0064  41.0064  41.1521  42.2703  44.3343

[...]

          k =-0.2000 0.2000 0.0000 (  2031 PWs)   bands (ev):

[...]

 ------ SPIN DOWN ----------

[...]

     the Fermi energy is     7.4822 ev

!    total energy              =    -366.46955211 Ry
     Harris-Foulkes estimate   =    -366.46955065 Ry
     estimated scf accuracy    <       0.00000059 Ry

     The total energy is the sum of the following terms:

     one-electron contribution =    -140.73350868 Ry
     hartree contribution      =      90.67468692 Ry
     xc contribution           =     -62.83039128 Ry
     ewald contribution        =    -253.58038441 Ry
     smearing contrib. (-TS)   =       0.00004535 Ry

[...]

     convergence has been achieved in  10 iterations

     Forces acting on atoms (Ry/au):

     negative rho (up, down):  0.122E-01 0.122E-01
     atom    1 type  1   force =     0.00000000    0.00000000    0.00000000
     atom    2 type  1   force =     0.00000000    0.00000000    0.00000000
     atom    3 type  2   force =     0.01147341    0.01147341   -0.00000000
[...]
        k(    3) = (   0.0000000   0.0000000   0.6382905), wk =   0.0160000
        k(    4) = (  -0.0000001   0.1972232   0.0000000), wk =   0.0320000
        k(    5) = (  -0.0000001   0.1972232   0.3191452), wk =   0.0640000
        k(    6) = (  -0.0000001   0.1972232   0.6382905), wk =   0.0640000
        k(    7) = (  -0.0000001   0.3944465   0.0000000), wk =   0.0320000
        k(    8) = (  -0.0000001   0.3944465   0.3191452), wk =   0.0640000
        k(    9) = (  -0.0000001   0.3944465   0.6382905), wk =   0.0640000
        k(   10) = (   0.1972232   0.1972232   0.0000000), wk =   0.0160000
        k(   11) = (   0.1972232   0.1972232   0.3191452), wk =   0.0320000
        k(   12) = (   0.1972232   0.1972232   0.6382905), wk =   0.0320000
        k(   13) = (   0.1972231   0.3944464   0.0000000), wk =   0.0320000
        k(   14) = (   0.1972231   0.3944464   0.3191452), wk =   0.0640000
        k(   15) = (   0.1972231   0.3944464   0.6382905), wk =   0.0640000
        k(   16) = (   0.3944463   0.3944463   0.0000000), wk =   0.0160000
        k(   17) = (   0.3944463   0.3944463   0.3191452), wk =   0.0320000
        k(   18) = (   0.3944463   0.3944463   0.6382905), wk =   0.0320000
        k(   19) = (  -0.1972233   0.1972233   0.0000000), wk =   0.0160000
        k(   20) = (  -0.1972233   0.1972233  -0.3191452), wk =   0.0320000
        k(   21) = (  -0.1972233   0.1972233  -0.6382905), wk =   0.0320000
        k(   22) = (  -0.1972234   0.3944465   0.0000000), wk =   0.0320000
        k(   23) = (  -0.1972234   0.3944465  -0.3191452), wk =   0.0640000
        k(   24) = (  -0.1972234   0.3944465  -0.6382905), wk =   0.0640000
        k(   25) = (  -0.3944466   0.3944466   0.0000000), wk =   0.0160000
        k(   26) = (  -0.3944466   0.3944466  -0.3191452), wk =   0.0320000
        k(   27) = (  -0.3944466   0.3944466  -0.6382905), wk =   0.0320000
        k(   28) = (   0.0000000   0.0000000   0.0000000), wk =   0.0080000
        k(   29) = (   0.0000000   0.0000000   0.3191452), wk =   0.0160000
        k(   30) = (   0.0000000   0.0000000   0.6382905), wk =   0.0160000
        k(   31) = (  -0.0000001   0.1972232   0.0000000), wk =   0.0320000
        k(   32) = (  -0.0000001   0.1972232   0.3191452), wk =   0.0640000
        k(   33) = (  -0.0000001   0.1972232   0.6382905), wk =   0.0640000
        k(   34) = (  -0.0000001   0.3944465   0.0000000), wk =   0.0320000
        k(   35) = (  -0.0000001   0.3944465   0.3191452), wk =   0.0640000
        k(   36) = (  -0.0000001   0.3944465   0.6382905), wk =   0.0640000
        k(   37) = (   0.1972232   0.1972232   0.0000000), wk =   0.0160000
        k(   38) = (   0.1972232   0.1972232   0.3191452), wk =   0.0320000
        k(   39) = (   0.1972232   0.1972232   0.6382905), wk =   0.0320000
        k(   40) = (   0.1972231   0.3944464   0.0000000), wk =   0.0320000
        k(   41) = (   0.1972231   0.3944464   0.3191452), wk =   0.0640000
        k(   42) = (   0.1972231   0.3944464   0.6382905), wk =   0.0640000
        k(   43) = (   0.3944463   0.3944463   0.0000000), wk =   0.0160000
        k(   44) = (   0.3944463   0.3944463   0.3191452), wk =   0.0320000
        k(   45) = (   0.3944463   0.3944463   0.6382905), wk =   0.0320000
        k(   46) = (  -0.1972233   0.1972233   0.0000000), wk =   0.0160000
        k(   47) = (  -0.1972233   0.1972233  -0.3191452), wk =   0.0320000
        k(   48) = (  -0.1972233   0.1972233  -0.6382905), wk =   0.0320000
        k(   49) = (  -0.1972234   0.3944465   0.0000000), wk =   0.0320000
        k(   50) = (  -0.1972234   0.3944465  -0.3191452), wk =   0.0640000
        k(   51) = (  -0.1972234   0.3944465  -0.6382905), wk =   0.0640000
        k(   52) = (  -0.3944466   0.3944466   0.0000000), wk =   0.0160000
        k(   53) = (  -0.3944466   0.3944466  -0.3191452), wk =   0.0320000
        k(   54) = (  -0.3944466   0.3944466  -0.6382905), wk =   0.0320000

     Check: negative/imaginary core charge=   -0.000013    0.000000
     Check: negative starting charge=(component1):   -0.025296

[...]

     Volume is kept fixed: isostatic pressure set to zero

     bfgs converged in   6 scf cycles and   5 bfgs steps
     (criteria: energy < 0.10E-03, force < 0.10E-02, cell < 0.50E+00)

     End of BFGS Geometry Optimization

     Final enthalpy =    -366.4754832303 Ry
Begin final coordinates
     new unit-cell volume =    477.04989 a.u.^3 (    70.69150 Ang^3 )

CELL_PARAMETERS (alat=  9.04605950)
   1.014079341   0.000000317   0.000000000
   0.000000317   1.014079341   0.000000000
   0.000000000   0.000000000   0.626673908

ATOMIC_POSITIONS (crystal)
Ti0      0.000000000   0.000000000   0.000000000    0   0   0
Ti0      0.500000000   0.500000000   0.500000000    0   0   0
O1       0.311027888   0.311027888   0.000000000    1   1   0
O1      -0.311027888  -0.311027888   0.000000000    1   1   0
O1       0.811028002   0.188971998   0.500000000    1   1   0
O1       0.188971998   0.811028002   0.500000000    1   1   0
End final coordinates

     A final scf calculation at the relaxed structure.
     The G-vectors are recalculated for the final unit cell
     Results may differ from those at the preceding step.

     bravais-lattice index     =            0
     lattice parameter (alat)  =       9.0461  a.u.
     unit-cell volume          =     477.0499 (a.u.)^3
     number of atoms/cell      =            6
     number of atomic types    =            2
     number of electrons       =        48.00
     number of Kohn-Sham states=           69
     kinetic-energy cutoff     =      40.0000  Ry
     charge density cutoff     =     500.0000  Ry
     convergence threshold     =      1.0E-08
     mixing beta               =       0.3000
     number of iterations used =            8  plain     mixing
     Exchange-correlation      = SLA  PW   PBE  PBE ( 1 4 3 4 0)
     EXX-fraction              =        0.00

     celldm(1)=   9.046059  celldm(2)=   0.000000  celldm(3)=   0.000000
     celldm(4)=   0.000000  celldm(5)=   0.000000  celldm(6)=   0.000000

     crystal axes: (cart. coord. in units of alat)
               a(1) = (   1.014079   0.000000   0.000000 )
               a(2) = (   0.000000   1.014079   0.000000 )
               a(3) = (   0.000000   0.000000   0.626674 )

     reciprocal axes: (cart. coord. in units 2 pi/alat)
               b(1) = (  0.986116 -0.000000  0.000000 )
               b(2) = ( -0.000000  0.986116  0.000000 )
               b(3) = (  0.000000  0.000000  1.595726 )

     PseudoPot. # 1 for Ti read from file:
     /home/camp/zhonxu/pseudo/ti_pbe_v1.uspp.F.UPF
     MD5 check sum: bcc8f6961b3b91f0cac3ca967d22d0fb
     Pseudo is Ultrasoft + core correction, Zval = 12.0
     Generated by new atomic code, or converted to UPF format
     Using radial grid of  851 points,  6 beta functions with:
                l(1) =   0
                l(2) =   0
                l(3) =   1
                l(4) =   1
                l(5) =   2
                l(6) =   2
     Q(r) pseudized with  6 coefficients,  rinner =    1.000   1.000   1.000
                                                       1.000   1.000

     PseudoPot. # 2 for O  read from file:
     /home/camp/zhonxu/pseudo/o_pbe_v1.01.uspp.F.UPF
     MD5 check sum: 2bcb18d16ea4b960afae9ec6d52f22d2
     Pseudo is Ultrasoft + core correction, Zval =  6.0
     Generated by new atomic code, or converted to UPF format
     Using radial grid of  737 points,  5 beta functions with:
                l(1) =   0
                l(2) =   0
                l(3) =   1
                l(4) =   1
                l(5) =   2
     Q(r) pseudized with  8 coefficients,  rinner =    0.900   0.900   0.900
                                                       0.900   0.900

     atomic species   valence    mass     pseudopotential
        Ti0           12.00    47.88000     Ti( 1.00)
        O1             6.00    15.99940     O ( 1.00)

     Starting magnetic structure
     atomic species   magnetization
        Ti0          0.000
        O1           0.000

      8 Sym. Ops., with inversion, found
          (note:  8 additional sym.ops. were found but ignored
           their fractional translations are incommensurate with FFT grid)

   Cartesian axes

     site n.     atom                  positions (alat units)
         1           Ti0 tau(   1) = (   0.0000000   0.0000000   0.0000000  )
         2           Ti0 tau(   2) = (   0.5070398   0.5070398   0.3133370  )
         3           O1  tau(   3) = (   0.3154071   0.3154071   0.0000000  )
         4           O1  tau(   4) = (  -0.3154071  -0.3154071   0.0000000  )
         5           O1  tau(   5) = (   0.8224468   0.1916329   0.3133370  )
         6           O1  tau(   6) = (   0.1916329   0.8224468   0.3133370  )

     number of k points=    54  Methfessel-Paxton smearing, width (Ry)=  0.0100
                       cart. coord. in units 2pi/alat
        k(    1) = (   0.0000000   0.0000000   0.0000000), wk =   0.0080000
        k(    2) = (   0.0000000   0.0000000   0.3191452), wk =   0.0160000
        k(    3) = (   0.0000000   0.0000000   0.6382905), wk =   0.0160000
        k(    4) = (  -0.0000001   0.1972232   0.0000000), wk =   0.0320000
        k(    5) = (  -0.0000001   0.1972232   0.3191452), wk =   0.0640000
        k(    6) = (  -0.0000001   0.1972232   0.6382905), wk =   0.0640000
        k(    7) = (  -0.0000001   0.3944465   0.0000000), wk =   0.0320000
        k(    8) = (  -0.0000001   0.3944465   0.3191452), wk =   0.0640000
        k(    9) = (  -0.0000001   0.3944465   0.6382905), wk =   0.0640000
        k(   10) = (   0.1972232   0.1972232   0.0000000), wk =   0.0160000
        k(   11) = (   0.1972232   0.1972232   0.3191452), wk =   0.0320000
        k(   12) = (   0.1972232   0.1972232   0.6382905), wk =   0.0320000
        k(   13) = (   0.1972231   0.3944464   0.0000000), wk =   0.0320000
        k(   14) = (   0.1972231   0.3944464   0.3191452), wk =   0.0640000
        k(   15) = (   0.1972231   0.3944464   0.6382905), wk =   0.0640000
        k(   16) = (   0.3944463   0.3944463   0.0000000), wk =   0.0160000
        k(   17) = (   0.3944463   0.3944463   0.3191452), wk =   0.0320000
        k(   18) = (   0.3944463   0.3944463   0.6382905), wk =   0.0320000
        k(   19) = (  -0.1972233   0.1972233   0.0000000), wk =   0.0160000
        k(   20) = (  -0.1972233   0.1972233  -0.3191452), wk =   0.0320000
        k(   21) = (  -0.1972233   0.1972233  -0.6382905), wk =   0.0320000
        k(   22) = (  -0.1972234   0.3944465   0.0000000), wk =   0.0320000
        k(   23) = (  -0.1972234   0.3944465  -0.3191452), wk =   0.0640000
        k(   24) = (  -0.1972234   0.3944465  -0.6382905), wk =   0.0640000
        k(   25) = (  -0.3944466   0.3944466   0.0000000), wk =   0.0160000
        k(   26) = (  -0.3944466   0.3944466  -0.3191452), wk =   0.0320000
        k(   27) = (  -0.3944466   0.3944466  -0.6382905), wk =   0.0320000
        k(   28) = (   0.0000000   0.0000000   0.0000000), wk =   0.0080000
        k(   29) = (   0.0000000   0.0000000   0.3191452), wk =   0.0160000
        k(   30) = (   0.0000000   0.0000000   0.6382905), wk =   0.0160000
        k(   31) = (  -0.0000001   0.1972232   0.0000000), wk =   0.0320000
        k(   32) = (  -0.0000001   0.1972232   0.3191452), wk =   0.0640000
        k(   33) = (  -0.0000001   0.1972232   0.6382905), wk =   0.0640000
        k(   34) = (  -0.0000001   0.3944465   0.0000000), wk =   0.0320000
        k(   35) = (  -0.0000001   0.3944465   0.3191452), wk =   0.0640000
        k(   36) = (  -0.0000001   0.3944465   0.6382905), wk =   0.0640000
        k(   37) = (   0.1972232   0.1972232   0.0000000), wk =   0.0160000
        k(   38) = (   0.1972232   0.1972232   0.3191452), wk =   0.0320000
        k(   39) = (   0.1972232   0.1972232   0.6382905), wk =   0.0320000
        k(   40) = (   0.1972231   0.3944464   0.0000000), wk =   0.0320000
        k(   41) = (   0.1972231   0.3944464   0.3191452), wk =   0.0640000
        k(   42) = (   0.1972231   0.3944464   0.6382905), wk =   0.0640000
        k(   43) = (   0.3944463   0.3944463   0.0000000), wk =   0.0160000
        k(   44) = (   0.3944463   0.3944463   0.3191452), wk =   0.0320000
        k(   45) = (   0.3944463   0.3944463   0.6382905), wk =   0.0320000
        k(   46) = (  -0.1972233   0.1972233   0.0000000), wk =   0.0160000
        k(   47) = (  -0.1972233   0.1972233  -0.3191452), wk =   0.0320000
        k(   48) = (  -0.1972233   0.1972233  -0.6382905), wk =   0.0320000
        k(   49) = (  -0.1972234   0.3944465   0.0000000), wk =   0.0320000
        k(   50) = (  -0.1972234   0.3944465  -0.3191452), wk =   0.0640000
        k(   51) = (  -0.1972234   0.3944465  -0.6382905), wk =   0.0640000
        k(   52) = (  -0.3944466   0.3944466   0.0000000), wk =   0.0160000
        k(   53) = (  -0.3944466   0.3944466  -0.3191452), wk =   0.0320000
        k(   54) = (  -0.3944466   0.3944466  -0.6382905), wk =   0.0320000

     Largest allocated arrays     est. size (Mb)     dimensions
     Largest temporary arrays     est. size (Mb)     dimensions

     Check: negative/imaginary core charge=   -0.000014    0.000000

     Initial potential from superposition of free atoms
     Check: negative starting charge=(component1):   -0.012648
     Check: negative starting charge=(component2):   -0.012648

     starting charge   45.99991, renormalised to   48.00000

     negative rho (up, down):  0.132E-01 0.132E-01
     Starting wfc are   36 randomized atomic wfcs

     Self-consistent Calculation

[...]

     total energy              =    -366.47543210 Ry
     Harris-Foulkes estimate   =    -366.47543115 Ry
     estimated scf accuracy    <       0.00000035 Ry

[...]

     iteration # 11     ecut=    40.00 Ry     beta=0.30
     Davidson diagonalization with overlap
     ethr =  7.26E-10,  avg # of iterations =  1.0

     negative rho (up, down):  0.123E-01 0.123E-01

     End of self-consistent calculation

 ------ SPIN UP ------------

[...]

 ------ SPIN DOWN ----------

[...]

          k = 0.3944 0.3944 0.6383 (  2036 PWs)   bands (ev):

[...]

          k =-0.3944 0.3944-0.6383 (  2036 PWs)   bands (ev):

   -49.7647 -49.7645 -26.1947 -26.1935 -25.9479 -25.9446 -25.9194 -25.9176
    -9.2888  -9.2316  -9.0663  -9.0043   3.0849   3.2921   3.3119   3.4707
     4.1015   4.2755   4.9334   4.9556   6.0669   6.1584   6.3233   6.5594
     9.4677   9.7293  10.1919  10.2407  10.2728  10.4567  11.8877  12.1984
    12.8434  13.1460  18.4708  18.8344  20.1085  20.6971  21.3943  21.7797
    23.0974  23.2317  24.4482  24.6774  25.6969  26.2291  28.5570  29.8821
    29.9517  30.5516  31.0014  31.9146  33.7501  33.9017  35.7089  36.3932
    37.7155  38.0970  38.5654  39.1138  39.6118  39.6692  40.2567  40.2769
    41.3398  41.7989  41.8866  42.6723  42.8772

     the Fermi energy is     9.0485 ev

!    total energy              =    -366.47543313 Ry
     Harris-Foulkes estimate   =    -366.47543214 Ry
     estimated scf accuracy    <          3.7E-09 Ry

     The total energy is the sum of the following terms:

     one-electron contribution =    -145.13812894 Ry
     hartree contribution      =      92.88894716 Ry
     xc contribution           =     -62.90515474 Ry
     ewald contribution        =    -251.32139715 Ry
     smearing contrib. (-TS)   =       0.00030053 Ry

     total magnetization       =    -0.00 Bohr mag/cell
     absolute magnetization    =     0.00 Bohr mag/cell

     convergence has been achieved in  11 iterations

     Forces acting on atoms (Ry/au):

     negative rho (up, down):  0.123E-01 0.123E-01
     atom    1 type  1   force =     0.00000000    0.00000000    0.00000000
     atom    2 type  1   force =     0.00000000    0.00000000    0.00000000
     atom    3 type  2   force =    -0.00002260   -0.00002260    0.00000000
     atom    4 type  2   force =     0.00002260    0.00002260    0.00000000
     atom    5 type  2   force =    -0.00002539    0.00002539    0.00000000
     atom    6 type  2   force =     0.00002539   -0.00002539    0.00000000

     Total force =     0.000068     Total SCF correction =     0.000009
     SCF correction compared to forces is large: reduce conv_thr to get better values

     entering subroutine stress ...

     negative rho (up, down):  0.123E-01 0.123E-01
          total   stress  (Ry/bohr**3)                   (kbar)     P= -157.82
  -0.00107228  -0.00000002   0.00000000       -157.74     -0.00      0.00
  -0.00000002  -0.00107228   0.00000000         -0.00   -157.74      0.00
   0.00000000   0.00000000  -0.00107391          0.00      0.00   -157.98

     General routines

     Parallel routines

   This run was terminated on:  14:41:30  24Jan2014

   JOB DONE.