     Program PWSCF v.5.0.2 (svn rev. 9656) starts on  9May2014 at  5:49: 4

     Current dimensions of program PWSCF are:
     Max number of different atomic species (ntypx) = 10
     Max number of k-points (npk) =  40000
     Max angular momentum in pseudopotentials (lmaxx) =  3
     Reading input from pwscf.in
Warning: card &CELL ignored
Warning: card / ignored

     Subspace diagonalization in iterative solution of the eigenvalue problem:
     a serial algorithm will be used

     bravais-lattice index     =            0
     lattice parameter (alat)  =      11.1872  a.u.
     unit-cell volume          =    7531.8600 (a.u.)^3
     number of atoms/cell      =           30
     number of atomic types    =            3
     number of electrons       =       216.00
     number of Kohn-Sham states=          324
     kinetic-energy cutoff     =      40.0000  Ry
     charge density cutoff     =     500.0000  Ry
     convergence threshold     =      1.0E-06
     mixing beta               =       0.7000
     number of iterations used =            8  plain     mixing
     Exchange-correlation      = SLA  PW   PBE  PBE ( 1 4 3 4 0)
     EXX-fraction              =        0.00
     nstep                     =           50

     celldm(1)=  11.187179  celldm(2)=   0.000000  celldm(3)=   0.000000
     celldm(4)=   0.000000  celldm(5)=   0.000000  celldm(6)=   0.000000

     crystal axes: (cart. coord. in units of alat)
               a(1) = (   1.000000   0.000000   0.000000 )
               a(2) = (   0.000000   1.180104   0.000000 )
               a(3) = (   0.000000   0.000000   4.558482 )

     reciprocal axes: (cart. coord. in units 2 pi/alat)
               b(1) = (  1.000000  0.000000  0.000000 )
               b(2) = (  0.000000  0.847383  0.000000 )
               b(3) = (  0.000000  0.000000  0.219371 )

     PseudoPot. # 1 for O  read from file:
     /home/camp/zhonxu/pseudo/o_pbe_v1.01.uspp.F.UPF
     MD5 check sum: 2bcb18d16ea4b960afae9ec6d52f22d2
     Pseudo is Ultrasoft + core correction, Zval =  6.0
     Generated by new atomic code, or converted to UPF format
     Using radial grid of  737 points,  5 beta functions with:
                l(1) =   0
                l(2) =   0
                l(3) =   1
                l(4) =   1
                l(5) =   2
     Q(r) pseudized with  8 coefficients,  rinner =    0.900   0.900   0.900
                                                       0.900   0.900

     PseudoPot. # 2 for Nb read from file:
     /home/camp/zhonxu/pseudo/nb_pbe_v1.uspp.F.UPF
     MD5 check sum: 573aab8a2fa660278ed4a62cd769473f
     Pseudo is Ultrasoft + core correction, Zval = 13.0
     Generated by new atomic code, or converted to UPF format
     Using radial grid of  887 points,  6 beta functions with:
                l(1) =   0
                l(2) =   0
                l(3) =   1
                l(4) =   1
                l(5) =   2
                l(6) =   2
     Q(r) pseudized with  6 coefficients,  rinner =    1.000   1.000   1.000
                                                       1.000   1.000

     PseudoPot. # 3 for H  read from file:
     /home/camp/zhonxu/pseudo/h_pbe_v1.uspp.F.UPF
     MD5 check sum: 3408e3ff4ec8b0a4e358431e7e038a48
     Pseudo is Ultrasoft, Zval =  1.0
     Generated by new atomic code, or converted to UPF format
     Using radial grid of  615 points,  2 beta functions with:
                l(1) =   0
                l(2) =   0
     Q(r) pseudized with  8 coefficients,  rinner =    0.700

     atomic species   valence    mass     pseudopotential
        O0             6.00    15.99940     O ( 1.00)
        Nb1           13.00    92.90640     Nb( 1.00)
        H2             1.00     1.00794     H ( 1.00)

     Simplified LDA+U calculation (l_max = 2) with parameters (eV):
     atomic species    L          U    alpha       J0     beta
        Nb1            2     5.5000   0.0000   0.0000   0.0000

     No symmetry found

   Cartesian axes

     site n.     atom                  positions (alat units)
         1           O0  tau(   1) = (   0.0000000   0.0000000   1.7080633  )
         2           O0  tau(   2) = (   0.0000000   0.5900519   1.7583889  )
         3           Nb1 tau(   3) = (   0.2500000   0.5900519   2.0066439  )
         4           Nb1 tau(   4) = (   0.0000000   0.0000000   2.0401487  )
         5           O0  tau(   5) = (   0.2500000   0.9322821   2.0429294  )
         6           O0  tau(   6) = (   0.2500000   0.2478218   2.0431118  )
         7           O0  tau(   7) = (   0.0000000   0.5900519   2.2709903  )
         8           O0  tau(   8) = (   0.0000000   0.0000000   2.3999042  )
         9           Nb1 tau(   9) = (   0.2500000   0.0000000   2.6489340  )
        10           Nb1 tau(  10) = (   0.0000000   0.5900519   2.5868019  )
        11           O0  tau(  11) = (   0.2500000   0.8378738   2.6444667  )
        12           O0  tau(  12) = (   0.2500000   0.3422301   2.6445123  )
        13           O0  tau(  13) = (   0.0000000   0.0000000   2.8518777  )
        14           O0  tau(  14) = (   0.5000000   0.0000000   1.7080633  )
        15           O0  tau(  15) = (   0.5000000   0.5900519   1.7583889  )
        16           Nb1 tau(  16) = (   0.7500000   0.5900519   2.0066439  )
        17           Nb1 tau(  17) = (   0.5000000   0.0000000   2.0401487  )
        18           O0  tau(  18) = (   0.7500000   0.9322821   2.0429294  )
        19           O0  tau(  19) = (   0.7500000   0.2478218   2.0431118  )
        20           O0  tau(  20) = (   0.5000000   0.5900519   2.2709903  )
        21           O0  tau(  21) = (   0.5000000   0.0000000   2.3999497  )
        22           Nb1 tau(  22) = (   0.7500000   0.0000000   2.6489340  )
        23           Nb1 tau(  23) = (   0.5000000   0.5900519   2.5867563  )
        24           O0  tau(  24) = (   0.7500000   0.8378738   2.6444667  )
        25           O0  tau(  25) = (   0.7500000   0.3422301   2.6445123  )
        26           O0  tau(  26) = (   0.5000000   0.0000000   2.8518777  )
        27           H2  tau(  27) = (  -0.0004200   0.5934860   1.5928705  )
        28           H2  tau(  28) = (   0.4995800   0.5932146   1.5928249  )
        29           H2  tau(  29) = (   0.1513000  -0.0014397   1.6372701  )
        30           H2  tau(  30) = (   0.6512900  -0.0014397   1.6372701  )

     number of k points=    10  Methfessel-Paxton smearing, width (Ry)=  0.0100
                       cart. coord. in units 2pi/alat
        k(    1) = (   0.0000000   0.0000000   0.0000000), wk =   0.1250000
        k(    2) = (   0.0000000   0.2118458   0.0000000), wk =   0.2500000
        k(    3) = (   0.0000000  -0.4236915   0.0000000), wk =   0.1250000
        k(    4) = (   0.2500000   0.0000000   0.0000000), wk =   0.2500000
        k(    5) = (   0.2500000   0.2118458   0.0000000), wk =   0.2500000
        k(    6) = (   0.2500000  -0.4236915   0.0000000), wk =   0.2500000
        k(    7) = (  -0.5000000   0.0000000   0.0000000), wk =   0.1250000
        k(    8) = (  -0.5000000   0.2118458   0.0000000), wk =   0.2500000
        k(    9) = (  -0.5000000  -0.4236915   0.0000000), wk =   0.1250000
        k(   10) = (  -0.2500000   0.2118458   0.0000000), wk =   0.2500000

     Largest allocated arrays     est. size (Mb)     dimensions
     Largest temporary arrays     est. size (Mb)     dimensions

     Check: negative/imaginary core charge=   -0.000003    0.000000

     Initial potential from superposition of free atoms
     Check: negative starting charge=   -0.003843

     starting charge  215.97807, renormalised to  216.00000

     negative rho (up, down):  0.384E-02 0.000E+00
     Number of +U iterations with fixed ns =  0
     Starting occupations:
 --- enter write_ns ---
 LDA+U parameters:
U( 2)     =  5.50000000
alpha( 2) =  0.00000000
atom    3   Tr[ns(na)] =   3.00000
    eigenvalues:
  0.300  0.300  0.300  0.300  0.300
    eigenvectors:
  1.000  0.000  0.000  0.000  0.000
  0.000  1.000  0.000  0.000  0.000
  0.000  0.000  1.000  0.000  0.000
  0.000  0.000  0.000  1.000  0.000
  0.000  0.000  0.000  0.000  1.000
    occupations:
  0.300  0.000  0.000  0.000  0.000
  0.000  0.300  0.000  0.000  0.000
  0.000  0.000  0.300  0.000  0.000
  0.000  0.000  0.000  0.300  0.000
  0.000  0.000  0.000  0.000  0.300
atom    4   Tr[ns(na)] =   3.00000
    eigenvalues:
  0.300  0.300  0.300  0.300  0.300
    eigenvectors:
  1.000  0.000  0.000  0.000  0.000
  0.000  1.000  0.000  0.000  0.000
  0.000  0.000  1.000  0.000  0.000
  0.000  0.000  0.000  1.000  0.000
  0.000  0.000  0.000  0.000  1.000
    occupations:
  0.300  0.000  0.000  0.000  0.000
  0.000  0.300  0.000  0.000  0.000
  0.000  0.000  0.300  0.000  0.000
  0.000  0.000  0.000  0.300  0.000
  0.000  0.000  0.000  0.000  0.300
atom    9   Tr[ns(na)] =   3.00000
    eigenvalues:
  0.300  0.300  0.300  0.300  0.300
    eigenvectors:
  1.000  0.000  0.000  0.000  0.000
  0.000  1.000  0.000  0.000  0.000
  0.000  0.000  1.000  0.000  0.000
  0.000  0.000  0.000  1.000  0.000
  0.000  0.000  0.000  0.000  1.000
    occupations:
  0.300  0.000  0.000  0.000  0.000
  0.000  0.300  0.000  0.000  0.000
  0.000  0.000  0.300  0.000  0.000
  0.000  0.000  0.000  0.300  0.000
  0.000  0.000  0.000  0.000  0.300
atom   10   Tr[ns(na)] =   3.00000
    eigenvalues:
  0.300  0.300  0.300  0.300  0.300
    eigenvectors:
  1.000  0.000  0.000  0.000  0.000
  0.000  1.000  0.000  0.000  0.000
  0.000  0.000  1.000  0.000  0.000
  0.000  0.000  0.000  1.000  0.000
  0.000  0.000  0.000  0.000  1.000
    occupations:
  0.300  0.000  0.000  0.000  0.000
  0.000  0.300  0.000  0.000  0.000
  0.000  0.000  0.300  0.000  0.000
  0.000  0.000  0.000  0.300  0.000
  0.000  0.000  0.000  0.000  0.300
atom   16   Tr[ns(na)] =   3.00000
    eigenvalues:
  0.300  0.300  0.300  0.300  0.300
    eigenvectors:
  1.000  0.000  0.000  0.000  0.000
  0.000  1.000  0.000  0.000  0.000
  0.000  0.000  1.000  0.000  0.000
  0.000  0.000  0.000  1.000  0.000
  0.000  0.000  0.000  0.000  1.000
    occupations:
  0.300  0.000  0.000  0.000  0.000
  0.000  0.300  0.000  0.000  0.000
  0.000  0.000  0.300  0.000  0.000
  0.000  0.000  0.000  0.300  0.000
  0.000  0.000  0.000  0.000  0.300
atom   17   Tr[ns(na)] =   3.00000
    eigenvalues:
  0.300  0.300  0.300  0.300  0.300
    eigenvectors:
  1.000  0.000  0.000  0.000  0.000
  0.000  1.000  0.000  0.000  0.000
  0.000  0.000  1.000  0.000  0.000
  0.000  0.000  0.000  1.000  0.000
  0.000  0.000  0.000  0.000  1.000
    occupations:
  0.300  0.000  0.000  0.000  0.000
  0.000  0.300  0.000  0.000  0.000
  0.000  0.000  0.300  0.000  0.000
  0.000  0.000  0.000  0.300  0.000
  0.000  0.000  0.000  0.000  0.300
atom   22   Tr[ns(na)] =   3.00000
    eigenvalues:
  0.300  0.300  0.300  0.300  0.300
    eigenvectors:
  1.000  0.000  0.000  0.000  0.000
  0.000  1.000  0.000  0.000  0.000
  0.000  0.000  1.000  0.000  0.000
  0.000  0.000  0.000  1.000  0.000
  0.000  0.000  0.000  0.000  1.000
    occupations:
  0.300  0.000  0.000  0.000  0.000
  0.000  0.300  0.000  0.000  0.000
  0.000  0.000  0.300  0.000  0.000
  0.000  0.000  0.000  0.300  0.000
[...]
  0.001  0.000  0.000  0.000  0.999
  0.000  0.000  1.000  0.000  0.000
    occupations:
  0.582  0.013 -0.000 -0.003  0.000
  0.013  0.333  0.000 -0.012 -0.000
 -0.000  0.000  0.361 -0.000  0.001
 -0.003 -0.012 -0.000  0.756  0.000
  0.000 -0.000  0.001  0.000  0.550
atom    9   Tr[ns(na)] =   5.27057
    eigenvalues:
  0.446  0.462  0.482  0.621  0.624
    eigenvectors:
  0.882  0.000  0.000  0.118  0.000
  0.000  0.000  0.000  0.000  1.000
  0.000  0.000  1.000  0.000  0.000
  0.118  0.000  0.000  0.882  0.000
  0.000  1.000  0.000  0.000  0.000
    occupations:
  0.467 -0.000  0.000  0.056  0.000
 -0.000  0.624  0.000 -0.000 -0.000
  0.000  0.000  0.482  0.000  0.000
  0.056 -0.000  0.000  0.600 -0.000
  0.000 -0.000  0.000 -0.000  0.462
atom   10   Tr[ns(na)] =   5.08713
    eigenvalues:
  0.336  0.454  0.485  0.511  0.758
    eigenvectors:
  0.000  0.000  0.997  0.000  0.003
  0.000  1.000  0.000  0.000  0.000
  1.000  0.000  0.000  0.000  0.000
  0.000  0.000  0.003  0.000  0.997
  0.000  0.000  0.000  1.000  0.000
    occupations:
  0.485  0.000  0.000 -0.015  0.000
  0.000  0.454 -0.000  0.000  0.000
  0.000 -0.000  0.336 -0.000  0.000
 -0.015  0.000 -0.000  0.757 -0.000
  0.000  0.000  0.000 -0.000  0.511
atom   16   Tr[ns(na)] =   5.10708
    eigenvalues:
  0.338  0.347  0.509  0.589  0.770
    eigenvectors:
  0.000  0.000  0.000  0.349  0.651
  0.000  0.000  1.000  0.000  0.000
  0.001  0.999  0.000  0.000  0.000
  0.000  0.000  0.000  0.651  0.349
  0.999  0.001  0.000  0.000  0.000
    occupations:
  0.707  0.000  0.001 -0.086  0.000
  0.000  0.509  0.000 -0.000  0.000
  0.001  0.000  0.347 -0.000 -0.000
 -0.086 -0.000 -0.000  0.652 -0.000
  0.000  0.000 -0.000 -0.000  0.338
atom   17   Tr[ns(na)] =   5.16440
    eigenvalues:
  0.332  0.361  0.550  0.583  0.756
    eigenvectors:
  0.003  0.000  0.000  0.997  0.000
  0.996  0.000  0.000  0.003  0.001
  0.000  1.000  0.000  0.000  0.000
  0.001  0.000  0.000  0.000  0.999
  0.000  0.000  1.000  0.000  0.000
    occupations:
  0.582  0.013 -0.000 -0.003  0.000
  0.013  0.333  0.000 -0.012 -0.000
 -0.000  0.000  0.361 -0.000  0.001
 -0.003 -0.012 -0.000  0.756  0.000
  0.000 -0.000  0.001  0.000  0.550
atom   22   Tr[ns(na)] =   5.27057
    eigenvalues:
  0.446  0.462  0.482  0.621  0.624
    eigenvectors:
  0.882  0.000  0.000  0.118  0.000
  0.000  0.000  0.000  0.000  1.000
  0.000  0.000  1.000  0.000  0.000
  0.118  0.000  0.000  0.882  0.000
  0.000  1.000  0.000  0.000  0.000
    occupations:
  0.467 -0.000  0.000  0.056  0.000
 -0.000  0.624  0.000 -0.000 -0.000
  0.000  0.000  0.482  0.000  0.000
  0.056 -0.000  0.000  0.600 -0.000
  0.000 -0.000  0.000 -0.000  0.462
atom   23   Tr[ns(na)] =   5.08749
    eigenvalues:
  0.336  0.454  0.485  0.511  0.758
    eigenvectors:
  0.000  0.000  0.997  0.000  0.003
  0.000  1.000  0.000  0.000  0.000
  1.000  0.000  0.000  0.000  0.000
  0.000  0.000  0.003  0.000  0.997
  0.000  0.000  0.000  1.000  0.000
    occupations:
  0.485  0.000 -0.000 -0.015 -0.000
  0.000  0.454 -0.000  0.000  0.000
 -0.000 -0.000  0.336 -0.000  0.000
 -0.015  0.000 -0.000  0.757 -0.000
 -0.000  0.000  0.000 -0.000  0.511
N of occupied +U levels =  41.2587087
 --- exit write_ns ---

     Threshold (ethr) on eigenvalues was too large:
     Diagonalizing with lowered threshold

     Davidson diagonalization with overlap
     ethr =  7.81E-09,  avg # of iterations =  2.0

[...]

     total energy              =   -1526.35101227 Ry
     Harris-Foulkes estimate   =   -1526.35101227 Ry
     estimated scf accuracy    <       0.00000002 Ry

     iteration # 10     ecut=    40.00 Ry     beta=0.70
     Davidson diagonalization with overlap
     ethr =  7.19E-12,  avg # of iterations =  1.0

     negative rho (up, down):  0.363E-02 0.000E+00

     End of self-consistent calculation
 --- enter write_ns ---
 LDA+U parameters:
U( 2)     =  5.50000000
alpha( 2) =  0.00000000
atom    3   Tr[ns(na)] =   5.10742
    eigenvalues:
  0.338  0.347  0.509  0.589  0.770
    eigenvectors:
  0.000  0.000  0.000  0.349  0.651
  0.000  0.000  1.000  0.000  0.000
  0.002  0.998  0.000  0.000  0.000
  0.000  0.000  0.000  0.651  0.349
  0.998  0.002  0.000  0.000  0.000
    occupations:
  0.707  0.000  0.001 -0.086 -0.000
  0.000  0.509 -0.000 -0.000  0.000
  0.001 -0.000  0.347 -0.000 -0.000
 -0.086 -0.000 -0.000  0.652  0.000
 -0.000  0.000 -0.000  0.000  0.338
atom    4   Tr[ns(na)] =   5.16537
    eigenvalues:
  0.332  0.361  0.550  0.583  0.757
    eigenvectors:
  0.003  0.000  0.000  0.997  0.000
  0.996  0.000  0.000  0.003  0.001
  0.000  1.000  0.000  0.000  0.000
  0.001  0.000  0.000  0.000  0.999
  0.000  0.000  1.000  0.000  0.000
    occupations:
  0.582  0.013 -0.000 -0.003  0.000
  0.013  0.333  0.000 -0.012 -0.000
 -0.000  0.000  0.361 -0.000  0.001
 -0.003 -0.012 -0.000  0.756  0.000
  0.000 -0.000  0.001  0.000  0.550
atom    9   Tr[ns(na)] =   5.26935
    eigenvalues:
  0.446  0.462  0.482  0.621  0.624
    eigenvectors:
  0.882  0.000  0.000  0.118  0.000
  0.000  0.000  0.000  0.000  1.000
  0.000  0.000  1.000  0.000  0.000
  0.118  0.000  0.000  0.882  0.000
  0.000  1.000  0.000  0.000  0.000
    occupations:
  0.467 -0.000  0.000  0.056  0.000
 -0.000  0.624  0.000 -0.000 -0.000
  0.000  0.000  0.482  0.000  0.000
  0.056 -0.000  0.000  0.600 -0.000
  0.000 -0.000  0.000 -0.000  0.462
atom   10   Tr[ns(na)] =   5.08652
    eigenvalues:
  0.336  0.454  0.485  0.511  0.758
    eigenvectors:
  0.000  0.000  0.997  0.000  0.003
  0.000  1.000  0.000  0.000  0.000
  1.000  0.000  0.000  0.000  0.000
  0.000  0.000  0.003  0.000  0.997
  0.000  0.000  0.000  1.000  0.000
    occupations:
  0.485  0.000  0.000 -0.015 -0.000
  0.000  0.454 -0.000  0.000  0.000
  0.000 -0.000  0.336 -0.000  0.000
 -0.015  0.000 -0.000  0.757 -0.000
 -0.000  0.000  0.000 -0.000  0.511
atom   16   Tr[ns(na)] =   5.10742
    eigenvalues:
  0.338  0.347  0.509  0.589  0.770
    eigenvectors:
  0.000  0.000  0.000  0.349  0.651
  0.000  0.000  1.000  0.000  0.000
  0.002  0.998  0.000  0.000  0.000
  0.000  0.000  0.000  0.651  0.349
  0.998  0.002  0.000  0.000  0.000
    occupations:
  0.707  0.000  0.001 -0.086  0.000
  0.000  0.509  0.000 -0.000  0.000
  0.001  0.000  0.347 -0.000 -0.000
 -0.086 -0.000 -0.000  0.652 -0.000
  0.000  0.000 -0.000 -0.000  0.338
atom   17   Tr[ns(na)] =   5.16540
    eigenvalues:
  0.332  0.361  0.550  0.583  0.757
    eigenvectors:
  0.003  0.000  0.000  0.997  0.000
  0.996  0.000  0.000  0.003  0.001
  0.000  1.000  0.000  0.000  0.000
  0.001  0.000  0.000  0.000  0.999
  0.000  0.000  1.000  0.000  0.000
    occupations:
  0.582  0.013 -0.000 -0.003  0.000
  0.013  0.333  0.000 -0.012 -0.000
 -0.000  0.000  0.361 -0.000  0.001
 -0.003 -0.012 -0.000  0.756  0.000
  0.000 -0.000  0.001  0.000  0.550
atom   22   Tr[ns(na)] =   5.26935
    eigenvalues:
  0.446  0.462  0.482  0.621  0.624
    eigenvectors:
  0.882  0.000  0.000  0.118  0.000
  0.000  0.000  0.000  0.000  1.000
  0.000  0.000  1.000  0.000  0.000
  0.118  0.000  0.000  0.882  0.000
  0.000  1.000  0.000  0.000  0.000
    occupations:
  0.467 -0.000  0.000  0.056  0.000
 -0.000  0.624  0.000 -0.000 -0.000
  0.000  0.000  0.482  0.000  0.000
  0.056 -0.000  0.000  0.600 -0.000
  0.000 -0.000  0.000 -0.000  0.462
atom   23   Tr[ns(na)] =   5.08651
    eigenvalues:
  0.336  0.454  0.485  0.511  0.758
    eigenvectors:
  0.000  0.000  0.997  0.000  0.003
  0.000  1.000  0.000  0.000  0.000
  1.000  0.000  0.000  0.000  0.000
  0.000  0.000  0.003  0.000  0.997
  0.000  0.000  0.000  1.000  0.000
    occupations:
  0.485  0.000 -0.000 -0.015 -0.000
  0.000  0.454 -0.000  0.000  0.000
 -0.000 -0.000  0.336 -0.000  0.000
 -0.015  0.000 -0.000  0.757 -0.000
 -0.000  0.000  0.000 -0.000  0.511
N of occupied +U levels =  41.2573478
 --- exit write_ns ---

[...]

          k = 0.2500-0.4237 0.0000 ( 32188 PWs)   bands (ev):

[...]

          k =-0.2500 0.2118 0.0000 ( 32165 PWs)   bands (ev):

   -56.3038 -56.2356 -56.0406 -55.9826 -55.6412 -55.5814 -55.5384 -55.4808
   -33.0851 -32.5110 -32.4621 -32.4103 -32.3849 -32.3552 -32.3382 -32.3235
   -32.3084 -32.2430 -32.1515 -32.1191 -32.0706 -31.9871 -31.9397 -31.8192
   -31.7649 -31.6841 -31.5303 -31.4843 -31.3942 -31.3803 -31.3566 -31.1160
   -20.5076 -20.3660 -19.3013 -19.1388 -18.8790 -18.8557 -18.8271 -18.7722
   -18.7535 -18.6277 -18.6153 -18.5772 -18.0000 -17.9568 -17.9206 -17.9040
   -17.8806 -17.7427  -9.1444  -8.6963  -7.3961  -7.1344  -6.9906  -6.7687
    -6.5145  -6.4426  -6.3473  -6.3043  -6.2535  -6.1750  -6.1270  -5.8947
    -5.8649  -5.7850  -5.5787  -5.4296  -5.4137  -5.2553  -5.0175  -4.9375
    -4.9326  -4.8751  -4.7788  -4.4690  -4.3875  -4.2953  -4.2664  -4.2229
    -4.1414  -4.0918  -3.8922  -3.8875  -3.8634  -3.8057  -3.7343  -3.7217
    -3.4995  -3.4584  -3.4255  -3.3344  -3.2800  -3.2536  -3.1334  -3.0984
    -2.9730  -2.9614  -2.7946  -2.6659  -2.6069  -2.5204  -2.4380  -2.1491
    -1.3020  -0.2357  -0.0533   1.1005   1.4119   1.6145   1.6678   1.7658
     1.8500   1.8869   2.1094   2.1711   2.3530   2.4476   2.5012   2.5783
     2.6535   2.6667   2.8554   2.9069   2.9853   3.0061   3.1487   3.1982
     3.2645   3.4259   3.7627   4.2236   4.4062   4.5458   4.6590   4.7366
     4.8891   4.9486   4.9927   5.1471   5.2447   5.3210   5.3742   5.6125
     5.7515   5.8424   5.8914   5.9655   6.2029   6.2785   6.3959   6.4973
     6.5038   6.5222   6.6093   6.7700   6.9112   6.9437   7.1640   7.2377
     7.2958   7.5224   7.7175   7.8023   7.9093   7.9558   8.1345   8.1594
     8.2499   8.3250   8.4518   8.6381   8.7208   8.8578   9.0009   9.0889
     9.1063   9.2391   9.3335   9.4064   9.5626   9.5910   9.6779   9.7718
     9.8747   9.9873   9.9902  10.1842  10.2260  10.4017  10.4487  10.6276
    10.7120  10.7740  10.9555  10.9641  11.0196  11.0882  11.1661  11.1986
    11.2792  11.4167  11.4625  11.4712  11.5518  11.5795  11.7555  11.8916
    11.9195  12.0460  12.0968  12.1759  12.2413  12.2939  12.4319  12.4932
    12.6452  12.6848  12.7408  12.7761  12.8554  12.8949  12.9488  12.9794
    13.0408  13.1126  13.1649  13.2818  13.3201  13.4320  13.4859  13.5127
    13.5966  13.7060  13.7751  13.8927  13.9438  13.9624  13.9848  14.0838
    14.1199  14.2926  14.3436  14.4159  14.4808  14.6082  14.6192  14.8586
    14.9007  14.9222  15.0540  15.1425  15.2001  15.2646  15.2857  15.3806
    15.4003  15.4050  15.5230  15.5286  15.5982  15.7281  15.8082  15.8209
    15.8433  15.9055  16.0369  16.0413  16.0812  16.2714  16.2730  16.4040
    16.4718  16.5816  16.6205  16.6524  16.7390  16.7628  16.7914  16.8920
    16.9620  17.0100  17.0552  17.2551  17.2904  17.2916  17.4028  17.4343
    17.5028  17.5667  17.6344  17.7096  17.7430  17.8569  17.8738  17.9937
    18.0459  18.0556  18.1142  18.2619  18.3437  18.4436  18.4989  18.6106
    18.6496  18.7346  18.7379  18.7996  18.8874  18.9297  18.9402  19.0498
    19.1582  19.2040  19.2922  19.3042  19.3660  19.3901  19.4198  19.5177
    19.5473  19.6041  19.6620  19.7211

     the Fermi energy is     1.0357 ev

!    total energy              =   -1526.35101227 Ry
     Harris-Foulkes estimate   =   -1526.35101227 Ry
     estimated scf accuracy    <          3.8E-09 Ry

     The total energy is the sum of the following terms:

     one-electron contribution =  -18237.91301992 Ry
     hartree contribution      =    9145.85324061 Ry
     xc contribution           =    -279.76057232 Ry
     ewald contribution        =    7841.73768430 Ry
     Hubbard energy            =       3.73209159 Ry
     smearing contrib. (-TS)   =      -0.00043654 Ry

     convergence has been achieved in  10 iterations

     Forces acting on atoms (Ry/au):

     negative rho (up, down):  0.363E-02 0.000E+00
     atom    1 type  1   force =     0.00104755   -0.00037025    0.00012237
     atom    2 type  1   force =    -0.00007615    0.00046791   -0.00049121
     atom    3 type  2   force =     0.00027398   -0.00024184   -0.00046340
     atom    4 type  2   force =    -0.00268721    0.00013866    0.00036938
     atom    5 type  1   force =     0.00044551   -0.04711551   -0.00035871
     atom    6 type  1   force =     0.00049944    0.04706931   -0.00034260
     atom    7 type  1   force =    -0.00015091    0.00003285   -0.00011861
     atom    8 type  1   force =     0.00094850    0.00000259    0.00036584
     atom    9 type  2   force =    -0.00000287   -0.00000284    0.00016737
     atom   10 type  2   force =     0.00002782   -0.00000837   -0.00046356
     atom   11 type  1   force =    -0.00001070   -0.03033790    0.00015409
     atom   12 type  1   force =    -0.00001031    0.03033919    0.00015622
     atom   13 type  1   force =     0.00017387    0.00000161    0.00036217
     atom   14 type  1   force =     0.00104377   -0.00035656    0.00012322
     atom   15 type  1   force =    -0.00007286    0.00041911    0.00089724
     atom   16 type  2   force =     0.00016702   -0.00024360   -0.00046370
     atom   17 type  2   force =    -0.00269346    0.00013570    0.00036256
     atom   18 type  1   force =     0.00045561   -0.04711364   -0.00035937
     atom   19 type  1   force =     0.00049353    0.04706832   -0.00034248
     atom   20 type  1   force =    -0.00015026    0.00002130   -0.00009846
     atom   21 type  1   force =     0.00094885    0.00000221    0.00035683
     atom   22 type  2   force =    -0.00000309   -0.00000279    0.00016734
     atom   23 type  2   force =     0.00002764   -0.00000992   -0.00047791
     atom   24 type  1   force =    -0.00001209   -0.03033788    0.00015405
     atom   25 type  1   force =    -0.00001264    0.03033922    0.00015621
     atom   26 type  1   force =     0.00017391    0.00000150    0.00036075
     atom   27 type  3   force =     0.00000926   -0.00019733    0.00091635
     atom   28 type  3   force =     0.00000614   -0.00017998   -0.00034022
     atom   29 type  3   force =    -0.00043094    0.00024084   -0.00043552
     atom   30 type  3   force =    -0.00042892    0.00023807   -0.00043627

     Total force =     0.002302     Total SCF correction =     0.000273
     SCF correction compared to forces is large: reduce conv_thr to get better values

     bfgs converged in  11 scf cycles and  10 bfgs steps
     (criteria: energy < 0.10E-03, force < 0.10E-02)

     End of BFGS Geometry Optimization

     Final energy   =   -1526.3510122689 Ry
Begin final coordinates

ATOMIC_POSITIONS (crystal)
O0       0.000000000   0.000000000   0.373775966    0   0   1
O0       0.000000000   0.500000000   0.384638104    0   0   1
Nb1      0.250000000   0.500000000   0.439901767    0   0   1
Nb1      0.000000000   0.000000000   0.446832341    0   0   1
O0       0.250000000   0.790000000   0.448414273    0   0   1
O0       0.250000000   0.210000000   0.448402494    0   0   1
O0       0.000000000   0.500000000   0.497238847    0   0   1
O0       0.000000000   0.000000000   0.527298995    0   0   1
Nb1      0.250000000   0.000000000   0.581188096    0   0   1
Nb1      0.000000000   0.500000000   0.567117430    0   0   1
O0       0.250000000   0.710000000   0.582085966    0   0   1
O0       0.250000000   0.290000000   0.582086028    0   0   1
O0       0.000000000   0.000000000   0.625676510    0   0   1
O0       0.500000000   0.000000000   0.373776393    0   0   1
O0       0.500000000   0.500000000   0.384626357    0   0   1
Nb1      0.750000000   0.500000000   0.439901802    0   0   1
Nb1      0.500000000   0.000000000   0.446832682    0   0   1
O0       0.750000000   0.790000000   0.448413725    0   0   1
O0       0.750000000   0.210000000   0.448402227    0   0   1
O0       0.500000000   0.500000000   0.497239113    0   0   1
O0       0.500000000   0.000000000   0.527299774    0   0   1
Nb1      0.750000000   0.000000000   0.581188096    0   0   1
Nb1      0.500000000   0.500000000   0.567117805    0   0   1
O0       0.750000000   0.710000000   0.582085957    0   0   1
O0       0.750000000   0.290000000   0.582086028    0   0   1
O0       0.500000000   0.000000000   0.625676600    0   0   1
H2      -0.000399626   0.502532485   0.348424637
H2       0.499600663   0.502286602   0.348435575
H2       0.152879339  -0.000581657   0.359163256
H2       0.652877887  -0.000589344   0.359163159
End final coordinates

     General routines

     Parallel routines
     Hubbard U routines

   This run was terminated on:  13:38:47   9May2014

   JOB DONE.
Running PBS batch system epilogue script
Job id: 340853.audhumbla.fysik.dtu.dk
Username: zhonxu
Groupname: campgst
Jobname: NbO2/Eads-2-layers/bare-U-5.5
Sessionid: 16265
Queuename: verylong
Accounting:
This job has allocated the following 16 nodes:
b110 b110 b110 b110 b110 b110 b110 b110 b085 b085 b085 b085 b085 b085 b085 b085
Finished epilogue job 340853.audhumbla.fysik.dtu.dk for zhonxu