     Program PWSCF v.5.0.2 (svn rev. 9656) starts on  6May2014 at 11:37:29

     Current dimensions of program PWSCF are:
     Max number of different atomic species (ntypx) = 10
     Max number of k-points (npk) =  40000
     Max angular momentum in pseudopotentials (lmaxx) =  3
     Reading input from pwscf.in
Warning: card &CELL ignored
Warning: card / ignored

     Subspace diagonalization in iterative solution of the eigenvalue problem:
     a serial algorithm will be used

     Found symmetry operation: I + ( -0.5000  0.0000  0.0000)
     This is a supercell, fractional translations are disabled

     bravais-lattice index     =            0
     lattice parameter (alat)  =      12.2076  a.u.
     unit-cell volume          =    7496.5096 (a.u.)^3
     number of atoms/cell      =           30
     number of atomic types    =            3
     number of electrons       =       240.00
     number of Kohn-Sham states=          360
     kinetic-energy cutoff     =      40.0000  Ry
     charge density cutoff     =     500.0000  Ry
     convergence threshold     =      1.0E-06
     mixing beta               =       0.7000
     number of iterations used =            8  plain     mixing
     Exchange-correlation      = SLA  PW   PBE  PBE ( 1 4 3 4 0)
     EXX-fraction              =        0.00
     nstep                     =           50

     celldm(1)=  12.207631  celldm(2)=   0.000000  celldm(3)=   0.000000
     celldm(4)=   0.000000  celldm(5)=   0.000000  celldm(6)=   0.000000

     crystal axes: (cart. coord. in units of alat)
               a(1) = (   1.000000   0.000000   0.000000 )
               a(2) = (   0.000000   1.004836   0.000000 )
               a(3) = (   0.000000   0.000000   4.100811 )

     reciprocal axes: (cart. coord. in units 2 pi/alat)
               b(1) = (  1.000000  0.000000  0.000000 )
               b(2) = (  0.000000  0.995187  0.000000 )
               b(3) = (  0.000000  0.000000  0.243854 )

     PseudoPot. # 1 for O  read from file:
     /home/camp/zhonxu/pseudo/o_pbe_v1.01.uspp.F.UPF
     MD5 check sum: 2bcb18d16ea4b960afae9ec6d52f22d2
     Pseudo is Ultrasoft + core correction, Zval =  6.0
     Generated by new atomic code, or converted to UPF format
     Using radial grid of  737 points,  5 beta functions with:
                l(1) =   0
                l(2) =   0
                l(3) =   1
                l(4) =   1
                l(5) =   2
     Q(r) pseudized with  8 coefficients,  rinner =    0.900   0.900   0.900
                                                       0.900   0.900

     PseudoPot. # 2 for Pt read from file:
     /home/camp/zhonxu/pseudo/pt_pbe_v1.uspp.F.UPF
     MD5 check sum: 4c71d6ad5ef119f1eb26a4d0b7884226
     Pseudo is Ultrasoft + core correction, Zval = 16.0
     Generated by new atomic code, or converted to UPF format
     Using radial grid of  985 points,  6 beta functions with:
                l(1) =   0
                l(2) =   0
                l(3) =   1
                l(4) =   1
                l(5) =   2
                l(6) =   2
     Q(r) pseudized with  8 coefficients,  rinner =    1.300   1.300   1.300
                                                       1.300   1.300

     PseudoPot. # 3 for H  read from file:
     /home/camp/zhonxu/pseudo/h_pbe_v1.uspp.F.UPF
     MD5 check sum: 3408e3ff4ec8b0a4e358431e7e038a48
     Pseudo is Ultrasoft, Zval =  1.0
     Generated by new atomic code, or converted to UPF format
     Using radial grid of  615 points,  2 beta functions with:
                l(1) =   0
                l(2) =   0
     Q(r) pseudized with  8 coefficients,  rinner =    0.700

     atomic species   valence    mass     pseudopotential
        O0             6.00    15.99940     O ( 1.00)
        Pt1           16.00   195.08000     Pt( 1.00)
        H2             1.00     1.00794     H ( 1.00)

     Simplified LDA+U calculation (l_max = 2) with parameters (eV):
     atomic species    L          U    alpha       J0     beta
        Pt1            2     7.5000   0.0000   0.0000   0.0000

     No symmetry found

   Cartesian axes

     site n.     atom                  positions (alat units)
         1           O0  tau(   1) = (   0.0000000   0.0000000   1.5457188  )
         2           O0  tau(   2) = (   0.0000000   0.5024180   1.6369208  )
         3           Pt1 tau(   3) = (   0.2500000   0.5024180   1.8413872  )
         4           Pt1 tau(   4) = (   0.0000000   0.0000000   1.8534436  )
         5           O0  tau(   5) = (   0.2500000   0.8139171   1.8157162  )
         6           O0  tau(   6) = (   0.2500000   0.1909188   1.8824364  )
         7           O0  tau(   7) = (   0.0000000   0.5024180   2.0315829  )
         8           O0  tau(   8) = (   0.0000000   0.0000000   2.1708464  )
         9           Pt1 tau(   9) = (   0.2500000   0.0000000   2.3625593  )
        10           Pt1 tau(  10) = (   0.0000000   0.5024180   2.3549318  )
        11           O0  tau(  11) = (   0.2500000   0.6933368   2.3911010  )
        12           O0  tau(  12) = (   0.2500000   0.3114991   2.3934384  )
        13           O0  tau(  13) = (   0.0000000   0.0000000   2.5491052  )
        14           O0  tau(  14) = (   0.5000000   0.0000000   1.5457188  )
        15           O0  tau(  15) = (   0.5000000   0.5024180   1.6369208  )
        16           Pt1 tau(  16) = (   0.7500000   0.5024180   1.8413872  )
        17           Pt1 tau(  17) = (   0.5000000   0.0000000   1.8534436  )
        18           O0  tau(  18) = (   0.7500000   0.8139171   1.8157162  )
        19           O0  tau(  19) = (   0.7500000   0.1909188   1.8824364  )
        20           O0  tau(  20) = (   0.5000000   0.5024180   2.0315829  )
        21           O0  tau(  21) = (   0.5000000   0.0000000   2.1708464  )
        22           Pt1 tau(  22) = (   0.7500000   0.0000000   2.3625593  )
        23           Pt1 tau(  23) = (   0.5000000   0.5024180   2.3549318  )
        24           O0  tau(  24) = (   0.7500000   0.6933368   2.3911010  )
        25           O0  tau(  25) = (   0.7500000   0.3114991   2.3934384  )
        26           O0  tau(  26) = (   0.5000000   0.0000000   2.5491052  )
        27           H2  tau(  27) = (  -0.0000500   0.6431553   1.5728661  )
        28           H2  tau(  28) = (   0.4999500   0.6431553   1.5728661  )
        29           H2  tau(  29) = (   0.1440700   0.0315318   1.5048747  )
        30           H2  tau(  30) = (   0.6440700   0.0315318   1.5048747  )

     number of k points=    10  Methfessel-Paxton smearing, width (Ry)=  0.0100
                       cart. coord. in units 2pi/alat
        k(    1) = (   0.0000000   0.0000000   0.0000000), wk =   0.1250000
        k(    2) = (   0.0000000   0.2487968   0.0000000), wk =   0.2500000
        k(    3) = (   0.0000000  -0.4975937   0.0000000), wk =   0.1250000
        k(    4) = (   0.2500000   0.0000000   0.0000000), wk =   0.2500000
        k(    5) = (   0.2500000   0.2487968   0.0000000), wk =   0.2500000
        k(    6) = (   0.2500000  -0.4975937   0.0000000), wk =   0.2500000
        k(    7) = (  -0.5000000   0.0000000   0.0000000), wk =   0.1250000
        k(    8) = (  -0.5000000   0.2487968   0.0000000), wk =   0.2500000
        k(    9) = (  -0.5000000  -0.4975937   0.0000000), wk =   0.1250000
        k(   10) = (  -0.2500000   0.2487968   0.0000000), wk =   0.2500000

     Largest allocated arrays     est. size (Mb)     dimensions
     Largest temporary arrays     est. size (Mb)     dimensions

     Check: negative/imaginary core charge=   -0.000003    0.000000

     Initial potential from superposition of free atoms
     Check: negative starting charge=   -1.537272

     starting charge  235.99985, renormalised to  240.00000

     negative rho (up, down):  0.156E+01 0.000E+00
     Number of +U iterations with fixed ns =  0
     Starting occupations:
 --- enter write_ns ---
 LDA+U parameters:
U( 2)     =  7.50000000
alpha( 2) =  0.00000000
atom    3   Tr[ns(na)] =   8.00000
    eigenvalues:
  0.800  0.800  0.800  0.800  0.800
    eigenvectors:
  1.000  0.000  0.000  0.000  0.000
  0.000  1.000  0.000  0.000  0.000
  0.000  0.000  1.000  0.000  0.000
  0.000  0.000  0.000  1.000  0.000
  0.000  0.000  0.000  0.000  1.000
    occupations:
  0.800  0.000  0.000  0.000  0.000
  0.000  0.800  0.000  0.000  0.000
  0.000  0.000  0.800  0.000  0.000
  0.000  0.000  0.000  0.800  0.000
  0.000  0.000  0.000  0.000  0.800
atom    4   Tr[ns(na)] =   8.00000
    eigenvalues:
  0.800  0.800  0.800  0.800  0.800
    eigenvectors:
  1.000  0.000  0.000  0.000  0.000
  0.000  1.000  0.000  0.000  0.000
  0.000  0.000  1.000  0.000  0.000
  0.000  0.000  0.000  1.000  0.000
  0.000  0.000  0.000  0.000  1.000
    occupations:
  0.800  0.000  0.000  0.000  0.000
  0.000  0.800  0.000  0.000  0.000
  0.000  0.000  0.800  0.000  0.000
  0.000  0.000  0.000  0.800  0.000
  0.000  0.000  0.000  0.000  0.800
atom    9   Tr[ns(na)] =   8.00000
    eigenvalues:
  0.800  0.800  0.800  0.800  0.800
    eigenvectors:
  1.000  0.000  0.000  0.000  0.000
  0.000  1.000  0.000  0.000  0.000
  0.000  0.000  1.000  0.000  0.000
  0.000  0.000  0.000  1.000  0.000
  0.000  0.000  0.000  0.000  1.000
    occupations:
  0.800  0.000  0.000  0.000  0.000
  0.000  0.800  0.000  0.000  0.000
  0.000  0.000  0.800  0.000  0.000
  0.000  0.000  0.000  0.800  0.000
  0.000  0.000  0.000  0.000  0.800
atom   10   Tr[ns(na)] =   8.00000
    eigenvalues:
  0.800  0.800  0.800  0.800  0.800
    eigenvectors:
  1.000  0.000  0.000  0.000  0.000
  0.000  1.000  0.000  0.000  0.000
  0.000  0.000  1.000  0.000  0.000
  0.000  0.000  0.000  1.000  0.000
  0.000  0.000  0.000  0.000  1.000
    occupations:
  0.800  0.000  0.000  0.000  0.000
  0.000  0.800  0.000  0.000  0.000
  0.000  0.000  0.800  0.000  0.000
  0.000  0.000  0.000  0.800  0.000
  0.000  0.000  0.000  0.000  0.800
atom   16   Tr[ns(na)] =   8.00000
    eigenvalues:
  0.800  0.800  0.800  0.800  0.800
    eigenvectors:
  1.000  0.000  0.000  0.000  0.000
  0.000  1.000  0.000  0.000  0.000
  0.000  0.000  1.000  0.000  0.000
  0.000  0.000  0.000  1.000  0.000
  0.000  0.000  0.000  0.000  1.000
    occupations:
  0.800  0.000  0.000  0.000  0.000
  0.000  0.800  0.000  0.000  0.000
  0.000  0.000  0.800  0.000  0.000
  0.000  0.000  0.000  0.800  0.000
  0.000  0.000  0.000  0.000  0.800
atom   17   Tr[ns(na)] =   8.00000
    eigenvalues:
  0.800  0.800  0.800  0.800  0.800
    eigenvectors:
  1.000  0.000  0.000  0.000  0.000
  0.000  1.000  0.000  0.000  0.000
  0.000  0.000  1.000  0.000  0.000
  0.000  0.000  0.000  1.000  0.000
  0.000  0.000  0.000  0.000  1.000
    occupations:
  0.800  0.000  0.000  0.000  0.000
  0.000  0.800  0.000  0.000  0.000
  0.000  0.000  0.800  0.000  0.000
  0.000  0.000  0.000  0.800  0.000
  0.000  0.000  0.000  0.000  0.800
atom   22   Tr[ns(na)] =   8.00000
    eigenvalues:
  0.800  0.800  0.800  0.800  0.800
    eigenvectors:
  1.000  0.000  0.000  0.000  0.000
  0.000  1.000  0.000  0.000  0.000
  0.000  0.000  1.000  0.000  0.000
  0.000  0.000  0.000  1.000  0.000
  0.000  0.000  0.000  0.000  1.000
    occupations:
[...]
atom    9   Tr[ns(na)] =   8.79690
    eigenvalues:
  0.731  0.738  0.968  0.973  0.989
    eigenvectors:
  0.001  0.140  0.000  0.000  0.860
  0.996  0.004  0.000  0.000  0.000
  0.000  0.000  0.000  1.000  0.000
  0.003  0.857  0.000  0.000  0.140
  0.000  0.000  1.000  0.000  0.000
    occupations:
  0.954  0.000 -0.000 -0.087  0.000
  0.000  0.731  0.000  0.000 -0.000
 -0.000  0.000  0.973 -0.001  0.000
 -0.087  0.000 -0.001  0.773  0.000
  0.000 -0.000  0.000  0.000  0.968
atom   10   Tr[ns(na)] =   8.87449
    eigenvalues:
  0.668  0.813  0.977  0.989  0.990
    eigenvectors:
  0.000  0.974  0.000  0.026  0.000
  0.000  0.000  1.000  0.000  0.000
  0.000  0.000  0.000  0.002  0.998
  0.000  0.026  0.000  0.972  0.002
  1.000  0.000  0.000  0.000  0.000
    occupations:
  0.818  0.000  0.001  0.028  0.000
  0.000  0.977 -0.000  0.000 -0.001
  0.001 -0.000  0.990 -0.000 -0.000
  0.028  0.000 -0.000  0.985 -0.000
  0.000 -0.001 -0.000 -0.000  0.668
atom   16   Tr[ns(na)] =   8.82705
    eigenvalues:
  0.716  0.728  0.987  0.990  0.992
    eigenvectors:
  0.172  0.000  0.798  0.000  0.030
  0.000  1.000  0.000  0.000  0.000
  0.004  0.000  0.048  0.000  0.947
  0.824  0.000  0.154  0.000  0.023
  0.000  0.000  0.000  1.000  0.000
    occupations:
  0.941 -0.000  0.007 -0.102  0.000
 -0.000  0.728  0.000  0.000 -0.001
  0.007  0.000  0.991  0.017 -0.000
 -0.102  0.000  0.017  0.764  0.000
  0.000 -0.001 -0.000  0.000  0.990
atom   17   Tr[ns(na)] =   8.80503
    eigenvalues:
  0.706  0.730  0.987  0.989  0.990
    eigenvectors:
  0.000  0.985  0.012  0.002  0.001
  0.012  0.000  0.023  0.924  0.040
  0.000  0.005  0.685  0.000  0.310
  0.000  0.010  0.280  0.062  0.648
  0.987  0.000  0.000  0.012  0.001
    occupations:
  0.734 -0.004 -0.018  0.025 -0.001
 -0.004  0.985  0.000  0.000  0.031
 -0.018  0.000  0.986  0.003 -0.000
  0.025  0.000  0.003  0.986  0.000
 -0.001  0.031 -0.000  0.000  0.710
atom   22   Tr[ns(na)] =   8.79690
    eigenvalues:
  0.731  0.738  0.968  0.973  0.989
    eigenvectors:
  0.001  0.140  0.000  0.000  0.860
  0.996  0.004  0.000  0.000  0.000
  0.000  0.000  0.000  1.000  0.000
  0.004  0.856  0.000  0.000  0.140
  0.000  0.000  1.000  0.000  0.000
    occupations:
  0.954  0.000 -0.000 -0.087  0.000
  0.000  0.731  0.000  0.000 -0.000
 -0.000  0.000  0.973 -0.001 -0.000
 -0.087  0.000 -0.001  0.773  0.000
  0.000 -0.000 -0.000  0.000  0.968
atom   23   Tr[ns(na)] =   8.87442
    eigenvalues:
  0.668  0.813  0.977  0.989  0.990
    eigenvectors:
  0.000  0.974  0.000  0.026  0.000
  0.000  0.000  1.000  0.000  0.000
  0.000  0.000  0.000  0.002  0.998
  0.000  0.026  0.000  0.972  0.002
  1.000  0.000  0.000  0.000  0.000
    occupations:
  0.818  0.000  0.001  0.028  0.000
  0.000  0.977 -0.000  0.000 -0.001
  0.001 -0.000  0.990 -0.000 -0.000
  0.028  0.000 -0.000  0.985 -0.000
  0.000 -0.001 -0.000 -0.000  0.668
N of occupied +U levels =  70.6068306
 --- exit write_ns ---

     Threshold (ethr) on eigenvalues was too large:
     Diagonalizing with lowered threshold

     Davidson diagonalization with overlap
     ethr =  5.08E-09,  avg # of iterations =  2.1

[...]

     total energy              =   -2246.75930763 Ry
     Harris-Foulkes estimate   =   -2246.75930764 Ry
     estimated scf accuracy    <       0.00000001 Ry

     iteration # 12     ecut=    40.00 Ry     beta=0.70
     Davidson diagonalization with overlap
     ethr =  5.56E-12,  avg # of iterations =  1.0

     negative rho (up, down):  0.158E+01 0.000E+00

     End of self-consistent calculation
 --- enter write_ns ---
 LDA+U parameters:
U( 2)     =  7.50000000
alpha( 2) =  0.00000000
atom    3   Tr[ns(na)] =   8.82655
    eigenvalues:
  0.716  0.727  0.987  0.990  0.992
    eigenvectors:
  0.172  0.000  0.798  0.000  0.030
  0.000  1.000  0.000  0.000  0.000
  0.004  0.000  0.048  0.000  0.947
  0.824  0.000  0.154  0.000  0.023
  0.000  0.000  0.000  1.000  0.000
    occupations:
  0.941 -0.000  0.007 -0.102  0.000
 -0.000  0.727  0.000  0.000 -0.001
  0.007  0.000  0.991  0.017 -0.000
 -0.102  0.000  0.017  0.764  0.000
  0.000 -0.001 -0.000  0.000  0.990
atom    4   Tr[ns(na)] =   8.80480
    eigenvalues:
  0.706  0.730  0.987  0.989  0.990
    eigenvectors:
  0.000  0.985  0.012  0.002  0.001
  0.012  0.000  0.023  0.924  0.041
  0.000  0.005  0.686  0.000  0.309
  0.000  0.010  0.279  0.063  0.648
  0.987  0.000  0.000  0.012  0.001
    occupations:
  0.734 -0.004 -0.018  0.025 -0.001
 -0.004  0.985  0.000  0.000  0.031
 -0.018  0.000  0.986  0.003 -0.000
  0.025  0.000  0.003  0.986  0.000
 -0.001  0.031 -0.000  0.000  0.710
atom    9   Tr[ns(na)] =   8.79693
    eigenvalues:
  0.731  0.738  0.968  0.973  0.989
    eigenvectors:
  0.001  0.140  0.000  0.000  0.860
  0.996  0.004  0.000  0.000  0.000
  0.000  0.000  0.000  1.000  0.000
  0.003  0.856  0.000  0.000  0.140
  0.000  0.000  1.000  0.000  0.000
    occupations:
  0.954  0.000 -0.000 -0.087  0.000
  0.000  0.731  0.000  0.000 -0.000
 -0.000  0.000  0.973 -0.001 -0.000
 -0.087  0.000 -0.001  0.773  0.000
  0.000 -0.000 -0.000  0.000  0.968
atom   10   Tr[ns(na)] =   8.87500
    eigenvalues:
  0.668  0.813  0.977  0.989  0.990
    eigenvectors:
  0.000  0.974  0.000  0.026  0.000
  0.000  0.000  1.000  0.000  0.000
  0.000  0.000  0.000  0.002  0.998
  0.000  0.026  0.000  0.972  0.002
  1.000  0.000  0.000  0.000  0.000
    occupations:
  0.818  0.000  0.001  0.028  0.000
  0.000  0.977 -0.000  0.000 -0.001
  0.001 -0.000  0.990 -0.000 -0.000
  0.028  0.000 -0.000  0.985 -0.000
  0.000 -0.001 -0.000 -0.000  0.668
atom   16   Tr[ns(na)] =   8.82655
    eigenvalues:
  0.716  0.727  0.987  0.990  0.992
    eigenvectors:
  0.172  0.000  0.798  0.000  0.030
  0.000  1.000  0.000  0.000  0.000
  0.004  0.000  0.048  0.000  0.947
  0.824  0.000  0.154  0.000  0.023
  0.000  0.000  0.000  1.000  0.000
    occupations:
  0.941 -0.000  0.007 -0.102  0.000
 -0.000  0.727  0.000  0.000 -0.001
  0.007  0.000  0.991  0.017 -0.000
 -0.102  0.000  0.017  0.764  0.000
  0.000 -0.001 -0.000  0.000  0.990
atom   17   Tr[ns(na)] =   8.80480
    eigenvalues:
  0.706  0.730  0.987  0.989  0.990
    eigenvectors:
  0.000  0.985  0.012  0.002  0.001
  0.012  0.000  0.023  0.924  0.041
  0.000  0.005  0.686  0.000  0.309
  0.000  0.010  0.279  0.063  0.648
  0.987  0.000  0.000  0.012  0.001
    occupations:
  0.734 -0.004 -0.018  0.025 -0.001
 -0.004  0.985  0.000  0.000  0.031
 -0.018  0.000  0.986  0.003 -0.000
  0.025  0.000  0.003  0.986  0.000
 -0.001  0.031 -0.000  0.000  0.710
atom   22   Tr[ns(na)] =   8.79693
    eigenvalues:
  0.731  0.738  0.968  0.973  0.989
    eigenvectors:
  0.001  0.140  0.000  0.000  0.860
  0.996  0.004  0.000  0.000  0.000
  0.000  0.000  0.000  1.000  0.000
  0.003  0.856  0.000  0.000  0.140
  0.000  0.000  1.000  0.000  0.000
    occupations:
  0.954  0.000 -0.000 -0.087  0.000
  0.000  0.731  0.000  0.000 -0.000
 -0.000  0.000  0.973 -0.001 -0.000
 -0.087  0.000 -0.001  0.773  0.000
  0.000 -0.000 -0.000  0.000  0.968
atom   23   Tr[ns(na)] =   8.87500
    eigenvalues:
  0.668  0.813  0.977  0.989  0.990
    eigenvectors:
  0.000  0.974  0.000  0.026  0.000
  0.000  0.000  1.000  0.000  0.000
  0.000  0.000  0.000  0.002  0.998
  0.000  0.026  0.000  0.972  0.002
  1.000  0.000  0.000  0.000  0.000
    occupations:
  0.818  0.000  0.001  0.028  0.000
  0.000  0.977 -0.000  0.000 -0.001
  0.001 -0.000  0.990 -0.000 -0.000
  0.028  0.000 -0.000  0.985 -0.000
  0.000 -0.001 -0.000 -0.000  0.668
N of occupied +U levels =  70.6065457
 --- exit write_ns ---

[...]

          k = 0.2500-0.4976 0.0000 ( 32026 PWs)   bands (ev):

[...]

          k =-0.2500 0.2488 0.0000 ( 32025 PWs)   bands (ev):

   -54.9919 -54.9902 -54.9644 -54.9516 -54.9488 -54.9245 -54.8509 -54.8474
   -54.8415 -54.8387 -54.7467 -54.7427 -54.6637 -54.6587 -54.6316 -54.6283
   -54.5922 -54.5870 -54.3079 -54.2670 -53.9715 -53.9664 -53.6514 -53.6486
   -22.2374 -22.1019 -21.4049 -21.3051 -21.0610 -20.9287 -20.8528 -20.7146
   -20.6769 -20.6599 -20.4927 -20.3902 -20.3705 -20.1995 -20.1389 -20.1172
   -19.4235 -19.1737 -11.5541 -11.4465 -11.4025 -11.1448 -10.9347 -10.8267
   -10.7374 -10.3507 -10.2023 -10.0999  -9.9260  -9.7867  -9.6567  -9.5484
    -9.4632  -9.4475  -9.2464  -9.2265  -9.1288  -8.8894  -8.7490  -8.6274
    -8.6197  -8.4314  -8.3897  -8.2958  -8.1131  -8.0479  -7.9362  -7.9028
    -7.8488  -7.7815  -7.5719  -7.5121  -7.3929  -7.3720  -7.3160  -7.1323
    -7.0602  -6.9095  -6.7774  -6.5065  -6.4540  -6.1771  -5.9493  -5.8209
    -5.7898  -5.6920  -5.5416  -5.4157  -5.2598  -5.1992  -4.9805  -4.8739
    -4.6646  -4.6518  -4.5346  -4.5001  -4.2668  -4.2120  -4.0682  -3.9285
    -3.7931  -3.7643  -3.7131  -3.6560  -3.3360  -3.3268  -3.0463  -2.9464
    -2.9065  -2.8284  -2.7037  -2.6604  -2.6236  -2.5295  -2.1505  -2.0692
    -1.9923  -1.6387  -1.2611  -0.7572  -0.5224  -0.4635  -0.2864   0.1775
     0.4187   0.6019   0.7326   0.9237   1.1257   1.1503   1.2814   1.5048
     3.0660   3.7077   4.5241   4.9580   5.0401   5.0584   5.1535   5.5649
     5.7115   5.9283   6.0548   6.1995   6.3716   6.4734   6.5707   6.6338
     6.7531   6.8005   7.0157   7.0823   7.2477   7.3949   7.4358   7.5026
     7.6291   7.7317   7.8012   7.9886   8.1304   8.1751   8.2555   8.3347
     8.3855   8.5188   8.5250   8.6383   8.7691   8.8777   9.0257   9.1225
     9.3066   9.3277   9.4463   9.5743   9.6183   9.7804   9.9033   9.9340
    10.0799  10.1201  10.1960  10.2182  10.4095  10.5162  10.5239  10.6285
    10.6492  10.8262  10.8460  10.9781  11.1458  11.2390  11.3388  11.4011
    11.4212  11.5673  11.6653  11.7074  11.7869  11.8121  11.9195  11.9267
    12.0097  12.1619  12.2177  12.2409  12.3133  12.3829  12.4426  12.5238
    12.5876  12.6202  12.7245  12.8114  12.8972  12.9404  13.0563  13.1130
    13.1786  13.2578  13.4093  13.5199  13.6334  13.6485  13.7088  13.8289
    13.8345  13.9010  14.0263  14.0656  14.1262  14.3199  14.3705  14.4510
    14.4690  14.6315  14.6832  14.7535  14.8491  14.9102  15.0895  15.1531
    15.2219  15.2451  15.3446  15.3563  15.4372  15.5087  15.5747  15.6217
    15.6246  15.6708  15.7671  15.8149  15.8779  15.9455  16.0281  16.0346
    16.1784  16.1793  16.2434  16.3475  16.3984  16.4984  16.6095  16.7165
    16.7720  16.8624  16.8933  17.0250  17.0626  17.1253  17.1298  17.1765
    17.2461  17.2482  17.3332  17.3818  17.4248  17.4311  17.4510  17.4677
    17.4816  17.5257  17.5342  17.5451  17.5579  17.6358  17.7087  17.7888
    17.7974  17.8869  18.0516  18.0843  18.1216  18.1943  18.2067  18.3465
    18.3825  18.3967  18.4506  18.4736  18.5380  18.6202  18.7166  18.7201
    18.7568  18.9008  18.9412  19.0085  19.0375  19.1129  19.1601  19.3020
    19.3491  19.4076  19.4091  19.5766  19.6274  19.7912  19.8405  19.8476
    19.9008  19.9476  19.9938  20.0610  20.0923  20.1111  20.2559  20.2735
    20.3111  20.3404  20.5181  20.5313  20.6788  20.6917  20.7749  20.8052
    20.8198  20.9264  20.9291  20.9987  21.0521  21.2145  21.2463  21.2572
    21.3596  21.4414  21.4427  21.5309  21.5845  21.6251  21.6622  21.7765

     the Fermi energy is    -1.9854 ev

!    total energy              =   -2246.75930763 Ry
     Harris-Foulkes estimate   =   -2246.75930764 Ry
     estimated scf accuracy    <          4.8E-09 Ry

     The total energy is the sum of the following terms:

     one-electron contribution =  -22778.22092919 Ry
     hartree contribution      =   11431.39307639 Ry
     xc contribution           =    -565.21774867 Ry
     ewald contribution        =    9663.36404306 Ry
     Hubbard energy            =       1.92331536 Ry
     smearing contrib. (-TS)   =      -0.00106459 Ry

     convergence has been achieved in  12 iterations

     Forces acting on atoms (Ry/au):

     negative rho (up, down):  0.158E+01 0.000E+00
     atom    1 type  1   force =    -0.00729417   -0.00392734   -0.00027521
     atom    2 type  1   force =     0.00007277    0.00447484    0.00058425
     atom    3 type  2   force =    -0.00047240    0.00188200   -0.00008268
     atom    4 type  2   force =     0.00956519    0.00128713    0.00012720
     atom    5 type  1   force =     0.00119859   -0.00116336   -0.00009931
     atom    6 type  1   force =     0.00020873    0.00083700    0.00022537
     atom    7 type  1   force =     0.00001568    0.00449399   -0.00003440
     atom    8 type  1   force =    -0.00390967   -0.00795763    0.00051121
     atom    9 type  2   force =     0.00175983    0.00071952   -0.00033038
     atom   10 type  2   force =    -0.00002607   -0.00119237    0.00082466
     atom   11 type  1   force =    -0.00000989   -0.00516123   -0.00062856
     atom   12 type  1   force =     0.00007665    0.00579466   -0.00049476
     atom   13 type  1   force =    -0.00105481   -0.00015045    0.00010833
     atom   14 type  1   force =    -0.00729187   -0.00392714   -0.00027019
     atom   15 type  1   force =     0.00007273    0.00447708    0.00058804
     atom   16 type  2   force =    -0.00047399    0.00188201   -0.00008264
     atom   17 type  2   force =     0.00956568    0.00128726    0.00012345
     atom   18 type  1   force =     0.00119899   -0.00116338   -0.00009920
     atom   19 type  1   force =     0.00020907    0.00083698    0.00022550
     atom   20 type  1   force =     0.00001573    0.00449405   -0.00004071
     atom   21 type  1   force =    -0.00390954   -0.00795742    0.00051586
     atom   22 type  2   force =     0.00174571    0.00071948   -0.00033049
     atom   23 type  2   force =    -0.00002592   -0.00119253    0.00083013
     atom   24 type  1   force =    -0.00001215   -0.00516126   -0.00062863
     atom   25 type  1   force =     0.00007436    0.00579469   -0.00049479
     atom   26 type  1   force =    -0.00105483   -0.00015053    0.00007510
     atom   27 type  3   force =     0.00001909   -0.00023497    0.00023569
     atom   28 type  3   force =     0.00001909   -0.00023758    0.00023724
     atom   29 type  3   force =    -0.00013975    0.00029855   -0.00066091
     atom   30 type  3   force =    -0.00014285    0.00029793   -0.00065917

     Total force =     0.002394     Total SCF correction =     0.000189

     bfgs converged in   9 scf cycles and   8 bfgs steps
     (criteria: energy < 0.10E-03, force < 0.10E-02)

     End of BFGS Geometry Optimization

     Final energy   =   -2246.7593076335 Ry
Begin final coordinates

ATOMIC_POSITIONS (crystal)
O0       0.000000000   0.000000000   0.376748865    0   0   1
O0       0.000000000   0.500000000   0.399301473    0   0   1
Pt1      0.250000000   0.500000000   0.448795396    0   0   1
Pt1      0.000000000   0.000000000   0.451841253    0   0   1
O0       0.250000000   0.810000000   0.441445265    0   0   1
O0       0.250000000   0.190000000   0.459866509    0   0   1
O0       0.000000000   0.500000000   0.495160419    0   0   1
O0       0.000000000   0.000000000   0.529357202    0   0   1
Pt1      0.250000000   0.000000000   0.575786772    0   0   1
Pt1      0.000000000   0.500000000   0.573921567    0   0   1
O0       0.250000000   0.690000000   0.583606386    0   0   1
O0       0.250000000   0.310000000   0.583938892    0   0   1
O0       0.000000000   0.000000000   0.621414896    0   0   1
O0       0.500000000   0.000000000   0.376748541    0   0   1
O0       0.500000000   0.500000000   0.399301014    0   0   1
Pt1      0.750000000   0.500000000   0.448795391    0   0   1
Pt1      0.500000000   0.000000000   0.451841261    0   0   1
O0       0.750000000   0.810000000   0.441445237    0   0   1
O0       0.750000000   0.190000000   0.459866488    0   0   1
O0       0.500000000   0.500000000   0.495160542    0   0   1
O0       0.500000000   0.000000000   0.529357488    0   0   1
Pt1      0.750000000   0.000000000   0.575786777    0   0   1
Pt1      0.500000000   0.500000000   0.573921197    0   0   1
O0       0.750000000   0.690000000   0.583606398    0   0   1
O0       0.750000000   0.310000000   0.583938900    0   0   1
O0       0.500000000   0.000000000   0.621416473    0   0   1
H2      -0.000040048   0.641506759   0.384443724
H2       0.499959952   0.641507252   0.384443375
H2       0.144402141   0.032475705   0.367301323
H2       0.644402460   0.032475524   0.367300975
End final coordinates

     General routines

     Parallel routines
     Hubbard U routines

   This run was terminated on:  20: 7: 1   6May2014

   JOB DONE.
Running PBS batch system epilogue script
Job id: 340806.audhumbla.fysik.dtu.dk
Username: zhonxu
Groupname: campgst
Jobname: PtO2/Eads-2-layers/bare-U-7.5
Sessionid: 16542
Queuename: verylong
Accounting:
This job has allocated the following 16 nodes:
a027 a027 a027 a027 a027 a027 a027 a027 a017 a017 a017 a017 a017 a017 a017 a017
Finished epilogue job 340806.audhumbla.fysik.dtu.dk for zhonxu