     Program PWSCF v.5.0.2 (svn rev. 9656) starts on 31May2014 at  6:31:45

     Current dimensions of program PWSCF are:
     Max number of different atomic species (ntypx) = 10
     Max number of k-points (npk) =  40000
     Max angular momentum in pseudopotentials (lmaxx) =  3
     Reading input from pwscf.in
Warning: card &CELL ignored
Warning: card / ignored

     Subspace diagonalization in iterative solution of the eigenvalue problem:
     a serial algorithm will be used

     bravais-lattice index     =            0
     lattice parameter (alat)  =      12.2076  a.u.
     unit-cell volume          =    7496.5096 (a.u.)^3
     number of atoms/cell      =           33
     number of atomic types    =            3
     number of electrons       =       253.00
     number of Kohn-Sham states=          379
     kinetic-energy cutoff     =      40.0000  Ry
     charge density cutoff     =     500.0000  Ry
     convergence threshold     =      1.0E-06
     mixing beta               =       0.7000
     number of iterations used =            8  plain     mixing
     Exchange-correlation      = SLA  PW   PBE  PBE ( 1 4 3 4 0)
     EXX-fraction              =        0.00
     nstep                     =           50

     celldm(1)=  12.207631  celldm(2)=   0.000000  celldm(3)=   0.000000
     celldm(4)=   0.000000  celldm(5)=   0.000000  celldm(6)=   0.000000

     crystal axes: (cart. coord. in units of alat)
               a(1) = (   1.000000   0.000000   0.000000 )
               a(2) = (   0.000000   1.004836   0.000000 )
               a(3) = (   0.000000   0.000000   4.100811 )

     reciprocal axes: (cart. coord. in units 2 pi/alat)
               b(1) = (  1.000000  0.000000  0.000000 )
               b(2) = (  0.000000  0.995187  0.000000 )
               b(3) = (  0.000000  0.000000  0.243854 )

     PseudoPot. # 1 for O  read from file:
     /home/camp/zhonxu/pseudo/o_pbe_v1.01.uspp.F.UPF
     MD5 check sum: 2bcb18d16ea4b960afae9ec6d52f22d2
     Pseudo is Ultrasoft + core correction, Zval =  6.0
     Generated by new atomic code, or converted to UPF format
     Using radial grid of  737 points,  5 beta functions with:
                l(1) =   0
                l(2) =   0
                l(3) =   1
                l(4) =   1
                l(5) =   2
     Q(r) pseudized with  8 coefficients,  rinner =    0.900   0.900   0.900
                                                       0.900   0.900

     PseudoPot. # 2 for Pt read from file:
     /home/camp/zhonxu/pseudo/pt_pbe_v1.uspp.F.UPF
     MD5 check sum: 4c71d6ad5ef119f1eb26a4d0b7884226
     Pseudo is Ultrasoft + core correction, Zval = 16.0
     Generated by new atomic code, or converted to UPF format
     Using radial grid of  985 points,  6 beta functions with:
                l(1) =   0
                l(2) =   0
                l(3) =   1
                l(4) =   1
                l(5) =   2
                l(6) =   2
     Q(r) pseudized with  8 coefficients,  rinner =    1.300   1.300   1.300
                                                       1.300   1.300

     PseudoPot. # 3 for H  read from file:
     /home/camp/zhonxu/pseudo/h_pbe_v1.uspp.F.UPF
     MD5 check sum: 3408e3ff4ec8b0a4e358431e7e038a48
     Pseudo is Ultrasoft, Zval =  1.0
     Generated by new atomic code, or converted to UPF format
     Using radial grid of  615 points,  2 beta functions with:
                l(1) =   0
                l(2) =   0
     Q(r) pseudized with  8 coefficients,  rinner =    0.700

     atomic species   valence    mass     pseudopotential
        O0             6.00    15.99940     O ( 1.00)
        Pt1           16.00   195.08000     Pt( 1.00)
        H2             1.00     1.00794     H ( 1.00)

     Simplified LDA+U calculation (l_max = 2) with parameters (eV):
     atomic species    L          U    alpha       J0     beta
        Pt1            2     4.0000   0.0000   0.0000   0.0000

     No symmetry found

   Cartesian axes

     site n.     atom                  positions (alat units)
         1           O0  tau(   1) = (   0.0000000   0.0000000   1.5494095  )
         2           O0  tau(   2) = (   0.0000000   0.5024180   1.6475009  )
         3           Pt1 tau(   3) = (   0.2500000   0.5024180   1.8504910  )
         4           Pt1 tau(   4) = (   0.0000000   0.0000000   1.8570523  )
         5           O0  tau(   5) = (   0.2500000   0.8139171   1.8187098  )
         6           O0  tau(   6) = (   0.2500000   0.1909188   1.8864142  )
         7           O0  tau(   7) = (   0.0000000   0.5024180   2.0369959  )
         8           O0  tau(   8) = (   0.0000000   0.0000000   2.1720357  )
         9           Pt1 tau(   9) = (   0.2500000   0.0000000   2.3614521  )
        10           Pt1 tau(  10) = (   0.0000000   0.5024180   2.3598528  )
        11           O0  tau(  11) = (   0.2500000   0.6933368   2.3268823  )
        12           O0  tau(  12) = (   0.2500000   0.3114991   2.4033624  )
        13           O0  tau(  13) = (   0.0000000   0.0000000   2.5482851  )
        14           O0  tau(  14) = (   0.5000000   0.0000000   1.5485073  )
        15           O0  tau(  15) = (   0.5000000   0.5024180   1.6434821  )
        16           Pt1 tau(  16) = (   0.7500000   0.5024180   1.8504910  )
        17           Pt1 tau(  17) = (   0.5000000   0.0000000   1.8561092  )
        18           O0  tau(  18) = (   0.7500000   0.8139171   1.8187918  )
        19           O0  tau(  19) = (   0.7500000   0.1909188   1.8863321  )
        20           O0  tau(  20) = (   0.5000000   0.5024180   2.0428191  )
        21           O0  tau(  21) = (   0.5000000   0.0000000   2.1708874  )
        22           Pt1 tau(  22) = (   0.7500000   0.0000000   2.3614521  )
        23           Pt1 tau(  23) = (   0.5000000   0.5024180   2.3628874  )
        24           O0  tau(  24) = (   0.7500000   0.6933368   2.3268003  )
        25           O0  tau(  25) = (   0.7500000   0.3114991   2.4034034  )
        26           O0  tau(  26) = (   0.5000000   0.0000000   2.5460296  )
        27           H2  tau(  27) = (   0.0000200   0.6429744   1.5830361  )
        28           H2  tau(  28) = (   0.5000600   0.6435874   1.5806577  )
        29           H2  tau(  29) = (   0.1433700   0.0339333   1.5082373  )
        30           H2  tau(  30) = (   0.6430800   0.0354607   1.5076632  )
        31           O0  tau(  31) = (   0.5001100   0.5589199   2.6603192  )
        32           O0  tau(  32) = (   0.4999400   0.3687346   2.7792838  )
        33           H2  tau(  33) = (   0.4999900   0.4305019   2.9192445  )

     number of k points=    10  Methfessel-Paxton smearing, width (Ry)=  0.0100
                       cart. coord. in units 2pi/alat
        k(    1) = (   0.0000000   0.0000000   0.0000000), wk =   0.1250000
        k(    2) = (   0.0000000   0.2487968   0.0000000), wk =   0.2500000
        k(    3) = (   0.0000000  -0.4975937   0.0000000), wk =   0.1250000
        k(    4) = (   0.2500000   0.0000000   0.0000000), wk =   0.2500000
        k(    5) = (   0.2500000   0.2487968   0.0000000), wk =   0.2500000
        k(    6) = (   0.2500000  -0.4975937   0.0000000), wk =   0.2500000
        k(    7) = (  -0.5000000   0.0000000   0.0000000), wk =   0.1250000
        k(    8) = (  -0.5000000   0.2487968   0.0000000), wk =   0.2500000
        k(    9) = (  -0.5000000  -0.4975937   0.0000000), wk =   0.1250000
        k(   10) = (  -0.2500000   0.2487968   0.0000000), wk =   0.2500000

     Largest allocated arrays     est. size (Mb)     dimensions
     Largest temporary arrays     est. size (Mb)     dimensions

     Check: negative/imaginary core charge=   -0.000003    0.000000

     Initial potential from superposition of free atoms
     Check: negative starting charge=   -1.535323

     starting charge  248.99983, renormalised to  253.00000

     negative rho (up, down):  0.156E+01 0.000E+00
     Number of +U iterations with fixed ns =  0
     Starting occupations:
 --- enter write_ns ---
 LDA+U parameters:
U( 2)     =  4.00000000
alpha( 2) =  0.00000000
atom    3   Tr[ns(na)] =   8.00000
    eigenvalues:
  0.800  0.800  0.800  0.800  0.800
    eigenvectors:
  1.000  0.000  0.000  0.000  0.000
  0.000  1.000  0.000  0.000  0.000
  0.000  0.000  1.000  0.000  0.000
  0.000  0.000  0.000  1.000  0.000
  0.000  0.000  0.000  0.000  1.000
    occupations:
  0.800  0.000  0.000  0.000  0.000
  0.000  0.800  0.000  0.000  0.000
  0.000  0.000  0.800  0.000  0.000
  0.000  0.000  0.000  0.800  0.000
  0.000  0.000  0.000  0.000  0.800
atom    4   Tr[ns(na)] =   8.00000
    eigenvalues:
  0.800  0.800  0.800  0.800  0.800
    eigenvectors:
  1.000  0.000  0.000  0.000  0.000
  0.000  1.000  0.000  0.000  0.000
  0.000  0.000  1.000  0.000  0.000
  0.000  0.000  0.000  1.000  0.000
  0.000  0.000  0.000  0.000  1.000
    occupations:
  0.800  0.000  0.000  0.000  0.000
  0.000  0.800  0.000  0.000  0.000
  0.000  0.000  0.800  0.000  0.000
  0.000  0.000  0.000  0.800  0.000
  0.000  0.000  0.000  0.000  0.800
atom    9   Tr[ns(na)] =   8.00000
    eigenvalues:
  0.800  0.800  0.800  0.800  0.800
    eigenvectors:
  1.000  0.000  0.000  0.000  0.000
  0.000  1.000  0.000  0.000  0.000
  0.000  0.000  1.000  0.000  0.000
  0.000  0.000  0.000  1.000  0.000
  0.000  0.000  0.000  0.000  1.000
    occupations:
  0.800  0.000  0.000  0.000  0.000
  0.000  0.800  0.000  0.000  0.000
  0.000  0.000  0.800  0.000  0.000
  0.000  0.000  0.000  0.800  0.000
  0.000  0.000  0.000  0.000  0.800
atom   10   Tr[ns(na)] =   8.00000
    eigenvalues:
  0.800  0.800  0.800  0.800  0.800
    eigenvectors:
  1.000  0.000  0.000  0.000  0.000
  0.000  1.000  0.000  0.000  0.000
  0.000  0.000  1.000  0.000  0.000
  0.000  0.000  0.000  1.000  0.000
  0.000  0.000  0.000  0.000  1.000
    occupations:
  0.800  0.000  0.000  0.000  0.000
  0.000  0.800  0.000  0.000  0.000
  0.000  0.000  0.800  0.000  0.000
  0.000  0.000  0.000  0.800  0.000
  0.000  0.000  0.000  0.000  0.800
atom   16   Tr[ns(na)] =   8.00000
    eigenvalues:
  0.800  0.800  0.800  0.800  0.800
    eigenvectors:
  1.000  0.000  0.000  0.000  0.000
  0.000  1.000  0.000  0.000  0.000
  0.000  0.000  1.000  0.000  0.000
  0.000  0.000  0.000  1.000  0.000
  0.000  0.000  0.000  0.000  1.000
    occupations:
  0.800  0.000  0.000  0.000  0.000
  0.000  0.800  0.000  0.000  0.000
  0.000  0.000  0.800  0.000  0.000
  0.000  0.000  0.000  0.800  0.000
  0.000  0.000  0.000  0.000  0.800
atom   17   Tr[ns(na)] =   8.00000
    eigenvalues:
  0.800  0.800  0.800  0.800  0.800
    eigenvectors:
  1.000  0.000  0.000  0.000  0.000
  0.000  1.000  0.000  0.000  0.000
  0.000  0.000  1.000  0.000  0.000
  0.000  0.000  0.000  1.000  0.000
  0.000  0.000  0.000  0.000  1.000
    occupations:
  0.800  0.000  0.000  0.000  0.000
  0.000  0.800  0.000  0.000  0.000
  0.000  0.000  0.800  0.000  0.000
  0.000  0.000  0.000  0.800  0.000
  0.000  0.000  0.000  0.000  0.800
atom   22   Tr[ns(na)] =   8.00000
    eigenvalues:
  0.800  0.800  0.800  0.800  0.800
    eigenvectors:
  1.000  0.000  0.000  0.000  0.000
  0.000  1.000  0.000  0.000  0.000
  0.000  0.000  1.000  0.000  0.000
[...]
  0.000 -0.037  0.000 -0.000  0.668
atom   16   Tr[ns(na)] =   8.72880
    eigenvalues:
  0.692  0.709  0.986  0.988  0.990
    eigenvectors:
  0.046  0.127  0.814  0.003  0.010
  0.761  0.238  0.000  0.000  0.000
  0.001  0.004  0.020  0.000  0.975
  0.192  0.631  0.162  0.000  0.015
  0.000  0.000  0.003  0.997  0.000
    occupations:
  0.937 -0.007  0.007 -0.106 -0.000
 -0.007  0.696 -0.001 -0.005 -0.002
  0.007 -0.001  0.989  0.018  0.000
 -0.106 -0.005  0.018  0.755 -0.001
 -0.000 -0.002  0.000 -0.001  0.988
atom   17   Tr[ns(na)] =   8.72072
    eigenvalues:
  0.691  0.714  0.983  0.986  0.987
    eigenvectors:
  0.000  0.985  0.008  0.003  0.003
  0.011  0.000  0.072  0.884  0.033
  0.000  0.005  0.824  0.035  0.136
  0.000  0.009  0.095  0.068  0.828
  0.989  0.000  0.001  0.010  0.000
    occupations:
  0.718 -0.004 -0.019  0.026 -0.001
 -0.004  0.982  0.000  0.000  0.031
 -0.019  0.000  0.982  0.003  0.000
  0.026  0.000  0.003  0.984  0.000
 -0.001  0.031  0.000  0.000  0.695
atom   22   Tr[ns(na)] =   8.70545
    eigenvalues:
  0.714  0.724  0.959  0.969  0.987
    eigenvectors:
  0.001  0.135  0.001  0.016  0.848
  0.997  0.002  0.000  0.000  0.000
  0.000  0.012  0.045  0.934  0.009
  0.002  0.851  0.000  0.004  0.143
  0.000  0.000  0.954  0.046  0.000
    occupations:
  0.951  0.002 -0.008 -0.089  0.000
  0.002  0.714  0.000 -0.000 -0.003
 -0.008  0.000  0.966 -0.025 -0.002
 -0.089 -0.000 -0.025  0.762 -0.000
  0.000 -0.003 -0.002 -0.000  0.960
atom   23   Tr[ns(na)] =   8.71563
    eigenvalues:
  0.705  0.711  0.970  0.985  0.987
    eigenvectors:
  0.000  0.958  0.000  0.033  0.009
  0.020  0.000  0.980  0.000  0.000
  0.000  0.033  0.000  0.967  0.000
  0.000  0.009  0.000  0.000  0.991
  0.980  0.000  0.020  0.000  0.000
    occupations:
  0.722  0.000  0.049  0.025 -0.000
  0.000  0.965  0.000 -0.000 -0.037
  0.049  0.000  0.976 -0.005 -0.000
  0.025 -0.000 -0.005  0.985 -0.000
 -0.000 -0.037 -0.000 -0.000  0.710
N of occupied +U levels =  69.8121488
 --- exit write_ns ---

     Threshold (ethr) on eigenvalues was too large:
     Diagonalizing with lowered threshold

     Davidson diagonalization with overlap
     ethr =  7.99E-09,  avg # of iterations =  2.0

[...]

     total energy              =   -2313.08584204 Ry
     Harris-Foulkes estimate   =   -2313.08584206 Ry
     estimated scf accuracy    <       0.00000030 Ry

     iteration # 15     ecut=    40.00 Ry     beta=0.70
     Davidson diagonalization with overlap
     ethr =  7.45E-12,  avg # of iterations =  1.0

     negative rho (up, down):  0.158E+01 0.000E+00

     End of self-consistent calculation
 --- enter write_ns ---
 LDA+U parameters:
U( 2)     =  4.00000000
alpha( 2) =  0.00000000
atom    3   Tr[ns(na)] =   8.72859
    eigenvalues:
  0.692  0.709  0.986  0.988  0.990
    eigenvectors:
  0.046  0.127  0.812  0.005  0.010
  0.762  0.238  0.000  0.000  0.000
  0.001  0.004  0.020  0.000  0.975
  0.192  0.631  0.162  0.001  0.015
  0.000  0.000  0.006  0.994  0.000
    occupations:
  0.937  0.007  0.008 -0.106  0.001
  0.007  0.696  0.002  0.005 -0.002
  0.008  0.002  0.989  0.018 -0.000
 -0.106  0.005  0.018  0.755  0.001
  0.001 -0.002 -0.000  0.001  0.988
atom    4   Tr[ns(na)] =   8.72204
    eigenvalues:
  0.692  0.714  0.983  0.986  0.987
    eigenvectors:
  0.000  0.985  0.009  0.003  0.004
  0.011  0.000  0.049  0.902  0.037
  0.000  0.005  0.854  0.021  0.120
  0.000  0.009  0.088  0.065  0.838
  0.989  0.000  0.001  0.010  0.000
    occupations:
  0.718 -0.004 -0.019  0.026 -0.001
 -0.004  0.982  0.000  0.000  0.031
 -0.019  0.000  0.982  0.003  0.000
  0.026  0.000  0.003  0.984  0.000
 -0.001  0.031  0.000  0.000  0.695
atom    9   Tr[ns(na)] =   8.70506
    eigenvalues:
  0.714  0.724  0.959  0.969  0.987
    eigenvectors:
  0.000  0.135  0.001  0.015  0.849
  0.999  0.001  0.000  0.000  0.000
  0.000  0.012  0.040  0.940  0.009
  0.001  0.852  0.000  0.004  0.143
  0.000  0.000  0.959  0.041  0.000
    occupations:
  0.951 -0.001 -0.008 -0.089 -0.000
 -0.001  0.714  0.000  0.001 -0.003
 -0.008  0.000  0.966 -0.025  0.002
 -0.089  0.001 -0.025  0.762  0.000
 -0.000 -0.003  0.002  0.000  0.960
atom   10   Tr[ns(na)] =   8.78552
    eigenvalues:
  0.663  0.774  0.983  0.985  0.989
    eigenvectors:
  0.000  0.980  0.000  0.012  0.008
  0.014  0.000  0.986  0.000  0.000
  0.000  0.001  0.000  0.201  0.798
  0.000  0.019  0.000  0.787  0.194
  0.986  0.000  0.014  0.000  0.000
    occupations:
  0.778 -0.000 -0.006  0.029  0.000
 -0.000  0.978 -0.000  0.000 -0.037
 -0.006 -0.000  0.988 -0.001  0.000
  0.029  0.000 -0.001  0.981 -0.000
  0.000 -0.037  0.000 -0.000  0.668
atom   16   Tr[ns(na)] =   8.72859
    eigenvalues:
  0.692  0.709  0.986  0.988  0.990
    eigenvectors:
  0.046  0.127  0.814  0.003  0.010
  0.760  0.240  0.000  0.000  0.000
  0.001  0.004  0.020  0.000  0.975
  0.193  0.629  0.162  0.000  0.015
  0.000  0.000  0.003  0.997  0.000
    occupations:
  0.937 -0.007  0.008 -0.106 -0.000
 -0.007  0.696 -0.001 -0.005 -0.002
  0.008 -0.001  0.989  0.018  0.000
 -0.106 -0.005  0.018  0.755 -0.001
 -0.000 -0.002  0.000 -0.001  0.988
atom   17   Tr[ns(na)] =   8.72063
    eigenvalues:
  0.691  0.714  0.983  0.986  0.987
    eigenvectors:
  0.000  0.985  0.008  0.003  0.003
  0.011  0.000  0.072  0.884  0.033
  0.000  0.005  0.825  0.035  0.135
  0.000  0.009  0.094  0.068  0.828
  0.989  0.000  0.001  0.010  0.000
    occupations:
  0.718 -0.004 -0.019  0.026 -0.001
 -0.004  0.982  0.000  0.000  0.031
 -0.019  0.000  0.982  0.003  0.000
  0.026  0.000  0.003  0.984  0.000
 -0.001  0.031  0.000  0.000  0.695
atom   22   Tr[ns(na)] =   8.70503
    eigenvalues:
  0.714  0.724  0.959  0.969  0.987
    eigenvectors:
  0.001  0.135  0.001  0.015  0.849
  0.997  0.003  0.000  0.000  0.000
  0.000  0.012  0.045  0.934  0.009
  0.002  0.851  0.000  0.004  0.143
  0.000  0.000  0.953  0.046  0.000
    occupations:
  0.951  0.002 -0.008 -0.089  0.000
  0.002  0.714  0.000 -0.000 -0.003
 -0.008  0.000  0.966 -0.025 -0.002
 -0.089 -0.000 -0.025  0.762 -0.000
  0.000 -0.003 -0.002 -0.000  0.960
atom   23   Tr[ns(na)] =   8.71515
    eigenvalues:
  0.705  0.710  0.970  0.985  0.987
    eigenvectors:
  0.000  0.958  0.000  0.033  0.009
  0.020  0.000  0.980  0.000  0.000
  0.000  0.033  0.000  0.967  0.000
  0.000  0.009  0.000  0.000  0.991
  0.980  0.000  0.020  0.000  0.000
    occupations:
  0.722  0.000  0.049  0.025 -0.000
  0.000  0.964  0.000 -0.000 -0.037
  0.049  0.000  0.976 -0.005 -0.000
  0.025 -0.000 -0.005  0.985 -0.000
 -0.000 -0.037 -0.000 -0.000  0.710
N of occupied +U levels =  69.8106096
 --- exit write_ns ---

[...]

          k = 0.2500-0.4976 0.0000 ( 32026 PWs)   bands (ev):

[...]

          k =-0.2500 0.2488 0.0000 ( 32025 PWs)   bands (ev):

   -54.8020 -54.7734 -54.7505 -54.7350 -54.7100 -54.6891 -54.6539 -54.6148
   -54.5930 -54.5898 -54.5890 -54.5850 -54.5327 -54.4389 -54.4343 -54.4169
   -54.4124 -54.3282 -54.3232 -54.3141 -54.3095 -53.9519 -53.7203 -53.3596
   -23.7868 -21.4651 -21.1843 -20.5452 -20.3892 -20.1010 -20.0233 -19.9608
   -19.8201 -19.8003 -19.6853 -19.6358 -19.5568 -19.5097 -19.3708 -19.3161
   -19.2771 -18.6052 -18.3954 -17.4286 -10.0830  -9.8675  -9.7099  -9.6949
    -9.2597  -9.2114  -9.1817  -9.0305  -8.8787  -8.8193  -8.7492  -8.6777
    -8.5782  -8.4799  -8.3733  -8.2969  -8.2406  -8.1601  -8.1006  -7.6282
    -7.5843  -7.5106  -7.3859  -7.2810  -7.2024  -7.1450  -6.9681  -6.8791
    -6.8285  -6.6094  -6.5798  -6.5242  -6.4241  -6.3121  -6.2347  -6.1657
    -6.1149  -6.0857  -5.9810  -5.8768  -5.8199  -5.7583  -5.5570  -5.3876
    -5.2780  -5.1250  -4.9925  -4.8685  -4.7516  -4.7120  -4.6261  -4.5565
    -4.5013  -4.3515  -4.2791  -4.1250  -4.0363  -3.8869  -3.7469  -3.7135
    -3.5666  -3.4513  -3.3500  -3.2478  -3.1512  -3.1357  -3.0276  -2.9469
    -2.8387  -2.7874  -2.4896  -2.4771  -2.2191  -2.0712  -1.9895  -1.8558
    -1.8008  -1.7515  -1.7039  -1.5785  -1.3111  -1.2079  -1.1455  -1.0092
    -0.4463  -0.2441  -0.1146   0.3517   0.5086   0.8396   1.0398   1.3212
     1.3982   1.5472   1.5922   1.8841   2.0298   2.0797   2.3570   3.4056
     3.7833   4.0685   4.5651   4.8796   5.1063   5.5594   5.7359   5.7856
     5.9859   6.1602   6.2919   6.4671   6.5279   6.7512   6.8680   6.9666
     7.0084   7.1386   7.2960   7.4684   7.6155   7.6606   7.7865   7.8890
     7.9610   8.0685   8.2080   8.2568   8.4317   8.4881   8.5960   8.6919
     8.8149   8.8253   8.9583   8.9815   9.1535   9.2128   9.3378   9.4231
     9.5305   9.5963   9.6855   9.7573   9.8714   9.9947  10.0200  10.1243
    10.1981  10.2952  10.3969  10.4793  10.5741  10.6497  10.7241  10.7896
    10.9501  11.0099  11.0948  11.2031  11.3192  11.3589  11.4457  11.5523
    11.6330  11.7317  11.8117  11.8751  11.9530  12.0421  12.0909  12.1544
    12.2278  12.2938  12.3791  12.4345  12.5813  12.6518  12.7303  12.7840
    12.8735  12.9047  12.9860  13.0516  13.2157  13.2873  13.3359  13.4456
    13.5419  13.6249  13.6613  13.7111  13.8069  13.8305  13.9500  14.0281
    14.1106  14.1583  14.2583  14.3967  14.4278  14.4850  14.6010  14.7214
    14.7678  14.8346  14.9300  14.9756  15.0574  15.1461  15.1885  15.2931
    15.3238  15.3370  15.3915  15.4278  15.5140  15.5738  15.6418  15.6606
    15.7681  15.8503  15.8754  15.9259  15.9803  16.0678  16.1252  16.1635
    16.2289  16.2790  16.3437  16.4308  16.5250  16.5990  16.7469  16.7796
    16.8235  16.9297  16.9905  17.0437  17.0784  17.1450  17.2046  17.2519
    17.3188  17.3405  17.4021  17.4454  17.4705  17.5076  17.5712  17.5864
    17.6098  17.6336  17.6482  17.6691  17.7182  17.7361  17.7651  17.7953
    17.9051  17.9873  18.0093  18.0895  18.1255  18.2708  18.3625  18.3832
    18.4008  18.4844  18.5421  18.6048  18.6400  18.6971  18.7490  18.8549
    18.9459  18.9869  19.0365  19.1125  19.1229  19.2092  19.3093  19.3783
    19.4497  19.5463  19.6035  19.6403  19.6994  19.8395  19.9754  20.0220
    20.0931  20.1590  20.1956  20.2381  20.2819  20.3256  20.3559  20.4199
    20.5317  20.5887  20.6363  20.7037  20.7431  20.8178  20.8263  20.8538
    20.9418  20.9843  21.0529  21.0985  21.1623  21.2274  21.3156  21.3384
    21.3981  21.5002  21.5106  21.5811  21.6144  21.6820  21.7745  21.8753
    21.9388  21.9887  22.0711  22.1446  22.1884  22.2638  22.3141  22.3408
    22.4447  22.4869  22.5330

     the Fermi energy is    -1.1273 ev

!    total energy              =   -2313.08584205 Ry
     Harris-Foulkes estimate   =   -2313.08584205 Ry
     estimated scf accuracy    <          3.9E-09 Ry

     The total energy is the sum of the following terms:

     one-electron contribution =  -24133.28475944 Ry
     hartree contribution      =   12117.68401709 Ry
     xc contribution           =    -580.02914193 Ry
     ewald contribution        =   10281.45063339 Ry
     Hubbard energy            =       1.09336465 Ry
     smearing contrib. (-TS)   =       0.00004419 Ry

     convergence has been achieved in  15 iterations

     Forces acting on atoms (Ry/au):

     negative rho (up, down):  0.158E+01 0.000E+00
     atom    1 type  1   force =    -0.00708055   -0.00350896    0.00023615
     atom    2 type  1   force =     0.00012549    0.00461384    0.00040140
     atom    3 type  2   force =     0.00740875    0.00590093   -0.00005775
     atom    4 type  2   force =     0.00965213    0.00393885    0.00035631
     atom    5 type  1   force =     0.00109054   -0.00389729    0.00028592
     atom    6 type  1   force =     0.00007039   -0.00285597    0.00007131
     atom    7 type  1   force =     0.00012188   -0.00097148    0.00046982
     atom    8 type  1   force =    -0.00396903    0.00018768    0.00054631
     atom    9 type  2   force =     0.00622930    0.00410805   -0.00008404
     atom   10 type  2   force =    -0.00006936   -0.02375587    0.00015368
     atom   11 type  1   force =    -0.00074216    0.00225822   -0.00010085
     atom   12 type  1   force =    -0.01300176    0.01105703   -0.00003567
     atom   13 type  1   force =    -0.00110413   -0.00771630   -0.00031249
     atom   14 type  1   force =    -0.00753191   -0.00334329    0.00000395
     atom   15 type  1   force =     0.00014403    0.00113328   -0.00031230
     atom   16 type  2   force =    -0.00828189    0.00599291   -0.00001764
     atom   17 type  2   force =     0.00966620    0.00544975    0.00022514
     atom   18 type  1   force =     0.00128859   -0.00392350    0.00028852
     atom   19 type  1   force =    -0.00003248   -0.00280444    0.00008683
     atom   20 type  1   force =    -0.00001132   -0.00378748   -0.00050694
     atom   21 type  1   force =    -0.00387578    0.00230584    0.00037004
     atom   22 type  2   force =    -0.00270967    0.00404241   -0.00007807
     atom   23 type  2   force =     0.00011604    0.00742872   -0.00068555
     atom   24 type  1   force =     0.00080731    0.00231993   -0.00010635
     atom   25 type  1   force =     0.01305977    0.01109476   -0.00002166
     atom   26 type  1   force =    -0.00103165   -0.01605173   -0.00037833
     atom   27 type  3   force =     0.00000181   -0.00017264    0.00006826
     atom   28 type  3   force =    -0.00000932    0.00020533    0.00009271
     atom   29 type  3   force =    -0.00022941   -0.00012970   -0.00052597
     atom   30 type  3   force =    -0.00008413   -0.00016086   -0.00035440
     atom   31 type  1   force =     0.00002403   -0.00016755    0.00075212
     atom   32 type  1   force =    -0.00005800    0.00086143   -0.00029046
     atom   33 type  3   force =     0.00001629    0.00034811   -0.00053998

     Total force =     0.002187     Total SCF correction =     0.000217

     entering subroutine stress ...

     negative rho (up, down):  0.158E+01 0.000E+00
          total   stress  (Ry/bohr**3)                   (kbar)     P=  -20.35
  -0.00022022   0.00000004   0.00000379        -32.40      0.01      0.56
   0.00000004  -0.00014301  -0.00000691          0.01    -21.04     -1.02
   0.00000379  -0.00000691  -0.00005176          0.56     -1.02     -7.61

     bfgs converged in   9 scf cycles and   8 bfgs steps
     (criteria: energy < 0.10E-03, force < 0.10E-02)

     End of BFGS Geometry Optimization

     Final energy   =   -2313.0858420482 Ry
Begin final coordinates

ATOMIC_POSITIONS (crystal)
O0       0.000000000   0.000000000   0.377582242    0   0   1
O0       0.000000000   0.500000000   0.401773962    0   0   1
Pt1      0.250000000   0.500000000   0.451318417    0   0   1
Pt1      0.000000000   0.000000000   0.452676468    0   0   1
O0       0.250000000   0.810000000   0.442671678    0   0   1
O0       0.250000000   0.190000000   0.460790179    0   0   1
O0       0.000000000   0.500000000   0.496688197    0   0   1
O0       0.000000000   0.000000000   0.529676734    0   0   1
Pt1      0.250000000   0.000000000   0.575745222    0   0   1
Pt1      0.000000000   0.500000000   0.575242918    0   0   1
O0       0.250000000   0.690000000   0.566225941    0   0   1
O0       0.250000000   0.310000000   0.586689774    0   0   1
O0       0.000000000   0.000000000   0.621385347    0   0   1
O0       0.500000000   0.000000000   0.377467195    0   0   1
O0       0.500000000   0.500000000   0.401212163    0   0   1
Pt1      0.750000000   0.500000000   0.451320959    0   0   1
Pt1      0.500000000   0.000000000   0.452540800    0   0   1
O0       0.750000000   0.810000000   0.442683744    0   0   1
O0       0.750000000   0.190000000   0.460773351    0   0   1
O0       0.500000000   0.500000000   0.498179605    0   0   1
O0       0.500000000   0.000000000   0.529467395    0   0   1
Pt1      0.750000000   0.000000000   0.575742090    0   0   1
Pt1      0.500000000   0.500000000   0.576064337    0   0   1
O0       0.750000000   0.690000000   0.566200175    0   0   1
O0       0.750000000   0.310000000   0.586673833    0   0   1
O0       0.500000000   0.000000000   0.620917239    0   0   1
H2       0.000033976   0.640987513   0.386597859
H2       0.500074338   0.640969728   0.386156281
H2       0.143904945   0.033876635   0.367987112
H2       0.643488105   0.035144245   0.367801268
O0       0.500211296   0.556602259   0.648934373
O0       0.499814751   0.367994589   0.677625785
H2       0.500016781   0.428348929   0.711917358
End final coordinates

     General routines

     Parallel routines
     Hubbard U routines

   This run was terminated on:  18:39:43  31May2014

   JOB DONE.
Running PBS batch system epilogue script
Job id: 373315.audhumbla.fysik.dtu.dk
Username: zhonxu
Groupname: campgst
Jobname: PtO2/Eads-2-layers/OOH-U-4.0
Sessionid: 11465
Queuename: verylong
Accounting:
This job has allocated the following 16 nodes:
c108 c108 c108 c108 c108 c108 c108 c108 c024 c024 c024 c024 c024 c024 c024 c024
Finished epilogue job 373315.audhumbla.fysik.dtu.dk for zhonxu