     Program PWSCF v.5.0.2 (svn rev. 9656) starts on 14Feb2014 at  9:53:21

     Current dimensions of program PWSCF are:
     Max number of different atomic species (ntypx) = 10
     Max number of k-points (npk) =  40000
     Max angular momentum in pseudopotentials (lmaxx) =  3
     Reading input from alpha_-0.15/alpha_-0.15.in
Warning: card &IONS ignored
Warning: card / ignored
Warning: card &CELL ignored
Warning: card / ignored

     Subspace diagonalization in iterative solution of the eigenvalue problem:
     a serial algorithm will be used

     bravais-lattice index     =            0
     lattice parameter (alat)  =      16.5540  a.u.
     unit-cell volume          =    3003.5358 (a.u.)^3
     number of atoms/cell      =           48
     number of atomic types    =            3
     number of electrons       =       416.00
     number of Kohn-Sham states=          600
     kinetic-energy cutoff     =      40.0000  Ry
     charge density cutoff     =     500.0000  Ry
     convergence threshold     =      1.0E-06
     mixing beta               =       0.7000
     number of iterations used =            8  plain     mixing
     Exchange-correlation      = SLA  PW   PBE  PBE ( 1 4 3 4 0)
     EXX-fraction              =        0.00

     celldm(1)=  16.554001  celldm(2)=   0.000000  celldm(3)=   0.000000
     celldm(4)=   0.000000  celldm(5)=   0.000000  celldm(6)=   0.000000

     crystal axes: (cart. coord. in units of alat)
               a(1) = (   1.000000   0.000000   0.000000 )
               a(2) = (   0.000000   1.000000   0.000000 )
               a(3) = (   0.000000   0.000000   0.662100 )

     reciprocal axes: (cart. coord. in units 2 pi/alat)
               b(1) = (  1.000000  0.000000  0.000000 )
               b(2) = (  0.000000  1.000000  0.000000 )
               b(3) = (  0.000000  0.000000  1.510345 )

     PseudoPot. # 1 for Cr read from file:
     /home/camp/zhonxu/pseudo/cr_pbe_v1.uspp.F.UPF
     MD5 check sum: 68b6f918d1762dccfb11451fe85b0e0e
     Pseudo is Ultrasoft + core correction, Zval = 14.0
     Generated by new atomic code, or converted to UPF format
     Using radial grid of  857 points,  6 beta functions with:
                l(1) =   0
                l(2) =   0
                l(3) =   1
                l(4) =   1
                l(5) =   2
                l(6) =   2
     Q(r) pseudized with  6 coefficients,  rinner =    1.000   1.000   1.000
                                                       1.000   1.000

     PseudoPot. # 2 for O  read from file:
     /home/camp/zhonxu/pseudo/o_pbe_v1.01.uspp.F.UPF
     MD5 check sum: 2bcb18d16ea4b960afae9ec6d52f22d2
     Pseudo is Ultrasoft + core correction, Zval =  6.0
     Generated by new atomic code, or converted to UPF format
     Using radial grid of  737 points,  5 beta functions with:
                l(1) =   0
                l(2) =   0
                l(3) =   1
                l(4) =   1
                l(5) =   2
     Q(r) pseudized with  8 coefficients,  rinner =    0.900   0.900   0.900
                                                       0.900   0.900

     PseudoPot. # 3 for O  read from file:
     /home/camp/zhonxu/pseudo/o_pbe_v1.01.uspp.F.UPF
     MD5 check sum: 2bcb18d16ea4b960afae9ec6d52f22d2
     Pseudo is Ultrasoft + core correction, Zval =  6.0
     Generated by new atomic code, or converted to UPF format
     Using radial grid of  737 points,  5 beta functions with:
                l(1) =   0
                l(2) =   0
                l(3) =   1
                l(4) =   1
                l(5) =   2
     Q(r) pseudized with  8 coefficients,  rinner =    0.900   0.900   0.900
                                                       0.900   0.900

     atomic species   valence    mass     pseudopotential
        Cr0           14.00    51.99600     Cr( 1.00)
        O1             6.00    15.99940     O ( 1.00)
        O2             6.00    15.99940     O ( 1.00)

     Starting magnetic structure
     atomic species   magnetization
        Cr0          0.600
        O1           0.000
        O2           0.000

     Simplified LDA+U calculation (l_max = 2) with parameters (eV):
     atomic species    L          U    alpha       J0     beta
        Cr0            2     0.0000   0.0000   0.0000   0.0000
        O1             1     0.0000  -0.1500   0.0000   0.0000
        O2             1     0.0000   0.0000   0.0000   0.0000

      4 Sym. Ops. (no inversion) found

   Cartesian axes

     site n.     atom                  positions (alat units)
         1           Cr0 tau(   1) = (  -0.1500000  -0.1500000   0.0000000  )
         2           Cr0 tau(   2) = (   0.1000000   0.1000000   0.1655251  )
         3           Cr0 tau(   3) = (  -0.1500000  -0.1500000   0.3310502  )
         4           Cr0 tau(   4) = (   0.1000000   0.1000000   0.4965753  )
         5           Cr0 tau(   5) = (  -0.1500000   0.3500000   0.0000000  )
         6           Cr0 tau(   6) = (   0.1000000   0.6000000   0.1655251  )
         7           Cr0 tau(   7) = (  -0.1500000   0.3500000   0.3310502  )
         8           Cr0 tau(   8) = (   0.1000000   0.6000000   0.4965753  )
         9           Cr0 tau(   9) = (   0.3500000  -0.1500000   0.0000000  )
        10           Cr0 tau(  10) = (   0.6000000   0.1000000   0.1655251  )
        11           Cr0 tau(  11) = (   0.3500000  -0.1500000   0.3310502  )
        12           Cr0 tau(  12) = (   0.6000000   0.1000000   0.4965753  )
        13           Cr0 tau(  13) = (   0.3500000   0.3500000   0.0000000  )
        14           Cr0 tau(  14) = (   0.6000000   0.6000000   0.1655251  )
        15           Cr0 tau(  15) = (   0.3500000   0.3500000   0.3310502  )
        16           Cr0 tau(  16) = (   0.6000000   0.6000000   0.4965753  )
        17           O1  tau(  17) = (   0.0000000   0.0000000   0.0000000  )
        18           O2  tau(  18) = (  -0.3000000  -0.3000000   0.0000000  )
        19           O2  tau(  19) = (   0.2500000  -0.0500000   0.1655251  )
        20           O2  tau(  20) = (  -0.0500000   0.2500000   0.1655251  )
        21           O2  tau(  21) = (   0.0000000   0.0000000   0.3310502  )
        22           O2  tau(  22) = (  -0.3000000  -0.3000000   0.3310502  )
        23           O2  tau(  23) = (   0.2500000  -0.0500000   0.4965753  )
        24           O2  tau(  24) = (  -0.0500000   0.2500000   0.4965753  )
        25           O2  tau(  25) = (   0.0000000   0.5000000   0.0000000  )
        26           O2  tau(  26) = (  -0.3000000   0.2000000   0.0000000  )
        27           O2  tau(  27) = (   0.2500000   0.4500000   0.1655251  )
        28           O2  tau(  28) = (  -0.0500000   0.7500000   0.1655251  )
        29           O2  tau(  29) = (   0.0000000   0.5000000   0.3310502  )
        30           O2  tau(  30) = (  -0.3000000   0.2000000   0.3310502  )
        31           O2  tau(  31) = (   0.2500000   0.4500000   0.4965753  )
        32           O2  tau(  32) = (  -0.0500000   0.7500000   0.4965753  )
        33           O2  tau(  33) = (   0.5000000   0.0000000   0.0000000  )
        34           O2  tau(  34) = (   0.2000000  -0.3000000   0.0000000  )
        35           O2  tau(  35) = (   0.7500000  -0.0500000   0.1655251  )
        36           O2  tau(  36) = (   0.4500000   0.2500000   0.1655251  )
        37           O2  tau(  37) = (   0.5000000   0.0000000   0.3310502  )
        38           O2  tau(  38) = (   0.2000000  -0.3000000   0.3310502  )
        39           O2  tau(  39) = (   0.7500000  -0.0500000   0.4965753  )
        40           O2  tau(  40) = (   0.4500000   0.2500000   0.4965753  )
        41           O2  tau(  41) = (   0.5000000   0.5000000   0.0000000  )
        42           O2  tau(  42) = (   0.2000000   0.2000000   0.0000000  )
        43           O2  tau(  43) = (   0.7500000   0.4500000   0.1655251  )
        44           O2  tau(  44) = (   0.4500000   0.7500000   0.1655251  )
        45           O2  tau(  45) = (   0.5000000   0.5000000   0.3310502  )
        46           O2  tau(  46) = (   0.2000000   0.2000000   0.3310502  )
        47           O2  tau(  47) = (   0.7500000   0.4500000   0.4965753  )
        48           O2  tau(  48) = (   0.4500000   0.7500000   0.4965753  )

     number of k points=    42  Methfessel-Paxton smearing, width (Ry)=  0.0100
                       cart. coord. in units 2pi/alat
        k(    1) = (   0.0000000   0.0000000   0.0000000), wk =   0.0156250
        k(    2) = (   0.0000000   0.0000000   0.3775862), wk =   0.0312500
        k(    3) = (   0.0000000   0.0000000  -0.7551724), wk =   0.0156250
        k(    4) = (   0.0000000   0.2500000   0.0000000), wk =   0.0625000
        k(    5) = (   0.0000000   0.2500000   0.3775862), wk =   0.1250000
        k(    6) = (   0.0000000   0.2500000  -0.7551724), wk =   0.0625000
        k(    7) = (   0.0000000  -0.5000000   0.0000000), wk =   0.0312500
        k(    8) = (   0.0000000  -0.5000000   0.3775862), wk =   0.0625000
        k(    9) = (   0.0000000  -0.5000000  -0.7551724), wk =   0.0312500
        k(   10) = (   0.2500000   0.2500000   0.0000000), wk =   0.0312500
        k(   11) = (   0.2500000   0.2500000   0.3775862), wk =   0.0625000
        k(   12) = (   0.2500000   0.2500000  -0.7551724), wk =   0.0312500
        k(   13) = (   0.2500000  -0.5000000   0.0000000), wk =   0.0625000
        k(   14) = (   0.2500000  -0.5000000   0.3775862), wk =   0.1250000
        k(   15) = (   0.2500000  -0.5000000  -0.7551724), wk =   0.0625000
        k(   16) = (  -0.5000000  -0.5000000   0.0000000), wk =   0.0156250
        k(   17) = (  -0.5000000  -0.5000000   0.3775862), wk =   0.0312500
        k(   18) = (  -0.5000000  -0.5000000  -0.7551724), wk =   0.0156250
        k(   19) = (   0.2500000  -0.2500000   0.0000000), wk =   0.0312500
        k(   20) = (   0.2500000  -0.2500000   0.3775862), wk =   0.0625000
        k(   21) = (   0.2500000  -0.2500000  -0.7551724), wk =   0.0312500
        k(   22) = (   0.0000000   0.0000000   0.0000000), wk =   0.0156250
        k(   23) = (   0.0000000   0.0000000   0.3775862), wk =   0.0312500
        k(   24) = (   0.0000000   0.0000000  -0.7551724), wk =   0.0156250
        k(   25) = (   0.0000000   0.2500000   0.0000000), wk =   0.0625000
        k(   26) = (   0.0000000   0.2500000   0.3775862), wk =   0.1250000
        k(   27) = (   0.0000000   0.2500000  -0.7551724), wk =   0.0625000
        k(   28) = (   0.0000000  -0.5000000   0.0000000), wk =   0.0312500
        k(   29) = (   0.0000000  -0.5000000   0.3775862), wk =   0.0625000
        k(   30) = (   0.0000000  -0.5000000  -0.7551724), wk =   0.0312500
        k(   31) = (   0.2500000   0.2500000   0.0000000), wk =   0.0312500
        k(   32) = (   0.2500000   0.2500000   0.3775862), wk =   0.0625000
        k(   33) = (   0.2500000   0.2500000  -0.7551724), wk =   0.0312500
        k(   34) = (   0.2500000  -0.5000000   0.0000000), wk =   0.0625000
        k(   35) = (   0.2500000  -0.5000000   0.3775862), wk =   0.1250000
        k(   36) = (   0.2500000  -0.5000000  -0.7551724), wk =   0.0625000
[...]
  0.854  0.873  0.888
    eigenvectors:
  0.000  0.000  1.000
  0.500  0.500  0.000
  0.500  0.500  0.000
    occupations:
  0.888 -0.000 -0.000
 -0.000  0.863  0.010
 -0.000  0.010  0.863
   spin  2
    eigenvalues:
  0.888  0.899  0.909
    eigenvectors:
  0.000  1.000  0.000
  0.500  0.000  0.500
  0.500  0.000  0.500
    occupations:
  0.899 -0.000 -0.000
 -0.000  0.899 -0.011
 -0.000 -0.011  0.899
atomic mag. moment =    -0.081654
atom   42   Tr[ns(na)] (up, down, total) =   2.61408  2.69607  5.31015
   spin  1
    eigenvalues:
  0.854  0.873  0.888
    eigenvectors:
  0.000  0.000  1.000
  0.500  0.500  0.000
  0.500  0.500  0.000
    occupations:
  0.888 -0.000 -0.000
 -0.000  0.863  0.010
 -0.000  0.010  0.863
   spin  2
    eigenvalues:
  0.888  0.899  0.909
    eigenvectors:
  0.000  1.000  0.000
  0.500  0.000  0.500
  0.500  0.000  0.500
    occupations:
  0.899 -0.000 -0.000
 -0.000  0.899 -0.011
 -0.000 -0.011  0.899
atomic mag. moment =    -0.081990
atom   43   Tr[ns(na)] (up, down, total) =   2.61438  2.69608  5.31046
   spin  1
    eigenvalues:
  0.854  0.873  0.888
    eigenvectors:
  0.000  0.000  1.000
  0.500  0.500  0.000
  0.500  0.500  0.000
    occupations:
  0.888  0.000  0.000
  0.000  0.863 -0.010
  0.000 -0.010  0.863
   spin  2
    eigenvalues:
  0.888  0.899  0.909
    eigenvectors:
  0.000  1.000  0.000
  0.500  0.000  0.500
  0.500  0.000  0.500
    occupations:
  0.899 -0.000  0.000
 -0.000  0.899  0.011
  0.000  0.011  0.899
atomic mag. moment =    -0.081697
atom   44   Tr[ns(na)] (up, down, total) =   2.61438  2.69608  5.31046
   spin  1
    eigenvalues:
  0.854  0.873  0.888
    eigenvectors:
  0.000  0.000  1.000
  0.500  0.500  0.000
  0.500  0.500  0.000
    occupations:
  0.888  0.000  0.000
  0.000  0.863 -0.010
  0.000 -0.010  0.863
   spin  2
    eigenvalues:
  0.888  0.899  0.909
    eigenvectors:
  0.000  1.000  0.000
  0.500  0.000  0.500
  0.500  0.000  0.500
    occupations:
  0.899  0.000 -0.000
  0.000  0.899  0.011
 -0.000  0.011  0.899
atomic mag. moment =    -0.081697
atom   45   Tr[ns(na)] (up, down, total) =   2.61451  2.69602  5.31053
   spin  1
    eigenvalues:
  0.854  0.873  0.888
    eigenvectors:
  0.000  0.000  1.000
  0.500  0.500  0.000
  0.500  0.500  0.000
    occupations:
  0.888 -0.000 -0.000
 -0.000  0.863  0.010
 -0.000  0.010  0.863
   spin  2
    eigenvalues:
  0.888  0.899  0.909
    eigenvectors:
  0.000  1.000  0.000
  0.500  0.000  0.500
  0.500  0.000  0.500
    occupations:
  0.899 -0.000 -0.000
 -0.000  0.899 -0.011
 -0.000 -0.011  0.899
atomic mag. moment =    -0.081504
atom   46   Tr[ns(na)] (up, down, total) =   2.61405  2.69634  5.31040
   spin  1
    eigenvalues:
  0.853  0.873  0.888
    eigenvectors:
  0.000  0.000  1.000
  0.500  0.500  0.000
  0.500  0.500  0.000
    occupations:
  0.888 -0.000 -0.000
 -0.000  0.863  0.010
 -0.000  0.010  0.863
   spin  2
    eigenvalues:
  0.888  0.899  0.909
    eigenvectors:
  0.000  1.000  0.000
  0.500  0.000  0.500
  0.500  0.000  0.500
    occupations:
  0.899 -0.000 -0.000
 -0.000  0.899 -0.011
 -0.000 -0.011  0.899
atomic mag. moment =    -0.082291
atom   47   Tr[ns(na)] (up, down, total) =   2.61438  2.69608  5.31046
   spin  1
    eigenvalues:
  0.854  0.873  0.888
    eigenvectors:
  0.000  0.000  1.000
  0.500  0.500  0.000
  0.500  0.500  0.000
    occupations:
  0.888 -0.000 -0.000
 -0.000  0.863 -0.010
 -0.000 -0.010  0.863
   spin  2
    eigenvalues:
  0.888  0.899  0.909
    eigenvectors:
  0.000  1.000  0.000
  0.500  0.000  0.500
  0.500  0.000  0.500
    occupations:
  0.899  0.000 -0.000
  0.000  0.899  0.011
 -0.000  0.011  0.899
atomic mag. moment =    -0.081697
atom   48   Tr[ns(na)] (up, down, total) =   2.61438  2.69608  5.31046
   spin  1
    eigenvalues:
  0.854  0.873  0.888
    eigenvectors:
  0.000  0.000  1.000
  0.500  0.500  0.000
  0.500  0.500  0.000
    occupations:
  0.888 -0.000 -0.000
 -0.000  0.863 -0.010
 -0.000 -0.010  0.863
   spin  2
    eigenvalues:
  0.888  0.899  0.909
    eigenvectors:
  0.000  1.000  0.000
  0.500  0.000  0.500
  0.500  0.000  0.500
    occupations:
  0.899 -0.000  0.000
 -0.000  0.899  0.011
  0.000  0.011  0.899
atomic mag. moment =    -0.081697
N of occupied +U levels = 245.6982208
 --- exit write_ns ---

 ------ SPIN UP ------------

          k = 0.0000 0.0000 0.0000 ( 12779 PWs)   bands (ev):

   -62.3041 -62.3037 -62.3013 -62.3006 -62.3006 -62.3005 -62.3005 -62.2979
   -62.2886 -62.2875 -62.2860 -62.2860 -62.2860 -62.2859 -62.2859 -62.2859
   -33.6962 -33.6961 -33.6930 -33.6930 -33.6887 -33.6887 -33.6886 -33.6885
   -33.6869 -33.6868 -33.6863 -33.6863 -33.6740 -33.6738 -33.6730 -33.6730
   -33.6615 -33.6615 -33.6611 -33.6610 -33.6475 -33.6469 -33.6468 -33.6467
   -33.5810 -33.5805 -33.5803 -33.5801 -33.5732 -33.5730 -33.5715 -33.5715
   -33.5509 -33.5508 -33.5499 -33.5497 -33.5492 -33.5490 -33.5488 -33.5486
   -33.4980 -33.4891 -33.4890 -33.4885 -33.4885 -33.4885 -33.4884 -33.4794
    -8.7524  -7.8439  -7.8432  -7.8429  -7.8339  -7.7586  -7.7535  -7.1556
    -7.1526  -7.1325  -7.1320  -7.1320  -7.1223  -6.9682  -6.9654  -6.9561
    -6.8977  -6.8932  -6.7591  -6.7589  -6.7585  -6.7548  -6.7500  -6.7428
    -6.7266  -6.7190  -6.6502  -6.6501  -6.6500  -6.6368  -6.5089  -6.5028
     3.3847   3.7416   3.7466   4.0486   4.2831   4.2893   4.2915   4.2918
     4.4787   4.4866   4.4930   4.4947   4.4950   4.5542   4.5572   4.5573
     4.5603   4.7742   4.7743   5.3609   5.3654   5.3656   5.3660   5.6738
     5.6771   5.6928   5.6948   5.7655   5.7681   5.8447   5.8465   5.8753
     5.8792   5.8794   5.8797   5.9332   5.9345   6.1396   6.1400   6.1445
     6.1451   6.2389   6.2398   6.2421   6.2425   6.5013   6.5023   6.5058
     6.5063   6.8839   6.8867   6.9343   6.9369   7.1126   7.1180   7.1266
     7.1296   7.2371   7.2371   7.3352   7.3358   7.3366   7.3389   7.3671
     7.3699   7.5682   7.5704   7.5715   7.5719   7.6350   7.8182   7.8229
     7.8232   7.8236   8.3155   8.3180   8.4869   8.4871   8.5958   8.5994
     8.9628   8.9634   9.2274   9.2325   9.2329   9.2334   9.5062   9.5467
     9.5470   9.5672   9.5724   9.5725   9.5730   9.6096   9.7117   9.7120
     9.8087   9.8087   9.8089   9.8090   9.9379   9.9388   9.9949  10.0463
    10.1048  10.1049  10.1313  10.1314  10.4282  10.4291  10.4293  10.4295
    10.5251  10.5981  10.5983  10.6025  10.6027  10.6030  10.6032  10.6033
    10.6036  11.0162  11.0173  11.0174  11.0175  11.0860  11.0873  11.2483
    11.2494  11.3263  11.3274  11.6077  11.6098  11.6099  11.6101  12.0152
    12.0159  12.1985  12.1997  12.2314  12.2333  12.2334  12.2334  12.5224
    12.5343  12.9513  12.9515  12.9517  12.9528  13.8974  13.8976  14.1702
    14.1703  14.1798  14.1800  14.1831  14.1844  14.5201  14.5202  14.6327
    14.6331  14.6333  14.6338  14.7569  14.7578  14.7579  14.7582  14.9740
    14.9745  14.9977  14.9981  15.6963  15.6968  15.6968  15.6969  16.2084
    18.9357  21.2874  21.2879  21.2898  21.2929  22.0827  22.0834  22.5278
    22.5284  22.6439  22.6444  23.5135  23.5136  23.5151  23.5153  23.5692
    23.5698  23.8558  23.8564  23.8863  23.8865  23.8874  23.8896  24.6665
    24.6674  25.1216  25.2195  25.2201  25.2205  25.2207  25.8262  25.8266
    26.1073  26.1077  26.1220  26.1556  26.1568  26.5549  26.5559  26.6380
    26.7812  26.7826  26.7840  26.7846  27.3007  27.3013  27.3014  27.3031
    27.6192  27.6203  27.7837  27.7837  27.7847  27.7860  28.1084  28.1087
    28.3908  28.3923  28.3923  28.3934  28.4846  28.4849  28.4894  28.4902
    28.4913  28.4915  28.7651  28.7653  28.9440  28.9442  28.9462  28.9488
    29.1733  29.4438  29.4443  29.5433  29.5448  30.2617  30.2619  30.3649
    30.4266  30.5560  30.5561  30.6635  30.6636  30.6647  30.6649  30.6698
    30.6714  32.5073  32.5073  32.5108  32.5130  32.8431  32.8434  32.8449
    32.8466  32.8659  32.8666  32.9200  32.9204  33.1084  33.1085  33.1970
    33.1970  34.1390  34.1391  34.1402  34.1411  34.4212  34.9405  34.9414
    34.9415  34.9421  35.2667  35.2683  35.4238  35.4246  35.7310  36.0646
    36.0647  36.8093  36.8095  36.8418  36.8424  37.0141  37.0152  37.3482
    37.3494  37.3501  37.3506  37.5313  37.8276  37.8279  37.8587  37.8597
    37.8601  37.8612  37.8796  38.3433  38.3445  38.9130  38.9134  38.9147
    38.9148  38.9622  38.9628  38.9637  38.9641  39.0792  39.0792  39.1359
    39.1371  39.1684  39.1688  39.1689  39.1691  39.5241  39.5249  39.5253
    39.5260  39.6333  39.6346  39.8570  40.2605  40.2607  40.5319  40.5320
    40.5328  40.5328  41.2128  41.4798  41.4815  41.8825  41.8839  42.2781
    42.3116  42.3120  42.3815  42.3817  42.3823  42.3824  42.9641  42.9643
    42.9646  42.9677  43.6786  43.6798  43.6799  43.6802  43.9663  43.9666
    44.4325  44.4334  44.5213  44.5227  44.6032  44.6050  44.6391  44.7206
    44.7208  44.7216  44.7226  45.1088  45.1098  45.1666  45.1667  45.1686
    45.1689  45.5975  45.5984  45.7617  45.7627  45.7632  45.7641  46.4809
    46.4818  46.4822  46.8869  46.8889  47.1919  47.1920  47.2012  47.2014
    47.2023  47.2051  47.4224  47.4225  47.6367  47.6373  47.6376  47.6384
    48.0737  48.0742  48.2381  48.2391  48.2398  48.2419  48.4361  48.4365
    48.6053  48.7937  48.7943  49.2330  49.2335  49.2867  49.2876  49.2888
    49.2892  49.5506  49.5508  49.5509  49.5514  49.6636  49.7594  49.7602
    49.7740  49.7746  50.2921  50.2931  50.2932  50.2941  50.3551  50.3563
    50.3716  50.3721  51.0357  51.0370  51.0378  51.0387  51.2526  51.2532
    51.5507  51.6528  51.6539  51.6539  51.6551  51.6896  51.6903  51.8927
    51.8939  51.9889  51.9891  52.3179  52.3187  52.6527  52.6536  52.6540
    52.6544  52.7344  52.7352  52.7360  52.7369  52.9913  53.0068  53.0071
    53.1229  53.1234  53.1241  53.1250  53.6623  53.6624  53.6636  53.6719
    53.6721  53.6741  53.6780  53.7759  53.7762  53.7767  53.7771  54.0094
    54.0097  54.3245  54.3262  54.3938  54.3941  54.4006  54.4015  54.5086
    54.5095  54.7081  54.7085  54.7105  54.7107  55.0368  55.2328  55.2331

[...]

          k =-0.5000-0.5000 0.0000 ( 12832 PWs)   bands (ev):

[...]

 ------ SPIN DOWN ----------

[...]

          k =-0.5000-0.5000-0.7552 ( 12816 PWs)   bands (ev):

[...]

          k = 0.2500-0.2500-0.7552 ( 12844 PWs)   bands (ev):

   -59.9802 -59.9792 -59.9787 -59.9779 -59.9775 -59.9774 -59.9771 -59.9770
   -59.9767 -59.9762 -59.9760 -59.9758 -59.9757 -59.9756 -59.9747 -59.9744
   -31.6442 -31.6435 -31.6430 -31.6429 -31.6429 -31.6425 -31.6425 -31.6425
   -31.6423 -31.6422 -31.6422 -31.6419 -31.6419 -31.6418 -31.6418 -31.6415
   -31.2757 -31.2752 -31.2752 -31.2752 -31.2747 -31.2743 -31.2739 -31.2738
   -31.2738 -31.2738 -31.2738 -31.2736 -31.2729 -31.2728 -31.2726 -31.2723
   -31.1204 -31.1202 -31.1161 -31.1158 -31.1158 -31.1156 -31.1148 -31.1147
   -31.1125 -31.1125 -31.1107 -31.1104 -31.1104 -31.1102 -31.1072 -31.1072
    -8.1126  -8.1070  -7.7589  -7.7583  -7.7582  -7.7501  -7.5585  -7.5503
    -7.3189  -7.3187  -7.2238  -7.2236  -7.2230  -7.2087  -6.8865  -6.8839
    -6.8528  -6.8526  -6.8473  -6.8418  -6.8298  -6.8296  -6.8292  -6.8132
    -6.7965  -6.7956  -6.7746  -6.7745  -6.7742  -6.7664  -6.7216  -6.7040
     4.5846   4.5946   4.6197   4.6265   4.9333   4.9339   4.9354   4.9356
     4.9389   4.9396   5.1337   5.1379   5.1649   5.1655   5.2467   5.2508
     5.3261   5.3341   5.3345   5.3346   5.3472   5.3473   5.4068   5.4128
     5.4160   5.4160   5.7311   5.7338   5.7375   5.7376   5.8077   5.8085
     6.1308   6.1314   6.1730   6.1769   6.1809   6.1810   6.3484   6.3506
     6.6869   6.6888   6.6894   6.6894   6.8111   6.8114   6.8351   6.8363
     6.8388   6.8388   7.1285   7.1350   7.2257   7.2300   7.4178   7.4184
     7.4229   7.4231   7.5417   7.5446   7.6993   7.6998   7.7009   7.7013
     7.7109   7.7120   7.8298   7.8300   8.0385   8.0391   8.1091   8.1107
     8.3214   8.3227   8.4781   8.4807   8.4811   8.4811   8.5811   8.5824
     8.7322   8.7358   8.9068   8.9093   9.0688   9.0696   9.0703   9.0705
     9.0987   9.0996   9.4506   9.4547   9.4548   9.4550   9.5949   9.5967
    12.0836  12.0836  12.2734  12.2735  12.2738  12.2742  12.5303  12.5307
    12.7499  12.7501  12.7504  12.7506  12.7751  12.7752  12.8273  12.8276
    13.0543  13.0544  13.1105  13.1105  13.1596  13.1597  13.1659  13.1661
    13.1662  13.1663  13.1980  13.1981  13.2270  13.2273  13.2409  13.2410
    13.3582  13.3583  13.3589  13.3591  13.4134  13.4136  13.5387  13.5387
    13.5391  13.5395  13.6351  13.6353  13.6354  13.6357  13.8370  13.8372
    14.6277  14.6281  14.6282  14.6300  14.8246  14.8248  15.0460  15.0465
    15.0465  15.0466  15.0530  15.0533  15.2452  15.2455  15.5127  15.5133
    15.5154  15.5162  15.7197  15.7198  15.8685  15.8687  15.8690  15.8692
    16.1416  16.1417  16.5344  16.5345  16.5347  16.5347  16.6372  16.6374
    21.0907  21.0930  22.0469  22.0477  22.0494  22.0541  22.5971  22.5997
    23.3284  23.3317  23.4317  23.4325  23.4342  23.4390  24.4402  24.4411
    24.5835  24.5863  25.0615  25.0643  25.3371  25.3383  25.3403  25.3425
    25.7500  25.7521  25.9344  25.9349  26.2277  26.2280  26.2321  26.2321
    26.3108  26.3141  26.4024  26.4041  26.4972  26.4972  26.5575  26.5591
    26.5594  26.5612  26.9405  26.9416  26.9426  26.9447  27.7315  27.7340
    28.0997  28.1017  28.1019  28.1046  28.1538  28.1550  28.4358  28.4359
    28.8112  28.8114  28.9147  28.9159  28.9162  28.9201  29.0386  29.0391
    29.0396  29.0407  29.1116  29.1123  29.2414  29.2418  29.4882  29.4907
    29.7755  29.7773  30.1029  30.1030  30.1040  30.1064  30.3565  30.3569
    30.3979  30.4011  30.8062  30.8069  30.8072  30.8082  31.2194  31.2199
    31.7816  31.7831  31.7831  31.7846  31.8779  31.8799  32.8141  32.8157
    33.1718  33.1732  33.1735  33.1751  33.6749  33.6750  33.7681  33.7684
    34.8978  34.8981  35.4678  35.4685  35.4691  35.4702  35.7779  35.7780
    35.8092  35.8094  35.8829  35.8860  36.7566  36.7580  36.8582  36.8591
    36.8597  36.8607  37.1734  37.1758  37.2376  37.2389  37.4463  37.4468
    37.4477  37.4486  38.0245  38.0252  38.0262  38.0265  38.2559  38.2573
    38.2588  38.2595  38.2595  38.2609  38.5478  38.5502  38.6585  38.6591
    39.3957  39.3971  39.4340  39.4343  39.4348  39.4372  39.8887  39.8888
    39.8901  39.8920  40.0337  40.0347  40.4560  40.4569  40.6564  40.6575
    40.6618  40.6633  40.6633  40.6641  40.9551  40.9557  41.0465  41.0475
    41.0479  41.0480  41.8599  41.8602  41.8610  41.8621  42.1874  42.1880
    42.4946  42.4958  42.4960  42.4971  42.6601  42.6606  43.3521  43.3531
    43.8535  43.8538  43.8544  43.8554  44.0313  44.0317  44.1217  44.1231
    44.5327  44.5334  44.6250  44.6259  44.9613  44.9623  44.9628  44.9637
    45.1611  45.1614  45.6009  45.6019  45.6023  45.6025  46.0449  46.0475
    46.8411  46.8427  46.8669  46.8680  46.8684  46.8698  47.1459  47.1478
    47.4015  47.4026  47.5250  47.5261  48.0496  48.0507  48.3369  48.3371
    48.3381  48.3402  48.3591  48.3602  48.3604  48.3616  48.4017  48.4019
    48.5567  48.5571  48.8730  48.8733  48.8738  48.8744  48.9914  48.9914
    49.4329  49.4330  49.7026  49.7033  49.9446  49.9456  49.9456  49.9471
    50.0427  50.0427  50.2009  50.2013  50.2019  50.2024  50.5721  50.5724
    50.7295  50.7308  50.8811  50.8811  50.8824  50.8844  50.8899  50.8903
    51.2133  51.2138  51.2139  51.2149  51.3167  51.3179  51.3580  51.3597
    51.4422  51.4427  51.6967  51.6976  51.6987  51.7002  51.9025  51.9025
    51.9044  51.9047  52.0165  52.0167  52.0272  52.0287  52.1461  52.1479
    52.5425  52.5440  52.6100  52.6105  52.6107  52.6135  52.6250  52.6252
    52.6351  52.6360  52.7741  52.7757  52.8129  52.8143  52.9523  52.9531
    52.9541  52.9556  53.4925  53.4927  53.4935  53.4936  53.6921  53.6942
    54.0837  54.0867  54.4114  54.4126  54.4133  54.4153  54.5554  54.5567
    54.5568  54.5587  54.8091  54.8100  54.9905  54.9913  55.0075  55.0088

     the Fermi energy is    11.2563 ev

!    total energy              =   -3849.39123192 Ry
     Harris-Foulkes estimate   =   -3849.39123214 Ry
     estimated scf accuracy    <       0.00000025 Ry

     The total energy is the sum of the following terms:

     one-electron contribution =   -1589.07204178 Ry
     hartree contribution      =    1012.64653630 Ry
     xc contribution           =    -596.48621208 Ry
     ewald contribution        =   -2676.42062880 Ry
     Hubbard energy            =      -0.05866638 Ry
     smearing contrib. (-TS)   =      -0.00021919 Ry

     total magnetization       =    32.00 Bohr mag/cell
     absolute magnetization    =    36.72 Bohr mag/cell

     convergence has been achieved in   9 iterations

     Writing output data file pwscf.save

     General routines

     Parallel routines
     Hubbard U routines

   This run was terminated on:  13:36:45  14Feb2014

   JOB DONE.