     Program PWSCF v.5.0.2 (svn rev. 9656) starts on 14Feb2014 at 19:16:27

     Current dimensions of program PWSCF are:
     Max number of different atomic species (ntypx) = 10
     Max number of k-points (npk) =  40000
     Max angular momentum in pseudopotentials (lmaxx) =  3
     Reading input from alpha_0.07/alpha_0.07.in
Warning: card &IONS ignored
Warning: card / ignored
Warning: card &CELL ignored
Warning: card / ignored

     Subspace diagonalization in iterative solution of the eigenvalue problem:
     a serial algorithm will be used

     bravais-lattice index     =            0
     lattice parameter (alat)  =      16.5540  a.u.
     unit-cell volume          =    3003.5358 (a.u.)^3
     number of atoms/cell      =           48
     number of atomic types    =            3
     number of electrons       =       416.00
     number of Kohn-Sham states=          600
     kinetic-energy cutoff     =      40.0000  Ry
     charge density cutoff     =     500.0000  Ry
     convergence threshold     =      1.0E-06
     mixing beta               =       0.7000
     number of iterations used =            8  plain     mixing
     Exchange-correlation      = SLA  PW   PBE  PBE ( 1 4 3 4 0)
     EXX-fraction              =        0.00

     celldm(1)=  16.554001  celldm(2)=   0.000000  celldm(3)=   0.000000
     celldm(4)=   0.000000  celldm(5)=   0.000000  celldm(6)=   0.000000

     crystal axes: (cart. coord. in units of alat)
               a(1) = (   1.000000   0.000000   0.000000 )
               a(2) = (   0.000000   1.000000   0.000000 )
               a(3) = (   0.000000   0.000000   0.662100 )

     reciprocal axes: (cart. coord. in units 2 pi/alat)
               b(1) = (  1.000000  0.000000  0.000000 )
               b(2) = (  0.000000  1.000000  0.000000 )
               b(3) = (  0.000000  0.000000  1.510345 )

     PseudoPot. # 1 for Cr read from file:
     /home/camp/zhonxu/pseudo/cr_pbe_v1.uspp.F.UPF
     MD5 check sum: 68b6f918d1762dccfb11451fe85b0e0e
     Pseudo is Ultrasoft + core correction, Zval = 14.0
     Generated by new atomic code, or converted to UPF format
     Using radial grid of  857 points,  6 beta functions with:
                l(1) =   0
                l(2) =   0
                l(3) =   1
                l(4) =   1
                l(5) =   2
                l(6) =   2
     Q(r) pseudized with  6 coefficients,  rinner =    1.000   1.000   1.000
                                                       1.000   1.000

     PseudoPot. # 2 for O  read from file:
     /home/camp/zhonxu/pseudo/o_pbe_v1.01.uspp.F.UPF
     MD5 check sum: 2bcb18d16ea4b960afae9ec6d52f22d2
     Pseudo is Ultrasoft + core correction, Zval =  6.0
     Generated by new atomic code, or converted to UPF format
     Using radial grid of  737 points,  5 beta functions with:
                l(1) =   0
                l(2) =   0
                l(3) =   1
                l(4) =   1
                l(5) =   2
     Q(r) pseudized with  8 coefficients,  rinner =    0.900   0.900   0.900
                                                       0.900   0.900

     PseudoPot. # 3 for O  read from file:
     /home/camp/zhonxu/pseudo/o_pbe_v1.01.uspp.F.UPF
     MD5 check sum: 2bcb18d16ea4b960afae9ec6d52f22d2
     Pseudo is Ultrasoft + core correction, Zval =  6.0
     Generated by new atomic code, or converted to UPF format
     Using radial grid of  737 points,  5 beta functions with:
                l(1) =   0
                l(2) =   0
                l(3) =   1
                l(4) =   1
                l(5) =   2
     Q(r) pseudized with  8 coefficients,  rinner =    0.900   0.900   0.900
                                                       0.900   0.900

     atomic species   valence    mass     pseudopotential
        Cr0           14.00    51.99600     Cr( 1.00)
        O1             6.00    15.99940     O ( 1.00)
        O2             6.00    15.99940     O ( 1.00)

     Starting magnetic structure
     atomic species   magnetization
        Cr0          0.600
        O1           0.000
        O2           0.000

     Simplified LDA+U calculation (l_max = 2) with parameters (eV):
     atomic species    L          U    alpha       J0     beta
        Cr0            2     0.0000   0.0000   0.0000   0.0000
        O1             1     0.0000   0.0700   0.0000   0.0000
        O2             1     0.0000   0.0000   0.0000   0.0000

      4 Sym. Ops. (no inversion) found

   Cartesian axes

     site n.     atom                  positions (alat units)
         1           Cr0 tau(   1) = (  -0.1500000  -0.1500000   0.0000000  )
         2           Cr0 tau(   2) = (   0.1000000   0.1000000   0.1655251  )
         3           Cr0 tau(   3) = (  -0.1500000  -0.1500000   0.3310502  )
         4           Cr0 tau(   4) = (   0.1000000   0.1000000   0.4965753  )
         5           Cr0 tau(   5) = (  -0.1500000   0.3500000   0.0000000  )
         6           Cr0 tau(   6) = (   0.1000000   0.6000000   0.1655251  )
         7           Cr0 tau(   7) = (  -0.1500000   0.3500000   0.3310502  )
         8           Cr0 tau(   8) = (   0.1000000   0.6000000   0.4965753  )
         9           Cr0 tau(   9) = (   0.3500000  -0.1500000   0.0000000  )
        10           Cr0 tau(  10) = (   0.6000000   0.1000000   0.1655251  )
        11           Cr0 tau(  11) = (   0.3500000  -0.1500000   0.3310502  )
        12           Cr0 tau(  12) = (   0.6000000   0.1000000   0.4965753  )
        13           Cr0 tau(  13) = (   0.3500000   0.3500000   0.0000000  )
        14           Cr0 tau(  14) = (   0.6000000   0.6000000   0.1655251  )
        15           Cr0 tau(  15) = (   0.3500000   0.3500000   0.3310502  )
        16           Cr0 tau(  16) = (   0.6000000   0.6000000   0.4965753  )
        17           O1  tau(  17) = (   0.0000000   0.0000000   0.0000000  )
        18           O2  tau(  18) = (  -0.3000000  -0.3000000   0.0000000  )
        19           O2  tau(  19) = (   0.2500000  -0.0500000   0.1655251  )
        20           O2  tau(  20) = (  -0.0500000   0.2500000   0.1655251  )
        21           O2  tau(  21) = (   0.0000000   0.0000000   0.3310502  )
        22           O2  tau(  22) = (  -0.3000000  -0.3000000   0.3310502  )
        23           O2  tau(  23) = (   0.2500000  -0.0500000   0.4965753  )
        24           O2  tau(  24) = (  -0.0500000   0.2500000   0.4965753  )
        25           O2  tau(  25) = (   0.0000000   0.5000000   0.0000000  )
        26           O2  tau(  26) = (  -0.3000000   0.2000000   0.0000000  )
        27           O2  tau(  27) = (   0.2500000   0.4500000   0.1655251  )
        28           O2  tau(  28) = (  -0.0500000   0.7500000   0.1655251  )
        29           O2  tau(  29) = (   0.0000000   0.5000000   0.3310502  )
        30           O2  tau(  30) = (  -0.3000000   0.2000000   0.3310502  )
        31           O2  tau(  31) = (   0.2500000   0.4500000   0.4965753  )
        32           O2  tau(  32) = (  -0.0500000   0.7500000   0.4965753  )
        33           O2  tau(  33) = (   0.5000000   0.0000000   0.0000000  )
        34           O2  tau(  34) = (   0.2000000  -0.3000000   0.0000000  )
        35           O2  tau(  35) = (   0.7500000  -0.0500000   0.1655251  )
        36           O2  tau(  36) = (   0.4500000   0.2500000   0.1655251  )
        37           O2  tau(  37) = (   0.5000000   0.0000000   0.3310502  )
        38           O2  tau(  38) = (   0.2000000  -0.3000000   0.3310502  )
        39           O2  tau(  39) = (   0.7500000  -0.0500000   0.4965753  )
        40           O2  tau(  40) = (   0.4500000   0.2500000   0.4965753  )
        41           O2  tau(  41) = (   0.5000000   0.5000000   0.0000000  )
        42           O2  tau(  42) = (   0.2000000   0.2000000   0.0000000  )
        43           O2  tau(  43) = (   0.7500000   0.4500000   0.1655251  )
        44           O2  tau(  44) = (   0.4500000   0.7500000   0.1655251  )
        45           O2  tau(  45) = (   0.5000000   0.5000000   0.3310502  )
        46           O2  tau(  46) = (   0.2000000   0.2000000   0.3310502  )
        47           O2  tau(  47) = (   0.7500000   0.4500000   0.4965753  )
        48           O2  tau(  48) = (   0.4500000   0.7500000   0.4965753  )

     number of k points=    42  Methfessel-Paxton smearing, width (Ry)=  0.0100
                       cart. coord. in units 2pi/alat
        k(    1) = (   0.0000000   0.0000000   0.0000000), wk =   0.0156250
        k(    2) = (   0.0000000   0.0000000   0.3775862), wk =   0.0312500
        k(    3) = (   0.0000000   0.0000000  -0.7551724), wk =   0.0156250
        k(    4) = (   0.0000000   0.2500000   0.0000000), wk =   0.0625000
        k(    5) = (   0.0000000   0.2500000   0.3775862), wk =   0.1250000
        k(    6) = (   0.0000000   0.2500000  -0.7551724), wk =   0.0625000
        k(    7) = (   0.0000000  -0.5000000   0.0000000), wk =   0.0312500
        k(    8) = (   0.0000000  -0.5000000   0.3775862), wk =   0.0625000
        k(    9) = (   0.0000000  -0.5000000  -0.7551724), wk =   0.0312500
        k(   10) = (   0.2500000   0.2500000   0.0000000), wk =   0.0312500
        k(   11) = (   0.2500000   0.2500000   0.3775862), wk =   0.0625000
        k(   12) = (   0.2500000   0.2500000  -0.7551724), wk =   0.0312500
        k(   13) = (   0.2500000  -0.5000000   0.0000000), wk =   0.0625000
        k(   14) = (   0.2500000  -0.5000000   0.3775862), wk =   0.1250000
        k(   15) = (   0.2500000  -0.5000000  -0.7551724), wk =   0.0625000
        k(   16) = (  -0.5000000  -0.5000000   0.0000000), wk =   0.0156250
        k(   17) = (  -0.5000000  -0.5000000   0.3775862), wk =   0.0312500
        k(   18) = (  -0.5000000  -0.5000000  -0.7551724), wk =   0.0156250
        k(   19) = (   0.2500000  -0.2500000   0.0000000), wk =   0.0312500
        k(   20) = (   0.2500000  -0.2500000   0.3775862), wk =   0.0625000
        k(   21) = (   0.2500000  -0.2500000  -0.7551724), wk =   0.0312500
        k(   22) = (   0.0000000   0.0000000   0.0000000), wk =   0.0156250
        k(   23) = (   0.0000000   0.0000000   0.3775862), wk =   0.0312500
        k(   24) = (   0.0000000   0.0000000  -0.7551724), wk =   0.0156250
        k(   25) = (   0.0000000   0.2500000   0.0000000), wk =   0.0625000
        k(   26) = (   0.0000000   0.2500000   0.3775862), wk =   0.1250000
        k(   27) = (   0.0000000   0.2500000  -0.7551724), wk =   0.0625000
        k(   28) = (   0.0000000  -0.5000000   0.0000000), wk =   0.0312500
        k(   29) = (   0.0000000  -0.5000000   0.3775862), wk =   0.0625000
        k(   30) = (   0.0000000  -0.5000000  -0.7551724), wk =   0.0312500
        k(   31) = (   0.2500000   0.2500000   0.0000000), wk =   0.0312500
        k(   32) = (   0.2500000   0.2500000   0.3775862), wk =   0.0625000
        k(   33) = (   0.2500000   0.2500000  -0.7551724), wk =   0.0312500
        k(   34) = (   0.2500000  -0.5000000   0.0000000), wk =   0.0625000
        k(   35) = (   0.2500000  -0.5000000   0.3775862), wk =   0.1250000
        k(   36) = (   0.2500000  -0.5000000  -0.7551724), wk =   0.0625000
[...]
  0.854  0.873  0.888
    eigenvectors:
  0.000  0.000  1.000
  0.500  0.500  0.000
  0.500  0.500  0.000
    occupations:
  0.888 -0.000 -0.000
 -0.000  0.863  0.010
 -0.000  0.010  0.863
   spin  2
    eigenvalues:
  0.888  0.899  0.909
    eigenvectors:
  0.000  1.000  0.000
  0.500  0.000  0.500
  0.500  0.000  0.500
    occupations:
  0.899 -0.000 -0.000
 -0.000  0.899 -0.011
 -0.000 -0.011  0.899
atomic mag. moment =    -0.081689
atom   42   Tr[ns(na)] (up, down, total) =   2.61452  2.69608  5.31060
   spin  1
    eigenvalues:
  0.854  0.873  0.888
    eigenvectors:
  0.000  0.000  1.000
  0.500  0.500  0.000
  0.500  0.500  0.000
    occupations:
  0.888 -0.000 -0.000
 -0.000  0.863  0.010
 -0.000  0.010  0.863
   spin  2
    eigenvalues:
  0.888  0.899  0.909
    eigenvectors:
  0.000  1.000  0.000
  0.500  0.000  0.500
  0.500  0.000  0.500
    occupations:
  0.899 -0.000 -0.000
 -0.000  0.899 -0.011
 -0.000 -0.011  0.899
atomic mag. moment =    -0.081557
atom   43   Tr[ns(na)] (up, down, total) =   2.61440  2.69606  5.31047
   spin  1
    eigenvalues:
  0.854  0.873  0.888
    eigenvectors:
  0.000  0.000  1.000
  0.500  0.500  0.000
  0.500  0.500  0.000
    occupations:
  0.888 -0.000 -0.000
 -0.000  0.863 -0.010
 -0.000 -0.010  0.863
   spin  2
    eigenvalues:
  0.888  0.899  0.909
    eigenvectors:
  0.000  1.000  0.000
  0.500  0.000  0.500
  0.500  0.000  0.500
    occupations:
  0.899  0.000 -0.000
  0.000  0.899  0.011
 -0.000  0.011  0.899
atomic mag. moment =    -0.081664
atom   44   Tr[ns(na)] (up, down, total) =   2.61440  2.69606  5.31047
   spin  1
    eigenvalues:
  0.854  0.873  0.888
    eigenvectors:
  0.000  0.000  1.000
  0.500  0.500  0.000
  0.500  0.500  0.000
    occupations:
  0.888 -0.000 -0.000
 -0.000  0.863 -0.010
 -0.000 -0.010  0.863
   spin  2
    eigenvalues:
  0.888  0.899  0.909
    eigenvectors:
  0.000  1.000  0.000
  0.500  0.000  0.500
  0.500  0.000  0.500
    occupations:
  0.899 -0.000  0.000
 -0.000  0.899  0.011
  0.000  0.011  0.899
atomic mag. moment =    -0.081664
atom   45   Tr[ns(na)] (up, down, total) =   2.61443  2.69615  5.31057
   spin  1
    eigenvalues:
  0.854  0.873  0.888
    eigenvectors:
  0.000  0.000  1.000
  0.500  0.500  0.000
  0.500  0.500  0.000
    occupations:
  0.888 -0.000 -0.000
 -0.000  0.863  0.010
 -0.000  0.010  0.863
   spin  2
    eigenvalues:
  0.888  0.899  0.909
    eigenvectors:
  0.000  1.000  0.000
  0.500  0.000  0.500
  0.500  0.000  0.500
    occupations:
  0.899 -0.000 -0.000
 -0.000  0.899 -0.011
 -0.000 -0.011  0.899
atomic mag. moment =    -0.081719
atom   46   Tr[ns(na)] (up, down, total) =   2.61441  2.69590  5.31031
   spin  1
    eigenvalues:
  0.854  0.873  0.888
    eigenvectors:
  0.000  0.000  1.000
  0.500  0.500  0.000
  0.500  0.500  0.000
    occupations:
  0.888 -0.000 -0.000
 -0.000  0.863  0.010
 -0.000  0.010  0.863
   spin  2
    eigenvalues:
  0.888  0.899  0.909
    eigenvectors:
  0.000  1.000  0.000
  0.500  0.000  0.500
  0.500  0.000  0.500
    occupations:
  0.899 -0.000 -0.000
 -0.000  0.899 -0.011
 -0.000 -0.011  0.899
atomic mag. moment =    -0.081484
atom   47   Tr[ns(na)] (up, down, total) =   2.61440  2.69606  5.31047
   spin  1
    eigenvalues:
  0.854  0.873  0.888
    eigenvectors:
  0.000  0.000  1.000
  0.500  0.500  0.000
  0.500  0.500  0.000
    occupations:
  0.888  0.000  0.000
  0.000  0.863 -0.010
  0.000 -0.010  0.863
   spin  2
    eigenvalues:
  0.888  0.899  0.909
    eigenvectors:
  0.000  1.000  0.000
  0.500  0.000  0.500
  0.500  0.000  0.500
    occupations:
  0.899 -0.000  0.000
 -0.000  0.899  0.011
  0.000  0.011  0.899
atomic mag. moment =    -0.081664
atom   48   Tr[ns(na)] (up, down, total) =   2.61440  2.69606  5.31047
   spin  1
    eigenvalues:
  0.854  0.873  0.888
    eigenvectors:
  0.000  0.000  1.000
  0.500  0.500  0.000
  0.500  0.500  0.000
    occupations:
  0.888  0.000  0.000
  0.000  0.863 -0.010
  0.000 -0.010  0.863
   spin  2
    eigenvalues:
  0.888  0.899  0.909
    eigenvectors:
  0.000  1.000  0.000
  0.500  0.000  0.500
  0.500  0.000  0.500
    occupations:
  0.899  0.000 -0.000
  0.000  0.899  0.011
 -0.000  0.011  0.899
atomic mag. moment =    -0.081664
N of occupied +U levels = 245.6985697
 --- exit write_ns ---

 ------ SPIN UP ------------

          k = 0.0000 0.0000 0.0000 ( 12779 PWs)   bands (ev):

   -62.3001 -62.2975 -62.2972 -62.2970 -62.2969 -62.2967 -62.2961 -62.2935
   -62.2829 -62.2829 -62.2824 -62.2824 -62.2823 -62.2822 -62.2814 -62.2812
   -33.6924 -33.6921 -33.6893 -33.6890 -33.6852 -33.6850 -33.6849 -33.6848
   -33.6832 -33.6826 -33.6825 -33.6824 -33.6703 -33.6698 -33.6692 -33.6691
   -33.6580 -33.6574 -33.6573 -33.6572 -33.6433 -33.6432 -33.6429 -33.6427
   -33.5773 -33.5766 -33.5766 -33.5764 -33.5695 -33.5691 -33.5678 -33.5676
   -33.5470 -33.5465 -33.5460 -33.5459 -33.5458 -33.5451 -33.5449 -33.5448
   -33.4943 -33.4855 -33.4852 -33.4849 -33.4848 -33.4848 -33.4847 -33.4757
    -8.7533  -7.8451  -7.8402  -7.8400  -7.8394  -7.7578  -7.7558  -7.1558
    -7.1528  -7.1338  -7.1298  -7.1297  -7.1296  -6.9685  -6.9661  -6.9577
    -6.8976  -6.8956  -6.7619  -6.7566  -6.7562  -6.7562  -6.7490  -6.7479
    -6.7254  -6.7235  -6.6518  -6.6477  -6.6474  -6.6474  -6.5086  -6.5067
     3.3921   3.7489   3.7512   4.0532   4.2945   4.2947   4.2956   4.2984
     4.4862   4.4974   4.4975   4.4985   4.5011   4.5630   4.5639   4.5654
     4.5659   4.7798   4.7798   5.3682   5.3685   5.3685   5.3708   5.6795
     5.6808   5.6985   5.6995   5.7705   5.7718   5.8520   5.8525   5.8819
     5.8822   5.8823   5.8846   5.9379   5.9388   6.1475   6.1478   6.1501
     6.1502   6.2449   6.2451   6.2462   6.2464   6.5080   6.5083   6.5100
     6.5103   6.8892   6.8906   6.9393   6.9407   7.1216   7.1230   7.1314
     7.1336   7.2430   7.2430   7.3412   7.3423   7.3428   7.3430   7.3720
     7.3735   7.5742   7.5744   7.5750   7.5761   7.6405   7.8255   7.8258
     7.8259   7.8283   8.3203   8.3214   8.4918   8.4920   8.6015   8.6033
     8.9675   8.9679   9.2353   9.2355   9.2357   9.2382   9.5105   9.5510
     9.5513   9.5746   9.5750   9.5752   9.5775   9.6126   9.7148   9.7149
     9.8118   9.8118   9.8118   9.8121   9.9422   9.9427   9.9980  10.0495
    10.1079  10.1081  10.1343  10.1346  10.4319  10.4324  10.4325  10.4329
    10.5291  10.6014  10.6016  10.6059  10.6060  10.6062  10.6066  10.6067
    10.6068  11.0203  11.0205  11.0206  11.0212  11.0899  11.0904  11.2522
    11.2529  11.3303  11.3306  11.6125  11.6130  11.6130  11.6139  12.0189
    12.0195  12.2024  12.2030  12.2362  12.2363  12.2364  12.2374  12.5255
    12.5383  12.9547  12.9551  12.9551  12.9553  13.9009  13.9012  14.1735
    14.1737  14.1832  14.1834  14.1868  14.1874  14.5236  14.5238  14.6361
    14.6367  14.6368  14.6371  14.7607  14.7610  14.7612  14.7615  14.9776
    14.9780  15.0012  15.0016  15.7000  15.7001  15.7003  15.7005  16.2120
    18.9353  21.2872  21.2887  21.2898  21.2900  22.0828  22.0831  22.5272
    22.5275  22.6435  22.6437  23.5134  23.5135  23.5143  23.5143  23.5686
    23.5689  23.8560  23.8562  23.8866  23.8874  23.8880  23.8880  24.6670
    24.6674  25.1223  25.2194  25.2195  25.2197  25.2200  25.8261  25.8263
    26.1068  26.1068  26.1209  26.1557  26.1562  26.5547  26.5552  26.6381
    26.7820  26.7823  26.7831  26.7837  27.3006  27.3013  27.3014  27.3017
    27.6191  27.6196  27.7840  27.7845  27.7849  27.7849  28.1087  28.1089
    28.3923  28.3926  28.3928  28.3934  28.4847  28.4848  28.4902  28.4903
    28.4908  28.4912  28.7654  28.7655  28.9444  28.9456  28.9466  28.9467
    29.1729  29.4445  29.4446  29.5439  29.5445  30.2621  30.2621  30.3645
    30.4272  30.5559  30.5560  30.6640  30.6643  30.6649  30.6650  30.6709
    30.6712  32.5075  32.5085  32.5104  32.5104  32.8440  32.8450  32.8456
    32.8459  32.8664  32.8665  32.9202  32.9203  33.1088  33.1088  33.1967
    33.1967  34.1396  34.1401  34.1406  34.1406  34.4208  34.9411  34.9414
    34.9415  34.9419  35.2672  35.2679  35.4242  35.4247  35.7314  36.0646
    36.0646  36.8098  36.8098  36.8421  36.8423  37.0141  37.0146  37.3491
    37.3495  37.3498  37.3503  37.5320  37.8276  37.8278  37.8591  37.8596
    37.8598  37.8602  37.8792  38.3434  38.3439  38.9137  38.9138  38.9144
    38.9145  38.9630  38.9633  38.9637  38.9639  39.0793  39.0793  39.1362
    39.1368  39.1687  39.1689  39.1689  39.1691  39.5246  39.5249  39.5250
    39.5254  39.6337  39.6343  39.8575  40.2607  40.2608  40.5322  40.5322
    40.5326  40.5326  41.2134  41.4798  41.4806  41.8829  41.8835  42.2785
    42.3118  42.3119  42.3821  42.3824  42.3825  42.3828  42.9641  42.9654
    42.9656  42.9657  43.6795  43.6796  43.6796  43.6802  43.9663  43.9665
    44.4324  44.4328  44.5217  44.5223  44.6038  44.6045  44.6387  44.7206
    44.7211  44.7215  44.7216  45.1091  45.1096  45.1668  45.1670  45.1679
    45.1680  45.5978  45.5982  45.7628  45.7632  45.7633  45.7639  46.4810
    46.4819  46.4821  46.8875  46.8884  47.1923  47.1923  47.2014  47.2026
    47.2030  47.2031  47.4226  47.4227  47.6372  47.6376  47.6377  47.6379
    48.0738  48.0740  48.2393  48.2403  48.2406  48.2410  48.4361  48.4364
    48.6053  48.7936  48.7938  49.2332  49.2334  49.2871  49.2873  49.2879
    49.2884  49.5507  49.5509  49.5510  49.5511  49.6636  49.7599  49.7602
    49.7741  49.7743  50.2929  50.2933  50.2934  50.2938  50.3553  50.3558
    50.3724  50.3726  51.0367  51.0371  51.0374  51.0381  51.2523  51.2526
    51.5509  51.6534  51.6539  51.6540  51.6545  51.6900  51.6903  51.8927
    51.8932  51.9890  51.9891  52.3180  52.3184  52.6535  52.6537  52.6538
    52.6543  52.7352  52.7355  52.7360  52.7363  52.9910  53.0066  53.0067
    53.1236  53.1239  53.1242  53.1245  53.6623  53.6623  53.6639  53.6718
    53.6735  53.6747  53.6748  53.7760  53.7762  53.7764  53.7766  54.0099
    54.0101  54.3251  54.3258  54.3941  54.3943  54.4004  54.4008  54.5094
    54.5097  54.7091  54.7091  54.7099  54.7102  55.0363  55.2326  55.2328

[...]

          k =-0.5000-0.5000 0.0000 ( 12832 PWs)   bands (ev):

[...]

 ------ SPIN DOWN ----------

[...]

          k =-0.5000-0.5000-0.7552 ( 12816 PWs)   bands (ev):

[...]

          k = 0.2500-0.2500-0.7552 ( 12844 PWs)   bands (ev):

   -59.9750 -59.9749 -59.9740 -59.9738 -59.9736 -59.9735 -59.9732 -59.9731
   -59.9724 -59.9723 -59.9720 -59.9718 -59.9718 -59.9715 -59.9706 -59.9699
   -31.6401 -31.6400 -31.6391 -31.6391 -31.6389 -31.6388 -31.6386 -31.6386
   -31.6385 -31.6385 -31.6384 -31.6384 -31.6380 -31.6380 -31.6380 -31.6377
   -31.2716 -31.2714 -31.2713 -31.2713 -31.2708 -31.2708 -31.2707 -31.2707
   -31.2703 -31.2702 -31.2701 -31.2693 -31.2692 -31.2690 -31.2688 -31.2688
   -31.1167 -31.1167 -31.1125 -31.1124 -31.1121 -31.1120 -31.1112 -31.1111
   -31.1091 -31.1090 -31.1071 -31.1070 -31.1067 -31.1067 -31.1038 -31.1037
    -8.1118  -8.1089  -7.7595  -7.7552  -7.7549  -7.7547  -7.5593  -7.5551
    -7.3162  -7.3161  -7.2277  -7.2205  -7.2197  -7.2197  -6.8866  -6.8836
    -6.8535  -6.8502  -6.8482  -6.8440  -6.8310  -6.8269  -6.8264  -6.8262
    -6.7942  -6.7940  -6.7742  -6.7719  -6.7716  -6.7715  -6.7226  -6.7183
     4.5976   4.6006   4.6298   4.6342   4.9381   4.9381   4.9389   4.9391
     4.9426   4.9429   5.1421   5.1440   5.1685   5.1688   5.2535   5.2551
     5.3372   5.3373   5.3375   5.3405   5.3534   5.3541   5.4189   5.4189
     5.4206   5.4234   5.7406   5.7406   5.7425   5.7439   5.8118   5.8122
     6.1380   6.1385   6.1840   6.1840   6.1863   6.1881   6.3533   6.3544
     6.6917   6.6917   6.6921   6.6929   6.8142   6.8143   6.8414   6.8414
     6.8426   6.8432   7.1381   7.1409   7.2335   7.2357   7.4256   7.4258
     7.4280   7.4284   7.5480   7.5493   7.7035   7.7038   7.7042   7.7046
     7.7146   7.7151   7.8326   7.8326   8.0451   8.0453   8.1152   8.1159
     8.3254   8.3261   8.4844   8.4844   8.4844   8.4856   8.5850   8.5856
     8.7388   8.7405   8.9125   8.9137   9.0734   9.0736   9.0739   9.0741
     9.1031   9.1036   9.4576   9.4579   9.4581   9.4599   9.5995   9.6004
    12.0865  12.0866  12.2765  12.2766  12.2767  12.2768  12.5333  12.5335
    12.7531  12.7532  12.7532  12.7534  12.7780  12.7780  12.8299  12.8301
    13.0571  13.0571  13.1136  13.1136  13.1628  13.1629  13.1691  13.1693
    13.1695  13.1695  13.2012  13.2013  13.2300  13.2303  13.2440  13.2441
    13.3613  13.3614  13.3616  13.3617  13.4165  13.4167  13.5420  13.5422
    13.5422  13.5422  13.6385  13.6385  13.6386  13.6388  13.8404  13.8405
    14.6309  14.6316  14.6317  14.6320  14.8279  14.8280  15.0495  15.0495
    15.0499  15.0500  15.0564  15.0564  15.2485  15.2485  15.5163  15.5167
    15.5190  15.5193  15.7227  15.7229  15.8720  15.8721  15.8724  15.8725
    16.1450  16.1451  16.5377  16.5378  16.5381  16.5381  16.6407  16.6407
    21.0907  21.0918  22.0467  22.0489  22.0499  22.0503  22.5970  22.5982
    23.3287  23.3303  23.4314  23.4336  23.4346  23.4350  24.4397  24.4401
    24.5847  24.5861  25.0624  25.0637  25.3376  25.3386  25.3397  25.3403
    25.7502  25.7512  25.9346  25.9349  26.2286  26.2286  26.2308  26.2309
    26.3108  26.3124  26.4028  26.4036  26.4963  26.4963  26.5588  26.5596
    26.5598  26.5606  26.9412  26.9422  26.9426  26.9432  27.7319  27.7331
    28.1002  28.1015  28.1017  28.1026  28.1539  28.1544  28.4364  28.4365
    28.8115  28.8117  28.9151  28.9169  28.9172  28.9178  29.0387  29.0393
    29.0395  29.0398  29.1122  29.1125  29.2416  29.2417  29.4887  29.4899
    29.7760  29.7768  30.1035  30.1046  30.1051  30.1051  30.3567  30.3569
    30.3987  30.4002  30.8073  30.8078  30.8079  30.8082  31.2196  31.2198
    31.7825  31.7832  31.7833  31.7840  31.8788  31.8798  32.8148  32.8155
    33.1727  33.1734  33.1736  33.1742  33.6756  33.6757  33.7688  33.7690
    34.8980  34.8981  35.4687  35.4692  35.4695  35.4698  35.7786  35.7787
    35.8092  35.8093  35.8834  35.8848  36.7570  36.7577  36.8587  36.8592
    36.8596  36.8600  37.1735  37.1746  37.2384  37.2390  37.4467  37.4471
    37.4476  37.4478  38.0254  38.0256  38.0260  38.0264  38.2559  38.2567
    38.2593  38.2600  38.2601  38.2602  38.5483  38.5494  38.6589  38.6592
    39.3964  39.3971  39.4339  39.4350  39.4352  39.4353  39.8887  39.8896
    39.8902  39.8903  40.0340  40.0345  40.4562  40.4566  40.6575  40.6580
    40.6625  40.6628  40.6629  40.6636  40.9555  40.9558  41.0465  41.0468
    41.0477  41.0477  41.8603  41.8608  41.8612  41.8613  42.1873  42.1876
    42.4952  42.4958  42.4959  42.4964  42.6607  42.6609  43.3522  43.3526
    43.8540  43.8545  43.8548  43.8549  44.0310  44.0311  44.1214  44.1221
    44.5327  44.5331  44.6254  44.6258  44.9621  44.9625  44.9628  44.9633
    45.1613  45.1615  45.6015  45.6016  45.6018  45.6022  46.0454  46.0467
    46.8414  46.8422  46.8677  46.8684  46.8686  46.8692  47.1463  47.1472
    47.4020  47.4026  47.5254  47.5260  48.0505  48.0509  48.3371  48.3382
    48.3387  48.3388  48.3596  48.3601  48.3602  48.3606  48.4018  48.4020
    48.5565  48.5567  48.8736  48.8739  48.8741  48.8743  48.9918  48.9919
    49.4325  49.4326  49.7032  49.7035  49.9447  49.9455  49.9455  49.9460
    50.0428  50.0428  50.2013  50.2016  50.2019  50.2021  50.5720  50.5722
    50.7300  50.7306  50.8813  50.8822  50.8828  50.8829  50.8908  50.8910
    51.2134  51.2139  51.2140  51.2142  51.3167  51.3173  51.3588  51.3596
    51.4416  51.4419  51.6972  51.6979  51.6983  51.6988  51.9033  51.9034
    51.9043  51.9044  52.0172  52.0173  52.0267  52.0275  52.1462  52.1471
    52.5430  52.5437  52.6100  52.6113  52.6113  52.6116  52.6257  52.6258
    52.6357  52.6362  52.7739  52.7747  52.8132  52.8138  52.9531  52.9538
    52.9543  52.9547  53.4929  53.4930  53.4933  53.4934  53.6927  53.6938
    54.0839  54.0853  54.4120  54.4129  54.4132  54.4138  54.5561  54.5570
    54.5571  54.5577  54.8100  54.8104  54.9906  54.9911  55.0082  55.0088

     the Fermi energy is    11.2599 ev

!    total energy              =   -3849.30531573 Ry
     Harris-Foulkes estimate   =   -3849.30531654 Ry
     estimated scf accuracy    <       0.00000091 Ry

     The total energy is the sum of the following terms:

     one-electron contribution =   -1589.09538404 Ry
     hartree contribution      =    1012.66970887 Ry
     xc contribution           =    -596.48608822 Ry
     ewald contribution        =   -2676.42062880 Ry
     Hubbard energy            =       0.02729562 Ry
     smearing contrib. (-TS)   =      -0.00021917 Ry

     total magnetization       =    32.00 Bohr mag/cell
     absolute magnetization    =    36.72 Bohr mag/cell

     convergence has been achieved in   6 iterations

     Writing output data file pwscf.save

     General routines

     Parallel routines
     Hubbard U routines

   This run was terminated on:  22:11: 8  14Feb2014

   JOB DONE.