     Program PWSCF v.5.0.2 (svn rev. 9656) starts on 14Feb2014 at 22:13:25

     Current dimensions of program PWSCF are:
     Max number of different atomic species (ntypx) = 10
     Max number of k-points (npk) =  40000
     Max angular momentum in pseudopotentials (lmaxx) =  3
     Reading input from alpha_0.15/alpha_0.15.in
Warning: card &IONS ignored
Warning: card / ignored
Warning: card &CELL ignored
Warning: card / ignored

     Subspace diagonalization in iterative solution of the eigenvalue problem:
     a serial algorithm will be used

     bravais-lattice index     =            0
     lattice parameter (alat)  =      16.5540  a.u.
     unit-cell volume          =    3003.5358 (a.u.)^3
     number of atoms/cell      =           48
     number of atomic types    =            3
     number of electrons       =       416.00
     number of Kohn-Sham states=          600
     kinetic-energy cutoff     =      40.0000  Ry
     charge density cutoff     =     500.0000  Ry
     convergence threshold     =      1.0E-06
     mixing beta               =       0.7000
     number of iterations used =            8  plain     mixing
     Exchange-correlation      = SLA  PW   PBE  PBE ( 1 4 3 4 0)
     EXX-fraction              =        0.00

     celldm(1)=  16.554001  celldm(2)=   0.000000  celldm(3)=   0.000000
     celldm(4)=   0.000000  celldm(5)=   0.000000  celldm(6)=   0.000000

     crystal axes: (cart. coord. in units of alat)
               a(1) = (   1.000000   0.000000   0.000000 )
               a(2) = (   0.000000   1.000000   0.000000 )
               a(3) = (   0.000000   0.000000   0.662100 )

     reciprocal axes: (cart. coord. in units 2 pi/alat)
               b(1) = (  1.000000  0.000000  0.000000 )
               b(2) = (  0.000000  1.000000  0.000000 )
               b(3) = (  0.000000  0.000000  1.510345 )

     PseudoPot. # 1 for Cr read from file:
     /home/camp/zhonxu/pseudo/cr_pbe_v1.uspp.F.UPF
     MD5 check sum: 68b6f918d1762dccfb11451fe85b0e0e
     Pseudo is Ultrasoft + core correction, Zval = 14.0
     Generated by new atomic code, or converted to UPF format
     Using radial grid of  857 points,  6 beta functions with:
                l(1) =   0
                l(2) =   0
                l(3) =   1
                l(4) =   1
                l(5) =   2
                l(6) =   2
     Q(r) pseudized with  6 coefficients,  rinner =    1.000   1.000   1.000
                                                       1.000   1.000

     PseudoPot. # 2 for O  read from file:
     /home/camp/zhonxu/pseudo/o_pbe_v1.01.uspp.F.UPF
     MD5 check sum: 2bcb18d16ea4b960afae9ec6d52f22d2
     Pseudo is Ultrasoft + core correction, Zval =  6.0
     Generated by new atomic code, or converted to UPF format
     Using radial grid of  737 points,  5 beta functions with:
                l(1) =   0
                l(2) =   0
                l(3) =   1
                l(4) =   1
                l(5) =   2
     Q(r) pseudized with  8 coefficients,  rinner =    0.900   0.900   0.900
                                                       0.900   0.900

     PseudoPot. # 3 for O  read from file:
     /home/camp/zhonxu/pseudo/o_pbe_v1.01.uspp.F.UPF
     MD5 check sum: 2bcb18d16ea4b960afae9ec6d52f22d2
     Pseudo is Ultrasoft + core correction, Zval =  6.0
     Generated by new atomic code, or converted to UPF format
     Using radial grid of  737 points,  5 beta functions with:
                l(1) =   0
                l(2) =   0
                l(3) =   1
                l(4) =   1
                l(5) =   2
     Q(r) pseudized with  8 coefficients,  rinner =    0.900   0.900   0.900
                                                       0.900   0.900

     atomic species   valence    mass     pseudopotential
        Cr0           14.00    51.99600     Cr( 1.00)
        O1             6.00    15.99940     O ( 1.00)
        O2             6.00    15.99940     O ( 1.00)

     Starting magnetic structure
     atomic species   magnetization
        Cr0          0.600
        O1           0.000
        O2           0.000

     Simplified LDA+U calculation (l_max = 2) with parameters (eV):
     atomic species    L          U    alpha       J0     beta
        Cr0            2     0.0000   0.0000   0.0000   0.0000
        O1             1     0.0000   0.1500   0.0000   0.0000
        O2             1     0.0000   0.0000   0.0000   0.0000

      4 Sym. Ops. (no inversion) found

   Cartesian axes

     site n.     atom                  positions (alat units)
         1           Cr0 tau(   1) = (  -0.1500000  -0.1500000   0.0000000  )
         2           Cr0 tau(   2) = (   0.1000000   0.1000000   0.1655251  )
         3           Cr0 tau(   3) = (  -0.1500000  -0.1500000   0.3310502  )
         4           Cr0 tau(   4) = (   0.1000000   0.1000000   0.4965753  )
         5           Cr0 tau(   5) = (  -0.1500000   0.3500000   0.0000000  )
         6           Cr0 tau(   6) = (   0.1000000   0.6000000   0.1655251  )
         7           Cr0 tau(   7) = (  -0.1500000   0.3500000   0.3310502  )
         8           Cr0 tau(   8) = (   0.1000000   0.6000000   0.4965753  )
         9           Cr0 tau(   9) = (   0.3500000  -0.1500000   0.0000000  )
        10           Cr0 tau(  10) = (   0.6000000   0.1000000   0.1655251  )
        11           Cr0 tau(  11) = (   0.3500000  -0.1500000   0.3310502  )
        12           Cr0 tau(  12) = (   0.6000000   0.1000000   0.4965753  )
        13           Cr0 tau(  13) = (   0.3500000   0.3500000   0.0000000  )
        14           Cr0 tau(  14) = (   0.6000000   0.6000000   0.1655251  )
        15           Cr0 tau(  15) = (   0.3500000   0.3500000   0.3310502  )
        16           Cr0 tau(  16) = (   0.6000000   0.6000000   0.4965753  )
        17           O1  tau(  17) = (   0.0000000   0.0000000   0.0000000  )
        18           O2  tau(  18) = (  -0.3000000  -0.3000000   0.0000000  )
        19           O2  tau(  19) = (   0.2500000  -0.0500000   0.1655251  )
        20           O2  tau(  20) = (  -0.0500000   0.2500000   0.1655251  )
        21           O2  tau(  21) = (   0.0000000   0.0000000   0.3310502  )
        22           O2  tau(  22) = (  -0.3000000  -0.3000000   0.3310502  )
        23           O2  tau(  23) = (   0.2500000  -0.0500000   0.4965753  )
        24           O2  tau(  24) = (  -0.0500000   0.2500000   0.4965753  )
        25           O2  tau(  25) = (   0.0000000   0.5000000   0.0000000  )
        26           O2  tau(  26) = (  -0.3000000   0.2000000   0.0000000  )
        27           O2  tau(  27) = (   0.2500000   0.4500000   0.1655251  )
        28           O2  tau(  28) = (  -0.0500000   0.7500000   0.1655251  )
        29           O2  tau(  29) = (   0.0000000   0.5000000   0.3310502  )
        30           O2  tau(  30) = (  -0.3000000   0.2000000   0.3310502  )
        31           O2  tau(  31) = (   0.2500000   0.4500000   0.4965753  )
        32           O2  tau(  32) = (  -0.0500000   0.7500000   0.4965753  )
        33           O2  tau(  33) = (   0.5000000   0.0000000   0.0000000  )
        34           O2  tau(  34) = (   0.2000000  -0.3000000   0.0000000  )
        35           O2  tau(  35) = (   0.7500000  -0.0500000   0.1655251  )
        36           O2  tau(  36) = (   0.4500000   0.2500000   0.1655251  )
        37           O2  tau(  37) = (   0.5000000   0.0000000   0.3310502  )
        38           O2  tau(  38) = (   0.2000000  -0.3000000   0.3310502  )
        39           O2  tau(  39) = (   0.7500000  -0.0500000   0.4965753  )
        40           O2  tau(  40) = (   0.4500000   0.2500000   0.4965753  )
        41           O2  tau(  41) = (   0.5000000   0.5000000   0.0000000  )
        42           O2  tau(  42) = (   0.2000000   0.2000000   0.0000000  )
        43           O2  tau(  43) = (   0.7500000   0.4500000   0.1655251  )
        44           O2  tau(  44) = (   0.4500000   0.7500000   0.1655251  )
        45           O2  tau(  45) = (   0.5000000   0.5000000   0.3310502  )
        46           O2  tau(  46) = (   0.2000000   0.2000000   0.3310502  )
        47           O2  tau(  47) = (   0.7500000   0.4500000   0.4965753  )
        48           O2  tau(  48) = (   0.4500000   0.7500000   0.4965753  )

     number of k points=    42  Methfessel-Paxton smearing, width (Ry)=  0.0100
                       cart. coord. in units 2pi/alat
        k(    1) = (   0.0000000   0.0000000   0.0000000), wk =   0.0156250
        k(    2) = (   0.0000000   0.0000000   0.3775862), wk =   0.0312500
        k(    3) = (   0.0000000   0.0000000  -0.7551724), wk =   0.0156250
        k(    4) = (   0.0000000   0.2500000   0.0000000), wk =   0.0625000
        k(    5) = (   0.0000000   0.2500000   0.3775862), wk =   0.1250000
        k(    6) = (   0.0000000   0.2500000  -0.7551724), wk =   0.0625000
        k(    7) = (   0.0000000  -0.5000000   0.0000000), wk =   0.0312500
        k(    8) = (   0.0000000  -0.5000000   0.3775862), wk =   0.0625000
        k(    9) = (   0.0000000  -0.5000000  -0.7551724), wk =   0.0312500
        k(   10) = (   0.2500000   0.2500000   0.0000000), wk =   0.0312500
        k(   11) = (   0.2500000   0.2500000   0.3775862), wk =   0.0625000
        k(   12) = (   0.2500000   0.2500000  -0.7551724), wk =   0.0312500
        k(   13) = (   0.2500000  -0.5000000   0.0000000), wk =   0.0625000
        k(   14) = (   0.2500000  -0.5000000   0.3775862), wk =   0.1250000
        k(   15) = (   0.2500000  -0.5000000  -0.7551724), wk =   0.0625000
        k(   16) = (  -0.5000000  -0.5000000   0.0000000), wk =   0.0156250
        k(   17) = (  -0.5000000  -0.5000000   0.3775862), wk =   0.0312500
        k(   18) = (  -0.5000000  -0.5000000  -0.7551724), wk =   0.0156250
        k(   19) = (   0.2500000  -0.2500000   0.0000000), wk =   0.0312500
        k(   20) = (   0.2500000  -0.2500000   0.3775862), wk =   0.0625000
        k(   21) = (   0.2500000  -0.2500000  -0.7551724), wk =   0.0312500
        k(   22) = (   0.0000000   0.0000000   0.0000000), wk =   0.0156250
        k(   23) = (   0.0000000   0.0000000   0.3775862), wk =   0.0312500
        k(   24) = (   0.0000000   0.0000000  -0.7551724), wk =   0.0156250
        k(   25) = (   0.0000000   0.2500000   0.0000000), wk =   0.0625000
        k(   26) = (   0.0000000   0.2500000   0.3775862), wk =   0.1250000
        k(   27) = (   0.0000000   0.2500000  -0.7551724), wk =   0.0625000
        k(   28) = (   0.0000000  -0.5000000   0.0000000), wk =   0.0312500
        k(   29) = (   0.0000000  -0.5000000   0.3775862), wk =   0.0625000
        k(   30) = (   0.0000000  -0.5000000  -0.7551724), wk =   0.0312500
        k(   31) = (   0.2500000   0.2500000   0.0000000), wk =   0.0312500
        k(   32) = (   0.2500000   0.2500000   0.3775862), wk =   0.0625000
        k(   33) = (   0.2500000   0.2500000  -0.7551724), wk =   0.0312500
        k(   34) = (   0.2500000  -0.5000000   0.0000000), wk =   0.0625000
        k(   35) = (   0.2500000  -0.5000000   0.3775862), wk =   0.1250000
        k(   36) = (   0.2500000  -0.5000000  -0.7551724), wk =   0.0625000
[...]
  0.854  0.873  0.888
    eigenvectors:
  0.000  0.000  1.000
  0.500  0.500  0.000
  0.500  0.500  0.000
    occupations:
  0.888 -0.000 -0.000
 -0.000  0.863  0.010
 -0.000  0.010  0.863
   spin  2
    eigenvalues:
  0.888  0.899  0.909
    eigenvectors:
  0.000  1.000  0.000
  0.500  0.000  0.500
  0.500  0.000  0.500
    occupations:
  0.899 -0.000 -0.000
 -0.000  0.899 -0.011
 -0.000 -0.011  0.899
atomic mag. moment =    -0.081702
atom   42   Tr[ns(na)] (up, down, total) =   2.61471  2.69608  5.31079
   spin  1
    eigenvalues:
  0.854  0.873  0.888
    eigenvectors:
  0.000  0.000  1.000
  0.500  0.500  0.000
  0.500  0.500  0.000
    occupations:
  0.888 -0.000 -0.000
 -0.000  0.863  0.010
 -0.000  0.010  0.863
   spin  2
    eigenvalues:
  0.888  0.899  0.909
    eigenvectors:
  0.000  1.000  0.000
  0.500  0.000  0.500
  0.500  0.000  0.500
    occupations:
  0.899 -0.000 -0.000
 -0.000  0.899 -0.011
 -0.000 -0.011  0.899
atomic mag. moment =    -0.081371
atom   43   Tr[ns(na)] (up, down, total) =   2.61440  2.69607  5.31047
   spin  1
    eigenvalues:
  0.854  0.873  0.888
    eigenvectors:
  0.000  0.000  1.000
  0.500  0.500  0.000
  0.500  0.500  0.000
    occupations:
  0.888 -0.000 -0.000
 -0.000  0.863 -0.010
 -0.000 -0.010  0.863
   spin  2
    eigenvalues:
  0.888  0.899  0.909
    eigenvectors:
  0.000  1.000  0.000
  0.500  0.000  0.500
  0.500  0.000  0.500
    occupations:
  0.899  0.000 -0.000
  0.000  0.899  0.011
 -0.000  0.011  0.899
atomic mag. moment =    -0.081671
atom   44   Tr[ns(na)] (up, down, total) =   2.61440  2.69607  5.31047
   spin  1
    eigenvalues:
  0.854  0.873  0.888
    eigenvectors:
  0.000  0.000  1.000
  0.500  0.500  0.000
  0.500  0.500  0.000
    occupations:
  0.888 -0.000 -0.000
 -0.000  0.863 -0.010
 -0.000 -0.010  0.863
   spin  2
    eigenvalues:
  0.888  0.899  0.909
    eigenvectors:
  0.000  1.000  0.000
  0.500  0.000  0.500
  0.500  0.000  0.500
    occupations:
  0.899 -0.000  0.000
 -0.000  0.899  0.011
  0.000  0.011  0.899
atomic mag. moment =    -0.081671
atom   45   Tr[ns(na)] (up, down, total) =   2.61428  2.69613  5.31042
   spin  1
    eigenvalues:
  0.854  0.873  0.888
    eigenvectors:
  0.000  0.000  1.000
  0.500  0.500  0.000
  0.500  0.500  0.000
    occupations:
  0.888 -0.000 -0.000
 -0.000  0.863  0.010
 -0.000  0.010  0.863
   spin  2
    eigenvalues:
  0.888  0.899  0.909
    eigenvectors:
  0.000  1.000  0.000
  0.500  0.000  0.500
  0.500  0.000  0.500
    occupations:
  0.899 -0.000 -0.000
 -0.000  0.899 -0.011
 -0.000 -0.011  0.899
atomic mag. moment =    -0.081852
atom   46   Tr[ns(na)] (up, down, total) =   2.61475  2.69582  5.31056
   spin  1
    eigenvalues:
  0.854  0.873  0.888
    eigenvectors:
  0.000  0.000  1.000
  0.500  0.500  0.000
  0.500  0.500  0.000
    occupations:
  0.888 -0.000 -0.000
 -0.000  0.864  0.009
 -0.000  0.009  0.864
   spin  2
    eigenvalues:
  0.888  0.899  0.909
    eigenvectors:
  0.000  1.000  0.000
  0.500  0.000  0.500
  0.500  0.000  0.500
    occupations:
  0.899 -0.000 -0.000
 -0.000  0.899 -0.011
 -0.000 -0.011  0.899
atomic mag. moment =    -0.081069
atom   47   Tr[ns(na)] (up, down, total) =   2.61440  2.69607  5.31047
   spin  1
    eigenvalues:
  0.854  0.873  0.888
    eigenvectors:
  0.000  0.000  1.000
  0.500  0.500  0.000
  0.500  0.500  0.000
    occupations:
  0.888  0.000  0.000
  0.000  0.863 -0.010
  0.000 -0.010  0.863
   spin  2
    eigenvalues:
  0.888  0.899  0.909
    eigenvectors:
  0.000  1.000  0.000
  0.500  0.000  0.500
  0.500  0.000  0.500
    occupations:
  0.899 -0.000  0.000
 -0.000  0.899  0.011
  0.000  0.011  0.899
atomic mag. moment =    -0.081671
atom   48   Tr[ns(na)] (up, down, total) =   2.61440  2.69607  5.31047
   spin  1
    eigenvalues:
  0.854  0.873  0.888
    eigenvectors:
  0.000  0.000  1.000
  0.500  0.500  0.000
  0.500  0.500  0.000
    occupations:
  0.888  0.000  0.000
  0.000  0.863 -0.010
  0.000 -0.010  0.863
   spin  2
    eigenvalues:
  0.888  0.899  0.909
    eigenvectors:
  0.000  1.000  0.000
  0.500  0.000  0.500
  0.500  0.000  0.500
    occupations:
  0.899  0.000 -0.000
  0.000  0.899  0.011
 -0.000  0.011  0.899
atomic mag. moment =    -0.081671
N of occupied +U levels = 245.6988521
 --- exit write_ns ---

 ------ SPIN UP ------------

          k = 0.0000 0.0000 0.0000 ( 12779 PWs)   bands (ev):

   -62.2989 -62.2963 -62.2961 -62.2959 -62.2958 -62.2952 -62.2944 -62.2915
   -62.2817 -62.2815 -62.2815 -62.2813 -62.2813 -62.2811 -62.2792 -62.2785
   -33.6912 -33.6909 -33.6881 -33.6877 -33.6839 -33.6838 -33.6838 -33.6835
   -33.6818 -33.6817 -33.6814 -33.6808 -33.6689 -33.6687 -33.6680 -33.6677
   -33.6566 -33.6564 -33.6563 -33.6557 -33.6420 -33.6419 -33.6418 -33.6410
   -33.5759 -33.5756 -33.5754 -33.5752 -33.5682 -33.5680 -33.5666 -33.5664
   -33.5457 -33.5454 -33.5451 -33.5446 -33.5444 -33.5442 -33.5434 -33.5430
   -33.4930 -33.4842 -33.4840 -33.4838 -33.4837 -33.4835 -33.4831 -33.4745
    -8.7538  -7.8504  -7.8390  -7.8388  -7.8380  -7.7592  -7.7546  -7.1604
    -7.1517  -7.1367  -7.1289  -7.1287  -7.1284  -6.9714  -6.9652  -6.9574
    -6.8992  -6.8948  -6.7691  -6.7556  -6.7553  -6.7550  -6.7487  -6.7470
    -6.7258  -6.7223  -6.6546  -6.6466  -6.6465  -6.6464  -6.5095  -6.5058
     3.3947   3.7498   3.7546   4.0549   4.2955   4.2957   4.2978   4.3035
     4.4883   4.4982   4.4987   4.5010   4.5056   4.5641   4.5665   4.5687
     4.5700   4.7818   4.7819   5.3692   5.3694   5.3697   5.3742   5.6805
     5.6827   5.6998   5.7021   5.7715   5.7740   5.8540   5.8549   5.8830
     5.8831   5.8834   5.8884   5.9392   5.9411   6.1485   6.1490   6.1537
     6.1541   6.2458   6.2461   6.2487   6.2491   6.5087   6.5092   6.5129
     6.5135   6.8901   6.8929   6.9403   6.9432   7.1230   7.1251   7.1320
     7.1374   7.2451   7.2452   7.3421   7.3443   7.3457   7.3458   7.3727
     7.3760   7.5751   7.5755   7.5765   7.5791   7.6426   7.8264   7.8267
     7.8270   7.8320   8.3211   8.3236   8.4935   8.4939   8.6023   8.6061
     8.9691   8.9698   9.2361   9.2366   9.2371   9.2420   9.5121   9.5523
     9.5531   9.5754   9.5759   9.5760   9.5819   9.6136   9.7158   9.7160
     9.8127   9.8129   9.8129   9.8129   9.9435   9.9445   9.9990  10.0505
    10.1089  10.1091  10.1354  10.1356  10.4332  10.4334  10.4335  10.4344
    10.5306  10.6025  10.6026  10.6069  10.6070  10.6075  10.6077  10.6078
    10.6078  11.0215  11.0216  11.0217  11.0227  11.0909  11.0920  11.2532
    11.2545  11.3313  11.3322  11.6136  11.6138  11.6139  11.6162  12.0201
    12.0210  12.2034  12.2045  12.2372  12.2373  12.2374  12.2396  12.5265
    12.5396  12.9552  12.9562  12.9563  12.9566  13.9020  13.9025  14.1746
    14.1748  14.1843  14.1843  14.1877  14.1891  14.5247  14.5250  14.6373
    14.6378  14.6378  14.6386  14.7619  14.7620  14.7622  14.7630  14.9787
    14.9793  15.0023  15.0029  15.7012  15.7013  15.7014  15.7018  16.2132
    18.9351  21.2852  21.2884  21.2904  21.2909  22.0826  22.0832  22.5268
    22.5273  22.6432  22.6437  23.5126  23.5127  23.5146  23.5147  23.5684
    23.5690  23.8556  23.8562  23.8857  23.8875  23.8885  23.8885  24.6668
    24.6677  25.1225  25.2189  25.2192  25.2195  25.2201  25.8259  25.8263
    26.1064  26.1064  26.1208  26.1554  26.1565  26.5543  26.5553  26.6382
    26.7812  26.7818  26.7832  26.7845  27.2995  27.3013  27.3013  27.3021
    27.6187  27.6198  27.7833  27.7844  27.7853  27.7854  28.1087  28.1091
    28.3918  28.3927  28.3929  28.3944  28.4846  28.4847  28.4898  28.4900
    28.4909  28.4921  28.7653  28.7655  28.9429  28.9455  28.9475  28.9476
    29.1729  29.4445  29.4449  29.5435  29.5450  30.2621  30.2622  30.3643
    30.4274  30.5558  30.5560  30.6631  30.6642  30.6654  30.6655  30.6713
    30.6718  32.5057  32.5078  32.5114  32.5114  32.8426  32.8447  32.8466
    32.8469  32.8667  32.8669  32.9200  32.9204  33.1088  33.1090  33.1966
    33.1966  34.1391  34.1400  34.1411  34.1412  34.4206  34.9408  34.9414
    34.9415  34.9424  35.2668  35.2684  35.4241  35.4250  35.7315  36.0645
    36.0646  36.8098  36.8100  36.8419  36.8425  37.0137  37.0148  37.3486
    37.3491  37.3499  37.3511  37.5322  37.8275  37.8278  37.8583  37.8594
    37.8599  37.8608  37.8792  38.3430  38.3442  38.9133  38.9134  38.9148
    38.9151  38.9626  38.9631  38.9640  38.9645  39.0793  39.0793  39.1359
    39.1371  39.1687  39.1689  39.1689  39.1693  39.5241  39.5246  39.5252
    39.5259  39.6334  39.6347  39.8577  40.2607  40.2609  40.5320  40.5320
    40.5327  40.5328  41.2137  41.4792  41.4809  41.8826  41.8839  42.2787
    42.3117  42.3120  42.3819  42.3824  42.3828  42.3832  42.9627  42.9658
    42.9660  42.9661  43.6792  43.6794  43.6796  43.6808  43.9662  43.9666
    44.4320  44.4329  44.5213  44.5227  44.6033  44.6050  44.6385  44.7200
    44.7209  44.7217  44.7220  45.1088  45.1099  45.1662  45.1664  45.1683
    45.1684  45.5976  45.5984  45.7622  45.7631  45.7636  45.7646  46.4810
    46.4818  46.4822  46.8870  46.8890  47.1923  47.1924  47.2000  47.2029
    47.2037  47.2037  47.4226  47.4227  47.6368  47.6375  47.6378  47.6384
    48.0736  48.0741  48.2383  48.2405  48.2411  48.2421  48.4360  48.4366
    48.6053  48.7933  48.7939  49.2331  49.2336  49.2864  49.2867  49.2880
    49.2890  49.5505  49.5510  49.5510  49.5512  49.6636  49.7598  49.7605
    49.7740  49.7744  50.2924  50.2933  50.2935  50.2944  50.3550  50.3561
    50.3724  50.3730  51.0359  51.0368  51.0376  51.0389  51.2521  51.2526
    51.5509  51.6527  51.6539  51.6540  51.6550  51.6899  51.6906  51.8923
    51.8934  51.9890  51.9892  52.3178  52.3186  52.6531  52.6536  52.6539
    52.6549  52.7346  52.7354  52.7362  52.7370  52.9909  53.0064  53.0067
    53.1230  53.1239  53.1246  53.1251  53.6620  53.6622  53.6642  53.6697
    53.6735  53.6755  53.6757  53.7757  53.7761  53.7765  53.7768  54.0099
    54.0103  54.3247  54.3264  54.3941  54.3945  54.3999  54.4009  54.5092
    54.5101  54.7083  54.7086  54.7105  54.7109  55.0361  55.2324  55.2328

[...]

          k =-0.5000-0.5000 0.0000 ( 12832 PWs)   bands (ev):

[...]

 ------ SPIN DOWN ----------

[...]

          k =-0.5000-0.5000-0.7552 ( 12816 PWs)   bands (ev):

[...]

          k = 0.2500-0.2500-0.7552 ( 12844 PWs)   bands (ev):

   -59.9738 -59.9737 -59.9727 -59.9725 -59.9723 -59.9723 -59.9719 -59.9718
   -59.9711 -59.9711 -59.9708 -59.9707 -59.9701 -59.9701 -59.9691 -59.9671
   -31.6388 -31.6386 -31.6379 -31.6379 -31.6377 -31.6377 -31.6374 -31.6374
   -31.6373 -31.6372 -31.6370 -31.6369 -31.6368 -31.6368 -31.6368 -31.6363
   -31.2705 -31.2702 -31.2702 -31.2701 -31.2697 -31.2695 -31.2693 -31.2693
   -31.2693 -31.2693 -31.2691 -31.2681 -31.2678 -31.2678 -31.2676 -31.2675
   -31.1154 -31.1154 -31.1111 -31.1111 -31.1110 -31.1109 -31.1099 -31.1099
   -31.1079 -31.1078 -31.1057 -31.1057 -31.1056 -31.1055 -31.1026 -31.1025
    -8.1142  -8.1075  -7.7639  -7.7539  -7.7537  -7.7532  -7.5632  -7.5538
    -7.3152  -7.3149  -7.2357  -7.2192  -7.2186  -7.2184  -6.8922  -6.8825
    -6.8612  -6.8492  -6.8478  -6.8429  -6.8319  -6.8258  -6.8253  -6.8251
    -6.7934  -6.7930  -6.7750  -6.7708  -6.7706  -6.7705  -6.7247  -6.7171
     4.5987   4.6041   4.6310   4.6410   4.9391   4.9391   4.9406   4.9407
     4.9439   4.9447   5.1436   5.1474   5.1697   5.1703   5.2546   5.2577
     5.3382   5.3383   5.3386   5.3443   5.3556   5.3580   5.4201   5.4201
     5.4234   5.4294   5.7418   5.7418   5.7454   5.7486   5.8131   5.8139
     6.1399   6.1412   6.1851   6.1853   6.1900   6.1937   6.3544   6.3567
     6.6927   6.6927   6.6932   6.6950   6.8152   6.8155   6.8424   6.8424
     6.8448   6.8463   7.1392   7.1451   7.2347   7.2396   7.4267   7.4269
     7.4313   7.4325   7.5492   7.5520   7.7045   7.7049   7.7059   7.7065
     7.7157   7.7168   7.8336   7.8338   8.0473   8.0477   8.1169   8.1185
     8.3265   8.3278   8.4855   8.4855   8.4860   8.4884   8.5859   8.5872
     8.7399   8.7434   8.9137   8.9162   9.0745   9.0748   9.0754   9.0760
     9.1044   9.1055   9.4588   9.4590   9.4591   9.4634   9.6005   9.6025
    12.0875  12.0875  12.2771  12.2776  12.2779  12.2780  12.5342  12.5346
    12.7537  12.7541  12.7545  12.7546  12.7788  12.7789  12.8306  12.8309
    13.0579  13.0581  13.1146  13.1147  13.1640  13.1640  13.1704  13.1704
    13.1705  13.1706  13.2024  13.2024  13.2310  13.2314  13.2451  13.2452
    13.3620  13.3622  13.3627  13.3628  13.4175  13.4178  13.5428  13.5431
    13.5435  13.5435  13.6394  13.6397  13.6398  13.6400  13.8415  13.8417
    14.6311  14.6328  14.6329  14.6334  14.8290  14.8292  15.0508  15.0508
    15.0509  15.0511  15.0574  15.0577  15.2495  15.2498  15.5172  15.5179
    15.5200  15.5207  15.7237  15.7239  15.8731  15.8733  15.8736  15.8737
    16.1462  16.1463  16.5390  16.5390  16.5391  16.5391  16.6418  16.6419
    21.0898  21.0922  22.0440  22.0488  22.0505  22.0514  22.5960  22.5986
    23.3274  23.3311  23.4290  23.4335  23.4352  23.4360  24.4391  24.4400
    24.5841  24.5871  25.0617  25.0646  25.3359  25.3381  25.3401  25.3413
    25.7495  25.7517  25.9344  25.9350  26.2273  26.2274  26.2316  26.2320
    26.3097  26.3130  26.4023  26.4040  26.4960  26.4961  26.5580  26.5597
    26.5600  26.5616  26.9400  26.9420  26.9430  26.9441  27.7311  27.7337
    28.0986  28.1013  28.1016  28.1036  28.1535  28.1547  28.4366  28.4368
    28.8115  28.8119  28.9134  28.9173  28.9176  28.9189  29.0380  29.0392
    29.0397  29.0401  29.1123  29.1129  29.2415  29.2419  29.4880  29.4906
    29.7756  29.7773  30.1024  30.1048  30.1059  30.1059  30.3566  30.3570
    30.3979  30.4011  30.8070  30.8081  30.8083  30.8091  31.2195  31.2200
    31.7818  31.7832  31.7833  31.7849  31.8785  31.8804  32.8144  32.8160
    33.1718  33.1734  33.1737  33.1751  33.6759  33.6759  33.7690  33.7693
    34.8980  34.8983  35.4682  35.4693  35.4698  35.4705  35.7789  35.7790
    35.8091  35.8092  35.8825  35.8856  36.7566  36.7581  36.8580  36.8591
    36.8597  36.8606  37.1726  37.1751  37.2382  37.2396  37.4460  37.4469
    37.4479  37.4484  38.0250  38.0253  38.0264  38.0271  38.2553  38.2569
    38.2587  38.2601  38.2604  38.2609  38.5475  38.5500  38.6589  38.6595
    39.3961  39.3976  39.4327  39.4351  39.4356  39.4358  39.8875  39.8894
    39.8907  39.8908  40.0337  40.0348  40.4559  40.4567  40.6574  40.6586
    40.6621  40.6627  40.6627  40.6642  40.9554  40.9560  41.0461  41.0468
    41.0476  41.0478  41.8596  41.8607  41.8615  41.8618  42.1871  42.1877
    42.4946  42.4957  42.4959  42.4971  42.6607  42.6612  43.3518  43.3528
    43.8535  43.8545  43.8551  43.8554  44.0307  44.0311  44.1208  44.1223
    44.5325  44.5332  44.6252  44.6261  44.9616  44.9624  44.9629  44.9640
    45.1613  45.1616  45.6011  45.6013  45.6018  45.6028  46.0446  46.0473
    46.8410  46.8426  46.8671  46.8685  46.8688  46.8700  47.1457  47.1477
    47.4018  47.4030  47.5252  47.5263  48.0504  48.0514  48.3358  48.3383
    48.3392  48.3395  48.3590  48.3600  48.3601  48.3613  48.4018  48.4021
    48.5563  48.5567  48.8733  48.8739  48.8744  48.8747  48.9920  48.9921
    49.4324  49.4324  49.7032  49.7039  49.9438  49.9454  49.9454  49.9465
    50.0428  50.0428  50.2010  50.2015  50.2021  50.2025  50.5719  50.5722
    50.7297  50.7310  50.8802  50.8822  50.8834  50.8835  50.8910  50.8914
    51.2129  51.2139  51.2140  51.2145  51.3163  51.3175  51.3585  51.3601
    51.4411  51.4418  51.6960  51.6976  51.6987  51.6996  51.9028  51.9031
    51.9050  51.9050  52.0174  52.0176  52.0261  52.0276  52.1457  52.1474
    52.5425  52.5441  52.6087  52.6115  52.6115  52.6121  52.6259  52.6262
    52.6356  52.6366  52.7732  52.7749  52.8128  52.8142  52.9522  52.9538
    52.9547  52.9556  53.4927  53.4928  53.4935  53.4937  53.6922  53.6944
    54.0829  54.0860  54.4108  54.4128  54.4135  54.4147  54.5552  54.5571
    54.5572  54.5585  54.8100  54.8109  54.9903  54.9912  55.0080  55.0093

     the Fermi energy is    11.2611 ev

!    total energy              =   -3849.27413887 Ry
     Harris-Foulkes estimate   =   -3849.27413902 Ry
     estimated scf accuracy    <       0.00000019 Ry

     The total energy is the sum of the following terms:

     one-electron contribution =   -1589.11021532 Ry
     hartree contribution      =    1012.68502879 Ry
     xc contribution           =    -596.48652880 Ry
     ewald contribution        =   -2676.42062880 Ry
     Hubbard energy            =       0.05842448 Ry
     smearing contrib. (-TS)   =      -0.00021921 Ry

     total magnetization       =    32.00 Bohr mag/cell
     absolute magnetization    =    36.72 Bohr mag/cell

     convergence has been achieved in   9 iterations

     Writing output data file pwscf.save

     General routines

     Parallel routines
     Hubbard U routines

   This run was terminated on:   2: 5:18  15Feb2014

   JOB DONE.