     Program PWSCF v.5.0.2 (svn rev. 9656) starts on 28Mar2014 at  6:11:39

     Current dimensions of program PWSCF are:
     Max number of different atomic species (ntypx) = 10
     Max number of k-points (npk) =  40000
     Max angular momentum in pseudopotentials (lmaxx) =  3
     Reading input from pwscf.in
Warning: card &CELL ignored
Warning: card / ignored

     Subspace diagonalization in iterative solution of the eigenvalue problem:
     a serial algorithm will be used

     bravais-lattice index     =            0
     lattice parameter (alat)  =      11.7919  a.u.
     unit-cell volume          =    9723.6088 (a.u.)^3
     number of atoms/cell      =           49
     number of atomic types    =            2
     number of electrons       =       454.00
     number of Kohn-Sham states=          657
     kinetic-energy cutoff     =      40.0000  Ry
     charge density cutoff     =     500.0000  Ry
     convergence threshold     =      1.0E-06
     mixing beta               =       0.3000
     number of iterations used =            8  plain     mixing
     Exchange-correlation      = SLA  PW   PBE  PBE ( 1 4 3 4 0)
     EXX-fraction              =        0.00
     nstep                     =           50

     celldm(1)=  11.791891  celldm(2)=   0.000000  celldm(3)=   0.000000
     celldm(4)=   0.000000  celldm(5)=   0.000000  celldm(6)=   0.000000

     crystal axes: (cart. coord. in units of alat)
               a(1) = (   1.000000   0.000000   0.000000 )
               a(2) = (   0.000000   1.026665   0.000000 )
               a(3) = (   0.000000   0.000000   5.776283 )

     reciprocal axes: (cart. coord. in units 2 pi/alat)
               b(1) = (  1.000000  0.000000  0.000000 )
               b(2) = (  0.000000  0.974028  0.000000 )
               b(3) = (  0.000000  0.000000  0.173122 )

     PseudoPot. # 1 for O  read from file:
     /home/camp/zhonxu/pseudo/o_pbe_v1.01.uspp.F.UPF
     MD5 check sum: 2bcb18d16ea4b960afae9ec6d52f22d2
     Pseudo is Ultrasoft + core correction, Zval =  6.0
     Generated by new atomic code, or converted to UPF format
     Using radial grid of  737 points,  5 beta functions with:
                l(1) =   0
                l(2) =   0
                l(3) =   1
                l(4) =   1
                l(5) =   2
     Q(r) pseudized with  8 coefficients,  rinner =    0.900   0.900   0.900
                                                       0.900   0.900

     PseudoPot. # 2 for Ru read from file:
     /home/camp/zhonxu/pseudo/ru_pbe_v1.uspp.F.UPF
     MD5 check sum: df00be1c11b23341d9806d8f1dfa10cf
     Pseudo is Ultrasoft + core correction, Zval = 16.0
     Generated by new atomic code, or converted to UPF format
     Using radial grid of  967 points,  6 beta functions with:
                l(1) =   0
                l(2) =   0
                l(3) =   1
                l(4) =   1
                l(5) =   2
                l(6) =   2
     Q(r) pseudized with  8 coefficients,  rinner =    1.300   1.300   1.300
                                                       1.300   1.300

     atomic species   valence    mass     pseudopotential
        O0             6.00    15.99940     O ( 1.00)
        Ru1           16.00   101.07000     Ru( 1.00)

      4 Sym. Ops. (no inversion) found

   Cartesian axes

     site n.     atom                  positions (alat units)
         1           O0  tau(   1) = (   0.0000000   0.5133323   1.9230980  )
         2           Ru1 tau(   2) = (   0.2500000   0.5133323   2.1181631  )
         3           Ru1 tau(   3) = (   0.0000000   0.0000000   2.1181631  )
         4           O0  tau(   4) = (   0.2500000   0.8315984   2.1181631  )
         5           O0  tau(   5) = (   0.2500000   0.1950663   2.1181631  )
         6           O0  tau(   6) = (   0.0000000   0.5133323   2.3132282  )
         7           O0  tau(   7) = (   0.0000000   0.0000000   2.4364363  )
         8           Ru1 tau(   8) = (   0.2500000   0.0000000   2.6315014  )
         9           Ru1 tau(   9) = (   0.0000000   0.5133323   2.6315014  )
        10           O0  tau(  10) = (   0.2500000   0.7083986   2.6315014  )
        11           O0  tau(  11) = (   0.2500000   0.3182660   2.6315014  )
        12           O0  tau(  12) = (   0.0000000   0.0000000   2.8265665  )
        13           O0  tau(  13) = (   0.0000000   0.5133323   2.9427276  )
        14           Ru1 tau(  14) = (   0.2500000   0.5133323   3.1406808  )
        15           Ru1 tau(  15) = (   0.0000000   0.0000000   3.1457639  )
        16           O0  tau(  16) = (   0.2500000   0.8279742   3.1435689  )
        17           O0  tau(  17) = (   0.2500000   0.1986904   3.1435689  )
        18           O0  tau(  18) = (   0.0000000   0.5133323   3.3386918  )
        19           O0  tau(  19) = (   0.0000000   0.0000000   3.4580876  )
        20           Ru1 tau(  20) = (   0.2500000   0.0000000   3.6718101  )
        21           Ru1 tau(  21) = (   0.0000000   0.5133323   3.6403293  )
        22           O0  tau(  22) = (   0.2500000   0.7080495   3.6659760  )
        23           O0  tau(  23) = (   0.2500000   0.3186151   3.6659760  )
        24           O0  tau(  24) = (   0.0000000   0.0000000   3.8466582  )
        25           O0  tau(  25) = (   0.5000000   0.5133323   1.9230980  )
        26           Ru1 tau(  26) = (   0.7500000   0.5133323   2.1181631  )
        27           Ru1 tau(  27) = (   0.5000000   0.0000000   2.1181631  )
        28           O0  tau(  28) = (   0.7500000   0.8315984   2.1181631  )
        29           O0  tau(  29) = (   0.7500000   0.1950663   2.1181631  )
        30           O0  tau(  30) = (   0.5000000   0.5133323   2.3132282  )
        31           O0  tau(  31) = (   0.5000000   0.0000000   2.4364363  )
        32           Ru1 tau(  32) = (   0.7500000   0.0000000   2.6315014  )
        33           Ru1 tau(  33) = (   0.5000000   0.5133323   2.6315014  )
        34           O0  tau(  34) = (   0.7500000   0.7083986   2.6315014  )
        35           O0  tau(  35) = (   0.7500000   0.3182660   2.6315014  )
        36           O0  tau(  36) = (   0.5000000   0.0000000   2.8265665  )
        37           O0  tau(  37) = (   0.5000000   0.5133323   2.9427276  )
        38           Ru1 tau(  38) = (   0.7500000   0.5133323   3.1406808  )
        39           Ru1 tau(  39) = (   0.5000000   0.0000000   3.1457639  )
        40           O0  tau(  40) = (   0.7500000   0.8279742   3.1435689  )
        41           O0  tau(  41) = (   0.7500000   0.1986904   3.1435689  )
        42           O0  tau(  42) = (   0.5000000   0.5133323   3.3386918  )
        43           O0  tau(  43) = (   0.5000000   0.0000000   3.4580876  )
        44           Ru1 tau(  44) = (   0.7500000   0.0000000   3.6718101  )
        45           Ru1 tau(  45) = (   0.5000000   0.5133323   3.6403293  )
        46           O0  tau(  46) = (   0.7500000   0.7080495   3.6659760  )
        47           O0  tau(  47) = (   0.7500000   0.3186151   3.6659760  )
        48           O0  tau(  48) = (   0.5000000   0.0000000   3.8466582  )
        49           O0  tau(  49) = (   0.5000000   0.5133323   3.8145998  )

     number of k points=     9  Methfessel-Paxton smearing, width (Ry)=  0.0100
                       cart. coord. in units 2pi/alat
        k(    1) = (   0.0000000   0.0000000   0.0000000), wk =   0.1250000
        k(    2) = (   0.0000000   0.2435070   0.0000000), wk =   0.2500000
        k(    3) = (   0.0000000  -0.4870139   0.0000000), wk =   0.1250000
        k(    4) = (   0.2500000   0.0000000   0.0000000), wk =   0.2500000
        k(    5) = (   0.2500000   0.2435070   0.0000000), wk =   0.5000000
        k(    6) = (   0.2500000  -0.4870139   0.0000000), wk =   0.2500000
        k(    7) = (  -0.5000000   0.0000000   0.0000000), wk =   0.1250000
        k(    8) = (  -0.5000000   0.2435070   0.0000000), wk =   0.2500000
        k(    9) = (  -0.5000000  -0.4870139   0.0000000), wk =   0.1250000

     Largest allocated arrays     est. size (Mb)     dimensions
     Largest temporary arrays     est. size (Mb)     dimensions

     Check: negative/imaginary core charge=   -0.000004    0.000000

     Initial potential from superposition of free atoms
     Check: negative starting charge=   -1.043415

     starting charge  437.99970, renormalised to  454.00000

     negative rho (up, down):  0.108E+01 0.000E+00
     Starting wfc are  340 randomized atomic wfcs

     Self-consistent Calculation

     iteration #  1     ecut=    40.00 Ry     beta=0.30
     Davidson diagonalization with overlap
     ethr =  1.00E-02,  avg # of iterations =  6.0

     negative rho (up, down):  0.115E+01 0.000E+00

     total energy              =   -4025.09651311 Ry
     Harris-Foulkes estimate   =   -4163.49539691 Ry
     estimated scf accuracy    <     275.24879085 Ry

[...]

     End of self-consistent calculation

          k = 0.0000 0.0000 0.0000 ( 41487 PWs)   bands (ev):

   -79.4541 -72.6879 -72.6772 -72.5058 -72.4956 -72.3532 -72.3427 -72.3198
   -72.2939 -72.2815 -72.2566 -72.2229 -72.2128 -72.1740 -72.0272 -72.0110
   -53.9048 -46.3193 -46.1738 -42.8365 -42.6934 -42.6807 -42.6511 -42.5752
   -42.5652 -42.5572 -42.5533 -42.5518 -42.5208 -42.5196 -42.5174 -42.5134
   -42.5060 -42.4872 -42.4720 -42.4173 -42.4017 -42.3935 -42.3892 -42.3518
   -42.3336 -42.3193 -42.2807 -42.2474 -42.2436 -42.2094 -42.2070 -42.1694
   -42.1667 -42.1554 -42.1466 -42.1425 -42.1065 -42.1058 -42.0900 -42.0849
   -42.0824 -42.0611 -42.0297 -42.0288 -41.9602 -41.8694 -41.8676 -41.8342
   -20.3048 -18.9736 -18.8134 -18.5722 -18.3857 -18.2754 -18.0979 -17.9365
   -17.9023 -17.8714 -17.8533 -17.8231 -17.7944 -17.6700 -17.6134 -17.5756
   -17.5623 -17.5565 -17.4985 -17.4914 -17.4349 -17.4344 -17.3210 -17.3046
   -17.2594 -17.1784 -17.0537 -17.0424 -16.9855 -16.9197 -16.7873 -16.2038
   -16.1323 -15.4230 -15.2851 -10.9210  -7.4755  -7.0457  -7.0271  -6.9817
    -6.7649  -6.7517  -6.5984  -6.1185  -6.0200  -5.9070  -5.8526  -5.8262
    -5.7554  -5.7547  -5.6946  -5.6657  -5.6428  -5.6361  -5.6301  -5.5951
    -5.5761  -5.5519  -5.5168  -5.4966  -5.4860  -5.4455  -5.3498  -5.2770
    -5.2666  -5.1711  -5.1708  -5.0989  -5.0985  -5.0536  -4.8918  -4.7368
    -4.5213  -4.4545  -4.3979  -4.3910  -4.2067  -4.0096  -3.7392  -3.7130
    -3.6049  -3.5774  -3.5630  -3.5407  -3.5122  -3.4878  -3.3425  -3.3146
    -3.2245  -3.1489  -3.1457  -3.1093  -3.1029  -3.0794  -3.0704  -3.0083
    -2.9719  -2.8727  -2.7949  -2.7817  -2.7568  -2.6390  -2.5864  -2.4613
    -2.4308  -2.4176  -2.3585  -2.3407  -2.3344  -2.2807  -2.2406  -2.2290
    -2.1795  -2.1438  -2.1332  -2.0670  -1.9819  -1.9429  -1.8602  -1.8464
    -1.7825  -1.7188  -1.5982  -1.5469  -1.5201  -1.4739  -1.3908  -1.2976
    -1.2181  -1.0813  -1.0103  -0.8361  -0.7368  -0.5188  -0.1593  -0.1406
    -0.1301  -0.1120  -0.0625  -0.0319  -0.0265   0.1323   0.1379   0.1896
     0.2179   0.3389   0.3607   0.3626   0.3915   0.4922   0.5454   0.5585
     0.5741   0.5973   0.6181   0.6312   0.6518   0.6626   0.6657   0.8609
     0.8635   1.0409   1.0622   1.0889   1.1807   1.2354   1.4976   1.5945
[...]
O0       0.000000000   0.500000000   0.578000000    0   0   0
O0       0.000000000   0.000000000   0.598670000    0   0   0
Ru1      0.250000000   0.000000000   0.635670000    0   0   0
Ru1      0.000000000   0.500000000   0.630220000    0   0   0
O0       0.250000000   0.689660000   0.634660000    0   0   0
O0       0.250000000   0.310340000   0.634660000    0   0   0
O0       0.000000000   0.000000000   0.665940000    0   0   0
O0       0.500000000   0.500000000   0.332930000    0   0   0
Ru1      0.750000000   0.500000000   0.366700000    0   0   0
Ru1      0.500000000   0.000000000   0.366700000    0   0   0
O0       0.750000000   0.810000000   0.366700000    0   0   0
O0       0.750000000   0.190000000   0.366700000    0   0   0
O0       0.500000000   0.500000000   0.400470000    0   0   0
O0       0.500000000   0.000000000   0.421800000    0   0   0
Ru1      0.750000000   0.000000000   0.455570000    0   0   0
Ru1      0.500000000   0.500000000   0.455570000    0   0   0
O0       0.750000000   0.690000000   0.455570000    0   0   0
O0       0.750000000   0.310000000   0.455570000    0   0   0
O0       0.500000000   0.000000000   0.489340000    0   0   0
O0       0.500000000   0.500000000   0.509450000    0   0   0
Ru1      0.750000000   0.500000000   0.543720000    0   0   0
Ru1      0.500000000   0.000000000   0.544600000    0   0   0
O0       0.750000000   0.806470000   0.544220000    0   0   0
O0       0.750000000   0.193530000   0.544220000    0   0   0
O0       0.500000000   0.500000000   0.578000000    0   0   0
O0       0.500000000   0.000000000   0.598670000    0   0   0
Ru1      0.750000000   0.000000000   0.635670000    0   0   0
Ru1      0.500000000   0.500000000   0.630220000    0   0   0
O0       0.750000000   0.689660000   0.634660000    0   0   0
O0       0.750000000   0.310340000   0.634660000    0   0   0
O0       0.500000000   0.000000000   0.665940000    0   0   0
O0       0.500000000   0.500000000   0.678651814

     Check: negative starting charge=   -1.046702
     NEW-OLD atomic charge density approx. for the potential

     Check: negative/imaginary core charge=   -0.000004    0.000000
     Check: negative starting charge=   -1.046703

[...]

     Self-consistent Calculation

[...]

     total energy              =   -4156.39178774 Ry
     Harris-Foulkes estimate   =   -4156.39178774 Ry
     estimated scf accuracy    <       0.00000003 Ry

     iteration # 19     ecut=    40.00 Ry     beta=0.30
     Davidson diagonalization with overlap
     ethr =  6.36E-12,  avg # of iterations =  1.0

     negative rho (up, down):  0.116E+01 0.000E+00

     End of self-consistent calculation

[...]

          k = 0.2500-0.4870 0.0000 ( 41596 PWs)   bands (ev):

[...]

          k =-0.5000-0.4870 0.0000 ( 41560 PWs)   bands (ev):

   -73.7665 -73.3492 -73.3492 -73.1254 -73.1254 -72.9636 -72.9636 -72.9422
   -72.9090 -72.9053 -72.8853 -72.8382 -72.8378 -72.8360 -72.6474 -72.6354
   -44.2205 -43.6084 -43.4262 -43.4157 -43.4085 -43.3128 -43.3110 -43.2025
   -43.2016 -43.1835 -43.1835 -43.1834 -43.1416 -43.1393 -43.1299 -43.1298
   -43.1160 -43.1016 -43.1001 -43.0907 -43.0295 -43.0294 -42.9651 -42.9650
   -42.9158 -42.9154 -42.8738 -42.8496 -42.8474 -42.8146 -42.8082 -42.8080
   -42.8003 -42.7877 -42.7876 -42.7837 -42.7738 -42.7243 -42.7004 -42.6892
   -42.6789 -42.6785 -42.6756 -42.6724 -42.6640 -42.5801 -42.4829 -42.4665
   -18.9446 -18.8697 -18.7385 -18.7310 -18.6067 -18.6033 -18.4630 -18.4574
   -18.3190 -18.3087 -18.3041 -18.3028 -18.2106 -18.1976 -18.1922 -18.1890
   -18.1714 -18.1570 -18.1292 -18.1249 -18.1095 -18.1068 -18.0428 -18.0414
   -18.0380 -18.0316 -17.9036 -17.8981 -17.6123 -17.6036 -16.8748 -16.8586
   -16.6517  -6.9595  -6.9557  -6.8193  -6.8115  -6.5091  -6.4968  -6.3256
    -6.3228  -6.2598  -6.2137  -6.2119  -6.1991  -6.1971  -6.1937  -6.1899
    -6.1651  -6.1508  -6.1410  -6.1347  -6.1023  -5.9325  -5.8868  -5.8849
    -5.8729  -5.8499  -5.8428  -5.7932  -5.7927  -5.7762  -5.7621  -5.5195
    -5.5194  -5.4971  -5.4917  -5.4664  -5.4623  -5.4312  -5.4286  -5.3948
    -5.3700  -5.0602  -4.9951  -4.9690  -4.8990  -4.8741  -4.8715  -4.7493
    -4.7141  -4.6446  -4.4063  -4.3852  -4.3558  -4.3425  -4.3011  -4.1928
    -4.1713  -4.1400  -4.0596  -4.0354  -4.0342  -4.0165  -4.0146  -4.0102
    -4.0053  -3.8348  -3.8272  -3.7623  -3.7534  -3.7362  -3.7341  -3.7303
    -3.6834  -3.4340  -3.3390  -3.2951  -3.2854  -2.7846  -2.7677  -2.7577
    -2.6802  -2.5593  -2.5386  -2.5073  -2.4862  -2.4479  -2.3976  -2.3886
    -2.2573  -2.2518  -2.1374  -2.0826  -2.0732  -2.0584  -2.0007  -1.9969
    -1.8378  -1.7922  -1.3391  -1.3376  -0.7384  -0.6413  -0.5896  -0.5177
    -0.4240  -0.3671  -0.2852  -0.2184  -0.0967  -0.0756  -0.0503  -0.0317
     0.0364   0.0510   0.0862   0.1928   0.2882   0.4707   0.4816   0.5391
     0.5771   0.5800   0.5900   0.6160   0.6556   0.6587   0.6616   0.6770
     0.6795   0.7270   0.7659   0.7765   0.7866   0.7988   0.8643   0.9876
     1.0047   1.0397   1.0492   1.1197   1.1358   1.1689   1.2134   1.2481
     1.2594   1.2791   1.3278   1.4651   2.0032   2.0127   2.4542   2.8221
     3.1365   3.1439   3.1518   3.1718   3.1838   3.2447   3.2485   3.3879
     3.3996   3.4495   3.5136   4.0261   4.0428   4.0606   4.1428   4.4159
     4.4424   4.4644   4.5218   4.8984   4.9404   4.9488   5.0123   5.1976
     5.2134   5.2621   5.2881   5.7160   6.6772   6.6818   7.4916   7.7482
     7.7497   8.0304   8.0365   8.1107   8.1669   8.1822   8.2418   8.3507
     8.4181   8.4795   8.5013   8.6673   8.8278   8.8942   8.8957   9.0752
     9.3158   9.3510   9.3989   9.4140   9.4226   9.4293   9.4356   9.5677
     9.9588   9.9884  10.0109  10.0273  10.0479  10.0956  10.0964  10.3111
    10.7520  10.7865  10.8170  10.8488  10.8577  10.8807  10.9415  11.1707
    11.5591  11.5910  11.6566  11.9456  12.0422  12.0441  12.1391  12.2885
    12.5046  12.5078  12.7502  12.9458  12.9653  12.9707  13.0145  13.1989
    13.2031  13.2150  13.4889  13.5444  13.5484  13.6008  13.6386  13.7053
    13.7100  13.7287  13.8469  13.8591  13.8925  13.9117  13.9716  13.9839
    14.0071  14.0710  14.0940  14.1114  14.1243  14.2627  14.3043  14.3322
    14.3470  14.5748  14.6061  14.6376  14.6699  14.7832  14.8123  14.8160
    14.8249  14.8838  14.9229  14.9499  14.9558  15.0886  15.2534  15.2666
    15.3559  15.3764  15.3923  15.4447  15.4729  15.5077  15.5638  15.6057
    15.6226  15.6258  15.6572  15.6875  15.7245  15.7262  15.7400  15.7622
    15.7722  15.8210  15.8247  15.8507  15.9079  15.9226  15.9289  15.9418
    15.9444  16.0108  16.0230  16.1397  16.1539  16.1589  16.1960  16.2418
    16.2570  16.2722  16.2771  16.3930  16.3948  16.3951  16.5193  16.5260
    16.5426  16.5434  16.5793  16.5804  16.6824  16.7104  16.7322  16.8025
    16.8222  16.8283  16.8858  16.9025  17.0667  17.0759  17.1778  17.1904
    17.3170  17.3367  17.3500  17.4076  17.4431  17.4729  17.5058  17.6622
    17.6669  17.6749  17.7443  17.7746  17.7858  17.8174  17.8245  17.9200
    17.9770  18.0106  18.1052  18.1105  18.1151  18.1866  18.3001  18.3388
    18.3443  18.3572  18.3724  18.3937  18.5394  18.5489  18.5751  18.7073
    18.7434  18.7902  18.8039  18.8377  18.9159  18.9163  18.9289  18.9936
    19.0852  19.1293  19.2323  19.3518  19.3587  19.3748  19.3877  19.4706
[...]
    23.1591  23.1718  23.2532  23.3862  23.3995  23.4071  23.4249  23.5301
    23.5516  23.5546  23.5619  23.5888  23.6270  23.6558  23.6799  23.7037
    23.7045  23.7402  23.8396  23.8609  23.8702  23.9277  23.9442  23.9889
    24.1126  24.1136  24.1406  24.1821  24.1925  24.1961  24.2179  24.2408
    24.3195  24.3606  24.3694  24.4089  24.4556  24.4938  24.5111  24.5562
    24.5710  24.5851  24.5988  24.7766  24.7850  24.7895  24.8650  24.8730
    24.8894  24.8964  25.0291  25.0919  25.1325  25.1390  25.1434  25.1573
    25.2839  25.3478  25.4201  25.4782  25.5082  25.5631  25.5649  25.5651
    25.6468  25.6861  25.7104  25.7946  25.8003  25.8259  25.8479  25.9339
    25.9693  26.0298  26.0938  26.1199  26.1640  26.1805  26.2199  26.2590
    26.2963  26.3068  26.3595  26.3860  26.5121  26.5892  26.6048  26.7221
    26.7932  26.8109  26.8914  26.9349  26.9365  26.9416  26.9488  26.9637
    27.1054  27.1101  27.1102  27.1428  27.1914  27.2025  27.2085  27.2790
    27.3046  27.3271  27.3747  27.4548  27.4613  27.5052  27.5403  27.5923
    27.6424

     the Fermi energy is     0.6416 ev

!    total energy              =   -4156.39178773 Ry
     Harris-Foulkes estimate   =   -4156.39178774 Ry
     estimated scf accuracy    <          8.9E-09 Ry

     The total energy is the sum of the following terms:

     one-electron contribution =  -87182.18346918 Ry
     hartree contribution      =   43645.60373895 Ry
     xc contribution           =    -633.86066633 Ry
     ewald contribution        =   40014.05039430 Ry
     smearing contrib. (-TS)   =      -0.00178547 Ry

     convergence has been achieved in  19 iterations

     Forces acting on atoms (Ry/au):

     negative rho (up, down):  0.116E+01 0.000E+00
     atom    1 type  1   force =     0.00000000    0.00000000    0.05479091
     atom    2 type  2   force =     0.00034934   -0.00000000   -0.08842752
     atom    3 type  2   force =     0.00000000    0.00000000    0.08242519
     atom    4 type  1   force =    -0.00011440   -0.00508003   -0.02539185
     atom    5 type  1   force =    -0.00011440    0.00508003   -0.02539185
     atom    6 type  1   force =     0.00000000    0.00000000    0.04374187
     atom    7 type  1   force =     0.00000000    0.00000000   -0.03035118
     atom    8 type  2   force =    -0.00122189    0.00000000   -0.01998344
     atom    9 type  2   force =     0.00000000    0.00000000   -0.00689569
     atom   10 type  1   force =     0.00053491    0.02357262   -0.00307462
     atom   11 type  1   force =     0.00053491   -0.02357262   -0.00307462
     atom   12 type  1   force =     0.00000000    0.00000000    0.03076521
     atom   13 type  1   force =     0.00000000    0.00000000    0.00071992
     atom   14 type  2   force =     0.00181345    0.00000000   -0.02233645
     atom   15 type  2   force =     0.00000000    0.00000000    0.00241501
     atom   16 type  1   force =     0.00105819   -0.00129917   -0.00023663
     atom   17 type  1   force =     0.00105819    0.00129917   -0.00023663
     atom   18 type  1   force =     0.00000000    0.00000000   -0.00235434
     atom   19 type  1   force =     0.00000000    0.00000000   -0.00020753
     atom   20 type  2   force =     0.00840023    0.00000000    0.01070028
     atom   21 type  2   force =     0.00000000    0.00000000   -0.00873497
     atom   22 type  1   force =    -0.03387681    0.02512891   -0.03204939
     atom   23 type  1   force =    -0.03387681   -0.02512891   -0.03204939
     atom   24 type  1   force =     0.00000000    0.00000000   -0.00561133
     atom   25 type  1   force =     0.00000000    0.00000000    0.05598251
     atom   26 type  2   force =    -0.00034934    0.00000000   -0.08842752
     atom   27 type  2   force =     0.00000000    0.00000000    0.08216855
     atom   28 type  1   force =     0.00011440   -0.00508003   -0.02539185
     atom   29 type  1   force =     0.00011440    0.00508003   -0.02539185
     atom   30 type  1   force =     0.00000000    0.00000000    0.03515221
     atom   31 type  1   force =     0.00000000    0.00000000   -0.03048320
     atom   32 type  2   force =     0.00122189    0.00000000   -0.01998344
     atom   33 type  2   force =     0.00000000    0.00000000   -0.01292392
     atom   34 type  1   force =    -0.00053491    0.02357262   -0.00307462
     atom   35 type  1   force =    -0.00053491   -0.02357262   -0.00307462
     atom   36 type  1   force =     0.00000000    0.00000000    0.03267090
     atom   37 type  1   force =     0.00000000    0.00000000    0.00118049
     atom   38 type  2   force =    -0.00181345    0.00000000   -0.02233645
     atom   39 type  2   force =     0.00000000    0.00000000    0.00186184
     atom   40 type  1   force =    -0.00105819   -0.00129917   -0.00023663
     atom   41 type  1   force =    -0.00105819    0.00129917   -0.00023663
     atom   42 type  1   force =     0.00000000    0.00000000   -0.00826791
     atom   43 type  1   force =     0.00000000    0.00000000    0.00071019
     atom   44 type  2   force =    -0.00840023    0.00000000    0.01070028
     atom   45 type  2   force =     0.00000000    0.00000000    0.17654856
     atom   46 type  1   force =     0.03387681    0.02512891   -0.03204939
     atom   47 type  1   force =     0.03387681   -0.02512891   -0.03204939
     atom   48 type  1   force =     0.00000000    0.00000000   -0.01221042
     atom   49 type  1   force =     0.00000000    0.00000000    0.00001135

     Total force =     0.000011     Total SCF correction =     0.000007
     SCF correction compared to forces is large: reduce conv_thr to get better values

     bfgs converged in   9 scf cycles and   8 bfgs steps
     (criteria: energy < 0.10E-03, force < 0.10E-02)

     End of BFGS Geometry Optimization

     Final energy   =   -4156.3917877284 Ry
Begin final coordinates

ATOMIC_POSITIONS (crystal)
O0       0.000000000   0.500000000   0.332930000    0   0   0
Ru1      0.250000000   0.500000000   0.366700000    0   0   0
Ru1      0.000000000   0.000000000   0.366700000    0   0   0
O0       0.250000000   0.810000000   0.366700000    0   0   0
O0       0.250000000   0.190000000   0.366700000    0   0   0
O0       0.000000000   0.500000000   0.400470000    0   0   0
O0       0.000000000   0.000000000   0.421800000    0   0   0
Ru1      0.250000000   0.000000000   0.455570000    0   0   0
Ru1      0.000000000   0.500000000   0.455570000    0   0   0
O0       0.250000000   0.690000000   0.455570000    0   0   0
O0       0.250000000   0.310000000   0.455570000    0   0   0
O0       0.000000000   0.000000000   0.489340000    0   0   0
O0       0.000000000   0.500000000   0.509450000    0   0   0
Ru1      0.250000000   0.500000000   0.543720000    0   0   0
Ru1      0.000000000   0.000000000   0.544600000    0   0   0
O0       0.250000000   0.806470000   0.544220000    0   0   0
O0       0.250000000   0.193530000   0.544220000    0   0   0
O0       0.000000000   0.500000000   0.578000000    0   0   0
O0       0.000000000   0.000000000   0.598670000    0   0   0
Ru1      0.250000000   0.000000000   0.635670000    0   0   0
Ru1      0.000000000   0.500000000   0.630220000    0   0   0
O0       0.250000000   0.689660000   0.634660000    0   0   0
O0       0.250000000   0.310340000   0.634660000    0   0   0
O0       0.000000000   0.000000000   0.665940000    0   0   0
O0       0.500000000   0.500000000   0.332930000    0   0   0
Ru1      0.750000000   0.500000000   0.366700000    0   0   0
Ru1      0.500000000   0.000000000   0.366700000    0   0   0
O0       0.750000000   0.810000000   0.366700000    0   0   0
O0       0.750000000   0.190000000   0.366700000    0   0   0
O0       0.500000000   0.500000000   0.400470000    0   0   0
O0       0.500000000   0.000000000   0.421800000    0   0   0
Ru1      0.750000000   0.000000000   0.455570000    0   0   0
Ru1      0.500000000   0.500000000   0.455570000    0   0   0
O0       0.750000000   0.690000000   0.455570000    0   0   0
O0       0.750000000   0.310000000   0.455570000    0   0   0
O0       0.500000000   0.000000000   0.489340000    0   0   0
O0       0.500000000   0.500000000   0.509450000    0   0   0
Ru1      0.750000000   0.500000000   0.543720000    0   0   0
Ru1      0.500000000   0.000000000   0.544600000    0   0   0
O0       0.750000000   0.806470000   0.544220000    0   0   0
O0       0.750000000   0.193530000   0.544220000    0   0   0
O0       0.500000000   0.500000000   0.578000000    0   0   0
O0       0.500000000   0.000000000   0.598670000    0   0   0
Ru1      0.750000000   0.000000000   0.635670000    0   0   0
Ru1      0.500000000   0.500000000   0.630220000    0   0   0
O0       0.750000000   0.689660000   0.634660000    0   0   0
O0       0.750000000   0.310340000   0.634660000    0   0   0
O0       0.500000000   0.000000000   0.665940000    0   0   0
O0       0.500000000   0.500000000   0.678651814
End final coordinates

     General routines

     Parallel routines

   This run was terminated on:   8:54:25  29Mar2014

   JOB DONE.
Running PBS batch system epilogue script
Job id: 314582.audhumbla.fysik.dtu.dk
Username: zhonxu
Groupname: campgst
Jobname: RuO2/Eads-4-layers/O
Sessionid: 10462
Queuename: verylong
Accounting:
This job has allocated the following 32 nodes:
g076 g076 g076 g076 g076 g076 g076 g076 g076 g076 g076 g076 g076 g076 g076 g076 g016 g016 g016 g016 g016 g016 g016 g016 g016 g016 g016 g016 g016 g016 g016 g016
Finished epilogue job 314582.audhumbla.fysik.dtu.dk for zhonxu