     Program PWSCF v.5.0.2 (svn rev. 9656) starts on 28Mar2014 at  6:32:28

     Current dimensions of program PWSCF are:
     Max number of different atomic species (ntypx) = 10
     Max number of k-points (npk) =  40000
     Max angular momentum in pseudopotentials (lmaxx) =  3
     Reading input from pwscf.in
Warning: card &CELL ignored
Warning: card / ignored

     Subspace diagonalization in iterative solution of the eigenvalue problem:
     a serial algorithm will be used

     bravais-lattice index     =            0
     lattice parameter (alat)  =      11.7541  a.u.
     unit-cell volume          =    9749.5977 (a.u.)^3
     number of atoms/cell      =           50
     number of atomic types    =            3
     number of electrons       =       439.00
     number of Kohn-Sham states=          658
     kinetic-energy cutoff     =      40.0000  Ry
     charge density cutoff     =     500.0000  Ry
     convergence threshold     =      1.0E-06
     mixing beta               =       0.3000
     number of iterations used =            8  plain     mixing
     Exchange-correlation      = SLA  PW   PBE  PBE ( 1 4 3 4 0)
     EXX-fraction              =        0.00
     nstep                     =           50

     celldm(1)=  11.754097  celldm(2)=   0.000000  celldm(3)=   0.000000
     celldm(4)=   0.000000  celldm(5)=   0.000000  celldm(6)=   0.000000

     crystal axes: (cart. coord. in units of alat)
               a(1) = (   1.000000   0.000000   0.000000 )
               a(2) = (   0.000000   1.034513   0.000000 )
               a(3) = (   0.000000   0.000000   5.803406 )

     reciprocal axes: (cart. coord. in units 2 pi/alat)
               b(1) = (  1.000000  0.000000  0.000000 )
               b(2) = (  0.000000  0.966638  0.000000 )
               b(3) = (  0.000000  0.000000  0.172313 )

     PseudoPot. # 1 for O  read from file:
     /home/camp/zhonxu/pseudo/o_pbe_v1.01.uspp.F.UPF
     MD5 check sum: 2bcb18d16ea4b960afae9ec6d52f22d2
     Pseudo is Ultrasoft + core correction, Zval =  6.0
     Generated by new atomic code, or converted to UPF format
     Using radial grid of  737 points,  5 beta functions with:
                l(1) =   0
                l(2) =   0
                l(3) =   1
                l(4) =   1
                l(5) =   2
     Q(r) pseudized with  8 coefficients,  rinner =    0.900   0.900   0.900
                                                       0.900   0.900

     PseudoPot. # 2 for Rh read from file:
     /home/camp/zhonxu/pseudo/rh_pbe_v1.uspp.F.UPF
     MD5 check sum: 37b626987ad0dd8ec6bf4cc9ef289918
     Pseudo is Ultrasoft + core correction, Zval = 15.0
     Generated by new atomic code, or converted to UPF format
     Using radial grid of  969 points,  7 beta functions with:
                l(1) =   0
                l(2) =   0
                l(3) =   1
                l(4) =   1
                l(5) =   2
                l(6) =   2
                l(7) =   2
     Q(r) pseudized with  6 coefficients,  rinner =    1.050   1.050   1.050
                                                       1.050   1.050

     PseudoPot. # 3 for H  read from file:
     /home/camp/zhonxu/pseudo/h_pbe_v1.uspp.F.UPF
     MD5 check sum: 3408e3ff4ec8b0a4e358431e7e038a48
     Pseudo is Ultrasoft, Zval =  1.0
     Generated by new atomic code, or converted to UPF format
     Using radial grid of  615 points,  2 beta functions with:
                l(1) =   0
                l(2) =   0
     Q(r) pseudized with  8 coefficients,  rinner =    0.700

     atomic species   valence    mass     pseudopotential
        O0             6.00    15.99940     O ( 1.00)
        Rh1           15.00   102.90550     Rh( 1.00)
        H2             1.00     1.00794     H ( 1.00)

      2 Sym. Ops. (no inversion) found

   Cartesian axes

     site n.     atom                  positions (alat units)
         1           O0  tau(   1) = (   0.0000000   0.5172566   1.9292842  )
         2           Rh1 tau(   2) = (   0.2500000   0.5172566   2.1258455  )
         3           Rh1 tau(   3) = (   0.0000000   0.0000000   2.1258455  )
         4           O0  tau(   4) = (   0.2500000   0.8379556   2.1258455  )
         5           O0  tau(   5) = (   0.2500000   0.1965575   2.1258455  )
         6           O0  tau(   6) = (   0.0000000   0.5172566   2.3223488  )
         7           O0  tau(   7) = (   0.0000000   0.0000000   2.4465417  )
         8           Rh1 tau(   8) = (   0.2500000   0.0000000   2.6431030  )
         9           Rh1 tau(   9) = (   0.0000000   0.5172566   2.6431030  )
        10           O0  tau(  10) = (   0.2500000   0.7138141   2.6431030  )
        11           O0  tau(  11) = (   0.2500000   0.3206991   2.6431030  )
        12           O0  tau(  12) = (   0.0000000   0.0000000   2.8396064  )
        13           O0  tau(  13) = (   0.0000000   0.5172566   2.9573575  )
        14           Rh1 tau(  14) = (   0.2500000   0.5172566   3.1562402  )
        15           Rh1 tau(  15) = (   0.0000000   0.0000000   3.1604767  )
        16           O0  tau(  16) = (   0.2500000   0.8345107   3.1596642  )
        17           O0  tau(  17) = (   0.2500000   0.2000024   3.1596642  )
        18           O0  tau(  18) = (   0.0000000   0.5172566   3.3551809  )
        19           O0  tau(  19) = (   0.0000000   0.0000000   3.4777488  )
        20           Rh1 tau(  20) = (   0.2500000   0.0000000   3.6811582  )
        21           Rh1 tau(  21) = (   0.0000000   0.5172566   3.6632837  )
        22           O0  tau(  22) = (   0.2500000   0.7138554   3.6912561  )
        23           O0  tau(  23) = (   0.2500000   0.3206577   3.6912561  )
        24           O0  tau(  24) = (   0.0000000   0.0000000   3.8739473  )
        25           O0  tau(  25) = (   0.5000000   0.5172566   1.9292842  )
        26           Rh1 tau(  26) = (   0.7500000   0.5172566   2.1258455  )
        27           Rh1 tau(  27) = (   0.5000000   0.0000000   2.1258455  )
        28           O0  tau(  28) = (   0.7500000   0.8379556   2.1258455  )
        29           O0  tau(  29) = (   0.7500000   0.1965575   2.1258455  )
        30           O0  tau(  30) = (   0.5000000   0.5172566   2.3223488  )
        31           O0  tau(  31) = (   0.5000000   0.0000000   2.4465417  )
        32           Rh1 tau(  32) = (   0.7500000   0.0000000   2.6431030  )
        33           Rh1 tau(  33) = (   0.5000000   0.5172566   2.6431030  )
        34           O0  tau(  34) = (   0.7500000   0.7138141   2.6431030  )
        35           O0  tau(  35) = (   0.7500000   0.3206991   2.6431030  )
        36           O0  tau(  36) = (   0.5000000   0.0000000   2.8396064  )
        37           O0  tau(  37) = (   0.5000000   0.5172566   2.9573575  )
        38           Rh1 tau(  38) = (   0.7500000   0.5172566   3.1562402  )
        39           Rh1 tau(  39) = (   0.5000000   0.0000000   3.1604767  )
        40           O0  tau(  40) = (   0.7500000   0.8345107   3.1596642  )
        41           O0  tau(  41) = (   0.7500000   0.2000024   3.1596642  )
        42           O0  tau(  42) = (   0.5000000   0.5172566   3.3551809  )
        43           O0  tau(  43) = (   0.5000000   0.0000000   3.4777488  )
        44           Rh1 tau(  44) = (   0.7500000   0.0000000   3.6811582  )
        45           Rh1 tau(  45) = (   0.5000000   0.5172566   3.6632837  )
        46           O0  tau(  46) = (   0.7500000   0.7138554   3.6912561  )
        47           O0  tau(  47) = (   0.7500000   0.3206577   3.6912561  )
        48           O0  tau(  48) = (   0.5000000   0.0000000   3.8739473  )
        49           O0  tau(  49) = (   0.5000000   0.5172566   3.8803891  )
        50           H2  tau(  50) = (   0.3633400   0.5172566   3.9366822  )

     number of k points=     9  Methfessel-Paxton smearing, width (Ry)=  0.0100
                       cart. coord. in units 2pi/alat
        k(    1) = (   0.0000000   0.0000000   0.0000000), wk =   0.1250000
        k(    2) = (   0.0000000   0.2416596   0.0000000), wk =   0.2500000
        k(    3) = (   0.0000000  -0.4833191   0.0000000), wk =   0.1250000
        k(    4) = (   0.2500000   0.0000000   0.0000000), wk =   0.2500000
        k(    5) = (   0.2500000   0.2416596   0.0000000), wk =   0.5000000
        k(    6) = (   0.2500000  -0.4833191   0.0000000), wk =   0.2500000
        k(    7) = (  -0.5000000   0.0000000   0.0000000), wk =   0.1250000
        k(    8) = (  -0.5000000   0.2416596   0.0000000), wk =   0.2500000
        k(    9) = (  -0.5000000  -0.4833191   0.0000000), wk =   0.1250000

     Largest allocated arrays     est. size (Mb)     dimensions
     Largest temporary arrays     est. size (Mb)     dimensions

     Check: negative/imaginary core charge=   -0.000003    0.000000

     Initial potential from superposition of free atoms
     Check: negative starting charge=   -1.285843

     starting charge  430.99837, renormalised to  439.00000

     negative rho (up, down):  0.131E+01 0.000E+00
     Starting wfc are  325 randomized atomic wfcs

     Self-consistent Calculation

     iteration #  1     ecut=    40.00 Ry     beta=0.30
     Davidson diagonalization with overlap
     ethr =  1.00E-02,  avg # of iterations =  5.8

     negative rho (up, down):  0.133E+01 0.000E+00

     total energy              =   -3706.19875306 Ry
     Harris-Foulkes estimate   =   -3797.90022743 Ry
     estimated scf accuracy    <     183.54540790 Ry

[...]

     End of self-consistent calculation

          k = 0.0000 0.0000 0.0000 ( 41643 PWs)   bands (ev):

   -51.5442 -49.0349 -48.5408 -47.6051 -47.5797 -47.5793 -47.5589 -47.5279
   -47.5258 -47.5195 -47.5193 -47.5129 -47.5087 -47.5073 -47.5064 -47.5001
   -47.4934 -47.4892 -47.4637 -47.4359 -47.4061 -47.3993 -47.3969 -47.3948
   -47.3885 -47.3836 -47.3818 -47.3620 -47.3346 -47.3298 -47.3254 -47.3246
   -47.3131 -47.2966 -47.2864 -47.2174 -47.2110 -47.2027 -47.1823 -47.1781
   -47.1709 -47.1207 -47.1032 -47.0394 -47.0179 -46.9996 -46.9810 -46.9143
   -23.0471 -19.5756 -19.3361 -19.1466 -19.0766 -18.9591 -18.7365 -18.5987
   -18.5121 -18.4073 -18.3851 -18.3654 -18.3473 -18.3323 -18.2986 -18.2909
   -18.2856 -18.2709 -18.2370 -18.2181 -18.1798 -18.0604 -17.9917 -17.9773
   -17.9448 -17.8278 -17.7930 -17.7529 -17.7227 -16.9727 -16.8746 -16.8626
   -16.7746 -12.3567  -9.8853  -9.4066  -8.0084  -7.9727  -7.9563  -7.9498
    -7.7040  -7.5978  -6.9627  -6.8996  -6.8995  -6.7649  -6.7474  -6.7414
    -6.6721  -6.6373  -6.6269  -6.5969  -6.5937  -6.5241  -6.4639  -6.4491
    -6.4485  -6.3920  -6.3541  -6.2829  -6.2227  -6.2199  -6.1697  -6.0610
    -6.0401  -6.0067  -5.9673  -5.9214  -5.8863  -5.8077  -5.7372  -5.6635
    -5.5032  -5.3544  -5.1131  -5.0404  -4.9991  -4.7785  -4.7048  -4.6591
    -4.5939  -4.5728  -4.4708  -4.4370  -4.4051  -4.2562  -4.1560  -4.1437
    -4.1257  -4.0500  -4.0143  -3.9081  -3.8506  -3.8346  -3.7842  -3.7353
    -3.6327  -3.5156  -3.4785  -3.4167  -3.4001  -3.3753  -3.3452  -3.3372
    -3.2816  -3.1928  -3.1524  -3.0915  -3.0445  -2.9973  -2.9823  -2.9735
    -2.8863  -2.8746  -2.7681  -2.7189  -2.6424  -2.6221  -2.6116  -2.5256
[...]
O0       0.250000000   0.309960000   0.636050000    0   0   0
O0       0.000000000   0.000000000   0.667530000    0   0   0
O0       0.500000000   0.500000000   0.332440000    0   0   0
Rh1      0.750000000   0.500000000   0.366310000    0   0   0
Rh1      0.500000000   0.000000000   0.366310000    0   0   0
O0       0.750000000   0.810000000   0.366310000    0   0   0
O0       0.750000000   0.190000000   0.366310000    0   0   0
O0       0.500000000   0.500000000   0.400170000    0   0   0
O0       0.500000000   0.000000000   0.421570000    0   0   0
Rh1      0.750000000   0.000000000   0.455440000    0   0   0
Rh1      0.500000000   0.500000000   0.455440000    0   0   0
O0       0.750000000   0.690000000   0.455440000    0   0   0
O0       0.750000000   0.310000000   0.455440000    0   0   0
O0       0.500000000   0.000000000   0.489300000    0   0   0
O0       0.500000000   0.500000000   0.509590000    0   0   0
Rh1      0.750000000   0.500000000   0.543860000    0   0   0
Rh1      0.500000000   0.000000000   0.544590000    0   0   0
O0       0.750000000   0.806670000   0.544450000    0   0   0
O0       0.750000000   0.193330000   0.544450000    0   0   0
O0       0.500000000   0.500000000   0.578140000    0   0   0
O0       0.500000000   0.000000000   0.599260000    0   0   0
Rh1      0.750000000   0.000000000   0.634310000    0   0   0
Rh1      0.500000000   0.500000000   0.631230000    0   0   0
O0       0.750000000   0.690040000   0.636050000    0   0   0
O0       0.750000000   0.309960000   0.636050000    0   0   0
O0       0.500000000   0.000000000   0.667530000    0   0   0
O0       0.515133242   0.500000000   0.685106768
H2       0.368045885   0.500000000   0.695200829

     Check: negative starting charge=   -1.286916
     NEW-OLD atomic charge density approx. for the potential

     Check: negative/imaginary core charge=   -0.000003    0.000000
     Check: negative starting charge=   -1.286916

[...]

     Self-consistent Calculation

[...]

     Threshold (ethr) on eigenvalues was too large:
     Diagonalizing with lowered threshold

     Davidson diagonalization with overlap
     ethr =  1.76E-08,  avg # of iterations =  1.0

[...]

     total energy              =   -3791.49754082 Ry
     Harris-Foulkes estimate   =   -3791.49754082 Ry
     estimated scf accuracy    <       0.00000002 Ry

     iteration # 19     ecut=    40.00 Ry     beta=0.30
     Davidson diagonalization with overlap
     ethr =  3.60E-12,  avg # of iterations =  1.0

     negative rho (up, down):  0.138E+01 0.000E+00

     End of self-consistent calculation

[...]

          k = 0.2500-0.4833 0.0000 ( 41698 PWs)   bands (ev):

[...]

          k =-0.5000-0.4833 0.0000 ( 41672 PWs)   bands (ev):

   -47.8752 -47.8587 -47.8528 -47.8519 -47.8303 -47.8199 -47.8192 -47.8120
   -47.8072 -47.8011 -47.8009 -47.7991 -47.7985 -47.7846 -47.7839 -47.7829
   -47.7812 -47.7788 -47.7691 -47.7449 -47.7395 -47.7177 -47.6824 -47.6820
   -47.6803 -47.6703 -47.6668 -47.6605 -47.6317 -47.6233 -47.6205 -47.6203
   -47.6105 -47.5995 -47.5933 -47.5816 -47.5572 -47.5540 -47.5392 -47.4569
   -47.4492 -47.3908 -47.3905 -47.3831 -47.3621 -47.2887 -47.2822 -47.2777
   -19.2528 -19.2467 -19.1518 -19.1490 -18.9601 -18.9393 -18.8740 -18.8718
   -18.7366 -18.7149 -18.7132 -18.6675 -18.6466 -18.6288 -18.5654 -18.5635
   -18.5511 -18.5393 -18.4989 -18.4914 -18.4870 -18.4818 -18.4455 -18.4300
   -18.3179 -18.3091 -18.2460 -18.2308 -18.1917 -17.2891 -17.2369 -17.1754
   -17.1616  -7.5615  -7.4989  -7.3763  -7.3711  -7.1390  -7.0635  -6.9686
    -6.9670  -6.9640  -6.9601  -6.9415  -6.9355  -6.8526  -6.8511  -6.7698
    -6.7198  -6.6828  -6.6357  -6.5842  -6.5830  -6.5210  -6.5098  -6.4849
    -6.4764  -6.4668  -6.3924  -6.3915  -6.3145  -6.2829  -6.2059  -6.1102
    -6.1054  -6.0737  -6.0549  -5.9948  -5.9938  -5.9105  -5.9092  -5.8385
    -5.8252  -5.6670  -5.4739  -5.4091  -5.4068  -5.3935  -5.2612  -5.2389
    -5.2120  -5.1298  -4.9984  -4.8657  -4.8506  -4.7758  -4.7648  -4.6941
    -4.6907  -4.6853  -4.6643  -4.6625  -4.6578  -4.6128  -4.5950  -4.5948
    -4.5469  -4.5019  -4.3379  -4.3040  -4.2860  -4.2794  -4.2493  -4.2235
    -4.2142  -4.1228  -3.9378  -3.8978  -3.8683  -3.8612  -3.3127  -3.2359
    -3.2298  -3.1919  -3.0283  -3.0241  -3.0006  -2.9864  -2.8824  -2.8664
    -2.8580  -2.7244  -2.7043  -2.7022  -2.6990  -2.6893  -2.4664  -2.3905
    -2.3147  -2.2913  -2.1357  -1.8178  -1.7865  -1.7237  -1.7192  -1.5848
    -1.5833  -1.5203  -1.4710  -1.4525  -1.4429  -1.4066  -1.3254  -1.2215
    -1.1744  -1.1696  -1.1597  -1.1452  -0.9045  -0.8835  -0.8764  -0.8626
    -0.8458  -0.8069  -0.7679  -0.7668  -0.5022  -0.4999  -0.4912  -0.4867
    -0.4639  -0.4278  -0.3753  -0.3505  -0.3494  -0.3470  -0.2828  -0.2327
    -0.2183  -0.2018  -0.1898  -0.1544  -0.1503  -0.1013  -0.0998  -0.0877
    -0.0787  -0.0392   0.0098   0.0464   0.6859   0.6930   1.0350   1.3713
     1.3881   1.4338   1.4417   1.5465   1.5985   1.6008   1.6640   1.7770
     1.8681   1.8716   1.8914   2.4306   2.6616   2.6680   2.6771   2.9160
     2.9904   3.0057   3.0544   3.2850   3.3814   3.3984   3.4404   3.5702
     3.6325   3.6574   3.6777   3.6811   6.2472   6.2474   6.3117   7.5827
     7.5855   7.5974   7.7690   7.8124   7.8468   7.9279   7.9519   7.9686
     8.1575   8.1923   8.2367   8.2745   8.5287   8.5413   8.6233   8.6388
     8.8657   8.8857   8.8974   8.9537   9.0066   9.0505   9.1345   9.1386
     9.5394   9.5482   9.5612   9.5926   9.6966   9.7263   9.8246   9.8438
    10.3557  10.3813  10.3843  10.3940  10.5265  10.5489  10.6211  10.7059
    11.2155  11.2598  11.3708  11.3906  11.6377  11.6510  11.6594  11.8028
    12.1402  12.1596  12.1927  12.3063  12.5435  12.5567  12.5768  12.6514
    12.7311  12.7809  12.7875  12.9218  12.9316  13.0279  13.0380  13.0536
    13.0979  13.1479  13.1575  13.2630  13.3214  13.4080  13.4978  13.5064
    13.6285  13.6486  13.6796  13.7614  13.8917  13.9098  13.9229  13.9861
    14.0259  14.1771  14.2247  14.2830  14.2841  14.3306  14.3855  14.4215
    14.4394  14.4589  14.5177  14.5482  14.5888  14.6406  14.6817  14.9751
    14.9992  15.0152  15.0720  15.0809  15.0942  15.1216  15.1299  15.1392
    15.1501  15.1609  15.2273  15.2856  15.3087  15.3750  15.3877  15.4245
    15.4344  15.4476  15.5013  15.5181  15.5501  15.5683  15.5821  15.5911
    15.6056  15.6250  15.6253  15.7341  15.8360  15.8581  15.8624  15.8667
    15.9068  15.9231  15.9546  16.0243  16.0263  16.0680  16.0941  16.1145
    16.1261  16.1622  16.1695  16.1896  16.2307  16.2745  16.2979  16.3169
    16.4299  16.4702  16.4707  16.5981  16.6411  16.6703  16.7175  16.7347
    16.8228  16.8733  16.8776  16.9402  16.9987  17.0221  17.0655  17.1023
    17.1242  17.1599  17.2065  17.2333  17.3227  17.4233  17.4420  17.4666
    17.5208  17.5338  17.6285  17.7058  17.7637  17.7684  17.7933  17.8004
    17.8052  17.8699  17.8953  17.9171  17.9673  18.0341  18.0547  18.0602
    18.2296  18.2579  18.2881  18.3590  18.3900  18.4470  18.4650  18.5012
    18.5473  18.5521  18.6963  18.7809  18.8141  18.8816  18.9177  18.9290
    19.0849  19.1052  19.1450  19.2009  19.4672  19.4749  19.6330  19.6362
    19.6469  19.6656  19.6848  19.7258  19.8418  19.8594  19.8840  19.9024
[...]
    23.5151  23.5255  23.5672  23.6072  23.6630  23.7121  23.7293  23.7825
    23.8003  23.8754  23.8837  23.8944  23.9585  23.9772  24.0192  24.0261
    24.1001  24.1702  24.1847  24.2216  24.2647  24.2964  24.2974  24.3207
    24.4134  24.4205  24.4256  24.4523  24.5135  24.5136  24.5479  24.6857
    24.7028  24.7085  24.7134  24.7792  24.7932  24.8314  24.8359  24.8617
    24.9216  25.0518  25.1303  25.1494  25.2401  25.2579  25.3095  25.3377
    25.3411  25.4368  25.4713  25.5070  25.5331  25.5701  25.6181  25.6810
    25.7009  25.7921  25.8741  25.9002  25.9579  25.9668  25.9874  26.0797
    26.1311  26.1409  26.1623  26.1837  26.3598  26.3904  26.4302  26.4863
    26.5512  26.6320  26.6696  26.6792  26.6922  26.7590  26.7770  26.7890
    26.8091  26.8125  26.8649  26.8931  27.0361  27.0389  27.0807  27.1055
    27.1192  27.1828  27.1907  27.2308  27.2778  27.4250  27.4577  27.4616
    27.4887  27.5423  27.5625  27.5695  27.7070  27.7224  27.7755  27.7783
    27.8797  27.9103  27.9991  28.0155  28.0755  28.1468  28.1575  28.1898
    28.2022  28.2269

     the Fermi energy is    -0.0293 ev

!    total energy              =   -3791.49754082 Ry
     Harris-Foulkes estimate   =   -3791.49754082 Ry
     estimated scf accuracy    <          4.6E-09 Ry

     The total energy is the sum of the following terms:

     one-electron contribution =  -80655.76632686 Ry
     hartree contribution      =   40435.24627488 Ry
     xc contribution           =    -703.61774612 Ry
     ewald contribution        =   37132.64078387 Ry
     smearing contrib. (-TS)   =      -0.00052658 Ry

     convergence has been achieved in  19 iterations

     Forces acting on atoms (Ry/au):

     negative rho (up, down):  0.138E+01 0.000E+00
     atom    1 type  1   force =    -0.00001116    0.00000000    0.01177398
     atom    2 type  2   force =    -0.00060145    0.00000000   -0.02548270
     atom    3 type  2   force =    -0.00000307    0.00000000    0.07696355
     atom    4 type  1   force =     0.00012631   -0.01181207   -0.02802239
     atom    5 type  1   force =     0.00012631    0.01181207   -0.02802239
     atom    6 type  1   force =    -0.00003555    0.00000000    0.02347337
     atom    7 type  1   force =     0.00001449    0.00000000   -0.02618215
     atom    8 type  2   force =     0.00016346    0.00000000   -0.01187260
     atom    9 type  2   force =     0.00012760    0.00000000   -0.02385544
     atom   10 type  1   force =    -0.00025670    0.02107476   -0.00288089
     atom   11 type  1   force =    -0.00025670   -0.02107476   -0.00288089
     atom   12 type  1   force =     0.00001774    0.00000000    0.02838667
     atom   13 type  1   force =     0.00053415    0.00000000    0.01300414
     atom   14 type  2   force =     0.01712345    0.00000000   -0.00066961
     atom   15 type  2   force =    -0.00008863    0.00000000   -0.00105113
     atom   16 type  1   force =    -0.00112780    0.00151369   -0.00036771
     atom   17 type  1   force =    -0.00112780   -0.00151369   -0.00036771
     atom   18 type  1   force =     0.00084935    0.00000000    0.00050008
     atom   19 type  1   force =     0.00022549    0.00000000    0.00214556
     atom   20 type  2   force =     0.00491097    0.00000000    0.00399732
     atom   21 type  2   force =    -0.00955413    0.00000000    0.00340324
     atom   22 type  1   force =    -0.01439992    0.00857789   -0.01870656
     atom   23 type  1   force =    -0.01439992   -0.00857789   -0.01870656
     atom   24 type  1   force =     0.00091529    0.00000000    0.00148100
     atom   25 type  1   force =    -0.00000063    0.00000000    0.01251991
     atom   26 type  2   force =     0.00060077    0.00000000   -0.02548979
     atom   27 type  2   force =    -0.00000739    0.00000000    0.07642187
     atom   28 type  1   force =    -0.00012303   -0.01180906   -0.02801707
     atom   29 type  1   force =    -0.00012303    0.01180906   -0.02801707
     atom   30 type  1   force =     0.00002197    0.00000000    0.02609995
     atom   31 type  1   force =     0.00000815    0.00000000   -0.02716621
     atom   32 type  2   force =    -0.00022239    0.00000000   -0.01183467
     atom   33 type  2   force =    -0.00004488    0.00000000   -0.02033509
     atom   34 type  1   force =     0.00026833    0.02106960   -0.00286503
     atom   35 type  1   force =     0.00026833   -0.02106960   -0.00286503
     atom   36 type  1   force =     0.00000889    0.00000000    0.02835522
     atom   37 type  1   force =     0.00003515    0.00000000    0.00014671
     atom   38 type  2   force =    -0.01814551    0.00000000   -0.00044392
     atom   39 type  2   force =     0.00008508    0.00000000   -0.00157635
     atom   40 type  1   force =     0.00108707    0.00138798   -0.00024277
     atom   41 type  1   force =     0.00108707   -0.00138798   -0.00024277
     atom   42 type  1   force =     0.00039006    0.00000000   -0.02345650
     atom   43 type  1   force =    -0.00019837    0.00000000   -0.00065742
     atom   44 type  2   force =    -0.00530767    0.00000000    0.00745875
     atom   45 type  2   force =     0.00308751    0.00000000    0.10039672
     atom   46 type  1   force =     0.01754130    0.01179428   -0.02604913
     atom   47 type  1   force =     0.01754130   -0.01179428   -0.02604913
     atom   48 type  1   force =    -0.00065878    0.00000000   -0.00289236
     atom   49 type  1   force =    -0.00045056    0.00000000    0.00051400
     atom   50 type  3   force =    -0.00002052    0.00000000    0.00022698

     Total force =     0.000721     Total SCF correction =     0.000046

     bfgs converged in  19 scf cycles and  18 bfgs steps
     (criteria: energy < 0.10E-03, force < 0.10E-02)

     End of BFGS Geometry Optimization

     Final energy   =   -3791.4975408165 Ry
Begin final coordinates

ATOMIC_POSITIONS (crystal)
O0       0.000000000   0.500000000   0.332440000    0   0   0
Rh1      0.250000000   0.500000000   0.366310000    0   0   0
Rh1      0.000000000   0.000000000   0.366310000    0   0   0
O0       0.250000000   0.810000000   0.366310000    0   0   0
O0       0.250000000   0.190000000   0.366310000    0   0   0
O0       0.000000000   0.500000000   0.400170000    0   0   0
O0       0.000000000   0.000000000   0.421570000    0   0   0
Rh1      0.250000000   0.000000000   0.455440000    0   0   0
Rh1      0.000000000   0.500000000   0.455440000    0   0   0
O0       0.250000000   0.690000000   0.455440000    0   0   0
O0       0.250000000   0.310000000   0.455440000    0   0   0
O0       0.000000000   0.000000000   0.489300000    0   0   0
O0       0.000000000   0.500000000   0.509590000    0   0   0
Rh1      0.250000000   0.500000000   0.543860000    0   0   0
Rh1      0.000000000   0.000000000   0.544590000    0   0   0
O0       0.250000000   0.806670000   0.544450000    0   0   0
O0       0.250000000   0.193330000   0.544450000    0   0   0
O0       0.000000000   0.500000000   0.578140000    0   0   0
O0       0.000000000   0.000000000   0.599260000    0   0   0
Rh1      0.250000000   0.000000000   0.634310000    0   0   0
Rh1      0.000000000   0.500000000   0.631230000    0   0   0
O0       0.250000000   0.690040000   0.636050000    0   0   0
O0       0.250000000   0.309960000   0.636050000    0   0   0
O0       0.000000000   0.000000000   0.667530000    0   0   0
O0       0.500000000   0.500000000   0.332440000    0   0   0
Rh1      0.750000000   0.500000000   0.366310000    0   0   0
Rh1      0.500000000   0.000000000   0.366310000    0   0   0
O0       0.750000000   0.810000000   0.366310000    0   0   0
O0       0.750000000   0.190000000   0.366310000    0   0   0
O0       0.500000000   0.500000000   0.400170000    0   0   0
O0       0.500000000   0.000000000   0.421570000    0   0   0
Rh1      0.750000000   0.000000000   0.455440000    0   0   0
Rh1      0.500000000   0.500000000   0.455440000    0   0   0
O0       0.750000000   0.690000000   0.455440000    0   0   0
O0       0.750000000   0.310000000   0.455440000    0   0   0
O0       0.500000000   0.000000000   0.489300000    0   0   0
O0       0.500000000   0.500000000   0.509590000    0   0   0
Rh1      0.750000000   0.500000000   0.543860000    0   0   0
Rh1      0.500000000   0.000000000   0.544590000    0   0   0
O0       0.750000000   0.806670000   0.544450000    0   0   0
O0       0.750000000   0.193330000   0.544450000    0   0   0
O0       0.500000000   0.500000000   0.578140000    0   0   0
O0       0.500000000   0.000000000   0.599260000    0   0   0
Rh1      0.750000000   0.000000000   0.634310000    0   0   0
Rh1      0.500000000   0.500000000   0.631230000    0   0   0
O0       0.750000000   0.690040000   0.636050000    0   0   0
O0       0.750000000   0.309960000   0.636050000    0   0   0
O0       0.500000000   0.000000000   0.667530000    0   0   0
O0       0.515133242   0.500000000   0.685106768
H2       0.368045885   0.500000000   0.695200829
End final coordinates

     General routines

     Parallel routines

   This run was terminated on:   4:54:56  30Mar2014

   JOB DONE.
Running PBS batch system epilogue script
Job id: 314589.audhumbla.fysik.dtu.dk
Username: zhonxu
Groupname: campgst
Jobname: RhO2/Eads-4-layers/OH
Sessionid: 63108
Queuename: verylong
Accounting:
This job has allocated the following 32 nodes:
g026 g026 g026 g026 g026 g026 g026 g026 g026 g026 g026 g026 g026 g026 g026 g026 g020 g020 g020 g020 g020 g020 g020 g020 g020 g020 g020 g020 g020 g020 g020 g020
Finished epilogue job 314589.audhumbla.fysik.dtu.dk for zhonxu