     Program PWSCF v.5.0.2 (svn rev. 9656) starts on 29Apr2014 at  0:16:10

     Current dimensions of program PWSCF are:
     Max number of different atomic species (ntypx) = 10
     Max number of k-points (npk) =  40000
     Max angular momentum in pseudopotentials (lmaxx) =  3
     Reading input from pwscf.in
Warning: card &CELL ignored
Warning: card / ignored

     Subspace diagonalization in iterative solution of the eigenvalue problem:
     a serial algorithm will be used

     bravais-lattice index     =            0
     lattice parameter (alat)  =      10.3179  a.u.
     unit-cell volume          =    6964.3238 (a.u.)^3
     number of atoms/cell      =           32
     number of atomic types    =            3
     number of electrons       =       231.00
     number of Kohn-Sham states=          346
     kinetic-energy cutoff     =      40.0000  Ry
     charge density cutoff     =     500.0000  Ry
     convergence threshold     =      1.0E-06
     mixing beta               =       0.7000
     number of iterations used =            8  plain     mixing
     Exchange-correlation      = SLA  PW   PBE  PBE ( 1 4 3 4 0)
     EXX-fraction              =        0.00
     nstep                     =           50

     celldm(1)=  10.317905  celldm(2)=   0.000000  celldm(3)=   0.000000
     celldm(4)=   0.000000  celldm(5)=   0.000000  celldm(6)=   0.000000

     crystal axes: (cart. coord. in units of alat)
               a(1) = (   1.000000   0.000000   0.000000 )
               a(2) = (   0.000000   1.282117   0.000000 )
               a(3) = (   0.000000   0.000000   4.945120 )

     reciprocal axes: (cart. coord. in units 2 pi/alat)
               b(1) = (  1.000000  0.000000  0.000000 )
               b(2) = (  0.000000  0.779960  0.000000 )
               b(3) = (  0.000000  0.000000  0.202220 )

     PseudoPot. # 1 for O  read from file:
     /home/camp/zhonxu/pseudo/o_pbe_v1.01.uspp.F.UPF
     MD5 check sum: 2bcb18d16ea4b960afae9ec6d52f22d2
     Pseudo is Ultrasoft + core correction, Zval =  6.0
     Generated by new atomic code, or converted to UPF format
     Using radial grid of  737 points,  5 beta functions with:
                l(1) =   0
                l(2) =   0
                l(3) =   1
                l(4) =   1
                l(5) =   2
     Q(r) pseudized with  8 coefficients,  rinner =    0.900   0.900   0.900
                                                       0.900   0.900

     PseudoPot. # 2 for Mo read from file:
     /home/camp/zhonxu/pseudo/mo_pbe_v1.uspp.F.UPF
     MD5 check sum: 30c4dcd161f5d35cd49bb5239c51a633
     Pseudo is Ultrasoft + core correction, Zval = 14.0
     Generated by new atomic code, or converted to UPF format
     Using radial grid of  889 points,  6 beta functions with:
                l(1) =   0
                l(2) =   0
                l(3) =   1
                l(4) =   1
                l(5) =   2
                l(6) =   2
     Q(r) pseudized with  6 coefficients,  rinner =    1.000   1.000   1.000
                                                       1.000   1.000

     PseudoPot. # 3 for H  read from file:
     /home/camp/zhonxu/pseudo/h_pbe_v1.uspp.F.UPF
     MD5 check sum: 3408e3ff4ec8b0a4e358431e7e038a48
     Pseudo is Ultrasoft, Zval =  1.0
     Generated by new atomic code, or converted to UPF format
     Using radial grid of  615 points,  2 beta functions with:
                l(1) =   0
                l(2) =   0
     Q(r) pseudized with  8 coefficients,  rinner =    0.700

     atomic species   valence    mass     pseudopotential
        O0             6.00    15.99940     O ( 1.00)
        Mo1           14.00    95.94000     Mo( 1.00)
        H2             1.00     1.00794     H ( 1.00)

     Simplified LDA+U calculation (l_max = 2) with parameters (eV):
     atomic species    L          U    alpha       J0     beta
        Mo1            2     1.0000   0.0000   0.0000   0.0000

     No symmetry found

   Cartesian axes

     site n.     atom                  positions (alat units)
         1           O0  tau(   1) = (   0.0000000   0.0000000   1.8362221  )
         2           O0  tau(   2) = (   0.0000000   0.6410583   1.8932888  )
         3           Mo1 tau(   3) = (   0.2500000   0.6410583   2.1787211  )
         4           Mo1 tau(   4) = (   0.0000000   0.0000000   2.1942488  )
         5           O0  tau(   5) = (   0.2500000   1.0000510   2.1917762  )
         6           O0  tau(   6) = (   0.2500000   0.2820657   2.1916279  )
         7           O0  tau(   7) = (   0.0000000   0.6410583   2.4619282  )
         8           O0  tau(   8) = (   0.0000000   0.0000000   2.5552920  )
         9           Mo1 tau(   9) = (   0.2500000   0.0000000   2.8451750  )
        10           Mo1 tau(  10) = (   0.0000000   0.6410583   2.7951798  )
        11           O0  tau(  11) = (   0.2500000   0.9231240   2.8229220  )
        12           O0  tau(  12) = (   0.2500000   0.3589927   2.8238121  )
        13           O0  tau(  13) = (   0.0000000   0.0000000   3.0959420  )
        14           O0  tau(  14) = (   0.5000000   0.0000000   1.8365188  )
        15           O0  tau(  15) = (   0.5000000   0.6410583   1.8939316  )
        16           Mo1 tau(  16) = (   0.7500000   0.6410583   2.1784244  )
        17           Mo1 tau(  17) = (   0.5000000   0.0000000   2.1964741  )
        18           O0  tau(  18) = (   0.7500000   1.0000510   2.1920730  )
        19           O0  tau(  19) = (   0.7500000   0.2820657   2.1913806  )
        20           O0  tau(  20) = (   0.5000000   0.6410583   2.4641535  )
        21           O0  tau(  21) = (   0.5000000   0.0000000   2.5544514  )
        22           Mo1 tau(  22) = (   0.7500000   0.0000000   2.8455212  )
        23           Mo1 tau(  23) = (   0.5000000   0.6410583   2.8262846  )
        24           O0  tau(  24) = (   0.7500000   0.9231240   2.8210923  )
        25           O0  tau(  25) = (   0.7500000   0.3589927   2.8208450  )
        26           O0  tau(  26) = (   0.5000000   0.0000000   3.0950519  )
        27           H2  tau(  27) = (  -0.0007600   0.7828861   1.7821225  )
        28           H2  tau(  28) = (   0.4995000   0.7914763   1.7941391  )
        29           H2  tau(  29) = (   0.1669200   0.0220268   1.7647651  )
        30           H2  tau(  30) = (   0.6653100   0.0245269   1.7632816  )
        31           O0  tau(  31) = (   0.5147600   0.6413532   3.1767948  )
        32           H2  tau(  32) = (   0.3891500   0.6353401   3.3044778  )

     number of k points=    10  Methfessel-Paxton smearing, width (Ry)=  0.0100
                       cart. coord. in units 2pi/alat
        k(    1) = (   0.0000000   0.0000000   0.0000000), wk =   0.1250000
        k(    2) = (   0.0000000   0.1949901   0.0000000), wk =   0.2500000
        k(    3) = (   0.0000000  -0.3899801   0.0000000), wk =   0.1250000
        k(    4) = (   0.2500000   0.0000000   0.0000000), wk =   0.2500000
        k(    5) = (   0.2500000   0.1949901   0.0000000), wk =   0.2500000
        k(    6) = (   0.2500000  -0.3899801   0.0000000), wk =   0.2500000
        k(    7) = (  -0.5000000   0.0000000   0.0000000), wk =   0.1250000
        k(    8) = (  -0.5000000   0.1949901   0.0000000), wk =   0.2500000
        k(    9) = (  -0.5000000  -0.3899801   0.0000000), wk =   0.1250000
        k(   10) = (  -0.2500000   0.1949901   0.0000000), wk =   0.2500000

     Largest allocated arrays     est. size (Mb)     dimensions
     Largest temporary arrays     est. size (Mb)     dimensions

     Check: negative/imaginary core charge=   -0.000003    0.000000

     Initial potential from superposition of free atoms
     Check: negative starting charge=   -0.002345

     starting charge  230.99142, renormalised to  231.00000

     negative rho (up, down):  0.235E-02 0.000E+00
     Number of +U iterations with fixed ns =  0
     Starting occupations:
 --- enter write_ns ---
 LDA+U parameters:
U( 2)     =  1.00000000
alpha( 2) =  0.00000000
atom    3   Tr[ns(na)] =   5.00000
    eigenvalues:
  0.500  0.500  0.500  0.500  0.500
    eigenvectors:
  1.000  0.000  0.000  0.000  0.000
  0.000  1.000  0.000  0.000  0.000
  0.000  0.000  1.000  0.000  0.000
  0.000  0.000  0.000  1.000  0.000
  0.000  0.000  0.000  0.000  1.000
    occupations:
  0.500  0.000  0.000  0.000  0.000
  0.000  0.500  0.000  0.000  0.000
  0.000  0.000  0.500  0.000  0.000
  0.000  0.000  0.000  0.500  0.000
  0.000  0.000  0.000  0.000  0.500
atom    4   Tr[ns(na)] =   5.00000
    eigenvalues:
  0.500  0.500  0.500  0.500  0.500
    eigenvectors:
  1.000  0.000  0.000  0.000  0.000
  0.000  1.000  0.000  0.000  0.000
  0.000  0.000  1.000  0.000  0.000
  0.000  0.000  0.000  1.000  0.000
  0.000  0.000  0.000  0.000  1.000
    occupations:
  0.500  0.000  0.000  0.000  0.000
  0.000  0.500  0.000  0.000  0.000
  0.000  0.000  0.500  0.000  0.000
  0.000  0.000  0.000  0.500  0.000
  0.000  0.000  0.000  0.000  0.500
atom    9   Tr[ns(na)] =   5.00000
    eigenvalues:
  0.500  0.500  0.500  0.500  0.500
    eigenvectors:
  1.000  0.000  0.000  0.000  0.000
  0.000  1.000  0.000  0.000  0.000
  0.000  0.000  1.000  0.000  0.000
  0.000  0.000  0.000  1.000  0.000
  0.000  0.000  0.000  0.000  1.000
    occupations:
  0.500  0.000  0.000  0.000  0.000
  0.000  0.500  0.000  0.000  0.000
  0.000  0.000  0.500  0.000  0.000
  0.000  0.000  0.000  0.500  0.000
  0.000  0.000  0.000  0.000  0.500
atom   10   Tr[ns(na)] =   5.00000
    eigenvalues:
  0.500  0.500  0.500  0.500  0.500
    eigenvectors:
  1.000  0.000  0.000  0.000  0.000
  0.000  1.000  0.000  0.000  0.000
  0.000  0.000  1.000  0.000  0.000
  0.000  0.000  0.000  1.000  0.000
  0.000  0.000  0.000  0.000  1.000
    occupations:
  0.500  0.000  0.000  0.000  0.000
  0.000  0.500  0.000  0.000  0.000
  0.000  0.000  0.500  0.000  0.000
  0.000  0.000  0.000  0.500  0.000
  0.000  0.000  0.000  0.000  0.500
atom   16   Tr[ns(na)] =   5.00000
    eigenvalues:
  0.500  0.500  0.500  0.500  0.500
    eigenvectors:
  1.000  0.000  0.000  0.000  0.000
  0.000  1.000  0.000  0.000  0.000
  0.000  0.000  1.000  0.000  0.000
  0.000  0.000  0.000  1.000  0.000
  0.000  0.000  0.000  0.000  1.000
    occupations:
  0.500  0.000  0.000  0.000  0.000
  0.000  0.500  0.000  0.000  0.000
  0.000  0.000  0.500  0.000  0.000
  0.000  0.000  0.000  0.500  0.000
  0.000  0.000  0.000  0.000  0.500
atom   17   Tr[ns(na)] =   5.00000
    eigenvalues:
  0.500  0.500  0.500  0.500  0.500
    eigenvectors:
  1.000  0.000  0.000  0.000  0.000
  0.000  1.000  0.000  0.000  0.000
  0.000  0.000  1.000  0.000  0.000
  0.000  0.000  0.000  1.000  0.000
  0.000  0.000  0.000  0.000  1.000
    occupations:
  0.500  0.000  0.000  0.000  0.000
  0.000  0.500  0.000  0.000  0.000
  0.000  0.000  0.500  0.000  0.000
  0.000  0.000  0.000  0.500  0.000
  0.000  0.000  0.000  0.000  0.500
atom   22   Tr[ns(na)] =   5.00000
    eigenvalues:
  0.500  0.500  0.500  0.500  0.500
    eigenvectors:
  1.000  0.000  0.000  0.000  0.000
  0.000  1.000  0.000  0.000  0.000
  0.000  0.000  1.000  0.000  0.000
  0.000  0.000  0.000  1.000  0.000
  0.000  0.000  0.000  0.000  1.000
[...]
    occupations:
  0.581  0.004  0.001 -0.005  0.000
  0.004  0.616  0.003 -0.001 -0.000
  0.001  0.003  0.464 -0.000  0.000
 -0.005 -0.001 -0.000  0.723  0.000
  0.000 -0.000  0.000  0.000  0.523
atom    9   Tr[ns(na)] =   5.81757
    eigenvalues:
  0.515  0.536  0.584  0.589  0.685
    eigenvectors:
  0.000  0.000  0.226  0.004  0.770
  0.000  0.000  0.015  0.985  0.000
  0.243  0.757  0.000  0.000  0.000
  0.000  0.000  0.759  0.011  0.230
  0.757  0.243  0.000  0.000  0.000
    occupations:
  0.662 -0.000 -0.001 -0.042 -0.001
 -0.000  0.589 -0.000 -0.001 -0.000
 -0.001 -0.000  0.531  0.000  0.009
 -0.042 -0.001  0.000  0.607  0.000
 -0.001 -0.000  0.009  0.000  0.520
atom   10   Tr[ns(na)] =   5.76785
    eigenvalues:
  0.504  0.517  0.522  0.615  0.726
    eigenvectors:
  0.981  0.017  0.000  0.001  0.001
  0.001  0.000  0.000  0.999  0.000
  0.017  0.983  0.000  0.000  0.000
  0.001  0.000  0.000  0.000  0.999
  0.000  0.000  1.000  0.000  0.000
    occupations:
  0.505 -0.004 -0.002 -0.008 -0.000
 -0.004  0.615 -0.001  0.000  0.000
 -0.002 -0.001  0.517 -0.000 -0.000
 -0.008  0.000 -0.000  0.725 -0.000
 -0.000  0.000 -0.000 -0.000  0.522
atom   16   Tr[ns(na)] =   5.82031
    eigenvalues:
  0.503  0.510  0.563  0.606  0.728
    eigenvectors:
  0.011  0.003  0.338  0.000  0.648
  0.005  0.991  0.003  0.001  0.000
  0.960  0.004  0.003  0.024  0.008
  0.000  0.002  0.654  0.000  0.344
  0.023  0.001  0.000  0.975  0.000
    occupations:
  0.669  0.004  0.019 -0.078  0.002
  0.004  0.511  0.001  0.001 -0.002
  0.019  0.001  0.508 -0.009 -0.016
 -0.078  0.001 -0.009  0.619 -0.001
  0.002 -0.002 -0.016 -0.001  0.603
atom   17   Tr[ns(na)] =   5.82073
    eigenvalues:
  0.475  0.522  0.580  0.609  0.724
    eigenvectors:
  0.000  0.000  0.977  0.021  0.002
  0.001  0.000  0.021  0.978  0.000
  0.999  0.000  0.000  0.001  0.000
  0.000  0.000  0.002  0.000  0.998
  0.000  1.000  0.000  0.000  0.000
    occupations:
  0.581  0.004  0.001 -0.007  0.000
  0.004  0.609  0.004 -0.001 -0.000
  0.001  0.004  0.475  0.001  0.000
 -0.007 -0.001  0.001  0.723  0.000
  0.000 -0.000  0.000  0.000  0.522
atom   22   Tr[ns(na)] =   5.81806
    eigenvalues:
  0.513  0.536  0.584  0.589  0.686
    eigenvectors:
  0.000  0.000  0.220  0.008  0.772
  0.000  0.000  0.034  0.966  0.000
  0.243  0.757  0.000  0.000  0.000
  0.000  0.000  0.746  0.026  0.228
  0.757  0.243  0.000  0.000  0.000
    occupations:
  0.663  0.000 -0.001 -0.043 -0.001
  0.000  0.589 -0.000  0.001 -0.000
 -0.001 -0.000  0.531  0.000 -0.010
 -0.043  0.001  0.000  0.608  0.000
 -0.001 -0.000 -0.010  0.000  0.519
atom   23   Tr[ns(na)] =   5.82510
    eigenvalues:
  0.502  0.530  0.564  0.584  0.733
    eigenvectors:
  0.000  0.000  0.171  0.824  0.005
  0.000  0.000  0.828  0.172  0.000
  0.998  0.002  0.000  0.000  0.000
  0.000  0.000  0.001  0.005  0.995
  0.002  0.998  0.000  0.000  0.000
    occupations:
  0.581  0.008 -0.000 -0.011  0.000
  0.008  0.567  0.001 -0.000  0.000
 -0.000  0.001  0.502 -0.000 -0.001
 -0.011 -0.000 -0.000  0.732 -0.000
  0.000  0.000 -0.001 -0.000  0.530
N of occupied +U levels =  46.5033392
 --- exit write_ns ---

     Threshold (ethr) on eigenvalues was too large:
     Diagonalizing with lowered threshold

     Davidson diagonalization with overlap
     ethr =  5.65E-09,  avg # of iterations =  2.2

[...]

     total energy              =   -1733.00513280 Ry
     Harris-Foulkes estimate   =   -1733.00513281 Ry
     estimated scf accuracy    <       0.00000005 Ry

     iteration # 12     ecut=    40.00 Ry     beta=0.70
     Davidson diagonalization with overlap
     ethr =  7.34E-12,  avg # of iterations =  1.1

     negative rho (up, down):  0.342E-02 0.000E+00

     End of self-consistent calculation
 --- enter write_ns ---
 LDA+U parameters:
U( 2)     =  1.00000000
alpha( 2) =  0.00000000
atom    3   Tr[ns(na)] =   5.82163
    eigenvalues:
  0.504  0.511  0.563  0.607  0.726
    eigenvectors:
  0.012  0.003  0.336  0.000  0.648
  0.005  0.991  0.003  0.000  0.000
  0.961  0.003  0.004  0.023  0.009
  0.000  0.002  0.655  0.000  0.343
  0.022  0.001  0.000  0.976  0.000
    occupations:
  0.668 -0.004  0.019 -0.077 -0.001
 -0.004  0.511 -0.001 -0.001 -0.002
  0.019 -0.001  0.509 -0.009  0.015
 -0.077 -0.001 -0.009  0.619  0.000
 -0.001 -0.002  0.015  0.000  0.604
atom    4   Tr[ns(na)] =   5.81193
    eigenvalues:
  0.464  0.523  0.580  0.617  0.723
    eigenvectors:
  0.000  0.000  0.988  0.011  0.001
  0.001  0.000  0.011  0.989  0.000
  0.999  0.000  0.000  0.001  0.000
  0.000  0.000  0.001  0.000  0.999
  0.000  1.000  0.000  0.000  0.000
    occupations:
  0.581  0.004  0.001 -0.005  0.000
  0.004  0.616  0.003 -0.001 -0.000
  0.001  0.003  0.464 -0.000  0.000
 -0.005 -0.001 -0.000  0.723  0.000
  0.000 -0.000  0.000  0.000  0.523
atom    9   Tr[ns(na)] =   5.81839
    eigenvalues:
  0.515  0.536  0.584  0.589  0.685
    eigenvectors:
  0.000  0.000  0.226  0.004  0.770
  0.000  0.000  0.015  0.985  0.000
  0.243  0.757  0.000  0.000  0.000
  0.000  0.000  0.758  0.012  0.230
  0.757  0.243  0.000  0.000  0.000
    occupations:
  0.662 -0.000 -0.001 -0.042 -0.001
 -0.000  0.589 -0.000 -0.001 -0.000
 -0.001 -0.000  0.531  0.000  0.009
 -0.042 -0.001  0.000  0.607  0.000
 -0.001 -0.000  0.009  0.000  0.520
atom   10   Tr[ns(na)] =   5.76694
    eigenvalues:
  0.504  0.517  0.522  0.615  0.726
    eigenvectors:
  0.981  0.017  0.000  0.001  0.001
  0.001  0.000  0.000  0.999  0.000
  0.017  0.983  0.000  0.000  0.000
  0.001  0.000  0.000  0.000  0.999
  0.000  0.000  1.000  0.000  0.000
    occupations:
  0.504 -0.004 -0.002 -0.008 -0.000
 -0.004  0.615 -0.001  0.000  0.000
 -0.002 -0.001  0.517 -0.000 -0.000
 -0.008  0.000 -0.000  0.725 -0.000
 -0.000  0.000 -0.000 -0.000  0.522
atom   16   Tr[ns(na)] =   5.82138
    eigenvalues:
  0.503  0.510  0.563  0.606  0.728
    eigenvectors:
  0.011  0.003  0.338  0.000  0.648
  0.005  0.991  0.003  0.001  0.000
  0.960  0.004  0.003  0.024  0.008
  0.000  0.002  0.654  0.000  0.344
  0.023  0.001  0.000  0.975  0.000
    occupations:
  0.669  0.004  0.019 -0.078  0.002
  0.004  0.511  0.001  0.001 -0.002
  0.019  0.001  0.508 -0.009 -0.015
 -0.078  0.001 -0.009  0.620 -0.001
  0.002 -0.002 -0.015 -0.001  0.604
atom   17   Tr[ns(na)] =   5.82001
    eigenvalues:
  0.475  0.522  0.580  0.609  0.724
    eigenvectors:
  0.000  0.000  0.977  0.021  0.002
  0.001  0.000  0.021  0.978  0.000
  0.999  0.000  0.000  0.001  0.000
  0.000  0.000  0.002  0.000  0.998
  0.000  1.000  0.000  0.000  0.000
    occupations:
  0.581  0.004  0.001 -0.007  0.000
  0.004  0.608  0.004 -0.001 -0.000
  0.001  0.004  0.475  0.001  0.000
 -0.007 -0.001  0.001  0.723  0.000
  0.000 -0.000  0.000  0.000  0.522
atom   22   Tr[ns(na)] =   5.81604
    eigenvalues:
  0.513  0.536  0.584  0.589  0.686
    eigenvectors:
  0.000  0.000  0.219  0.009  0.772
  0.000  0.000  0.035  0.965  0.000
  0.241  0.759  0.000  0.000  0.000
  0.000  0.000  0.746  0.027  0.228
  0.759  0.241  0.000  0.000  0.000
    occupations:
  0.663  0.000 -0.001 -0.042 -0.001
  0.000  0.589 -0.000  0.001 -0.000
 -0.001 -0.000  0.530  0.000 -0.010
 -0.042  0.001  0.000  0.608  0.000
 -0.001 -0.000 -0.010  0.000  0.518
atom   23   Tr[ns(na)] =   5.82447
    eigenvalues:
  0.502  0.530  0.564  0.584  0.733
    eigenvectors:
  0.000  0.000  0.170  0.824  0.005
  0.000  0.000  0.829  0.171  0.000
  0.998  0.002  0.000  0.000  0.000
  0.000  0.000  0.001  0.005  0.995
  0.002  0.998  0.000  0.000  0.000
    occupations:
  0.581  0.008 -0.000 -0.011  0.000
  0.008  0.567  0.001 -0.000  0.000
 -0.000  0.001  0.502 -0.000 -0.001
 -0.011 -0.000 -0.000  0.732 -0.000
  0.000  0.000 -0.001 -0.000  0.530
N of occupied +U levels =  46.5007899
 --- exit write_ns ---

[...]

          k = 0.2500-0.3900 0.0000 ( 29726 PWs)   bands (ev):

[...]

          k =-0.2500 0.1950 0.0000 ( 29746 PWs)   bands (ev):

   -62.3544 -62.3128 -62.2262 -62.1694 -62.1449 -62.0996 -62.0520 -62.0172
   -36.8885 -36.7316 -36.6671 -36.6604 -36.6395 -36.5646 -36.4992 -36.4756
   -36.4119 -36.4078 -36.3807 -36.3179 -36.3071 -36.2692 -36.2474 -36.2306
   -36.1757 -36.1310 -36.1138 -36.0905 -36.0743 -35.9146 -35.7612 -35.7470
   -20.6204 -20.3656 -19.7937 -19.6522 -19.5755 -19.4434 -19.3473 -19.2517
   -19.2033 -19.0912 -18.8850 -18.7616 -18.7419 -18.7027 -18.6181 -18.5711
   -18.5048 -18.0132 -17.8641  -8.6299  -8.4989  -8.0208  -7.9418  -7.6448
    -7.5487  -7.5194  -7.4448  -7.2779  -7.1447  -7.0900  -6.9619  -6.8133
    -6.7581  -6.5786  -6.2988  -6.2201  -6.1232  -6.0746  -5.9544  -5.8544
    -5.6773  -5.6581  -5.5117  -5.4256  -5.2835  -5.2002  -5.0758  -4.9800
    -4.8512  -4.6575  -4.6114  -4.4550  -4.3965  -4.3608  -4.2716  -4.2505
    -4.1877  -4.1011  -4.0161  -3.9214  -3.8646  -3.7729  -3.6424  -3.5068
    -3.4113  -3.3171  -3.2675  -3.1796  -3.1079  -3.0740  -2.9743  -2.8774
    -2.6970  -2.6540  -2.5982  -2.3443  -1.4983  -1.3815  -1.2818  -0.5152
    -0.3705  -0.2283  -0.1856   0.3159   0.3938   0.7585   0.8661   0.9299
     0.9828   1.1817   1.3199   1.4847   1.6067   1.6397   1.7708   1.9108
     2.0269   2.0534   2.1473   2.3385   2.5625   3.4676   3.6823   3.7628
     3.8462   3.9840   4.0747   4.1802   4.4788   4.6429   4.7410   4.8323
     4.8903   5.0465   5.1054   5.3662   5.6926   5.8557   5.9389   6.0680
     6.1631   6.2600   6.4358   6.4957   6.6292   6.8111   7.1030   7.1748
     7.2993   7.3614   7.6219   7.7135   8.0104   8.1198   8.2759   8.3592
     8.5328   8.6288   8.7409   8.8647   8.9793   9.0601   9.1663   9.3153
     9.4107   9.5076   9.5606   9.6472   9.7156   9.7519   9.8320   9.9808
    10.0884  10.3375  10.3678  10.4490  10.5178  10.6686  10.7323  10.8190
    10.8912  11.0097  11.1295  11.1955  11.3757  11.5005  11.5944  11.6448
    11.7704  11.8848  11.9109  12.0301  12.0904  12.2054  12.3096  12.3653
    12.4093  12.4344  12.5122  12.6311  12.7635  12.8274  12.9444  13.0143
    13.0827  13.1533  13.2399  13.3281  13.3749  13.4666  13.4904  13.5577
    13.6332  13.7168  13.8110  13.8420  13.9312  14.0264  14.0542  14.1031
    14.1667  14.2009  14.2911  14.3463  14.4096  14.4978  14.5322  14.6351
    14.6862  14.7505  14.8623  14.9401  15.0206  15.0827  15.1252  15.2208
    15.3283  15.4322  15.5122  15.5925  15.6048  15.7106  15.7733  15.9320
    15.9552  16.0187  16.0680  16.1401  16.2349  16.3116  16.3702  16.4015
    16.4415  16.4776  16.5605  16.6516  16.7659  16.8113  16.8474  16.9764
    17.0747  17.1434  17.1930  17.2318  17.2631  17.3250  17.4088  17.4908
    17.5436  17.5946  17.7010  17.8232  17.8743  17.9727  18.0577  18.1350
    18.2133  18.2418  18.2877  18.3154  18.4174  18.5374  18.5705  18.6966
    18.7620  18.8332  18.9325  18.9823  19.0469  19.1393  19.2012  19.2539
    19.3751  19.4205  19.5247  19.5956  19.7948  19.8137  19.9145  19.9518
    19.9555  20.0583  20.1217  20.1746  20.2592  20.2887  20.3443  20.3629
    20.3835  20.4595  20.5199  20.5976  20.6476  20.7256  20.7723  20.8186
    20.9141  21.0031  21.0388  21.1309  21.2063  21.2695  21.3178  21.3527
    21.4301  21.4883  21.5419  21.6178  21.6481  21.7368  21.7593  21.8004
    21.8477  21.8784

     the Fermi energy is     0.2195 ev

!    total energy              =   -1733.00513280 Ry
     Harris-Foulkes estimate   =   -1733.00513281 Ry
     estimated scf accuracy    <          4.7E-09 Ry

     The total energy is the sum of the following terms:

     one-electron contribution =  -22250.00764559 Ry
     hartree contribution      =   11150.00085273 Ry
     xc contribution           =    -294.51339776 Ry
     ewald contribution        =    9660.81724218 Ry
     Hubbard energy            =       0.69766339 Ry
     smearing contrib. (-TS)   =       0.00015226 Ry

     convergence has been achieved in  12 iterations

     Forces acting on atoms (Ry/au):

     negative rho (up, down):  0.342E-02 0.000E+00
     atom    1 type  1   force =    -0.00079060   -0.00499512   -0.00040242
     atom    2 type  1   force =    -0.00027340    0.00821608    0.00014533
     atom    3 type  2   force =    -0.00429392   -0.00557926    0.00037178
     atom    4 type  2   force =     0.00010242    0.00564166    0.00029340
     atom    5 type  1   force =     0.00083102   -0.00167935   -0.00001495
     atom    6 type  1   force =    -0.00111543   -0.00218329   -0.00004602
     atom    7 type  1   force =     0.00016700    0.00020061   -0.00056935
     atom    8 type  1   force =     0.00352020    0.00050425    0.00000498
     atom    9 type  2   force =    -0.00004935    0.00016389    0.00008001
     atom   10 type  2   force =    -0.00361510    0.00005119    0.00090948
     atom   11 type  1   force =    -0.01270931   -0.02441268   -0.00019064
     atom   12 type  1   force =    -0.01333779    0.02371861   -0.00017618
     atom   13 type  1   force =     0.00041971    0.00005358   -0.00017233
     atom   14 type  1   force =    -0.00369090   -0.00628523   -0.00021551
     atom   15 type  1   force =    -0.00025867    0.00978172    0.00004547
     atom   16 type  2   force =     0.00827675   -0.00675102    0.00045485
     atom   17 type  2   force =    -0.00070131    0.00465355    0.00004095
     atom   18 type  1   force =     0.00180359   -0.00185295   -0.00002293
     atom   19 type  1   force =     0.00093723   -0.00171523   -0.00009312
     atom   20 type  1   force =    -0.00572634    0.00124014   -0.00026710
     atom   21 type  1   force =     0.00262082    0.00022035    0.00031370
     atom   22 type  2   force =    -0.00486841   -0.00054047   -0.00044189
     atom   23 type  2   force =     0.00270900    0.00173012   -0.00046087
     atom   24 type  1   force =     0.01379959   -0.02240625    0.00008496
     atom   25 type  1   force =     0.01472186    0.02260244    0.00010297
     atom   26 type  1   force =     0.00047920    0.00050943   -0.00034005
     atom   27 type  3   force =     0.00000710   -0.00033222    0.00001616
     atom   28 type  3   force =    -0.00000913   -0.00009247    0.00003499
     atom   29 type  3   force =     0.00027315    0.00002251    0.00009490
     atom   30 type  3   force =     0.00018695   -0.00001646    0.00022408
     atom   31 type  1   force =    -0.00030060   -0.00001256    0.00055188
     atom   32 type  3   force =     0.00088466   -0.00045559   -0.00035654

     Total force =     0.002108     Total SCF correction =     0.000224
     SCF correction compared to forces is large: reduce conv_thr to get better values

     bfgs converged in   4 scf cycles and   3 bfgs steps
     (criteria: energy < 0.10E-03, force < 0.10E-02)

     End of BFGS Geometry Optimization

     Final energy   =   -1733.0051328036 Ry
Begin final coordinates

ATOMIC_POSITIONS (crystal)
O0       0.000000000   0.000000000   0.371387489    0   0   1
O0       0.000000000   0.500000000   0.382925187    0   0   1
Mo1      0.250000000   0.500000000   0.440592680    0   0   1
Mo1      0.000000000   0.000000000   0.443675407    0   0   1
O0       0.250000000   0.780000000   0.443211678    0   0   1
O0       0.250000000   0.220000000   0.443173572    0   0   1
O0       0.000000000   0.500000000   0.497953603    0   0   1
O0       0.000000000   0.000000000   0.516631180    0   0   1
Mo1      0.250000000   0.000000000   0.575367918    0   0   1
Mo1      0.000000000   0.500000000   0.565192234    0   0   1
O0       0.250000000   0.720000000   0.570848793    0   0   1
O0       0.250000000   0.280000000   0.571028743    0   0   1
O0       0.000000000   0.000000000   0.625998676    0   0   1
O0       0.500000000   0.000000000   0.371481190    0   0   1
O0       0.500000000   0.500000000   0.383018319    0   0   1
Mo1      0.750000000   0.500000000   0.440502265    0   0   1
Mo1      0.500000000   0.000000000   0.444167785    0   0   1
O0       0.750000000   0.780000000   0.443276279    0   0   1
O0       0.750000000   0.220000000   0.443119222    0   0   1
O0       0.500000000   0.500000000   0.498364069    0   0   1
O0       0.500000000   0.000000000   0.516419332    0   0   1
Mo1      0.750000000   0.000000000   0.575354477    0   0   1
Mo1      0.500000000   0.500000000   0.571510016    0   0   1
O0       0.750000000   0.720000000   0.570552942    0   0   1
O0       0.750000000   0.280000000   0.570509078    0   0   1
O0       0.500000000   0.000000000   0.625851734    0   0   1
H2      -0.000758838   0.610428932   0.360390538
H2       0.499500267   0.617229562   0.362816140
H2       0.166840061   0.017170843   0.356904563
H2       0.665226105   0.019096851   0.356622036
O0       0.514719078   0.500226509   0.642300704
H2       0.389556957   0.495349862   0.668202151
End final coordinates

     General routines

     Parallel routines
     Hubbard U routines

   This run was terminated on:   3:24:21  29Apr2014

   JOB DONE.