     Program PWSCF v.5.0.2 (svn rev. 9656) starts on 23Jan2014 at 19:35:53

     Current dimensions of program PWSCF are:
     Max number of different atomic species (ntypx) = 10
     Max number of k-points (npk) =  40000
     Max angular momentum in pseudopotentials (lmaxx) =  3
     Reading input from ReO2-v-1.0.in

     Subspace diagonalization in iterative solution of the eigenvalue problem:
     a serial algorithm will be used

     bravais-lattice index     =            0
     lattice parameter (alat)  =       8.6590  a.u.
     unit-cell volume          =     418.3967 (a.u.)^3
     number of atoms/cell      =            6
     number of atomic types    =            2
     number of electrons       =        54.00
     number of Kohn-Sham states=           81
     kinetic-energy cutoff     =      40.0000  Ry
     charge density cutoff     =     500.0000  Ry
     convergence threshold     =      1.0E-06
     mixing beta               =       0.7000
     number of iterations used =            8  plain     mixing
     Exchange-correlation      = SLA  PW   PBE  PBE ( 1 4 3 4 0)
     EXX-fraction              =        0.00
     nstep                     =           50

     celldm(1)=   8.658997  celldm(2)=   0.000000  celldm(3)=   0.000000
     celldm(4)=   0.000000  celldm(5)=   0.000000  celldm(6)=   0.000000

     crystal axes: (cart. coord. in units of alat)
               a(1) = (   1.000000   0.000000   0.000000 )
               a(2) = (   0.000000   1.000000   0.000000 )
               a(3) = (   0.000000   0.000000   0.644444 )

     reciprocal axes: (cart. coord. in units 2 pi/alat)
               b(1) = (  1.000000  0.000000  0.000000 )
               b(2) = (  0.000000  1.000000  0.000000 )
               b(3) = (  0.000000  0.000000  1.551724 )

     PseudoPot. # 1 for Re read from file:
     /home/camp/zhonxu/pseudo/re_pbe_v1.uspp.F.UPF
     MD5 check sum: 6f5a5dcaf9c96c20d0ffdde0de57afc6
     Pseudo is Ultrasoft + core correction, Zval = 15.0
     Generated by new atomic code, or converted to UPF format
     Using radial grid of  981 points,  8 beta functions with:
                l(1) =   0
                l(2) =   0
                l(3) =   1
                l(4) =   1
                l(5) =   2
                l(6) =   2
                l(7) =   3
                l(8) =   3
     Q(r) pseudized with  8 coefficients,  rinner =    1.000   1.000   1.000
                                                       1.000   1.000   1.000
                                                       1.000

     PseudoPot. # 2 for O  read from file:
     /home/camp/zhonxu/pseudo/o_pbe_v1.01.uspp.F.UPF
     MD5 check sum: 2bcb18d16ea4b960afae9ec6d52f22d2
     Pseudo is Ultrasoft + core correction, Zval =  6.0
     Generated by new atomic code, or converted to UPF format
     Using radial grid of  737 points,  5 beta functions with:
                l(1) =   0
                l(2) =   0
                l(3) =   1
                l(4) =   1
                l(5) =   2
     Q(r) pseudized with  8 coefficients,  rinner =    0.900   0.900   0.900
                                                       0.900   0.900

     atomic species   valence    mass     pseudopotential
        Re0           15.00   186.20700     Re( 1.00)
        O1             6.00    15.99940     O ( 1.00)

     Starting magnetic structure
     atomic species   magnetization
        Re0          0.600
        O1           0.000

     16 Sym. Ops., with inversion, found ( 8 have fractional translation)

   Cartesian axes

     site n.     atom                  positions (alat units)
         1           Re0 tau(   1) = (   0.0000000   0.0000000   0.0000000  )
         2           Re0 tau(   2) = (   0.5000000   0.5000000   0.3222222  )
         3           O1  tau(   3) = (   0.3050000   0.3050000   0.0000000  )
         4           O1  tau(   4) = (  -0.3050000  -0.3050000   0.0000000  )
         5           O1  tau(   5) = (   0.8050000   0.1950000   0.3222222  )
         6           O1  tau(   6) = (   0.1950000   0.8050000   0.3222222  )

     number of k points=    36  Methfessel-Paxton smearing, width (Ry)=  0.0100
                       cart. coord. in units 2pi/alat
        k(    1) = (   0.0000000   0.0000000   0.0000000), wk =   0.0080000
        k(    2) = (   0.0000000   0.0000000   0.3103448), wk =   0.0160000
        k(    3) = (   0.0000000   0.0000000   0.6206897), wk =   0.0160000
        k(    4) = (   0.0000000   0.2000000   0.0000000), wk =   0.0320000
        k(    5) = (   0.0000000   0.2000000   0.3103448), wk =   0.0640000
        k(    6) = (   0.0000000   0.2000000   0.6206897), wk =   0.0640000
        k(    7) = (   0.0000000   0.4000000   0.0000000), wk =   0.0320000
        k(    8) = (   0.0000000   0.4000000   0.3103448), wk =   0.0640000
        k(    9) = (   0.0000000   0.4000000   0.6206897), wk =   0.0640000
        k(   10) = (   0.2000000   0.2000000   0.0000000), wk =   0.0320000
        k(   11) = (   0.2000000   0.2000000   0.3103448), wk =   0.0640000
        k(   12) = (   0.2000000   0.2000000   0.6206897), wk =   0.0640000
        k(   13) = (   0.2000000   0.4000000   0.0000000), wk =   0.0640000
        k(   14) = (   0.2000000   0.4000000   0.3103448), wk =   0.1280000
        k(   15) = (   0.2000000   0.4000000   0.6206897), wk =   0.1280000
        k(   16) = (   0.4000000   0.4000000   0.0000000), wk =   0.0320000
        k(   17) = (   0.4000000   0.4000000   0.3103448), wk =   0.0640000
        k(   18) = (   0.4000000   0.4000000   0.6206897), wk =   0.0640000
        k(   19) = (   0.0000000   0.0000000   0.0000000), wk =   0.0080000
        k(   20) = (   0.0000000   0.0000000   0.3103448), wk =   0.0160000
        k(   21) = (   0.0000000   0.0000000   0.6206897), wk =   0.0160000
        k(   22) = (   0.0000000   0.2000000   0.0000000), wk =   0.0320000
        k(   23) = (   0.0000000   0.2000000   0.3103448), wk =   0.0640000
        k(   24) = (   0.0000000   0.2000000   0.6206897), wk =   0.0640000
        k(   25) = (   0.0000000   0.4000000   0.0000000), wk =   0.0320000
        k(   26) = (   0.0000000   0.4000000   0.3103448), wk =   0.0640000
        k(   27) = (   0.0000000   0.4000000   0.6206897), wk =   0.0640000
        k(   28) = (   0.2000000   0.2000000   0.0000000), wk =   0.0320000
        k(   29) = (   0.2000000   0.2000000   0.3103448), wk =   0.0640000
        k(   30) = (   0.2000000   0.2000000   0.6206897), wk =   0.0640000
        k(   31) = (   0.2000000   0.4000000   0.0000000), wk =   0.0640000
        k(   32) = (   0.2000000   0.4000000   0.3103448), wk =   0.1280000
        k(   33) = (   0.2000000   0.4000000   0.6206897), wk =   0.1280000
        k(   34) = (   0.4000000   0.4000000   0.0000000), wk =   0.0320000
        k(   35) = (   0.4000000   0.4000000   0.3103448), wk =   0.0640000
        k(   36) = (   0.4000000   0.4000000   0.6206897), wk =   0.0640000

     Largest allocated arrays     est. size (Mb)     dimensions
     Largest temporary arrays     est. size (Mb)     dimensions

     Check: negative/imaginary core charge=   -0.000004    0.000000

     Initial potential from superposition of free atoms
     Check: negative starting charge=(component1):   -0.046499
     Check: negative starting charge=(component2):   -0.011266

     starting charge   52.99990, renormalised to   54.00000

     negative rho (up, down):  0.474E-01 0.115E-01
     Starting wfc are   42 randomized atomic wfcs

     Self-consistent Calculation

     iteration #  1     ecut=    40.00 Ry     beta=0.70
     Davidson diagonalization with overlap
     ethr =  1.00E-02,  avg # of iterations =  5.1

     negative rho (up, down):  0.175E-01 0.513E-01

     total energy              =    -517.52575954 Ry
     Harris-Foulkes estimate   =    -517.78278955 Ry
     estimated scf accuracy    <       2.23804310 Ry

     total magnetization       =     5.98 Bohr mag/cell
     absolute magnetization    =     6.27 Bohr mag/cell

[...]

     End of self-consistent calculation

 ------ SPIN UP ------------

          k = 0.0000 0.0000 0.0000 (  1819 PWs)   bands (ev):

   -65.2586 -65.2541 -27.2429 -27.2429 -27.2164 -27.1818 -27.1148 -27.1148
    -6.2558  -5.1236  -3.7805  -3.7805   5.3654   5.7172   7.0469   7.6534
     7.6534  10.0059  10.0059  10.5694  11.6950  11.9175  11.9175  12.5377
    14.3319  14.3709  15.2591  15.3633  15.3633  18.8961  18.9555  19.8728
    22.2336  22.2336  23.8214  24.1743  24.1743  28.1461  28.7795  28.9946
    31.4340  31.5322  32.2301  32.2301  34.5315  35.3285  36.0008  36.0008
    37.1023  37.1023  38.2263  42.2102  42.5159  42.5159  43.0871  43.5859
    44.9481  45.9648  45.9648  46.3573  46.5989  46.7373  46.7373  47.6367
    47.7635  48.6891  48.6891  49.0736  51.7770  53.9266  53.9266  54.0848
    54.8289  54.8289  54.8320  55.6231  56.0378  56.1068  56.1214  56.1214
    57.2557

[...]

 ------ SPIN DOWN ----------

[...]

     the Fermi energy is    16.2332 ev

!    total energy              =    -518.43189775 Ry
     Harris-Foulkes estimate   =    -518.43189780 Ry
     estimated scf accuracy    <       0.00000015 Ry

     The total energy is the sum of the following terms:

     one-electron contribution =    -111.97584130 Ry
     hartree contribution      =      88.81210987 Ry
     xc contribution           =    -142.99667025 Ry
     ewald contribution        =    -352.27128932 Ry
     smearing contrib. (-TS)   =      -0.00020675 Ry

[...]

     convergence has been achieved in  17 iterations

     Forces acting on atoms (Ry/au):

     negative rho (up, down):  0.271E-01 0.309E-01
     atom    1 type  1   force =     0.00000000    0.00000000    0.00000000
     atom    2 type  1   force =     0.00000000    0.00000000    0.00000000
     atom    3 type  2   force =    -0.06992020   -0.06992020    0.00000000
     atom    4 type  2   force =     0.06992020    0.06992020    0.00000000
     atom    5 type  2   force =    -0.06992020    0.06992020    0.00000000
     atom    6 type  2   force =     0.06992020   -0.06992020    0.00000000

     Total force =     0.197764     Total SCF correction =     0.000603

     entering subroutine stress ...

     negative rho (up, down):  0.271E-01 0.309E-01
          total   stress  (Ry/bohr**3)                   (kbar)     P=  281.32
   0.00189666   0.00000000   0.00000000        279.01      0.00      0.00
   0.00000000   0.00189666   0.00000000          0.00    279.01      0.00
   0.00000000   0.00000000   0.00194374          0.00      0.00    285.93

     Volume is kept fixed: isostatic pressure set to zero

     BFGS Geometry Optimization

     number of scf cycles    =   1
     number of bfgs steps    =   0

     enthalpy new            =    -518.4318977534 Ry

     new trust radius        =       0.0988820958 bohr
     new conv_thr            =       0.0000010000 Ry

     new unit-cell volume =    418.39674 a.u.^3 (    62.00000 Ang^3 )

CELL_PARAMETERS (alat=  8.65899730)
   0.999607862   0.000000000   0.000000000
   0.000000000   0.999607862   0.000000000
   0.000000000   0.000000000   0.644950165

ATOMIC_POSITIONS (crystal)
Re0      0.000000000   0.000000000   0.000000000    0   0   0
[...]
        k(   28) = (   0.2000785   0.2000785   0.0000000), wk =   0.0320000
        k(   29) = (   0.2000785   0.2000785   0.3101015), wk =   0.0640000
        k(   30) = (   0.2000785   0.2000785   0.6202030), wk =   0.0640000
        k(   31) = (   0.2000785   0.4001569   0.0000000), wk =   0.0640000
        k(   32) = (   0.2000785   0.4001569   0.3101015), wk =   0.1280000
        k(   33) = (   0.2000785   0.4001569   0.6202030), wk =   0.1280000
        k(   34) = (   0.4001569   0.4001569   0.0000000), wk =   0.0320000
        k(   35) = (   0.4001569   0.4001569   0.3101015), wk =   0.0640000
        k(   36) = (   0.4001569   0.4001569   0.6202030), wk =   0.0640000

     Check: negative/imaginary core charge=   -0.000004    0.000000
     Check: negative starting charge=(component1):   -0.057793

[...]

     enthalpy old            =    -518.4318977534 Ry
     enthalpy new            =    -518.4590060564 Ry

     CASE: enthalpy_new < enthalpy_old

[...]

     Total force =     0.000126     Total SCF correction =     0.000086
     SCF correction compared to forces is large: reduce conv_thr to get better values

[...]

     number of scf cycles    =   7
     number of bfgs steps    =   6

     enthalpy old            =    -518.5329250546 Ry
     enthalpy new            =    -518.5335411786 Ry

     CASE: enthalpy_new < enthalpy_old

     new trust radius        =       0.0054943220 bohr
     new conv_thr            =       0.0000000100 Ry

     new unit-cell volume =    418.39674 a.u.^3 (    62.00000 Ang^3 )

[...]

ATOMIC_POSITIONS (crystal)
Re0      0.000000000   0.000000000   0.000000000    0   0   0
Re0      0.500000000   0.500000000   0.500000000    0   0   0
O1       0.280243427   0.280243427   0.000000000    1   1   0
O1      -0.280243427  -0.280243427   0.000000000    1   1   0
O1       0.780243427   0.219756573   0.500000000    1   1   0
O1       0.219756573   0.780243427   0.500000000    1   1   0

     Check: negative starting charge=(component1):   -0.057930
     NEW-OLD atomic charge density approx. for the potential
     NEW k-points:
        k(    1) = (   0.0000000   0.0000000   0.0000000), wk =   0.0080000
        k(    2) = (   0.0000000   0.0000000   0.3500243), wk =   0.0160000
        k(    3) = (   0.0000000   0.0000000   0.7000486), wk =   0.0160000
        k(    4) = (   0.0000000   0.1883229   0.0000000), wk =   0.0320000
        k(    5) = (   0.0000000   0.1883229   0.3500243), wk =   0.0640000
        k(    6) = (   0.0000000   0.1883229   0.7000486), wk =   0.0640000
        k(    7) = (   0.0000000   0.3766458   0.0000000), wk =   0.0320000
        k(    8) = (   0.0000000   0.3766458   0.3500243), wk =   0.0640000
        k(    9) = (   0.0000000   0.3766458   0.7000486), wk =   0.0640000
        k(   10) = (   0.1883229   0.1883229   0.0000000), wk =   0.0320000
        k(   11) = (   0.1883229   0.1883229   0.3500243), wk =   0.0640000
        k(   12) = (   0.1883229   0.1883229   0.7000486), wk =   0.0640000
        k(   13) = (   0.1883229   0.3766458   0.0000000), wk =   0.0640000
        k(   14) = (   0.1883229   0.3766458   0.3500243), wk =   0.1280000
        k(   15) = (   0.1883229   0.3766458   0.7000486), wk =   0.1280000
        k(   16) = (   0.3766458   0.3766458   0.0000000), wk =   0.0320000
        k(   17) = (   0.3766458   0.3766458   0.3500243), wk =   0.0640000
        k(   18) = (   0.3766458   0.3766458   0.7000486), wk =   0.0640000
        k(   19) = (   0.0000000   0.0000000   0.0000000), wk =   0.0080000
        k(   20) = (   0.0000000   0.0000000   0.3500243), wk =   0.0160000
        k(   21) = (   0.0000000   0.0000000   0.7000486), wk =   0.0160000
        k(   22) = (   0.0000000   0.1883229   0.0000000), wk =   0.0320000
        k(   23) = (   0.0000000   0.1883229   0.3500243), wk =   0.0640000
        k(   24) = (   0.0000000   0.1883229   0.7000486), wk =   0.0640000
        k(   25) = (   0.0000000   0.3766458   0.0000000), wk =   0.0320000
        k(   26) = (   0.0000000   0.3766458   0.3500243), wk =   0.0640000
        k(   27) = (   0.0000000   0.3766458   0.7000486), wk =   0.0640000
        k(   28) = (   0.1883229   0.1883229   0.0000000), wk =   0.0320000
        k(   29) = (   0.1883229   0.1883229   0.3500243), wk =   0.0640000
        k(   30) = (   0.1883229   0.1883229   0.7000486), wk =   0.0640000
        k(   31) = (   0.1883229   0.3766458   0.0000000), wk =   0.0640000
        k(   32) = (   0.1883229   0.3766458   0.3500243), wk =   0.1280000
        k(   33) = (   0.1883229   0.3766458   0.7000486), wk =   0.1280000
        k(   34) = (   0.3766458   0.3766458   0.0000000), wk =   0.0320000
        k(   35) = (   0.3766458   0.3766458   0.3500243), wk =   0.0640000
        k(   36) = (   0.3766458   0.3766458   0.7000486), wk =   0.0640000

     Check: negative/imaginary core charge=   -0.000003    0.000000
     Check: negative starting charge=(component1):   -0.057927

[...]

     Threshold (ethr) on eigenvalues was too large:
     Diagonalizing with lowered threshold

     Davidson diagonalization with overlap
     ethr =  7.67E-09,  avg # of iterations =  1.8

[...]

     Volume is kept fixed: isostatic pressure set to zero

     bfgs converged in   8 scf cycles and   7 bfgs steps
     (criteria: energy < 0.10E-03, force < 0.10E-02, cell < 0.50E+00)

     End of BFGS Geometry Optimization

     Final enthalpy =    -518.5335536981 Ry
Begin final coordinates
     new unit-cell volume =    418.39674 a.u.^3 (    62.00000 Ang^3 )

CELL_PARAMETERS (alat=  8.65899730)
   1.062005661   0.000000000   0.000000000
   0.000000000   1.062005661   0.000000000
   0.000000000   0.000000000   0.571388928

ATOMIC_POSITIONS (crystal)
Re0      0.000000000   0.000000000   0.000000000    0   0   0
Re0      0.500000000   0.500000000   0.500000000    0   0   0
O1       0.280243427   0.280243427   0.000000000    1   1   0
O1      -0.280243427  -0.280243427   0.000000000    1   1   0
O1       0.780243427   0.219756573   0.500000000    1   1   0
O1       0.219756573   0.780243427   0.500000000    1   1   0
End final coordinates

     A final scf calculation at the relaxed structure.
     The G-vectors are recalculated for the final unit cell
     Results may differ from those at the preceding step.

     bravais-lattice index     =            0
     lattice parameter (alat)  =       8.6590  a.u.
     unit-cell volume          =     418.3967 (a.u.)^3
     number of atoms/cell      =            6
     number of atomic types    =            2
     number of electrons       =        54.00
     number of Kohn-Sham states=           81
     kinetic-energy cutoff     =      40.0000  Ry
     charge density cutoff     =     500.0000  Ry
     convergence threshold     =      1.0E-08
     mixing beta               =       0.7000
     number of iterations used =            8  plain     mixing
     Exchange-correlation      = SLA  PW   PBE  PBE ( 1 4 3 4 0)
     EXX-fraction              =        0.00

     celldm(1)=   8.658997  celldm(2)=   0.000000  celldm(3)=   0.000000
     celldm(4)=   0.000000  celldm(5)=   0.000000  celldm(6)=   0.000000

     crystal axes: (cart. coord. in units of alat)
               a(1) = (   1.062006   0.000000   0.000000 )
               a(2) = (   0.000000   1.062006   0.000000 )
               a(3) = (   0.000000   0.000000   0.571389 )

     reciprocal axes: (cart. coord. in units 2 pi/alat)
               b(1) = (  0.941615  0.000000  0.000000 )
               b(2) = (  0.000000  0.941615  0.000000 )
               b(3) = (  0.000000  0.000000  1.750121 )

     PseudoPot. # 1 for Re read from file:
     /home/camp/zhonxu/pseudo/re_pbe_v1.uspp.F.UPF
     MD5 check sum: 6f5a5dcaf9c96c20d0ffdde0de57afc6
     Pseudo is Ultrasoft + core correction, Zval = 15.0
     Generated by new atomic code, or converted to UPF format
     Using radial grid of  981 points,  8 beta functions with:
                l(1) =   0
                l(2) =   0
                l(3) =   1
                l(4) =   1
                l(5) =   2
                l(6) =   2
                l(7) =   3
                l(8) =   3
     Q(r) pseudized with  8 coefficients,  rinner =    1.000   1.000   1.000
                                                       1.000   1.000   1.000
                                                       1.000

     PseudoPot. # 2 for O  read from file:
     /home/camp/zhonxu/pseudo/o_pbe_v1.01.uspp.F.UPF
     MD5 check sum: 2bcb18d16ea4b960afae9ec6d52f22d2
     Pseudo is Ultrasoft + core correction, Zval =  6.0
     Generated by new atomic code, or converted to UPF format
     Using radial grid of  737 points,  5 beta functions with:
                l(1) =   0
                l(2) =   0
                l(3) =   1
                l(4) =   1
                l(5) =   2
     Q(r) pseudized with  8 coefficients,  rinner =    0.900   0.900   0.900
                                                       0.900   0.900

     atomic species   valence    mass     pseudopotential
        Re0           15.00   186.20700     Re( 1.00)
        O1             6.00    15.99940     O ( 1.00)

     Starting magnetic structure
     atomic species   magnetization
        Re0          0.600
        O1           0.000

     16 Sym. Ops., with inversion, found ( 8 have fractional translation)

   Cartesian axes

     site n.     atom                  positions (alat units)
         1           Re0 tau(   1) = (   0.0000000   0.0000000   0.0000000  )
         2           Re0 tau(   2) = (   0.5310028   0.5310028   0.2856945  )
         3           O1  tau(   3) = (   0.2976201   0.2976201   0.0000000  )
         4           O1  tau(   4) = (  -0.2976201  -0.2976201   0.0000000  )
         5           O1  tau(   5) = (   0.8286229   0.2333827   0.2856945  )
         6           O1  tau(   6) = (   0.2333827   0.8286229   0.2856945  )

     number of k points=    36  Methfessel-Paxton smearing, width (Ry)=  0.0100
                       cart. coord. in units 2pi/alat
        k(    1) = (   0.0000000   0.0000000   0.0000000), wk =   0.0080000
        k(    2) = (   0.0000000   0.0000000   0.3500243), wk =   0.0160000
        k(    3) = (   0.0000000   0.0000000   0.7000486), wk =   0.0160000
        k(    4) = (   0.0000000   0.1883229   0.0000000), wk =   0.0320000
        k(    5) = (   0.0000000   0.1883229   0.3500243), wk =   0.0640000
        k(    6) = (   0.0000000   0.1883229   0.7000486), wk =   0.0640000
        k(    7) = (   0.0000000   0.3766458   0.0000000), wk =   0.0320000
        k(    8) = (   0.0000000   0.3766458   0.3500243), wk =   0.0640000
        k(    9) = (   0.0000000   0.3766458   0.7000486), wk =   0.0640000
        k(   10) = (   0.1883229   0.1883229   0.0000000), wk =   0.0320000
        k(   11) = (   0.1883229   0.1883229   0.3500243), wk =   0.0640000
        k(   12) = (   0.1883229   0.1883229   0.7000486), wk =   0.0640000
        k(   13) = (   0.1883229   0.3766458   0.0000000), wk =   0.0640000
        k(   14) = (   0.1883229   0.3766458   0.3500243), wk =   0.1280000
        k(   15) = (   0.1883229   0.3766458   0.7000486), wk =   0.1280000
        k(   16) = (   0.3766458   0.3766458   0.0000000), wk =   0.0320000
        k(   17) = (   0.3766458   0.3766458   0.3500243), wk =   0.0640000
        k(   18) = (   0.3766458   0.3766458   0.7000486), wk =   0.0640000
        k(   19) = (   0.0000000   0.0000000   0.0000000), wk =   0.0080000
        k(   20) = (   0.0000000   0.0000000   0.3500243), wk =   0.0160000
        k(   21) = (   0.0000000   0.0000000   0.7000486), wk =   0.0160000
        k(   22) = (   0.0000000   0.1883229   0.0000000), wk =   0.0320000
        k(   23) = (   0.0000000   0.1883229   0.3500243), wk =   0.0640000
        k(   24) = (   0.0000000   0.1883229   0.7000486), wk =   0.0640000
        k(   25) = (   0.0000000   0.3766458   0.0000000), wk =   0.0320000
        k(   26) = (   0.0000000   0.3766458   0.3500243), wk =   0.0640000
        k(   27) = (   0.0000000   0.3766458   0.7000486), wk =   0.0640000
        k(   28) = (   0.1883229   0.1883229   0.0000000), wk =   0.0320000
        k(   29) = (   0.1883229   0.1883229   0.3500243), wk =   0.0640000
        k(   30) = (   0.1883229   0.1883229   0.7000486), wk =   0.0640000
        k(   31) = (   0.1883229   0.3766458   0.0000000), wk =   0.0640000
        k(   32) = (   0.1883229   0.3766458   0.3500243), wk =   0.1280000
        k(   33) = (   0.1883229   0.3766458   0.7000486), wk =   0.1280000
        k(   34) = (   0.3766458   0.3766458   0.0000000), wk =   0.0320000
        k(   35) = (   0.3766458   0.3766458   0.3500243), wk =   0.0640000
        k(   36) = (   0.3766458   0.3766458   0.7000486), wk =   0.0640000

     Largest allocated arrays     est. size (Mb)     dimensions
     Largest temporary arrays     est. size (Mb)     dimensions

     Check: negative/imaginary core charge=   -0.000004    0.000000

     Initial potential from superposition of free atoms
     Check: negative starting charge=(component1):   -0.048009
     Check: negative starting charge=(component2):   -0.011680

     starting charge   52.99990, renormalised to   54.00000

     negative rho (up, down):  0.489E-01 0.119E-01
     Starting wfc are   42 randomized atomic wfcs

     Self-consistent Calculation

[...]

     total energy              =    -518.53525520 Ry
     Harris-Foulkes estimate   =    -518.53525844 Ry
     estimated scf accuracy    <       0.00000006 Ry

[...]

     iteration # 13     ecut=    40.00 Ry     beta=0.70
     Davidson diagonalization with overlap
     ethr =  1.03E-10,  avg # of iterations =  3.0

     negative rho (up, down):  0.311E-01 0.312E-01

     End of self-consistent calculation

 ------ SPIN UP ------------

[...]

 ------ SPIN DOWN ----------

[...]

          k = 0.3766 0.3766 0.7000 (  1799 PWs)   bands (ev):

   -65.7709 -65.7709 -28.1387 -28.1382 -27.7159 -27.7127 -27.6838 -27.6813
    -4.6722  -4.4273  -4.2307  -3.9507   6.6837   7.1317   7.2254   7.5887
     7.7293   8.4444   8.5746   9.4090  10.5430  10.7487  11.6720  11.8934
    14.5727  14.8470  15.8467  16.2597  17.8458  17.9544  19.8515  20.8833
    21.2203  22.0276  24.7317  25.2351  25.3681  25.5357  29.3696  29.3903
    30.6259  30.7859  31.8979  32.2365  33.8201  34.4776  34.9725  35.6369
    38.1943  38.4832  39.3151  39.5018  41.8647  42.3020  43.3789  43.8562
    44.0132  44.3213  45.8835  46.6434  46.9797  47.3845  47.8871  48.2595
    48.7300  49.2201  49.4047  50.1007  50.9691  51.0971  51.6068  51.7776
    53.2906  54.2669  56.5619  57.5035  57.8059  58.0002  58.9690  58.9978
    60.4311

     the Fermi energy is    16.0538 ev

!    total energy              =    -518.53525926 Ry
     Harris-Foulkes estimate   =    -518.53525925 Ry
     estimated scf accuracy    <          2.5E-09 Ry

     The total energy is the sum of the following terms:

     one-electron contribution =    -117.14539631 Ry
     hartree contribution      =      90.89044205 Ry
     xc contribution           =    -142.89687717 Ry
     ewald contribution        =    -349.38309069 Ry
     smearing contrib. (-TS)   =      -0.00033714 Ry

     total magnetization       =     0.00 Bohr mag/cell
     absolute magnetization    =     0.00 Bohr mag/cell

     convergence has been achieved in  13 iterations

     Forces acting on atoms (Ry/au):

     negative rho (up, down):  0.311E-01 0.312E-01
     atom    1 type  1   force =     0.00000000    0.00000000   -0.00000000
     atom    2 type  1   force =     0.00000000    0.00000000   -0.00000000
     atom    3 type  2   force =     0.00002088    0.00002088    0.00000000
     atom    4 type  2   force =    -0.00002088   -0.00002088   -0.00000000
     atom    5 type  2   force =     0.00002088   -0.00002088    0.00000000
     atom    6 type  2   force =    -0.00002088    0.00002088   -0.00000000

     Total force =     0.000059     Total SCF correction =     0.000005

     entering subroutine stress ...

     negative rho (up, down):  0.311E-01 0.312E-01
          total   stress  (Ry/bohr**3)                   (kbar)     P=  174.06
   0.00120653   0.00000000   0.00000000        177.49      0.00      0.00
   0.00000000   0.00120653   0.00000000          0.00    177.49      0.00
   0.00000000   0.00000000   0.00113668          0.00      0.00    167.21

     General routines

     Parallel routines

   This run was terminated on:  20:13: 4  23Jan2014

   JOB DONE.
Running PBS batch system epilogue script
Job id: 251218.audhumbla.fysik.dtu.dk
Username: zhonxu
Groupname: campgst
Jobname: ReO2/coarse-EOS/ReO2-v-1.0
Sessionid: 32374
Queuename: verylong
Accounting:
This job has allocated the following 4 nodes:
q096 q096 q096 q096
Finished epilogue job 251218.audhumbla.fysik.dtu.dk for zhonxu