     Program PWSCF v.5.0.2 (svn rev. 9656) starts on  5May2014 at  0:51:21

     Current dimensions of program PWSCF are:
     Max number of different atomic species (ntypx) = 10
     Max number of k-points (npk) =  40000
     Max angular momentum in pseudopotentials (lmaxx) =  3
     Reading input from pwscf.in
Warning: card &CELL ignored
Warning: card / ignored

     Subspace diagonalization in iterative solution of the eigenvalue problem:
     a serial algorithm will be used

     bravais-lattice index     =            0
     lattice parameter (alat)  =      10.9604  a.u.
     unit-cell volume          =    6350.6732 (a.u.)^3
     number of atoms/cell      =           32
     number of atomic types    =            3
     number of electrons       =       231.00 (up: 123.00, down: 108.00)
     number of Kohn-Sham states=          334
     kinetic-energy cutoff     =      40.0000  Ry
     charge density cutoff     =     500.0000  Ry
     convergence threshold     =      1.0E-06
     mixing beta               =       0.7000
     number of iterations used =            8  plain     mixing
     Exchange-correlation      = SLA  PW   PBE  PBE ( 1 4 3 4 0)
     EXX-fraction              =        0.00
     nstep                     =           50

     celldm(1)=  10.960412  celldm(2)=   0.000000  celldm(3)=   0.000000
     celldm(4)=   0.000000  celldm(5)=   0.000000  celldm(6)=   0.000000

     crystal axes: (cart. coord. in units of alat)
               a(1) = (   1.000000   0.000000   0.000000 )
               a(2) = (   0.000000   1.067975   0.000000 )
               a(3) = (   0.000000   0.000000   4.516251 )

     reciprocal axes: (cart. coord. in units 2 pi/alat)
               b(1) = (  1.000000  0.000000  0.000000 )
               b(2) = (  0.000000  0.936351  0.000000 )
               b(3) = (  0.000000  0.000000  0.221423 )

     PseudoPot. # 1 for O  read from file:
     /home/camp/zhonxu/pseudo/o_pbe_v1.01.uspp.F.UPF
     MD5 check sum: 2bcb18d16ea4b960afae9ec6d52f22d2
     Pseudo is Ultrasoft + core correction, Zval =  6.0
     Generated by new atomic code, or converted to UPF format
     Using radial grid of  737 points,  5 beta functions with:
                l(1) =   0
                l(2) =   0
                l(3) =   1
                l(4) =   1
                l(5) =   2
     Q(r) pseudized with  8 coefficients,  rinner =    0.900   0.900   0.900
                                                       0.900   0.900

     PseudoPot. # 2 for Cr read from file:
     /home/camp/zhonxu/pseudo/cr_pbe_v1.uspp.F.UPF
     MD5 check sum: 68b6f918d1762dccfb11451fe85b0e0e
     Pseudo is Ultrasoft + core correction, Zval = 14.0
     Generated by new atomic code, or converted to UPF format
     Using radial grid of  857 points,  6 beta functions with:
                l(1) =   0
                l(2) =   0
                l(3) =   1
                l(4) =   1
                l(5) =   2
                l(6) =   2
     Q(r) pseudized with  6 coefficients,  rinner =    1.000   1.000   1.000
                                                       1.000   1.000

     PseudoPot. # 3 for H  read from file:
     /home/camp/zhonxu/pseudo/h_pbe_v1.uspp.F.UPF
     MD5 check sum: 3408e3ff4ec8b0a4e358431e7e038a48
     Pseudo is Ultrasoft, Zval =  1.0
     Generated by new atomic code, or converted to UPF format
     Using radial grid of  615 points,  2 beta functions with:
                l(1) =   0
                l(2) =   0
     Q(r) pseudized with  8 coefficients,  rinner =    0.700

     atomic species   valence    mass     pseudopotential
        O0             6.00    15.99940     O ( 1.00)
        Cr1           14.00    51.99600     Cr( 1.00)
        H2             1.00     1.00794     H ( 1.00)

     Starting magnetic structure
     atomic species   magnetization
        O0           0.000
        Cr1          0.600
        H2           0.000

     Simplified LDA+U calculation (l_max = 2) with parameters (eV):
     atomic species    L          U    alpha       J0     beta
        Cr1            2     1.0000   0.0000   0.0000   0.0000

     No symmetry found

   Cartesian axes

     site n.     atom                  positions (alat units)
         1           O0  tau(   1) = (   0.0000000   0.0000000   1.7072332  )
         2           O0  tau(   2) = (   0.0000000   0.5339875   1.8068165  )
         3           Cr1 tau(   3) = (   0.2500000   0.5339875   2.0386808  )
         4           Cr1 tau(   4) = (   0.0000000   0.0000000   2.0275709  )
         5           O0  tau(   5) = (   0.2500000   0.8543801   2.0319968  )
         6           O0  tau(   6) = (   0.2500000   0.2135950   2.0327194  )
         7           O0  tau(   7) = (   0.0000000   0.5339875   2.2464284  )
         8           O0  tau(   8) = (   0.0000000   0.0000000   2.3629476  )
         9           Cr1 tau(   9) = (   0.2500000   0.0000000   2.5576884  )
        10           Cr1 tau(  10) = (   0.0000000   0.5339875   2.5509140  )
        11           O0  tau(  11) = (   0.2500000   0.7475825   2.5906119  )
        12           O0  tau(  12) = (   0.2500000   0.3203925   2.5906119  )
        13           O0  tau(  13) = (   0.0000000   0.0000000   2.7911334  )
        14           O0  tau(  14) = (   0.5000000   0.0000000   1.7073235  )
        15           O0  tau(  15) = (   0.5000000   0.5339875   1.8079456  )
        16           Cr1 tau(  16) = (   0.7500000   0.5339875   2.0392228  )
        17           Cr1 tau(  17) = (   0.5000000   0.0000000   2.0278870  )
        18           O0  tau(  18) = (   0.7500000   0.8543801   2.0322226  )
        19           O0  tau(  19) = (   0.7500000   0.2135950   2.0329904  )
        20           O0  tau(  20) = (   0.5000000   0.5339875   2.2544673  )
        21           O0  tau(  21) = (   0.5000000   0.0000000   2.3630380  )
        22           Cr1 tau(  22) = (   0.7500000   0.0000000   2.6360002  )
        23           Cr1 tau(  23) = (   0.5000000   0.5339875   2.6018573  )
        24           O0  tau(  24) = (   0.7500000   0.7475825   2.5939087  )
        25           O0  tau(  25) = (   0.7500000   0.3203925   2.5936377  )
        26           O0  tau(  26) = (   0.5000000   0.0000000   2.7879720  )
        27           H2  tau(  27) = (  -0.0006000   0.6814001   1.7205110  )
        28           H2  tau(  28) = (   0.4996600   0.6814535   1.7215045  )
        29           H2  tau(  29) = (   0.1566500   0.0338121   1.6478896  )
        30           H2  tau(  30) = (   0.6567200   0.0335237   1.6481606  )
        31           O0  tau(  31) = (   0.5143900   0.5336458   2.9144271  )
        32           H2  tau(  32) = (   0.3645400   0.5319370   2.9931001  )

     number of k points=    20  Methfessel-Paxton smearing, width (Ry)=  0.0100
                       cart. coord. in units 2pi/alat
        k(    1) = (   0.0000000   0.0000000   0.0000000), wk =   0.0625000
        k(    2) = (   0.0000000   0.2340879   0.0000000), wk =   0.1250000
        k(    3) = (   0.0000000  -0.4681757   0.0000000), wk =   0.0625000
        k(    4) = (   0.2500000   0.0000000   0.0000000), wk =   0.1250000
        k(    5) = (   0.2500000   0.2340879   0.0000000), wk =   0.1250000
        k(    6) = (   0.2500000  -0.4681757   0.0000000), wk =   0.1250000
        k(    7) = (  -0.5000000   0.0000000   0.0000000), wk =   0.0625000
        k(    8) = (  -0.5000000   0.2340879   0.0000000), wk =   0.1250000
        k(    9) = (  -0.5000000  -0.4681757   0.0000000), wk =   0.0625000
        k(   10) = (  -0.2500000   0.2340879   0.0000000), wk =   0.1250000
        k(   11) = (   0.0000000   0.0000000   0.0000000), wk =   0.0625000
        k(   12) = (   0.0000000   0.2340879   0.0000000), wk =   0.1250000
        k(   13) = (   0.0000000  -0.4681757   0.0000000), wk =   0.0625000
        k(   14) = (   0.2500000   0.0000000   0.0000000), wk =   0.1250000
        k(   15) = (   0.2500000   0.2340879   0.0000000), wk =   0.1250000
        k(   16) = (   0.2500000  -0.4681757   0.0000000), wk =   0.1250000
        k(   17) = (  -0.5000000   0.0000000   0.0000000), wk =   0.0625000
        k(   18) = (  -0.5000000   0.2340879   0.0000000), wk =   0.1250000
        k(   19) = (  -0.5000000  -0.4681757   0.0000000), wk =   0.0625000
        k(   20) = (  -0.2500000   0.2340879   0.0000000), wk =   0.1250000

     Largest allocated arrays     est. size (Mb)     dimensions
     Largest temporary arrays     est. size (Mb)     dimensions

     Check: negative/imaginary core charge=   -0.000012    0.000000

     Initial potential from superposition of free atoms
     Check: negative starting charge=(component1):   -0.001476
     Check: negative starting charge=(component2):   -0.000504

     starting charge  222.99983, renormalised to  231.00000

     negative rho (up, down):  0.153E-02 0.522E-03
     Number of +U iterations with fixed ns =  0
     Starting occupations:
 --- enter write_ns ---
 LDA+U parameters:
U( 2)     =  1.00000000
alpha( 2) =  0.00000000
atom    3   Tr[ns(na)] (up, down, total) =   5.00000  0.00000  5.00000
   spin  1
    eigenvalues:
  1.000  1.000  1.000  1.000  1.000
    eigenvectors:
  1.000  0.000  0.000  0.000  0.000
  0.000  1.000  0.000  0.000  0.000
  0.000  0.000  1.000  0.000  0.000
  0.000  0.000  0.000  1.000  0.000
  0.000  0.000  0.000  0.000  1.000
    occupations:
  1.000  0.000  0.000  0.000  0.000
  0.000  1.000  0.000  0.000  0.000
  0.000  0.000  1.000  0.000  0.000
  0.000  0.000  0.000  1.000  0.000
  0.000  0.000  0.000  0.000  1.000
   spin  2
    eigenvalues:
  0.000  0.000  0.000  0.000  0.000
    eigenvectors:
  1.000  0.000  0.000  0.000  0.000
  0.000  1.000  0.000  0.000  0.000
  0.000  0.000  1.000  0.000  0.000
  0.000  0.000  0.000  1.000  0.000
  0.000  0.000  0.000  0.000  1.000
    occupations:
  0.000  0.000  0.000  0.000  0.000
  0.000  0.000  0.000  0.000  0.000
  0.000  0.000  0.000  0.000  0.000
  0.000  0.000  0.000  0.000  0.000
  0.000  0.000  0.000  0.000  0.000
atomic mag. moment =     5.000000
atom    4   Tr[ns(na)] (up, down, total) =   5.00000  0.00000  5.00000
   spin  1
    eigenvalues:
  1.000  1.000  1.000  1.000  1.000
    eigenvectors:
  1.000  0.000  0.000  0.000  0.000
  0.000  1.000  0.000  0.000  0.000
  0.000  0.000  1.000  0.000  0.000
  0.000  0.000  0.000  1.000  0.000
  0.000  0.000  0.000  0.000  1.000
    occupations:
  1.000  0.000  0.000  0.000  0.000
  0.000  1.000  0.000  0.000  0.000
  0.000  0.000  1.000  0.000  0.000
  0.000  0.000  0.000  1.000  0.000
  0.000  0.000  0.000  0.000  1.000
   spin  2
    eigenvalues:
  0.000  0.000  0.000  0.000  0.000
    eigenvectors:
  1.000  0.000  0.000  0.000  0.000
  0.000  1.000  0.000  0.000  0.000
  0.000  0.000  1.000  0.000  0.000
  0.000  0.000  0.000  1.000  0.000
  0.000  0.000  0.000  0.000  1.000
    occupations:
  0.000  0.000  0.000  0.000  0.000
  0.000  0.000  0.000  0.000  0.000
  0.000  0.000  0.000  0.000  0.000
  0.000  0.000  0.000  0.000  0.000
  0.000  0.000  0.000  0.000  0.000
atomic mag. moment =     5.000000
atom    9   Tr[ns(na)] (up, down, total) =   5.00000  0.00000  5.00000
   spin  1
    eigenvalues:
  1.000  1.000  1.000  1.000  1.000
[...]
  0.118  0.145  0.178  0.363  0.384
    eigenvectors:
  0.762  0.000  0.015  0.007  0.216
  0.000  0.003  0.000  0.964  0.033
  0.016  0.006  0.977  0.000  0.001
  0.222  0.000  0.002  0.026  0.751
  0.000  0.991  0.006  0.003  0.000
    occupations:
  0.178 -0.002 -0.004  0.110  0.000
 -0.002  0.363  0.000 -0.003  0.011
 -0.004  0.000  0.177  0.008 -0.003
  0.110 -0.003  0.008  0.324 -0.000
  0.000  0.011 -0.003 -0.000  0.146
atomic mag. moment =     2.308187
atom    4   Tr[ns(na)] (up, down, total) =   3.40616  1.28709  4.69325
   spin  1
    eigenvalues:
  0.482  0.525  0.584  0.837  0.980
    eigenvectors:
  0.001  0.993  0.000  0.001  0.004
  0.000  0.001  0.016  0.983  0.000
  0.000  0.000  0.984  0.016  0.000
  0.000  0.004  0.000  0.000  0.996
  0.998  0.001  0.000  0.000  0.000
    occupations:
  0.527 -0.012 -0.001  0.028  0.002
 -0.012  0.832  0.031  0.003 -0.000
 -0.001  0.031  0.588  0.002 -0.001
  0.028  0.003  0.002  0.978 -0.000
  0.002 -0.000 -0.001 -0.000  0.482
   spin  2
    eigenvalues:
  0.123  0.162  0.213  0.383  0.407
    eigenvectors:
  0.002  0.004  0.000  0.001  0.993
  0.002  0.955  0.039  0.000  0.004
  0.000  0.039  0.961  0.000  0.000
  0.996  0.002  0.000  0.000  0.002
  0.000  0.000  0.000  0.999  0.001
    occupations:
  0.405  0.015  0.003 -0.013  0.001
  0.015  0.165 -0.010  0.001 -0.000
  0.003 -0.010  0.211  0.000 -0.000
 -0.013  0.001  0.000  0.124  0.000
  0.001 -0.000 -0.000  0.000  0.383
atomic mag. moment =     2.119073
atom    9   Tr[ns(na)] (up, down, total) =   3.42095  1.31079  4.73174
   spin  1
    eigenvalues:
  0.495  0.506  0.626  0.820  0.974
    eigenvectors:
  0.014  0.156  0.000  0.000  0.830
  0.924  0.075  0.000  0.000  0.000
  0.000  0.000  0.981  0.018  0.000
  0.062  0.768  0.000  0.000  0.170
  0.000  0.000  0.018  0.982  0.000
    occupations:
  0.894  0.003 -0.001 -0.176 -0.001
  0.003  0.496  0.002  0.002 -0.000
 -0.001  0.002  0.629 -0.001 -0.026
 -0.176  0.002 -0.001  0.585  0.002
 -0.001 -0.000 -0.026  0.002  0.816
   spin  2
    eigenvalues:
  0.144  0.179  0.199  0.394  0.396
    eigenvectors:
  0.818  0.000  0.000  0.105  0.076
  0.000  0.000  0.000  0.418  0.582
  0.000  0.040  0.960  0.000  0.000
  0.182  0.000  0.000  0.476  0.342
  0.000  0.960  0.040  0.000  0.000
    occupations:
  0.189  0.001  0.000  0.097 -0.000
  0.001  0.395 -0.000  0.001  0.000
  0.000 -0.000  0.198  0.000  0.004
  0.097  0.001  0.000  0.349 -0.000
 -0.000  0.000  0.004 -0.000  0.180
atomic mag. moment =     2.110151
atom   10   Tr[ns(na)] (up, down, total) =   3.53737  1.14142  4.67879
   spin  1
    eigenvalues:
  0.472  0.503  0.723  0.863  0.977
    eigenvectors:
  0.000  0.996  0.000  0.000  0.004
  0.000  0.000  0.000  0.970  0.029
  0.001  0.000  0.999  0.000  0.000
  0.000  0.004  0.000  0.030  0.967
  0.999  0.000  0.001  0.000  0.000
    occupations:
  0.504 -0.008  0.001  0.029 -0.000
 -0.008  0.866 -0.001 -0.019  0.001
  0.001 -0.001  0.723  0.000  0.006
  0.029 -0.019  0.000  0.972  0.000
 -0.000  0.001  0.006  0.000  0.472
   spin  2
    eigenvalues:
  0.113  0.169  0.182  0.311  0.367
    eigenvectors:
  0.005  0.000  0.000  0.995  0.000
  0.001  0.999  0.000  0.000  0.000
  0.000  0.000  1.000  0.000  0.000
  0.994  0.001  0.000  0.005  0.000
  0.000  0.000  0.000  0.000  1.000
    occupations:
  0.310  0.000 -0.000 -0.014 -0.000
  0.000  0.169 -0.000  0.002 -0.000
 -0.000 -0.000  0.182 -0.000  0.002
 -0.014  0.002 -0.000  0.114  0.000
 -0.000 -0.000  0.002  0.000  0.366
atomic mag. moment =     2.395946
atom   16   Tr[ns(na)] (up, down, total) =   3.49434  1.18968  4.68401
   spin  1
    eigenvalues:
  0.462  0.506  0.673  0.878  0.976
    eigenvectors:
  0.003  0.223  0.002  0.000  0.772
  0.989  0.011  0.000  0.000  0.000
  0.000  0.000  0.997  0.000  0.003
  0.008  0.766  0.001  0.000  0.225
  0.000  0.000  0.000  1.000  0.000
    occupations:
  0.869  0.004  0.015 -0.196 -0.000
  0.004  0.463 -0.001  0.003 -0.007
  0.015 -0.001  0.674 -0.007  0.002
 -0.196  0.003 -0.007  0.611 -0.000
 -0.000 -0.007  0.002 -0.000  0.878
   spin  2
    eigenvalues:
  0.118  0.145  0.178  0.363  0.385
    eigenvectors:
  0.761  0.000  0.016  0.007  0.216
  0.000  0.003  0.000  0.967  0.030
  0.017  0.007  0.976  0.000  0.001
  0.222  0.000  0.002  0.024  0.753
  0.000  0.990  0.007  0.003  0.000
    occupations:
  0.179  0.002 -0.004  0.110 -0.000
  0.002  0.363 -0.000  0.003  0.011
 -0.004 -0.000  0.177  0.008  0.003
  0.110  0.003  0.008  0.325  0.000
 -0.000  0.011  0.003  0.000  0.146
atomic mag. moment =     2.304661
atom   17   Tr[ns(na)] (up, down, total) =   3.41457  1.27511  4.68968
   spin  1
    eigenvalues:
  0.480  0.525  0.595  0.834  0.981
    eigenvectors:
  0.001  0.994  0.000  0.001  0.004
  0.000  0.001  0.015  0.984  0.000
  0.000  0.000  0.984  0.015  0.000
  0.000  0.004  0.000  0.000  0.996
  0.998  0.001  0.000  0.000  0.000
    occupations:
  0.527 -0.010 -0.002  0.027  0.001
 -0.010  0.830  0.029  0.000 -0.000
 -0.002  0.029  0.599  0.001  0.002
  0.027  0.000  0.001  0.979 -0.000
  0.001 -0.000  0.002 -0.000  0.480
   spin  2
    eigenvalues:
  0.122  0.159  0.209  0.380  0.405
    eigenvectors:
  0.003  0.005  0.000  0.001  0.992
  0.002  0.953  0.041  0.000  0.005
  0.000  0.041  0.959  0.000  0.000
  0.996  0.002  0.000  0.000  0.002
  0.000  0.000  0.000  0.999  0.001
    occupations:
  0.403  0.017  0.004 -0.013  0.001
  0.017  0.162 -0.010  0.001 -0.000
  0.004 -0.010  0.207  0.000 -0.000
 -0.013  0.001  0.000  0.123  0.000
  0.001 -0.000 -0.000  0.000  0.380
atomic mag. moment =     2.139462
atom   22   Tr[ns(na)] (up, down, total) =   2.94477  1.90674  4.85152
   spin  1
    eigenvalues:
  0.514  0.535  0.550  0.623  0.723
    eigenvectors:
  0.970  0.002  0.028  0.000  0.000
  0.003  0.995  0.001  0.000  0.000
  0.000  0.000  0.000  0.033  0.967
  0.027  0.002  0.971  0.000  0.000
  0.000  0.000  0.000  0.967  0.033
    occupations:
  0.515  0.001 -0.002  0.006  0.001
  0.001  0.535  0.001  0.000  0.000
 -0.002  0.001  0.719  0.000 -0.018
  0.006  0.000  0.000  0.549 -0.001
  0.001  0.000 -0.018 -0.001  0.627
   spin  2
    eigenvalues:
  0.276  0.335  0.349  0.470  0.476
    eigenvectors:
  0.000  0.000  0.997  0.002  0.000
  0.000  0.000  0.000  0.038  0.962
  1.000  0.000  0.000  0.000  0.000
  0.000  0.000  0.002  0.959  0.038
  0.000  1.000  0.000  0.000  0.000
    occupations:
  0.350 -0.000  0.000  0.006 -0.000
 -0.000  0.476 -0.000 -0.001  0.000
  0.000 -0.000  0.276 -0.000 -0.001
  0.006 -0.001 -0.000  0.470  0.000
 -0.000  0.000 -0.001  0.000  0.335
atomic mag. moment =     1.038030
atom   23   Tr[ns(na)] (up, down, total) =   3.41595  1.26937  4.68532
   spin  1
    eigenvalues:
  0.472  0.516  0.570  0.892  0.965
    eigenvectors:
  0.000  0.995  0.000  0.000  0.005
  0.000  0.000  0.000  0.949  0.051
  0.006  0.001  0.993  0.000  0.000
  0.000  0.005  0.000  0.051  0.945
  0.994  0.000  0.006  0.000  0.000
    occupations:
  0.518  0.004 -0.001  0.030  0.000
  0.004  0.896  0.003  0.016 -0.000
 -0.001  0.003  0.570 -0.002 -0.008
  0.030  0.016 -0.002  0.959 -0.000
  0.000 -0.000 -0.008 -0.000  0.473
   spin  2
    eigenvalues:
  0.119  0.152  0.216  0.381  0.402
    eigenvectors:
  0.001  0.003  0.000  0.000  0.996
  0.005  0.992  0.000  0.000  0.003
  0.000  0.000  1.000  0.000  0.000
  0.994  0.005  0.000  0.000  0.002
  0.000  0.000  0.000  1.000  0.000
    occupations:
  0.401  0.013  0.000 -0.011  0.000
  0.013  0.152 -0.001 -0.003 -0.000
  0.000 -0.001  0.216  0.000 -0.003
 -0.011 -0.003  0.000  0.119 -0.000
  0.000 -0.000 -0.003 -0.000  0.381
atomic mag. moment =     2.146581
N of occupied +U levels =  37.6985686
 --- exit write_ns ---

 ------ SPIN UP ------------

[...]

 ------ SPIN DOWN ----------

[...]

          k = 0.2500-0.4682 0.0000 ( 27150 PWs)   bands (ev):

[...]

          k =-0.2500 0.2341 0.0000 ( 27132 PWs)   bands (ev):

   -74.3780 -72.6925 -72.6762 -72.6713 -72.6236 -72.5534 -72.4316 -72.4153
   -46.0374 -45.6614 -45.4524 -44.3728 -44.2858 -44.2548 -44.2300 -44.2293
   -44.1652 -44.0691 -44.0417 -44.0234 -43.9879 -43.9428 -43.8446 -43.8241
   -43.8185 -43.8045 -43.7904 -43.7891 -43.6679 -43.6532 -43.5971 -43.4655
   -21.1844 -20.7678 -20.6185 -20.5331 -20.4168 -20.2073 -20.0549 -19.9731
   -19.9164 -19.8673 -19.7465 -19.6845 -19.5688 -19.5386 -19.5245 -19.4487
   -19.3336 -19.2943 -19.2107  -8.7244  -8.4758  -8.1556  -8.1117  -7.9413
    -7.9165  -7.6660  -7.5816  -7.5339  -7.4382  -7.3462  -7.2753  -7.1507
    -7.1008  -6.9230  -6.8702  -6.7957  -6.7157  -6.6084  -6.4329  -6.3875
    -6.2880  -6.2045  -6.0141  -5.9226  -5.7617  -5.6863  -5.5870  -5.4389
    -5.3682  -5.3132  -5.2753  -5.2467  -5.1595  -5.0173  -4.9785  -4.9458
    -4.8121  -4.7447  -4.5399  -4.4148  -4.3615  -4.2327  -4.1664  -4.0913
    -4.0166  -3.9629  -3.8906  -3.8056  -3.6917  -3.5609  -3.5192  -3.4901
    -3.2302  -3.2072  -3.0819  -2.8450  -0.6167  -0.4789  -0.4623   0.0037
     0.0327   0.1400   0.2308   0.3029   0.3498   0.4008   0.5168   0.5591
     0.6209   0.6966   0.7680   0.8200   0.8735   0.9411   1.0007   1.0397
     1.0867   1.2479   1.2915   1.3386   1.4254   1.5522   1.8575   2.0667
     2.1647   2.4676   2.6225   2.6762   2.7683   2.9002   2.9936   3.0650
     3.1448   3.3617   3.6011   3.6792   3.8987   3.9465   4.3449   4.8032
     5.3297   5.7137   5.8761   5.8925   6.1686   6.2793   6.4298   6.5846
     6.7629   6.9069   7.0335   7.3286   7.4562   7.6766   7.8856   8.0063
     8.1228   8.3253   8.4008   8.5250   8.6735   8.8127   8.9969   9.1388
     9.2708   9.3304   9.4763   9.5656   9.6572   9.8143   9.8636  10.0289
    10.1409  10.2437  10.3338  10.4519  10.5306  10.6148  10.7183  10.8349
    10.9368  11.0213  11.1347  11.2391  11.2783  11.4260  11.4851  11.5960
    11.6725  11.7529  11.8931  11.9890  12.0846  12.1493  12.1797  12.2759
    12.3575  12.4187  12.5851  12.6772  12.7257  12.8364  12.9185  12.9790
    13.0099  13.0876  13.1615  13.1843  13.2226  13.3241  13.3579  13.4538
    13.5364  13.6386  13.7257  13.7962  13.8863  13.9050  14.0173  14.0816
    14.1332  14.2270  14.3670  14.4908  14.5511  14.6066  14.6724  14.7822
    14.8449  14.8787  14.9999  15.0791  15.1098  15.2731  15.3670  15.4246
    15.5291  15.5957  15.6367  15.7221  15.7528  15.8013  15.8949  15.9960
    16.0113  16.1242  16.2235  16.2655  16.3140  16.4234  16.4917  16.5222
    16.6184  16.7233  16.7650  16.8438  16.8875  16.9633  17.0169  17.1269
    17.2183  17.2430  17.3146  17.4226  17.4562  17.5266  17.5697  17.6181
    17.7200  17.7492  17.7671  17.8569  17.9471  18.0548  18.1103  18.1687
    18.2425  18.3046  18.3598  18.3986  18.4447  18.6243  18.7311  18.7856
    18.8290  18.9024  18.9439  19.0087  19.0948  19.1385  19.2488  19.3012
    19.4018  19.4408  19.5188  19.5901  19.6359  19.6671  19.7450  19.8475
    19.8782  20.0028  20.1046  20.1848  20.2402  20.3370  20.3860  20.5129
    20.5890  20.7118  20.7774  20.8296  20.9051  20.9565  21.0443  21.1327
    21.1981  21.2340  21.3371  21.3945  21.4140  21.5254

     the spin up/dw Fermi energies are    -1.5420   -2.6569 ev

!    total energy              =   -2026.55777741 Ry
     Harris-Foulkes estimate   =   -2026.55777741 Ry
     estimated scf accuracy    <          8.2E-09 Ry

     The total energy is the sum of the following terms:

     one-electron contribution =  -24230.78771783 Ry
     hartree contribution      =   12134.87415112 Ry
     xc contribution           =    -322.69426544 Ry
     ewald contribution        =   10391.51591769 Ry
     Hubbard energy            =       0.53373530 Ry
     smearing contrib. (-TS)   =       0.00040175 Ry

     total magnetization       =    15.00 Bohr mag/cell
     absolute magnetization    =    19.05 Bohr mag/cell

     convergence has been achieved in  15 iterations

     Forces acting on atoms (Ry/au):

     negative rho (up, down):  0.488E-02 0.174E-02
     atom    1 type  1   force =    -0.00307917   -0.01171067   -0.00009221
     atom    2 type  1   force =    -0.00022928    0.00740990    0.00018192
     atom    3 type  2   force =     0.03777995   -0.00328259   -0.00067202
     atom    4 type  2   force =    -0.00318061    0.00799707    0.00014772
     atom    5 type  1   force =     0.00073009    0.00735556    0.00001098
     atom    6 type  1   force =    -0.00106044   -0.00529154   -0.00000245
     atom    7 type  1   force =     0.00238234   -0.00152247   -0.00020311
     atom    8 type  1   force =    -0.00922878   -0.00110405    0.00020266
     atom    9 type  2   force =     0.00503371    0.00107895   -0.00030224
     atom   10 type  2   force =    -0.00242879    0.00006405   -0.00009608
     atom   11 type  1   force =    -0.02496479   -0.03215353    0.00040702
     atom   12 type  1   force =    -0.02496343    0.03139971    0.00044492
     atom   13 type  1   force =    -0.04610072    0.00005138    0.00003725
     atom   14 type  1   force =    -0.00530344   -0.01217481   -0.00011532
     atom   15 type  1   force =     0.00053146    0.00773119    0.00007532
     atom   16 type  2   force =    -0.03972729   -0.00261623   -0.00060234
     atom   17 type  2   force =     0.00658395    0.00795591    0.00012295
     atom   18 type  1   force =     0.00362951    0.00769219    0.00000980
     atom   19 type  1   force =     0.00185958   -0.00598100   -0.00003895
     atom   20 type  1   force =     0.00075403   -0.00185207   -0.00052660
     atom   21 type  1   force =     0.00623536   -0.00003420   -0.00010090
     atom   22 type  2   force =    -0.00077669    0.00012609    0.00034239
     atom   23 type  2   force =    -0.00771071    0.00033536    0.00007584
     atom   24 type  1   force =     0.02749298   -0.01535887    0.00007335
     atom   25 type  1   force =     0.02760261    0.01526936    0.00005763
     atom   26 type  1   force =     0.04835602   -0.00007706   -0.00016886
     atom   27 type  3   force =     0.00000983   -0.00034031   -0.00001164
     atom   28 type  3   force =    -0.00003546   -0.00029401   -0.00007350
     atom   29 type  3   force =     0.00010624   -0.00038019   -0.00001719
     atom   30 type  3   force =    -0.00003432   -0.00022214   -0.00016883
     atom   31 type  1   force =     0.00029680    0.00000814    0.00055308
     atom   32 type  3   force =    -0.00056055   -0.00007913    0.00044941

     Total force =     0.001808     Total SCF correction =     0.000378
     SCF correction compared to forces is large: reduce conv_thr to get better values

     bfgs converged in   7 scf cycles and   6 bfgs steps
     (criteria: energy < 0.10E-03, force < 0.10E-02)

     End of BFGS Geometry Optimization

     Final energy   =   -2026.5577774115 Ry
Begin final coordinates

ATOMIC_POSITIONS (crystal)
O0       0.000000000   0.000000000   0.377941672    0   0   1
O0       0.000000000   0.500000000   0.399633170    0   0   1
Cr1      0.250000000   0.500000000   0.451213684    0   0   1
Cr1      0.000000000   0.000000000   0.449054826    0   0   1
O0       0.250000000   0.800000000   0.449862313    0   0   1
O0       0.250000000   0.200000000   0.450011316    0   0   1
O0       0.000000000   0.500000000   0.497573282    0   0   1
O0       0.000000000   0.000000000   0.523048264    0   0   1
Cr1      0.250000000   0.000000000   0.566963041    0   0   1
Cr1      0.000000000   0.500000000   0.565090994    0   0   1
O0       0.250000000   0.700000000   0.573760375    0   0   1
O0       0.250000000   0.300000000   0.573763755    0   0   1
O0       0.000000000   0.000000000   0.617886564    0   0   1
O0       0.500000000   0.000000000   0.377877751    0   0   1
O0       0.500000000   0.500000000   0.400059839    0   0   1
Cr1      0.750000000   0.500000000   0.451274009    0   0   1
Cr1      0.500000000   0.000000000   0.449088607    0   0   1
O0       0.750000000   0.800000000   0.449912622    0   0   1
O0       0.750000000   0.200000000   0.450038243    0   0   1
O0       0.500000000   0.500000000   0.499576871    0   0   1
O0       0.500000000   0.000000000   0.523228975    0   0   1
Cr1      0.750000000   0.000000000   0.583403628    0   0   1
Cr1      0.500000000   0.500000000   0.576131622    0   0   1
O0       0.750000000   0.700000000   0.574530540    0   0   1
O0       0.750000000   0.300000000   0.574473054    0   0   1
O0       0.500000000   0.000000000   0.617341544    0   0   1
H2      -0.000582174   0.638690633   0.380807256
H2       0.499619317   0.638408323   0.381069043
H2       0.156958765   0.031146979   0.364863825
H2       0.656930239   0.031116446   0.364861436
O0       0.514685477   0.499688421   0.645617202
H2       0.364155377   0.498000341   0.662770674
End final coordinates

     General routines

     Parallel routines
     Hubbard U routines

   This run was terminated on:  12:39:10   5May2014

   JOB DONE.