     Program PWSCF v.5.0.2 (svn rev. 9656) starts on 20Mar2014 at  9:35: 2

     Current dimensions of program PWSCF are:
     Max number of different atomic species (ntypx) = 10
     Max number of k-points (npk) =  40000
     Max angular momentum in pseudopotentials (lmaxx) =  3
     Reading input from pwscf.in
Warning: card &CELL ignored
Warning: card / ignored

     Subspace diagonalization in iterative solution of the eigenvalue problem:
     a serial algorithm will be used

     bravais-lattice index     =            0
     lattice parameter (alat)  =      10.1289  a.u.
     unit-cell volume          =    6836.7721 (a.u.)^3
     number of atoms/cell      =           31
     number of atomic types    =            3
     number of electrons       =       238.00
     number of Kohn-Sham states=          357
     kinetic-energy cutoff     =      40.0000  Ry
     charge density cutoff     =     500.0000  Ry
     convergence threshold     =      1.0E-06
     mixing beta               =       0.7000
     number of iterations used =            8  plain     mixing
     Exchange-correlation      = SLA  PW   PBE  PBE ( 1 4 3 4 0)
     EXX-fraction              =        0.00
     nstep                     =           50

     celldm(1)=  10.128932  celldm(2)=   0.000000  celldm(3)=   0.000000
     celldm(4)=   0.000000  celldm(5)=   0.000000  celldm(6)=   0.000000

     crystal axes: (cart. coord. in units of alat)
               a(1) = (   1.000000   0.000000   0.000000 )
               a(2) = (   0.000000   1.306037   0.000000 )
               a(3) = (   0.000000   0.000000   5.037380 )

     reciprocal axes: (cart. coord. in units 2 pi/alat)
               b(1) = (  1.000000  0.000000  0.000000 )
               b(2) = (  0.000000  0.765675  0.000000 )
               b(3) = (  0.000000  0.000000  0.198516 )

     PseudoPot. # 1 for O  read from file:
     /home/camp/zhonxu/pseudo/o_pbe_v1.01.uspp.F.UPF
     MD5 check sum: 2bcb18d16ea4b960afae9ec6d52f22d2
     Pseudo is Ultrasoft + core correction, Zval =  6.0
     Generated by new atomic code, or converted to UPF format
     Using radial grid of  737 points,  5 beta functions with:
                l(1) =   0
                l(2) =   0
                l(3) =   1
                l(4) =   1
                l(5) =   2
     Q(r) pseudized with  8 coefficients,  rinner =    0.900   0.900   0.900
                                                       0.900   0.900

     PseudoPot. # 2 for Re read from file:
     /home/camp/zhonxu/pseudo/re_pbe_v1.uspp.F.UPF
     MD5 check sum: 6f5a5dcaf9c96c20d0ffdde0de57afc6
     Pseudo is Ultrasoft + core correction, Zval = 15.0
     Generated by new atomic code, or converted to UPF format
     Using radial grid of  981 points,  8 beta functions with:
                l(1) =   0
                l(2) =   0
                l(3) =   1
                l(4) =   1
                l(5) =   2
                l(6) =   2
                l(7) =   3
                l(8) =   3
     Q(r) pseudized with  8 coefficients,  rinner =    1.000   1.000   1.000
                                                       1.000   1.000   1.000
                                                       1.000

     PseudoPot. # 3 for H  read from file:
     /home/camp/zhonxu/pseudo/h_pbe_v1.uspp.F.UPF
     MD5 check sum: 3408e3ff4ec8b0a4e358431e7e038a48
     Pseudo is Ultrasoft, Zval =  1.0
     Generated by new atomic code, or converted to UPF format
     Using radial grid of  615 points,  2 beta functions with:
                l(1) =   0
                l(2) =   0
     Q(r) pseudized with  8 coefficients,  rinner =    0.700

     atomic species   valence    mass     pseudopotential
        O0             6.00    15.99940     O ( 1.00)
        Re1           15.00   186.20700     Re( 1.00)
        H2             1.00     1.00794     H ( 1.00)

     Starting magnetic structure
     atomic species   magnetization
        O0           0.000
        Re1          0.000
        H2           0.000

     No symmetry found

   Cartesian axes

     site n.     atom                  positions (alat units)
         1           O0  tau(   1) = (   0.0000000   0.0000000   1.8688176  )
         2           O0  tau(   2) = (   0.0000000   0.6530184   1.9243296  )
         3           Re1 tau(   3) = (   0.2500000   0.6530184   2.2228951  )
         4           Re1 tau(   4) = (   0.0000000   0.0000000   2.2352367  )
         5           O0  tau(   5) = (   0.2500000   1.0187087   2.2249100  )
         6           O0  tau(   6) = (   0.2500000   0.2873281   2.2250611  )
         7           O0  tau(   7) = (   0.0000000   0.6530184   2.5071041  )
         8           O0  tau(   8) = (   0.0000000   0.0000000   2.5966183  )
         9           Re1 tau(   9) = (   0.2500000   0.0000000   2.8989619  )
        10           Re1 tau(  10) = (   0.0000000   0.6530184   2.8608793  )
        11           O0  tau(  11) = (   0.2500000   0.9403465   2.8908013  )
        12           O0  tau(  12) = (   0.2500000   0.3656903   2.8907005  )
        13           O0  tau(  13) = (   0.0000000   0.0000000   3.1620138  )
        14           O0  tau(  14) = (   0.5000000   0.0000000   1.8688176  )
        15           O0  tau(  15) = (   0.5000000   0.6530184   1.9243296  )
        16           Re1 tau(  16) = (   0.7500000   0.6530184   2.2228951  )
        17           Re1 tau(  17) = (   0.5000000   0.0000000   2.2352367  )
        18           O0  tau(  18) = (   0.7500000   1.0187087   2.2249604  )
        19           O0  tau(  19) = (   0.7500000   0.2873281   2.2250611  )
        20           O0  tau(  20) = (   0.5000000   0.6530184   2.5071041  )
        21           O0  tau(  21) = (   0.5000000   0.0000000   2.5966183  )
        22           Re1 tau(  22) = (   0.7500000   0.0000000   2.8989619  )
        23           Re1 tau(  23) = (   0.5000000   0.6530184   2.8609296  )
        24           O0  tau(  24) = (   0.7500000   0.9403465   2.8908013  )
        25           O0  tau(  25) = (   0.7500000   0.3656903   2.8907005  )
        26           O0  tau(  26) = (   0.5000000   0.0000000   3.1620138  )
        27           H2  tau(  27) = (  -0.0003800   0.8172395   1.8403061  )
        28           H2  tau(  28) = (   0.4996200   0.8172395   1.8403061  )
        29           H2  tau(  29) = (   0.1698700   0.0284977   1.7974380  )
        30           H2  tau(  30) = (   0.6698800   0.0284977   1.7974380  )
        31           O0  tau(  31) = (   0.5000000   0.6530184   3.1246869  )

     number of k points=    20  Methfessel-Paxton smearing, width (Ry)=  0.0100
                       cart. coord. in units 2pi/alat
        k(    1) = (   0.0000000   0.0000000   0.0000000), wk =   0.0625000
        k(    2) = (   0.0000000   0.1914188   0.0000000), wk =   0.1250000
        k(    3) = (   0.0000000  -0.3828376   0.0000000), wk =   0.0625000
        k(    4) = (   0.2500000   0.0000000   0.0000000), wk =   0.1250000
        k(    5) = (   0.2500000   0.1914188   0.0000000), wk =   0.1250000
        k(    6) = (   0.2500000  -0.3828376   0.0000000), wk =   0.1250000
        k(    7) = (  -0.5000000   0.0000000   0.0000000), wk =   0.0625000
        k(    8) = (  -0.5000000   0.1914188   0.0000000), wk =   0.1250000
        k(    9) = (  -0.5000000  -0.3828376   0.0000000), wk =   0.0625000
        k(   10) = (  -0.2500000   0.1914188   0.0000000), wk =   0.1250000
        k(   11) = (   0.0000000   0.0000000   0.0000000), wk =   0.0625000
        k(   12) = (   0.0000000   0.1914188   0.0000000), wk =   0.1250000
        k(   13) = (   0.0000000  -0.3828376   0.0000000), wk =   0.0625000
        k(   14) = (   0.2500000   0.0000000   0.0000000), wk =   0.1250000
        k(   15) = (   0.2500000   0.1914188   0.0000000), wk =   0.1250000
        k(   16) = (   0.2500000  -0.3828376   0.0000000), wk =   0.1250000
        k(   17) = (  -0.5000000   0.0000000   0.0000000), wk =   0.0625000
        k(   18) = (  -0.5000000   0.1914188   0.0000000), wk =   0.1250000
        k(   19) = (  -0.5000000  -0.3828376   0.0000000), wk =   0.0625000
        k(   20) = (  -0.2500000   0.1914188   0.0000000), wk =   0.1250000

     Largest allocated arrays     est. size (Mb)     dimensions
     Largest temporary arrays     est. size (Mb)     dimensions

     Check: negative/imaginary core charge=   -0.000003    0.000000

     Initial potential from superposition of free atoms
     Check: negative starting charge=(component1):   -0.118292
     Check: negative starting charge=(component2):   -0.118292

     starting charge  233.99958, renormalised to  238.00000

     negative rho (up, down):  0.120E+00 0.120E+00
     Starting wfc are  184 randomized atomic wfcs

     Self-consistent Calculation

     iteration #  1     ecut=    40.00 Ry     beta=0.70
     Davidson diagonalization with overlap
     ethr =  1.00E-02,  avg # of iterations =  5.9

     negative rho (up, down):  0.142E+00 0.142E+00

     total energy              =   -2168.04906420 Ry
     Harris-Foulkes estimate   =   -2176.66187264 Ry
     estimated scf accuracy    <      10.42818521 Ry

     total magnetization       =     0.00 Bohr mag/cell
     absolute magnetization    =     0.00 Bohr mag/cell

[...]

     End of self-consistent calculation

 ------ SPIN UP ------------

          k = 0.0000 0.0000 0.0000 ( 29221 PWs)   bands (ev):

   -82.5147 -81.5415 -81.4566 -81.2738 -81.2177 -81.0492 -80.9938 -80.9476
   -46.4455 -44.2944 -44.0781 -43.7432 -43.5266 -43.4368 -43.4313 -43.3200
   -43.2829 -43.2756 -43.2652 -43.1773 -43.1137 -43.0559 -42.9668 -42.9420
   -42.9374 -42.9173 -42.8727 -42.8670 -42.8575 -42.6525 -42.6350 -42.3994
   -21.3344 -20.8939 -20.6073 -20.4813 -20.3687 -20.0293 -19.8320 -19.5723
   -19.5498 -19.5020 -19.3927 -19.3422 -19.3051 -19.2724 -19.2263 -18.9363
   -18.7596 -18.2944 -17.9502  -9.7863  -9.5068  -9.4938  -9.2445  -9.0836
    -8.7337  -8.7060  -8.1947  -8.1944  -7.8999  -7.8507  -7.8038  -7.6364
    -7.5981  -7.4051  -7.2046  -7.1024  -7.0107  -6.9671  -6.9318  -6.8468
    -6.7920  -6.4286  -5.8818  -5.8577  -5.6450  -5.6152  -5.5916  -5.4611
    -5.4130  -5.2845  -5.1407  -5.0803  -4.9681  -4.7794  -4.7677  -4.6082
    -4.4548  -4.4241  -4.3586  -4.2202  -4.1247  -4.0517  -3.9102  -3.8421
    -3.6536  -3.5384  -3.4508  -3.3955  -3.3926  -3.2877  -3.2079  -3.1052
    -3.0214  -2.9939  -2.8905  -2.7517  -2.5963  -2.5235  -2.4030  -1.0855
    -0.6187  -0.4836  -0.1519   0.1066   0.1302   0.3350   0.4577   0.5020
     0.6888   0.8917   1.0797   1.2373   1.5113   1.8433   1.9046   2.1536
     2.7916   2.9066   3.0289   3.2277   3.4396   3.4501   3.5093   3.7498
     4.1397   4.1563   4.1655   4.4801   4.5675   4.7056   4.7853   4.8373
     4.9043   4.9358   5.0377   5.0644   5.3753   5.3993   5.6345   6.1673
     6.3024   6.4985   6.7856   7.3716   7.5127   7.6664   7.8433   7.9461
     8.0519   8.0967   8.2362   8.3087   8.3491   8.5838   8.6032   8.6991
     8.8619   8.9063   9.0316   9.0966   9.1688   9.2740   9.3786   9.4691
     9.6657   9.7586   9.8137   9.8606  10.0186  10.1139  10.1458  10.1920
    10.2370  10.3149  10.4571  10.5560  10.6009  10.6896  10.8792  11.0195
[...]
     atom   12 type  1   force =    -0.03687785    0.00955869   -0.02946732
     atom   13 type  1   force =    -0.00040878    0.00033251   -0.00147968
     atom   14 type  1   force =    -0.00430791   -0.00759387    0.00170325
     atom   15 type  1   force =     0.00001282    0.00971837   -0.00330274
     atom   16 type  2   force =    -0.00953546   -0.00393655   -0.01404578
     atom   17 type  2   force =     0.00185045    0.00910933   -0.00644428
     atom   18 type  1   force =    -0.00037915    0.01380147    0.00094689
     atom   19 type  1   force =    -0.00210388   -0.01539230    0.00082227
     atom   20 type  1   force =    -0.00002061   -0.00242639   -0.10467491
     atom   21 type  1   force =     0.00275572   -0.00161690    0.00467313
     atom   22 type  2   force =     0.00632689    0.00125986    0.00419743
     atom   23 type  2   force =     0.00002781    0.00125678   -1.20688952
     atom   24 type  1   force =     0.03660644   -0.01029401   -0.02966856
     atom   25 type  1   force =     0.03671606    0.00959083   -0.02952368
     atom   26 type  1   force =    -0.00039347   -0.00041345   -0.01056583
     atom   27 type  3   force =     0.00001128   -0.00191174    0.00137968
     atom   28 type  3   force =     0.00000336   -0.00251676   -0.00184123
     atom   29 type  3   force =    -0.00052001    0.00035423    0.00020614
     atom   30 type  3   force =     0.00072610    0.00024716    0.00007354
     atom   31 type  1   force =    -0.00001835   -0.00090718    1.49873920

     Total force =     1.498739     Total SCF correction =     0.000188

     BFGS Geometry Optimization

     number of scf cycles    =   1
     number of bfgs steps    =   0

     energy   new            =   -2174.9836338886 Ry

     new trust radius        =       0.5000000000 bohr
     new conv_thr            =       0.0000010000 Ry

ATOMIC_POSITIONS (crystal)
O0       0.000000000   0.000000000   0.370990000    0   0   0
O0       0.000000000   0.500000000   0.382010000    0   0   0
Re1      0.250000000   0.500000000   0.441280000    0   0   0
Re1      0.000000000   0.000000000   0.443730000    0   0   0
O0       0.250000000   0.780000000   0.441680000    0   0   0
O0       0.250000000   0.220000000   0.441710000    0   0   0
O0       0.000000000   0.500000000   0.497700000    0   0   0
O0       0.000000000   0.000000000   0.515470000    0   0   0
Re1      0.250000000   0.000000000   0.575490000    0   0   0
Re1      0.000000000   0.500000000   0.567930000    0   0   0
O0       0.250000000   0.720000000   0.573870000    0   0   0
O0       0.250000000   0.280000000   0.573850000    0   0   0
O0       0.000000000   0.000000000   0.627710000    0   0   0
O0       0.500000000   0.000000000   0.370990000    0   0   0
O0       0.500000000   0.500000000   0.382010000    0   0   0
Re1      0.750000000   0.500000000   0.441280000    0   0   0
Re1      0.500000000   0.000000000   0.443730000    0   0   0
O0       0.750000000   0.780000000   0.441690000    0   0   0
O0       0.750000000   0.220000000   0.441710000    0   0   0
O0       0.500000000   0.500000000   0.497700000    0   0   0
O0       0.500000000   0.000000000   0.515470000    0   0   0
Re1      0.750000000   0.000000000   0.575490000    0   0   0
Re1      0.500000000   0.500000000   0.567940000    0   0   0
O0       0.750000000   0.720000000   0.573870000    0   0   0
O0       0.750000000   0.280000000   0.573850000    0   0   0
O0       0.500000000   0.000000000   0.627710000    0   0   0
H2      -0.000380000   0.625740000   0.365330000    0   0   0
H2       0.499620000   0.625740000   0.365330000    0   0   0
H2       0.169870000   0.021820000   0.356820000    0   0   0
H2       0.669880000   0.021820000   0.356820000    0   0   0
O0       0.499999395   0.499977122   0.630099447

     Check: negative starting charge=(component1):   -0.236583
     NEW-OLD atomic charge density approx. for the potential

     Check: negative/imaginary core charge=   -0.000003    0.000000
     Check: negative starting charge=(component1):   -0.237034

[...]

     energy   old            =   -2174.9836338886 Ry
     energy   new            =   -2175.3198662366 Ry

     CASE: energy  _new < energy  _old

[...]

     Total force =     0.022292     Total SCF correction =     0.000378

[...]

     Total force =     0.002345     Total SCF correction =     0.000310
     SCF correction compared to forces is large: reduce conv_thr to get better values

     number of scf cycles    =   5
     number of bfgs steps    =   4

     energy   old            =   -2175.3283050053 Ry
     energy   new            =   -2175.3285752164 Ry

     CASE: energy  _new < energy  _old

     new trust radius        =       0.0026184212 bohr
     new conv_thr            =       0.0000000232 Ry

ATOMIC_POSITIONS (crystal)
O0       0.000000000   0.000000000   0.370990000    0   0   0
O0       0.000000000   0.500000000   0.382010000    0   0   0
Re1      0.250000000   0.500000000   0.441280000    0   0   0
Re1      0.000000000   0.000000000   0.443730000    0   0   0
O0       0.250000000   0.780000000   0.441680000    0   0   0
O0       0.250000000   0.220000000   0.441710000    0   0   0
O0       0.000000000   0.500000000   0.497700000    0   0   0
O0       0.000000000   0.000000000   0.515470000    0   0   0
Re1      0.250000000   0.000000000   0.575490000    0   0   0
Re1      0.000000000   0.500000000   0.567930000    0   0   0
O0       0.250000000   0.720000000   0.573870000    0   0   0
O0       0.250000000   0.280000000   0.573850000    0   0   0
O0       0.000000000   0.000000000   0.627710000    0   0   0
O0       0.500000000   0.000000000   0.370990000    0   0   0
O0       0.500000000   0.500000000   0.382010000    0   0   0
Re1      0.750000000   0.500000000   0.441280000    0   0   0
Re1      0.500000000   0.000000000   0.443730000    0   0   0
O0       0.750000000   0.780000000   0.441690000    0   0   0
O0       0.750000000   0.220000000   0.441710000    0   0   0
O0       0.500000000   0.500000000   0.497700000    0   0   0
O0       0.500000000   0.000000000   0.515470000    0   0   0
Re1      0.750000000   0.000000000   0.575490000    0   0   0
Re1      0.500000000   0.500000000   0.567940000    0   0   0
O0       0.750000000   0.720000000   0.573870000    0   0   0
O0       0.750000000   0.280000000   0.573850000    0   0   0
O0       0.500000000   0.000000000   0.627710000    0   0   0
H2      -0.000380000   0.625740000   0.365330000    0   0   0
H2       0.499620000   0.625740000   0.365330000    0   0   0
H2       0.169870000   0.021820000   0.356820000    0   0   0
H2       0.669880000   0.021820000   0.356820000    0   0   0
O0       0.499994071   0.499757748   0.632703430

     Check: negative starting charge=(component1):   -0.237081
     NEW-OLD atomic charge density approx. for the potential

     Check: negative/imaginary core charge=   -0.000003    0.000000
     Check: negative starting charge=(component1):   -0.237081

[...]

     Self-consistent Calculation

[...]

     Threshold (ethr) on eigenvalues was too large:
     Diagonalizing with lowered threshold

     Davidson diagonalization with overlap
     ethr =  5.77E-09,  avg # of iterations =  1.0

[...]

     total energy              =   -2175.32857868 Ry
     Harris-Foulkes estimate   =   -2175.32857869 Ry
     estimated scf accuracy    <       0.00000007 Ry

[...]

     iteration # 10     ecut=    40.00 Ry     beta=0.70
     Davidson diagonalization with overlap
     ethr =  3.09E-11,  avg # of iterations =  1.0

     negative rho (up, down):  0.124E+00 0.124E+00

     End of self-consistent calculation

 ------ SPIN UP ------------

[...]

 ------ SPIN DOWN ----------

[...]

          k = 0.2500-0.3828 0.0000 ( 29202 PWs)   bands (ev):

[...]

          k =-0.2500 0.1914 0.0000 ( 29229 PWs)   bands (ev):

   -82.2607 -81.8737 -81.8110 -81.6366 -81.5970 -81.4104 -81.4068 -81.3675
   -44.3654 -44.1762 -44.0234 -43.9678 -43.7758 -43.7598 -43.7549 -43.6780
   -43.6455 -43.6155 -43.5540 -43.5370 -43.4492 -43.4049 -43.3528 -43.3473
   -43.3453 -43.3439 -43.3039 -43.2851 -43.2246 -43.1457 -43.1222 -42.9145
   -21.2799 -20.8184 -20.7475 -20.5907 -20.4535 -20.3633 -20.1173 -20.0583
   -20.0490 -19.7948 -19.7842 -19.7472 -19.6281 -19.4853 -19.4122 -19.1883
   -18.5710 -18.3502 -17.9563  -9.3550  -9.0745  -9.0400  -9.0327  -8.7651
    -8.6863  -8.6458  -8.3976  -8.2822  -8.2128  -8.1481  -7.9831  -7.7496
    -7.6804  -7.6454  -7.2976  -7.1494  -7.0563  -6.9264  -6.8157  -6.7589
    -6.5198  -6.3938  -6.3049  -6.1225  -5.9906  -5.9280  -5.8770  -5.8625
    -5.4945  -5.4544  -5.4145  -5.2907  -5.2120  -5.0926  -5.0571  -4.9657
    -4.9502  -4.7988  -4.7093  -4.5864  -4.3754  -4.3590  -4.2619  -4.0721
    -3.9875  -3.9410  -3.7633  -3.6956  -3.6316  -3.5604  -3.4192  -3.2028
    -3.1260  -2.9500  -2.8498  -2.5932  -2.4197  -2.3657  -2.2055  -1.2316
    -1.1995  -1.1105  -0.8752  -0.4198  -0.2963   0.2037   0.2813   0.3571
     0.4602   0.6164   0.6761   0.7929   0.9515   1.1218   1.2056   1.3090
     1.3442   1.6183   1.6466   1.7765   2.0463   3.1316   3.2558   3.3049
     3.4565   3.5376   3.6980   3.9696   4.0476   4.2061   4.3478   4.5055
     4.7336   5.1075   5.3445   5.4278   5.6983   5.8148   6.0292   6.0706
     6.1919   6.3507   6.6752   6.8991   7.1424   7.2764   7.4459   7.5412
     7.6841   7.8259   7.9339   8.1051   8.1514   8.3093   8.5303   8.6120
     8.6528   8.6818   8.9091   9.0370   9.1164   9.3067   9.3902   9.5615
     9.6026   9.7063   9.7887   9.8333   9.9089   9.9984  10.0488  10.1053
    10.2225  10.2840  10.4005  10.4646  10.5793  10.6722  10.8078  10.8869
    10.9542  11.1065  11.1655  11.3019  11.4549  11.5785  11.6187  11.7800
    11.8713  11.9758  12.0617  12.1996  12.2920  12.4570  12.4895  12.5756
    12.6296  12.7495  12.8503  12.8738  12.9306  13.0681  13.1874  13.2668
    13.3625  13.4407  13.5513  13.5767  13.6463  13.7208  13.7772  13.8100
    13.8824  13.9643  14.0167  14.0508  14.1783  14.2233  14.3212  14.3916
    14.4408  14.4944  14.5437  14.6561  14.7075  14.7879  14.8677  14.8827
    14.9818  15.0697  15.1024  15.1807  15.2391  15.2586  15.3570  15.4635
    15.5217  15.6304  15.6850  15.7989  15.9115  16.0731  16.1186  16.1488
    16.2314  16.3435  16.3920  16.4403  16.5032  16.5570  16.5929  16.6465
    16.7598  16.8233  16.9229  17.0712  17.1263  17.1672  17.2318  17.3711
    17.4289  17.5054  17.6151  17.6896  17.7665  17.8497  17.9148  17.9812
    18.0251  18.1264  18.1801  18.1906  18.2804  18.3359  18.3879  18.4350
    18.5190  18.6211  18.7028  18.7550  18.8411  18.9301  18.9922  19.0247
    19.1423  19.1989  19.2408  19.3925  19.5228  19.5492  19.6071  19.7185
    19.7839  19.9176  19.9618  20.0933  20.1211  20.2134  20.2642  20.3568
    20.3750  20.4801  20.5627  20.6114  20.6443  20.7140  20.7902  20.8885
    20.9582  21.0219  21.0959  21.1424  21.1910  21.2790  21.3333  21.3584
    21.4157  21.5086  21.5491  21.6030  21.6269  21.7487  21.8220  21.9383
    21.9535  22.0305  22.0523  22.1151  22.1378  22.2308  22.3145  22.3930
    22.4042  22.4264  22.5163  22.5713  22.5984  22.6575  22.7394  22.7603
    22.8081  22.8623  22.9498  23.0046  23.0331

     the Fermi energy is     0.2159 ev

!    total energy              =   -2175.32857867 Ry
     Harris-Foulkes estimate   =   -2175.32857869 Ry
     estimated scf accuracy    <       0.00000002 Ry

     The total energy is the sum of the following terms:

     one-electron contribution =  -24235.58310116 Ry
     hartree contribution      =   12131.12445160 Ry
     xc contribution           =    -594.21708924 Ry
     ewald contribution        =   10523.34805836 Ry
     smearing contrib. (-TS)   =      -0.00089822 Ry

     total magnetization       =     0.00 Bohr mag/cell
     absolute magnetization    =     0.00 Bohr mag/cell

     convergence has been achieved in  10 iterations

     Forces acting on atoms (Ry/au):

     negative rho (up, down):  0.124E+00 0.124E+00
     atom    1 type  1   force =    -0.00432356   -0.00742691   -0.00041141
     atom    2 type  1   force =     0.00002266    0.00721899    0.00183708
     atom    3 type  2   force =     0.01037398   -0.00415439   -0.01547101
     atom    4 type  2   force =     0.00180917    0.00836575    0.00162780
     atom    5 type  1   force =     0.00352998    0.01528515    0.00163081
     atom    6 type  1   force =     0.00142684   -0.01706418    0.00068465
     atom    7 type  1   force =     0.00008940    0.00014260   -0.00630090
     atom    8 type  1   force =     0.00258748   -0.00161045    0.00464071
     atom    9 type  2   force =    -0.01003186    0.00128070    0.01539519
     atom   10 type  2   force =    -0.00003140   -0.00082046   -0.02872319
     atom   11 type  1   force =    -0.02430795   -0.01408172   -0.02947653
     atom   12 type  1   force =    -0.02491355    0.01369969   -0.02929421
     atom   13 type  1   force =    -0.00046569    0.00003005   -0.00844511
     atom   14 type  1   force =    -0.00424654   -0.00767200    0.00180447
     atom   15 type  1   force =    -0.00001176    0.00926256   -0.00104300
     atom   16 type  2   force =    -0.01092367   -0.00443957   -0.01550099
     atom   17 type  2   force =     0.00166366    0.00889551   -0.00498281
     atom   18 type  1   force =     0.00047839    0.01527599    0.00120274
     atom   19 type  1   force =    -0.00129947   -0.01686533    0.00096975
     atom   20 type  1   force =    -0.00001173   -0.00158447   -0.03012411
     atom   21 type  1   force =     0.00283492   -0.00179943    0.00375648
     atom   22 type  2   force =     0.00683205    0.00157591    0.01558798
     atom   23 type  2   force =     0.00001176    0.00068383    0.19975695
     atom   24 type  1   force =     0.02446261   -0.01419993   -0.02928362
     atom   25 type  1   force =     0.02472395    0.01365924   -0.02937181
     atom   26 type  1   force =    -0.00042565   -0.00044618   -0.01952923
     atom   27 type  3   force =     0.00001125   -0.00142492    0.00101216
     atom   28 type  3   force =    -0.00000147   -0.00220537   -0.00177930
     atom   29 type  3   force =    -0.00044216    0.00039957   -0.00009794
     atom   30 type  3   force =     0.00058081    0.00030752   -0.00020842
     atom   31 type  1   force =    -0.00000246   -0.00028772    0.00013680

     Total force =     0.000319     Total SCF correction =     0.000037
     SCF correction compared to forces is large: reduce conv_thr to get better values

     bfgs converged in   6 scf cycles and   5 bfgs steps
     (criteria: energy < 0.10E-03, force < 0.10E-02)

     End of BFGS Geometry Optimization

     Final energy   =   -2175.3285786718 Ry
Begin final coordinates

ATOMIC_POSITIONS (crystal)
O0       0.000000000   0.000000000   0.370990000    0   0   0
O0       0.000000000   0.500000000   0.382010000    0   0   0
Re1      0.250000000   0.500000000   0.441280000    0   0   0
Re1      0.000000000   0.000000000   0.443730000    0   0   0
O0       0.250000000   0.780000000   0.441680000    0   0   0
O0       0.250000000   0.220000000   0.441710000    0   0   0
O0       0.000000000   0.500000000   0.497700000    0   0   0
O0       0.000000000   0.000000000   0.515470000    0   0   0
Re1      0.250000000   0.000000000   0.575490000    0   0   0
Re1      0.000000000   0.500000000   0.567930000    0   0   0
O0       0.250000000   0.720000000   0.573870000    0   0   0
O0       0.250000000   0.280000000   0.573850000    0   0   0
O0       0.000000000   0.000000000   0.627710000    0   0   0
O0       0.500000000   0.000000000   0.370990000    0   0   0
O0       0.500000000   0.500000000   0.382010000    0   0   0
Re1      0.750000000   0.500000000   0.441280000    0   0   0
Re1      0.500000000   0.000000000   0.443730000    0   0   0
O0       0.750000000   0.780000000   0.441690000    0   0   0
O0       0.750000000   0.220000000   0.441710000    0   0   0
O0       0.500000000   0.500000000   0.497700000    0   0   0
O0       0.500000000   0.000000000   0.515470000    0   0   0
Re1      0.750000000   0.000000000   0.575490000    0   0   0
Re1      0.500000000   0.500000000   0.567940000    0   0   0
O0       0.750000000   0.720000000   0.573870000    0   0   0
O0       0.750000000   0.280000000   0.573850000    0   0   0
O0       0.500000000   0.000000000   0.627710000    0   0   0
H2      -0.000380000   0.625740000   0.365330000    0   0   0
H2       0.499620000   0.625740000   0.365330000    0   0   0
H2       0.169870000   0.021820000   0.356820000    0   0   0
H2       0.669880000   0.021820000   0.356820000    0   0   0
O0       0.499994071   0.499757748   0.632703430
End final coordinates

     General routines

     Parallel routines

   This run was terminated on:  21:26:34  20Mar2014

   JOB DONE.