     Program PWSCF v.5.0.2 (svn rev. 9656) starts on  5Apr2014 at 13:34: 0

     Current dimensions of program PWSCF are:
     Max number of different atomic species (ntypx) = 10
     Max number of k-points (npk) =  40000
     Max angular momentum in pseudopotentials (lmaxx) =  3
     Reading input from pwscf.in
Warning: card &CELL ignored
Warning: card / ignored

     Subspace diagonalization in iterative solution of the eigenvalue problem:
     a serial algorithm will be used

     bravais-lattice index     =            0
     lattice parameter (alat)  =      10.7336  a.u.
     unit-cell volume          =    8441.1435 (a.u.)^3
     number of atoms/cell      =           50
     number of atomic types    =            3
     number of electrons       =       439.00 (up: 243.00, down: 196.00)
     number of Kohn-Sham states=          634
     kinetic-energy cutoff     =      40.0000  Ry
     charge density cutoff     =     500.0000  Ry
     convergence threshold     =      1.0E-06
     mixing beta               =       0.3000
     number of iterations used =            8  plain     mixing
     Exchange-correlation      = SLA  PW   PBE  PBE ( 1 4 3 4 0)
     EXX-fraction              =        0.00
     nstep                     =           50

     celldm(1)=  10.733644  celldm(2)=   0.000000  celldm(3)=   0.000000
     celldm(4)=   0.000000  celldm(5)=   0.000000  celldm(6)=   0.000000

     crystal axes: (cart. coord. in units of alat)
               a(1) = (   1.000000   0.000000   0.000000 )
               a(2) = (   0.000000   1.085558   0.000000 )
               a(3) = (   0.000000   0.000000   6.287913 )

     reciprocal axes: (cart. coord. in units 2 pi/alat)
               b(1) = (  1.000000  0.000000  0.000000 )
               b(2) = (  0.000000  0.921185  0.000000 )
               b(3) = (  0.000000  0.000000  0.159035 )

     PseudoPot. # 1 for O  read from file:
     /home/camp/zhonxu/pseudo/o_pbe_v1.01.uspp.F.UPF
     MD5 check sum: 2bcb18d16ea4b960afae9ec6d52f22d2
     Pseudo is Ultrasoft + core correction, Zval =  6.0
     Generated by new atomic code, or converted to UPF format
     Using radial grid of  737 points,  5 beta functions with:
                l(1) =   0
                l(2) =   0
                l(3) =   1
                l(4) =   1
                l(5) =   2
     Q(r) pseudized with  8 coefficients,  rinner =    0.900   0.900   0.900
                                                       0.900   0.900

     PseudoPot. # 2 for Mn read from file:
     /home/camp/zhonxu/pseudo/mn_pbe_v1.uspp.F.UPF
     MD5 check sum: 5fd7c7b5c956fd19902447332617373a
     Pseudo is Ultrasoft + core correction, Zval = 15.0
     Generated by new atomic code, or converted to UPF format
     Using radial grid of  859 points,  6 beta functions with:
                l(1) =   0
                l(2) =   0
                l(3) =   1
                l(4) =   1
                l(5) =   2
                l(6) =   2
     Q(r) pseudized with  6 coefficients,  rinner =    1.150   1.150   1.150
                                                       1.150   1.150

     PseudoPot. # 3 for H  read from file:
     /home/camp/zhonxu/pseudo/h_pbe_v1.uspp.F.UPF
     MD5 check sum: 3408e3ff4ec8b0a4e358431e7e038a48
     Pseudo is Ultrasoft, Zval =  1.0
     Generated by new atomic code, or converted to UPF format
     Using radial grid of  615 points,  2 beta functions with:
                l(1) =   0
                l(2) =   0
     Q(r) pseudized with  8 coefficients,  rinner =    0.700

     atomic species   valence    mass     pseudopotential
        O0             6.00    15.99940     O ( 1.00)
        Mn1           15.00    54.93800     Mn( 1.00)
        H2             1.00     1.00794     H ( 1.00)

     Starting magnetic structure
     atomic species   magnetization
        O0           0.000
        Mn1          0.600
        H2           0.000

      2 Sym. Ops. (no inversion) found

   Cartesian axes

     site n.     atom                  positions (alat units)
         1           O0  tau(   1) = (   0.0000000   0.5427791   2.1126758  )
         2           Mn1 tau(   2) = (   0.2500000   0.5427791   2.3297975  )
         3           Mn1 tau(   3) = (   0.0000000   0.0000000   2.3297975  )
         4           O0  tau(   4) = (   0.2500000   0.8684466   2.3297975  )
         5           O0  tau(   5) = (   0.2500000   0.2171117   2.3297975  )
         6           O0  tau(   6) = (   0.0000000   0.5427791   2.5469191  )
         7           O0  tau(   7) = (   0.0000000   0.0000000   2.6554485  )
         8           Mn1 tau(   8) = (   0.2500000   0.0000000   2.8725701  )
         9           Mn1 tau(   9) = (   0.0000000   0.5427791   2.8725701  )
        10           O0  tau(  10) = (   0.2500000   0.7598908   2.8725701  )
        11           O0  tau(  11) = (   0.2500000   0.3256675   2.8725701  )
        12           O0  tau(  12) = (   0.0000000   0.0000000   3.0896918  )
        13           O0  tau(  13) = (   0.0000000   0.5427791   3.2135008  )
        14           Mn1 tau(  14) = (   0.2500000   0.5427791   3.4260951  )
        15           Mn1 tau(  15) = (   0.0000000   0.0000000   3.4385452  )
        16           O0  tau(  16) = (   0.2500000   0.8725500   3.4318171  )
        17           O0  tau(  17) = (   0.2500000   0.2130082   3.4318171  )
        18           O0  tau(  18) = (   0.0000000   0.5427791   3.6504478  )
        19           O0  tau(  19) = (   0.0000000   0.0000000   3.7729364  )
        20           Mn1 tau(  20) = (   0.2500000   0.0000000   4.0049603  )
        21           Mn1 tau(  21) = (   0.0000000   0.5427791   3.9730178  )
        22           O0  tau(  22) = (   0.2500000   0.7495129   4.0272824  )
        23           O0  tau(  23) = (   0.2500000   0.3360454   4.0272824  )
        24           O0  tau(  24) = (   0.0000000   0.0000000   4.2046645  )
        25           O0  tau(  25) = (   0.5000000   0.5427791   2.1126758  )
        26           Mn1 tau(  26) = (   0.7500000   0.5427791   2.3297975  )
        27           Mn1 tau(  27) = (   0.5000000   0.0000000   2.3297975  )
        28           O0  tau(  28) = (   0.7500000   0.8684466   2.3297975  )
        29           O0  tau(  29) = (   0.7500000   0.2171117   2.3297975  )
        30           O0  tau(  30) = (   0.5000000   0.5427791   2.5469191  )
        31           O0  tau(  31) = (   0.5000000   0.0000000   2.6554485  )
        32           Mn1 tau(  32) = (   0.7500000   0.0000000   2.8725701  )
        33           Mn1 tau(  33) = (   0.5000000   0.5427791   2.8725701  )
        34           O0  tau(  34) = (   0.7500000   0.7598908   2.8725701  )
        35           O0  tau(  35) = (   0.7500000   0.3256675   2.8725701  )
        36           O0  tau(  36) = (   0.5000000   0.0000000   3.0896918  )
        37           O0  tau(  37) = (   0.5000000   0.5427791   3.2135008  )
        38           Mn1 tau(  38) = (   0.7500000   0.5427791   3.4260951  )
        39           Mn1 tau(  39) = (   0.5000000   0.0000000   3.4385452  )
        40           O0  tau(  40) = (   0.7500000   0.8725500   3.4318171  )
        41           O0  tau(  41) = (   0.7500000   0.2130082   3.4318171  )
        42           O0  tau(  42) = (   0.5000000   0.5427791   3.6504478  )
        43           O0  tau(  43) = (   0.5000000   0.0000000   3.7729364  )
        44           Mn1 tau(  44) = (   0.7500000   0.0000000   4.0049603  )
        45           Mn1 tau(  45) = (   0.5000000   0.5427791   3.9730178  )
        46           O0  tau(  46) = (   0.7500000   0.7495129   4.0272824  )
        47           O0  tau(  47) = (   0.7500000   0.3360454   4.0272824  )
        48           O0  tau(  48) = (   0.5000000   0.0000000   4.2046645  )
        49           O0  tau(  49) = (   0.5043000   0.5427791   4.3126908  )
        50           H2  tau(  50) = (   0.3410000   0.5427791   4.3703510  )

     number of k points=    18  Methfessel-Paxton smearing, width (Ry)=  0.0100
                       cart. coord. in units 2pi/alat
        k(    1) = (   0.0000000   0.0000000   0.0000000), wk =   0.0625000
        k(    2) = (   0.0000000   0.2302962   0.0000000), wk =   0.1250000
        k(    3) = (   0.0000000  -0.4605925   0.0000000), wk =   0.0625000
        k(    4) = (   0.2500000   0.0000000   0.0000000), wk =   0.1250000
        k(    5) = (   0.2500000   0.2302962   0.0000000), wk =   0.2500000
        k(    6) = (   0.2500000  -0.4605925   0.0000000), wk =   0.1250000
        k(    7) = (  -0.5000000   0.0000000   0.0000000), wk =   0.0625000
        k(    8) = (  -0.5000000   0.2302962   0.0000000), wk =   0.1250000
        k(    9) = (  -0.5000000  -0.4605925   0.0000000), wk =   0.0625000
        k(   10) = (   0.0000000   0.0000000   0.0000000), wk =   0.0625000
        k(   11) = (   0.0000000   0.2302962   0.0000000), wk =   0.1250000
        k(   12) = (   0.0000000  -0.4605925   0.0000000), wk =   0.0625000
        k(   13) = (   0.2500000   0.0000000   0.0000000), wk =   0.1250000
        k(   14) = (   0.2500000   0.2302962   0.0000000), wk =   0.2500000
        k(   15) = (   0.2500000  -0.4605925   0.0000000), wk =   0.1250000
        k(   16) = (  -0.5000000   0.0000000   0.0000000), wk =   0.0625000
        k(   17) = (  -0.5000000   0.2302962   0.0000000), wk =   0.1250000
        k(   18) = (  -0.5000000  -0.4605925   0.0000000), wk =   0.0625000

     Largest allocated arrays     est. size (Mb)     dimensions
     Largest temporary arrays     est. size (Mb)     dimensions

     Check: negative/imaginary core charge=   -0.000028    0.000000

     Initial potential from superposition of free atoms
     Check: negative starting charge=(component1):   -0.000990
     Check: negative starting charge=(component2):   -0.000307

     starting charge  422.99981, renormalised to  439.00000

     negative rho (up, down):  0.103E-02 0.318E-03
     Starting wfc are  341 randomized atomic wfcs

     Self-consistent Calculation

     iteration #  1     ecut=    40.00 Ry     beta=0.30
     Davidson diagonalization with overlap
     ethr =  1.00E-02,  avg # of iterations =  5.7

     negative rho (up, down):  0.964E-03 0.679E-03

     total energy              =   -4396.68754899 Ry
     Harris-Foulkes estimate   =   -4469.01304520 Ry
     estimated scf accuracy    <     166.62872539 Ry

     total magnetization       =    47.00 Bohr mag/cell
     absolute magnetization    =    62.81 Bohr mag/cell

[...]

     End of self-consistent calculation

 ------ SPIN UP ------------

          k = 0.0000 0.0000 0.0000 ( 36065 PWs)   bands (ev):

   -82.6911 -82.6805 -82.6214 -82.6113 -82.6109 -82.6007 -82.5960 -82.5834
   -82.5201 -82.5098 -82.4895 -82.4268 -82.2519 -82.2413 -82.2186 -82.2085
   -51.5207 -51.4542 -51.4473 -51.4385 -51.4007 -51.3555 -51.3476 -51.3332
   -51.3275 -51.3248 -51.3136 -51.2983 -51.2964 -51.2894 -51.2786 -51.2683
   -51.2645 -51.2602 -51.2594 -51.2538 -51.2497 -51.2389 -51.2335 -51.1994
   -51.1902 -51.1723 -51.1702 -51.1679 -51.1528 -51.1435 -51.1404 -51.1333
   -51.1326 -51.1260 -51.0786 -51.0168 -50.9946 -50.9585 -50.9473 -50.9461
[...]
O0       0.000000000   0.000000000   0.600030000    0   0   0
Mn1      0.250000000   0.000000000   0.636930000    0   0   0
Mn1      0.000000000   0.500000000   0.631850000    0   0   0
O0       0.250000000   0.690440000   0.640480000    0   0   0
O0       0.250000000   0.309560000   0.640480000    0   0   0
O0       0.000000000   0.000000000   0.668690000    0   0   0
O0       0.500000000   0.500000000   0.335990000    0   0   0
Mn1      0.750000000   0.500000000   0.370520000    0   0   0
Mn1      0.500000000   0.000000000   0.370520000    0   0   0
O0       0.750000000   0.800000000   0.370520000    0   0   0
O0       0.750000000   0.200000000   0.370520000    0   0   0
O0       0.500000000   0.500000000   0.405050000    0   0   0
O0       0.500000000   0.000000000   0.422310000    0   0   0
Mn1      0.750000000   0.000000000   0.456840000    0   0   0
Mn1      0.500000000   0.500000000   0.456840000    0   0   0
O0       0.750000000   0.700000000   0.456840000    0   0   0
O0       0.750000000   0.300000000   0.456840000    0   0   0
O0       0.500000000   0.000000000   0.491370000    0   0   0
O0       0.500000000   0.500000000   0.511060000    0   0   0
Mn1      0.750000000   0.500000000   0.544870000    0   0   0
Mn1      0.500000000   0.000000000   0.546850000    0   0   0
O0       0.750000000   0.803780000   0.545780000    0   0   0
O0       0.750000000   0.196220000   0.545780000    0   0   0
O0       0.500000000   0.500000000   0.580550000    0   0   0
O0       0.500000000   0.000000000   0.600030000    0   0   0
Mn1      0.750000000   0.000000000   0.636930000    0   0   0
Mn1      0.500000000   0.500000000   0.631850000    0   0   0
O0       0.750000000   0.690440000   0.640480000    0   0   0
O0       0.750000000   0.309560000   0.640480000    0   0   0
O0       0.500000000   0.000000000   0.668690000    0   0   0
O0       0.515565668   0.500000000   0.686379524
H2       0.354556653   0.500000000   0.696567721

     Check: negative starting charge=(component1):   -0.001250
     NEW-OLD atomic charge density approx. for the potential

     Check: negative/imaginary core charge=   -0.000028    0.000000
     Check: negative starting charge=(component1):   -0.001250

[...]

     Self-consistent Calculation

[...]

     Threshold (ethr) on eigenvalues was too large:
     Diagonalizing with lowered threshold

     Davidson diagonalization with overlap
     ethr =  3.51E-09,  avg # of iterations =  1.0

[...]

     total energy              =   -4472.72734136 Ry
     Harris-Foulkes estimate   =   -4472.72734136 Ry
     estimated scf accuracy    <       0.00000002 Ry

[...]

     iteration # 15     ecut=    40.00 Ry     beta=0.30
     Davidson diagonalization with overlap
     ethr =  3.59E-12,  avg # of iterations =  2.0

     negative rho (up, down):  0.323E-02 0.167E-02

     End of self-consistent calculation

 ------ SPIN UP ------------

[...]

 ------ SPIN DOWN ----------

[...]

          k = 0.2500-0.4606 0.0000 ( 36102 PWs)   bands (ev):

[...]

          k =-0.5000-0.4606 0.0000 ( 36040 PWs)   bands (ev):

   -79.3081 -79.3030 -79.2819 -79.2761 -79.2474 -79.2367 -79.1758 -79.1653
   -79.1396 -79.1396 -79.1312 -79.1311 -79.0818 -79.0042 -78.9187 -78.9141
   -48.1912 -48.1867 -48.1658 -48.1644 -48.1570 -48.1498 -48.0870 -48.0816
   -48.0711 -48.0664 -48.0649 -48.0589 -48.0434 -48.0418 -48.0316 -48.0220
   -48.0180 -48.0076 -48.0075 -48.0018 -48.0017 -47.9756 -47.9750 -47.9689
   -47.9612 -47.9607 -47.9545 -47.9394 -47.9365 -47.9104 -47.9035 -47.9034
   -47.8860 -47.8758 -47.8689 -47.8664 -47.7913 -47.7787 -47.7776 -47.7738
   -47.7652 -47.7652 -47.7635 -47.7424 -47.7383 -47.7279 -47.4942 -47.4876
   -19.4485 -19.4362 -19.4351 -19.4350 -19.3144 -19.2423 -19.1637 -19.1599
   -19.1038 -18.9956 -18.9071 -18.9000 -18.8526 -18.8420 -18.7943 -18.7297
   -18.5259 -18.4673 -18.4658 -18.4343 -18.3816 -18.3691 -18.3677 -18.3675
   -18.3221 -18.1780 -18.1750 -18.1035 -18.0752 -17.7969 -17.5335 -17.2069
   -17.2064  -7.0082  -6.9755  -6.8900  -6.8888  -6.6186  -6.5539  -6.5106
    -6.5036  -6.4969  -6.4198  -6.4168  -6.4103  -6.4080  -6.3673  -6.3205
    -6.2876  -6.2278  -6.2239  -6.1935  -6.1923  -6.1588  -6.1419  -6.1346
    -6.1023  -6.1006  -6.0980  -5.9536  -5.7868  -5.7850  -5.6138  -5.6135
    -5.5689  -5.5597  -5.5566  -5.5483  -5.5468  -5.4560  -5.3636  -5.3599
    -5.3159  -5.1936  -5.0900  -5.0306  -4.9058  -4.8773  -4.7326  -4.7246
    -4.6895  -4.6846  -4.6793  -4.6454  -4.6412  -4.5100  -4.4941  -4.4695
    -4.4449  -4.3790  -4.2269  -4.2127  -4.1994  -4.1361  -4.0390  -4.0299
    -4.0293  -3.9325  -3.9191  -3.8802  -3.8755  -3.7690  -3.6375  -3.4625
    -3.4525  -3.4416  -3.1900  -3.1559  -3.1191  -3.0828  -2.6937  -2.6458
    -2.5993  -2.4439  -2.4388  -2.4211  -2.3686  -2.2903  -2.2338  -2.2189
    -2.1738  -2.0277  -2.0205  -1.8936  -1.8834  -1.8584  -1.7932  -1.7096
    -1.6468  -1.6461  -1.6275  -1.3001   0.1700   0.1930   0.1986   0.2118
     0.2931   0.3221   0.3307   0.3397   0.3919   0.5238   0.5266   0.5479
     0.5845   0.5854   0.5891   0.6026   0.8197   0.8330   0.8807   0.8821
     0.9575   0.9610   0.9814   0.9864   1.1287   1.1521   1.1788   1.1813
     1.1894   1.1983   1.2291   1.2508   1.2909   1.2981   1.3082   1.3409
     1.3872   1.4056   1.4124   1.4149   1.4723   1.5052   1.5071   1.5774
     1.6013   1.6205   1.6528   1.6621   2.0800   2.0824   2.1605   2.2048
     2.2072   2.2482   2.2959   2.3421   2.3425   2.5031   2.5300   2.5644
     2.5917   2.6134   2.6146   2.9690   3.1746   3.2721   3.2782   3.3848
     3.5041   3.5216   3.5732   3.6844   3.9152   3.9583   3.9749   4.0173
     4.1395   4.1447   4.2119   4.2121   6.3794   6.3806   6.4366   7.4395
     7.4411   7.5412   7.5522   7.6131   7.6701   7.7120   7.7394   7.8331
     7.9805   8.0393   8.0525   8.2136   8.4307   8.5060   8.5066   8.7111
     9.0020   9.0841   9.0870   9.2900   9.6652   9.6903   9.7744   9.8333
    10.0813  10.2232  10.2303  10.2787  10.4632  10.5158  10.5877  10.6122
    11.0014  11.0617  11.0681  11.0714  11.2338  11.3486  11.4121  11.4741
    11.9466  11.9798  11.9834  11.9925  12.2327  12.2742  12.4105  12.4384
    12.9191  13.0385  13.0779  13.1392  13.3170  13.3312  13.3717  13.4142
    13.5922  13.8836  13.9663  13.9824  14.1847  14.2671  14.3027  14.3058
    14.3436  14.3670  14.4022  14.4281  14.5038  14.5393  14.6250  14.6512
    14.6684  14.6776  14.7863  14.8299  14.9127  14.9377  14.9973  15.0248
    15.0413  15.0652  15.0774  15.1358  15.1413  15.1439  15.1957  15.2307
    15.2472  15.3157  15.4393  15.4541  15.4729  15.4763  15.5110  15.5350
    15.5403  15.5525  15.6981  15.7057  15.7134  15.8055  15.8154  15.9754
    16.0052  16.0140  16.0349  16.0522  16.0822  16.1122  16.1511  16.1873
    16.3125  16.3211  16.3733  16.3760  16.4233  16.4517  16.4762  16.5299
    16.5633  16.5903  16.5959  16.7078  16.7191  16.7780  16.8267  16.8365
    16.8377  16.8454  16.8696  16.8802  16.9321  16.9876  17.0059  17.0595
    17.0621  17.0778  17.0807  17.1722  17.1830  17.2125  17.2629  17.3691
    17.3745  17.4030  17.4134  17.5400  17.5544  17.5613  17.5763  17.5812
    17.6067  17.6181  17.6357  17.6947  17.7295  17.8065  17.8237  17.9064
    17.9656  18.0201  18.1177  18.1259  18.1446  18.1480  18.2177  18.3046
    18.3445  18.3485  18.3602  18.3866  18.4250  18.5009  18.5367  18.5946
    18.6151  18.6368  18.6470  18.7553  18.8914  18.8984  18.9003  18.9181
    19.0499  19.0641  19.0949  19.1012  19.1163  19.1336  19.2004  19.2867
    19.3616  19.4273  19.4884  19.5748  19.6460  19.6668  19.7739  19.8087
[...]
    22.4677  22.5108  22.6001  22.8495  23.1502  23.2059  23.2236  23.2798
    23.3275  23.3486  23.3488  23.3983  23.4495  23.5016  23.5165  23.6309
    23.8401  23.8632  23.9851  23.9944  24.1692  24.2267  24.3034  24.3309
    24.3734  24.4274  24.5503  24.5905  24.5981  24.6118  24.6260  24.7298
    24.8314  24.8406  24.8495  24.8614  24.9145  24.9352  24.9466  24.9881
    25.0210  25.0281  25.0514  25.0654  25.1647  25.1938  25.2056  25.3648
    25.3974  25.4034  25.4687  25.4875  25.5187  25.5525  25.5765  25.6707
    25.6892  25.7021  25.7767  25.8003  25.8510  25.8651  25.8957  25.9749
    26.0121  26.0290  26.0328  26.0857  26.0916  26.0957  26.2056  26.2330
    26.2656  26.2753  26.3415  26.3913  26.3962  26.4233  26.4778  26.4990
    26.5772  26.6104  26.6284  26.6362  26.6546  26.6595  26.6842  26.7204
    26.7576  26.7818  26.7894  26.9202  26.9614  27.0252  27.1343  27.2142
    27.2184  27.2631  27.2910  27.3344  27.3690  27.3828  27.5395  27.6017
    27.7175  27.7498  27.7675  27.8085  27.8476  27.8642  27.8695  27.8996
    27.9165  27.9307

     the spin up/dw Fermi energies are    -0.4443   -0.9249 ev

!    total energy              =   -4472.72734135 Ry
     Harris-Foulkes estimate   =   -4472.72734136 Ry
     estimated scf accuracy    <          7.0E-09 Ry

     The total energy is the sum of the following terms:

     one-electron contribution =  -92795.00425671 Ry
     hartree contribution      =   46443.71072926 Ry
     xc contribution           =    -655.87721788 Ry
     ewald contribution        =   42534.44329802 Ry
     smearing contrib. (-TS)   =       0.00010596 Ry

     total magnetization       =    47.00 Bohr mag/cell
     absolute magnetization    =    49.46 Bohr mag/cell

     convergence has been achieved in  15 iterations

     Forces acting on atoms (Ry/au):

     negative rho (up, down):  0.323E-02 0.167E-02
     atom    1 type  1   force =    -0.00000176    0.00000000    0.05044204
     atom    2 type  2   force =     0.00014229    0.00000000   -0.08543140
     atom    3 type  2   force =    -0.00000074    0.00000000    0.04863780
     atom    4 type  1   force =     0.00006908    0.05109701   -0.04330189
     atom    5 type  1   force =     0.00006908   -0.05109701   -0.04330189
     atom    6 type  1   force =    -0.00001842    0.00000000    0.01145402
     atom    7 type  1   force =    -0.00000141    0.00000000    0.00775490
     atom    8 type  2   force =    -0.00021827    0.00000000    0.03124709
     atom    9 type  2   force =     0.00004185    0.00000000    0.00057605
     atom   10 type  1   force =     0.00003953   -0.03273739    0.00510935
     atom   11 type  1   force =     0.00003953    0.03273739    0.00510935
     atom   12 type  1   force =     0.00000606    0.00000000    0.00868585
     atom   13 type  1   force =     0.00018742    0.00000000   -0.00016606
     atom   14 type  2   force =     0.01124356    0.00000000    0.00884180
     atom   15 type  2   force =    -0.00009547    0.00000000   -0.00031044
     atom   16 type  1   force =     0.00006597    0.00005035    0.00004943
     atom   17 type  1   force =     0.00006597   -0.00005035    0.00004943
     atom   18 type  1   force =     0.00066860    0.00000000    0.00630988
     atom   19 type  1   force =     0.00033590    0.00000000    0.00186686
     atom   20 type  2   force =     0.00190099    0.00000000    0.00400588
     atom   21 type  2   force =    -0.00962161    0.00000000   -0.01212539
     atom   22 type  1   force =    -0.02867367    0.01459436   -0.02390103
     atom   23 type  1   force =    -0.02867367   -0.01459436   -0.02390103
     atom   24 type  1   force =     0.00124901    0.00000000   -0.00103124
     atom   25 type  1   force =    -0.00000068    0.00000000    0.05049809
     atom   26 type  2   force =    -0.00014365    0.00000000   -0.08540116
     atom   27 type  2   force =     0.00000485    0.00000000    0.04913263
     atom   28 type  1   force =    -0.00007225    0.05109520   -0.04330342
     atom   29 type  1   force =    -0.00007225   -0.05109520   -0.04330342
     atom   30 type  1   force =     0.00000780    0.00000000    0.01102082
     atom   31 type  1   force =     0.00000220    0.00000000    0.00709424
     atom   32 type  2   force =     0.00022319    0.00000000    0.03126022
     atom   33 type  2   force =    -0.00004172    0.00000000    0.00032080
     atom   34 type  1   force =    -0.00004300   -0.03273709    0.00512373
     atom   35 type  1   force =    -0.00004300    0.03273709    0.00512373
     atom   36 type  1   force =    -0.00000049    0.00000000    0.00841389
     atom   37 type  1   force =    -0.00010810    0.00000000   -0.00190035
     atom   38 type  2   force =    -0.01158247    0.00000000    0.00893125
     atom   39 type  2   force =     0.00006458    0.00000000    0.00090085
     atom   40 type  1   force =    -0.00007793    0.00008111    0.00002790
     atom   41 type  1   force =    -0.00007793   -0.00008111    0.00002790
     atom   42 type  1   force =    -0.00009271    0.00000000   -0.03273763
     atom   43 type  1   force =    -0.00013316    0.00000000    0.00051871
     atom   44 type  2   force =    -0.00310742    0.00000000    0.00627894
     atom   45 type  2   force =     0.00437720    0.00000000    0.13322973
     atom   46 type  1   force =     0.03180873    0.01814992   -0.03316650
     atom   47 type  1   force =     0.03180873   -0.01814992   -0.03316650
     atom   48 type  1   force =    -0.00054346    0.00000000   -0.00202634
     atom   49 type  1   force =    -0.00032480    0.00000000   -0.00042386
     atom   50 type  3   force =    -0.00065209    0.00000000    0.00085636

     Total force =     0.001202     Total SCF correction =     0.000031

     bfgs converged in   9 scf cycles and   8 bfgs steps
     (criteria: energy < 0.10E-03, force < 0.10E-02)

     End of BFGS Geometry Optimization

     Final energy   =   -4472.7273413459 Ry
Begin final coordinates

ATOMIC_POSITIONS (crystal)
O0       0.000000000   0.500000000   0.335990000    0   0   0
Mn1      0.250000000   0.500000000   0.370520000    0   0   0
Mn1      0.000000000   0.000000000   0.370520000    0   0   0
O0       0.250000000   0.800000000   0.370520000    0   0   0
O0       0.250000000   0.200000000   0.370520000    0   0   0
O0       0.000000000   0.500000000   0.405050000    0   0   0
O0       0.000000000   0.000000000   0.422310000    0   0   0
Mn1      0.250000000   0.000000000   0.456840000    0   0   0
Mn1      0.000000000   0.500000000   0.456840000    0   0   0
O0       0.250000000   0.700000000   0.456840000    0   0   0
O0       0.250000000   0.300000000   0.456840000    0   0   0
O0       0.000000000   0.000000000   0.491370000    0   0   0
O0       0.000000000   0.500000000   0.511060000    0   0   0
Mn1      0.250000000   0.500000000   0.544870000    0   0   0
Mn1      0.000000000   0.000000000   0.546850000    0   0   0
O0       0.250000000   0.803780000   0.545780000    0   0   0
O0       0.250000000   0.196220000   0.545780000    0   0   0
O0       0.000000000   0.500000000   0.580550000    0   0   0
O0       0.000000000   0.000000000   0.600030000    0   0   0
Mn1      0.250000000   0.000000000   0.636930000    0   0   0
Mn1      0.000000000   0.500000000   0.631850000    0   0   0
O0       0.250000000   0.690440000   0.640480000    0   0   0
O0       0.250000000   0.309560000   0.640480000    0   0   0
O0       0.000000000   0.000000000   0.668690000    0   0   0
O0       0.500000000   0.500000000   0.335990000    0   0   0
Mn1      0.750000000   0.500000000   0.370520000    0   0   0
Mn1      0.500000000   0.000000000   0.370520000    0   0   0
O0       0.750000000   0.800000000   0.370520000    0   0   0
O0       0.750000000   0.200000000   0.370520000    0   0   0
O0       0.500000000   0.500000000   0.405050000    0   0   0
O0       0.500000000   0.000000000   0.422310000    0   0   0
Mn1      0.750000000   0.000000000   0.456840000    0   0   0
Mn1      0.500000000   0.500000000   0.456840000    0   0   0
O0       0.750000000   0.700000000   0.456840000    0   0   0
O0       0.750000000   0.300000000   0.456840000    0   0   0
O0       0.500000000   0.000000000   0.491370000    0   0   0
O0       0.500000000   0.500000000   0.511060000    0   0   0
Mn1      0.750000000   0.500000000   0.544870000    0   0   0
Mn1      0.500000000   0.000000000   0.546850000    0   0   0
O0       0.750000000   0.803780000   0.545780000    0   0   0
O0       0.750000000   0.196220000   0.545780000    0   0   0
O0       0.500000000   0.500000000   0.580550000    0   0   0
O0       0.500000000   0.000000000   0.600030000    0   0   0
Mn1      0.750000000   0.000000000   0.636930000    0   0   0
Mn1      0.500000000   0.500000000   0.631850000    0   0   0
O0       0.750000000   0.690440000   0.640480000    0   0   0
O0       0.750000000   0.309560000   0.640480000    0   0   0
O0       0.500000000   0.000000000   0.668690000    0   0   0
O0       0.515565668   0.500000000   0.686379524
H2       0.354556653   0.500000000   0.696567721
End final coordinates

     General routines

     Parallel routines

   This run was terminated on:  14:22:51   6Apr2014

   JOB DONE.