     Program PWSCF v.5.0.2 (svn rev. 9656) starts on 29Apr2014 at  7:26:19

     Current dimensions of program PWSCF are:
     Max number of different atomic species (ntypx) = 10
     Max number of k-points (npk) =  40000
     Max angular momentum in pseudopotentials (lmaxx) =  3
     Reading input from pwscf.in
Warning: card &CELL ignored
Warning: card / ignored

     Subspace diagonalization in iterative solution of the eigenvalue problem:
     a serial algorithm will be used

     bravais-lattice index     =            0
     lattice parameter (alat)  =      12.0187  a.u.
     unit-cell volume          =    7280.5819 (a.u.)^3
     number of atoms/cell      =           32
     number of atomic types    =            3
     number of electrons       =       239.00
     number of Kohn-Sham states=          358
     kinetic-energy cutoff     =      40.0000  Ry
     charge density cutoff     =     500.0000  Ry
     convergence threshold     =      1.0E-06
     mixing beta               =       0.7000
     number of iterations used =            8  plain     mixing
     Exchange-correlation      = SLA  PW   PBE  PBE ( 1 4 3 4 0)
     EXX-fraction              =        0.00
     nstep                     =           50

     celldm(1)=  12.018658  celldm(2)=   0.000000  celldm(3)=   0.000000
     celldm(4)=   0.000000  celldm(5)=   0.000000  celldm(6)=   0.000000

     crystal axes: (cart. coord. in units of alat)
               a(1) = (   1.000000   0.000000   0.000000 )
               a(2) = (   0.000000   1.009517   0.000000 )
               a(3) = (   0.000000   0.000000   4.154171 )

     reciprocal axes: (cart. coord. in units 2 pi/alat)
               b(1) = (  1.000000  0.000000  0.000000 )
               b(2) = (  0.000000  0.990572  0.000000 )
               b(3) = (  0.000000  0.000000  0.240722 )

     PseudoPot. # 1 for O  read from file:
     /home/camp/zhonxu/pseudo/o_pbe_v1.01.uspp.F.UPF
     MD5 check sum: 2bcb18d16ea4b960afae9ec6d52f22d2
     Pseudo is Ultrasoft + core correction, Zval =  6.0
     Generated by new atomic code, or converted to UPF format
     Using radial grid of  737 points,  5 beta functions with:
                l(1) =   0
                l(2) =   0
                l(3) =   1
                l(4) =   1
                l(5) =   2
     Q(r) pseudized with  8 coefficients,  rinner =    0.900   0.900   0.900
                                                       0.900   0.900

     PseudoPot. # 2 for Ir read from file:
     /home/camp/zhonxu/pseudo/ir_pbe_v1.uspp.F.UPF
     MD5 check sum: abf987a9674477536ede83817f8f8b70
     Pseudo is Ultrasoft + core correction, Zval = 15.0
     Generated by new atomic code, or converted to UPF format
     Using radial grid of  983 points,  7 beta functions with:
                l(1) =   0
                l(2) =   0
                l(3) =   1
                l(4) =   1
                l(5) =   1
                l(6) =   2
                l(7) =   2
     Q(r) pseudized with  8 coefficients,  rinner =    1.350   1.350   1.350
                                                       1.350   1.350

     PseudoPot. # 3 for H  read from file:
     /home/camp/zhonxu/pseudo/h_pbe_v1.uspp.F.UPF
     MD5 check sum: 3408e3ff4ec8b0a4e358431e7e038a48
     Pseudo is Ultrasoft, Zval =  1.0
     Generated by new atomic code, or converted to UPF format
     Using radial grid of  615 points,  2 beta functions with:
                l(1) =   0
                l(2) =   0
     Q(r) pseudized with  8 coefficients,  rinner =    0.700

     atomic species   valence    mass     pseudopotential
        O0             6.00    15.99940     O ( 1.00)
        Ir1           15.00   192.22000     Ir( 1.00)
        H2             1.00     1.00794     H ( 1.00)

     Simplified LDA+U calculation (l_max = 2) with parameters (eV):
     atomic species    L          U    alpha       J0     beta
        Ir1            2     7.5000   0.0000   0.0000   0.0000

     No symmetry found

   Cartesian axes

     site n.     atom                  positions (alat units)
         1           O0  tau(   1) = (   0.0000000   0.0000000   1.5715230  )
         2           O0  tau(   2) = (   0.0000000   0.5047586   1.6723863  )
         3           Ir1 tau(   3) = (   0.2500000   0.5047586   1.8804272  )
         4           Ir1 tau(   4) = (   0.0000000   0.0000000   1.8823796  )
         5           O0  tau(   5) = (   0.2500000   0.8177090   1.8809672  )
         6           O0  tau(   6) = (   0.2500000   0.1918083   1.8797625  )
         7           O0  tau(   7) = (   0.0000000   0.5047586   2.0697743  )
         8           O0  tau(   8) = (   0.0000000   0.0000000   2.1967673  )
         9           Ir1 tau(   9) = (   0.2500000   0.0000000   2.3926365  )
        10           Ir1 tau(  10) = (   0.0000000   0.5047586   2.3747736  )
        11           O0  tau(  11) = (   0.2500000   0.6965669   2.3923873  )
        12           O0  tau(  12) = (   0.2500000   0.3129503   2.3927196  )
        13           O0  tau(  13) = (   0.0000000   0.0000000   2.5779541  )
        14           O0  tau(  14) = (   0.5000000   0.0000000   1.5704845  )
        15           O0  tau(  15) = (   0.5000000   0.5047586   1.6698107  )
        16           Ir1 tau(  16) = (   0.7500000   0.5047586   1.8805103  )
        17           Ir1 tau(  17) = (   0.5000000   0.0000000   1.8817565  )
        18           O0  tau(  18) = (   0.7500000   0.8177090   1.8810503  )
        19           O0  tau(  19) = (   0.7500000   0.1918083   1.8797625  )
        20           O0  tau(  20) = (   0.5000000   0.5047586   2.0748424  )
        21           O0  tau(  21) = (   0.5000000   0.0000000   2.1964350  )
        22           Ir1 tau(  22) = (   0.7500000   0.0000000   2.3925119  )
        23           Ir1 tau(  23) = (   0.5000000   0.5047586   2.3910995  )
        24           O0  tau(  24) = (   0.7500000   0.6965669   2.3896040  )
        25           O0  tau(  25) = (   0.7500000   0.3129503   2.3900194  )
        26           O0  tau(  26) = (   0.5000000   0.0000000   2.5760847  )
        27           H2  tau(  27) = (  -0.0000400   0.6399431   1.5942048  )
        28           H2  tau(  28) = (   0.5000100   0.6429817   1.5968219  )
        29           H2  tau(  29) = (   0.1437000   0.0339904   1.5235839  )
        30           H2  tau(  30) = (   0.6431700   0.0357369   1.5224622  )
        31           O0  tau(  31) = (   0.5156900   0.5047586   2.6944786  )
        32           H2  tau(  32) = (   0.3744100   0.5050918   2.7575805  )

     number of k points=    10  Methfessel-Paxton smearing, width (Ry)=  0.0100
                       cart. coord. in units 2pi/alat
        k(    1) = (   0.0000000   0.0000000   0.0000000), wk =   0.1250000
        k(    2) = (   0.0000000   0.2476431   0.0000000), wk =   0.2500000
        k(    3) = (   0.0000000  -0.4952862   0.0000000), wk =   0.1250000
        k(    4) = (   0.2500000   0.0000000   0.0000000), wk =   0.2500000
        k(    5) = (   0.2500000   0.2476431   0.0000000), wk =   0.2500000
        k(    6) = (   0.2500000  -0.4952862   0.0000000), wk =   0.2500000
        k(    7) = (  -0.5000000   0.0000000   0.0000000), wk =   0.1250000
        k(    8) = (  -0.5000000   0.2476431   0.0000000), wk =   0.2500000
        k(    9) = (  -0.5000000  -0.4952862   0.0000000), wk =   0.1250000
        k(   10) = (  -0.2500000   0.2476431   0.0000000), wk =   0.2500000

     Largest allocated arrays     est. size (Mb)     dimensions
     Largest temporary arrays     est. size (Mb)     dimensions

     Check: negative/imaginary core charge=   -0.000003    0.000000

     Initial potential from superposition of free atoms
     Check: negative starting charge=   -3.334647

     starting charge  234.99967, renormalised to  239.00000

     negative rho (up, down):  0.339E+01 0.000E+00
     Number of +U iterations with fixed ns =  0
     Starting occupations:
 --- enter write_ns ---
 LDA+U parameters:
U( 2)     =  7.50000000
alpha( 2) =  0.00000000
atom    3   Tr[ns(na)] =   7.00000
    eigenvalues:
  0.700  0.700  0.700  0.700  0.700
    eigenvectors:
  1.000  0.000  0.000  0.000  0.000
  0.000  1.000  0.000  0.000  0.000
  0.000  0.000  1.000  0.000  0.000
  0.000  0.000  0.000  1.000  0.000
  0.000  0.000  0.000  0.000  1.000
    occupations:
  0.700  0.000  0.000  0.000  0.000
  0.000  0.700  0.000  0.000  0.000
  0.000  0.000  0.700  0.000  0.000
  0.000  0.000  0.000  0.700  0.000
  0.000  0.000  0.000  0.000  0.700
atom    4   Tr[ns(na)] =   7.00000
    eigenvalues:
  0.700  0.700  0.700  0.700  0.700
    eigenvectors:
  1.000  0.000  0.000  0.000  0.000
  0.000  1.000  0.000  0.000  0.000
  0.000  0.000  1.000  0.000  0.000
  0.000  0.000  0.000  1.000  0.000
  0.000  0.000  0.000  0.000  1.000
    occupations:
  0.700  0.000  0.000  0.000  0.000
  0.000  0.700  0.000  0.000  0.000
  0.000  0.000  0.700  0.000  0.000
  0.000  0.000  0.000  0.700  0.000
  0.000  0.000  0.000  0.000  0.700
atom    9   Tr[ns(na)] =   7.00000
    eigenvalues:
  0.700  0.700  0.700  0.700  0.700
    eigenvectors:
  1.000  0.000  0.000  0.000  0.000
  0.000  1.000  0.000  0.000  0.000
  0.000  0.000  1.000  0.000  0.000
  0.000  0.000  0.000  1.000  0.000
  0.000  0.000  0.000  0.000  1.000
    occupations:
  0.700  0.000  0.000  0.000  0.000
  0.000  0.700  0.000  0.000  0.000
  0.000  0.000  0.700  0.000  0.000
  0.000  0.000  0.000  0.700  0.000
  0.000  0.000  0.000  0.000  0.700
atom   10   Tr[ns(na)] =   7.00000
    eigenvalues:
  0.700  0.700  0.700  0.700  0.700
    eigenvectors:
  1.000  0.000  0.000  0.000  0.000
  0.000  1.000  0.000  0.000  0.000
  0.000  0.000  1.000  0.000  0.000
  0.000  0.000  0.000  1.000  0.000
  0.000  0.000  0.000  0.000  1.000
    occupations:
  0.700  0.000  0.000  0.000  0.000
  0.000  0.700  0.000  0.000  0.000
  0.000  0.000  0.700  0.000  0.000
  0.000  0.000  0.000  0.700  0.000
  0.000  0.000  0.000  0.000  0.700
atom   16   Tr[ns(na)] =   7.00000
    eigenvalues:
  0.700  0.700  0.700  0.700  0.700
    eigenvectors:
  1.000  0.000  0.000  0.000  0.000
  0.000  1.000  0.000  0.000  0.000
  0.000  0.000  1.000  0.000  0.000
  0.000  0.000  0.000  1.000  0.000
  0.000  0.000  0.000  0.000  1.000
    occupations:
  0.700  0.000  0.000  0.000  0.000
  0.000  0.700  0.000  0.000  0.000
  0.000  0.000  0.700  0.000  0.000
  0.000  0.000  0.000  0.700  0.000
  0.000  0.000  0.000  0.000  0.700
atom   17   Tr[ns(na)] =   7.00000
    eigenvalues:
  0.700  0.700  0.700  0.700  0.700
    eigenvectors:
  1.000  0.000  0.000  0.000  0.000
  0.000  1.000  0.000  0.000  0.000
  0.000  0.000  1.000  0.000  0.000
  0.000  0.000  0.000  1.000  0.000
  0.000  0.000  0.000  0.000  1.000
    occupations:
  0.700  0.000  0.000  0.000  0.000
  0.000  0.700  0.000  0.000  0.000
  0.000  0.000  0.700  0.000  0.000
  0.000  0.000  0.000  0.700  0.000
  0.000  0.000  0.000  0.000  0.700
atom   22   Tr[ns(na)] =   7.00000
    eigenvalues:
  0.700  0.700  0.700  0.700  0.700
    eigenvectors:
  1.000  0.000  0.000  0.000  0.000
  0.000  1.000  0.000  0.000  0.000
  0.000  0.000  1.000  0.000  0.000
  0.000  0.000  0.000  1.000  0.000
[...]
  0.677 -0.003 -0.000  0.033  0.001
 -0.003  0.941  0.011  0.000 -0.002
 -0.000  0.011  0.898 -0.000  0.001
  0.033  0.000 -0.000  0.984  0.000
  0.001 -0.002  0.001  0.000  0.622
atom    9   Tr[ns(na)] =   8.24157
    eigenvalues:
  0.656  0.670  0.887  0.921  0.987
    eigenvectors:
  0.000  0.140  0.000  0.000  0.860
  0.999  0.001  0.000  0.000  0.000
  0.000  0.000  0.999  0.001  0.000
  0.001  0.859  0.000  0.000  0.140
  0.000  0.000  0.001  0.999  0.000
    occupations:
  0.942  0.000  0.000 -0.110 -0.000
  0.000  0.656  0.001  0.000 -0.000
  0.000  0.001  0.887 -0.000 -0.001
 -0.110  0.000 -0.000  0.714  0.001
 -0.000 -0.000 -0.001  0.001  0.921
atom   10   Tr[ns(na)] =   8.18833
    eigenvalues:
  0.580  0.614  0.950  0.963  0.988
    eigenvectors:
  0.990  0.000  0.000  0.000  0.009
  0.000  0.000  1.000  0.000  0.000
  0.000  0.000  0.000  1.000  0.000
  0.009  0.000  0.000  0.000  0.991
  0.000  1.000  0.000  0.000  0.000
    occupations:
  0.584 -0.004  0.001  0.039 -0.000
 -0.004  0.950 -0.000  0.000 -0.000
  0.001 -0.000  0.963 -0.000  0.001
  0.039  0.000 -0.000  0.984 -0.000
 -0.000 -0.000  0.001 -0.000  0.614
atom   16   Tr[ns(na)] =   8.24360
    eigenvalues:
  0.605  0.634  0.922  0.974  0.986
    eigenvectors:
  0.002  0.181  0.003  0.001  0.813
  0.996  0.004  0.000  0.000  0.000
  0.000  0.000  0.978  0.019  0.003
  0.003  0.815  0.000  0.000  0.182
  0.000  0.000  0.019  0.979  0.002
    occupations:
  0.922  0.005  0.002 -0.136  0.001
  0.005  0.605  0.001 -0.000 -0.004
  0.002  0.001  0.923 -0.004 -0.007
 -0.136 -0.000 -0.004  0.699  0.000
  0.001 -0.004 -0.007  0.000  0.973
atom   17   Tr[ns(na)] =   8.24562
    eigenvalues:
  0.620  0.673  0.902  0.941  0.987
    eigenvectors:
  0.001  0.989  0.000  0.000  0.011
  0.000  0.000  0.116  0.884  0.000
  0.000  0.000  0.884  0.116  0.000
  0.000  0.011  0.000  0.000  0.989
  0.999  0.001  0.000  0.000  0.000
    occupations:
  0.676 -0.003 -0.001  0.032  0.001
 -0.003  0.936  0.012  0.000 -0.002
 -0.001  0.012  0.907 -0.000  0.000
  0.032  0.000 -0.000  0.984  0.000
  0.001 -0.002  0.000  0.000  0.620
atom   22   Tr[ns(na)] =   8.23695
    eigenvalues:
  0.656  0.671  0.882  0.923  0.987
    eigenvectors:
  0.000  0.139  0.000  0.000  0.861
  1.000  0.000  0.000  0.000  0.000
  0.000  0.000  0.999  0.001  0.000
  0.000  0.861  0.000  0.000  0.139
  0.000  0.000  0.001  0.999  0.000
    occupations:
  0.943  0.001 -0.000 -0.109 -0.000
  0.001  0.656  0.001 -0.000 -0.000
 -0.000  0.001  0.882 -0.000  0.001
 -0.109 -0.000 -0.000  0.715  0.001
 -0.000 -0.000  0.001  0.001  0.923
atom   23   Tr[ns(na)] =   8.22987
    eigenvalues:
  0.627  0.680  0.874  0.947  0.987
    eigenvectors:
  0.000  0.988  0.000  0.000  0.011
  0.000  0.000  0.000  0.999  0.000
  0.000  0.000  1.000  0.000  0.000
  0.000  0.011  0.000  0.000  0.989
  1.000  0.000  0.000  0.000  0.000
    occupations:
  0.684  0.006 -0.000  0.033 -0.000
  0.006  0.947 -0.001 -0.000 -0.000
 -0.000 -0.001  0.874  0.000 -0.001
  0.033 -0.000  0.000  0.984 -0.000
 -0.000 -0.000 -0.001 -0.000  0.627
N of occupied +U levels =  65.8740771
 --- exit write_ns ---

     Threshold (ethr) on eigenvalues was too large:
     Diagonalizing with lowered threshold

     Davidson diagonalization with overlap
     ethr =  5.86E-09,  avg # of iterations =  2.0

[...]

     total energy              =   -2104.59450305 Ry
     Harris-Foulkes estimate   =   -2104.59450305 Ry
     estimated scf accuracy    <       0.00000001 Ry

     iteration # 15     ecut=    40.00 Ry     beta=0.70
     Davidson diagonalization with overlap
     ethr =  4.61E-12,  avg # of iterations =  1.0

     negative rho (up, down):  0.314E+01 0.000E+00

     End of self-consistent calculation
 --- enter write_ns ---
 LDA+U parameters:
U( 2)     =  7.50000000
alpha( 2) =  0.00000000
atom    3   Tr[ns(na)] =   8.24334
    eigenvalues:
  0.605  0.634  0.922  0.974  0.986
    eigenvectors:
  0.001  0.181  0.003  0.000  0.814
  0.997  0.003  0.000  0.000  0.000
  0.000  0.000  0.974  0.023  0.003
  0.002  0.815  0.000  0.000  0.182
  0.000  0.000  0.023  0.976  0.001
    occupations:
  0.922 -0.005  0.002 -0.136 -0.001
 -0.005  0.605 -0.001  0.001 -0.004
  0.002 -0.001  0.923 -0.003  0.008
 -0.136  0.001 -0.003  0.698 -0.001
 -0.001 -0.004  0.008 -0.001  0.973
atom    4   Tr[ns(na)] =   8.24419
    eigenvalues:
  0.622  0.674  0.895  0.944  0.987
    eigenvectors:
  0.000  0.988  0.000  0.000  0.011
  0.000  0.000  0.051  0.948  0.000
  0.000  0.000  0.948  0.052  0.000
  0.000  0.011  0.000  0.000  0.989
  0.999  0.000  0.000  0.000  0.000
    occupations:
  0.677 -0.003 -0.000  0.033  0.001
 -0.003  0.941  0.011  0.000 -0.002
 -0.000  0.011  0.898 -0.000  0.001
  0.033  0.000 -0.000  0.984  0.000
  0.001 -0.002  0.001  0.000  0.622
atom    9   Tr[ns(na)] =   8.24157
    eigenvalues:
  0.656  0.670  0.887  0.921  0.987
    eigenvectors:
  0.000  0.140  0.000  0.000  0.860
  0.999  0.001  0.000  0.000  0.000
  0.000  0.000  0.999  0.001  0.000
  0.001  0.859  0.000  0.000  0.140
  0.000  0.000  0.001  0.999  0.000
    occupations:
  0.942  0.000  0.000 -0.110 -0.000
  0.000  0.656  0.001  0.000 -0.000
  0.000  0.001  0.887 -0.000 -0.001
 -0.110  0.000 -0.000  0.714  0.001
 -0.000 -0.000 -0.001  0.001  0.921
atom   10   Tr[ns(na)] =   8.18856
    eigenvalues:
  0.580  0.614  0.950  0.963  0.988
    eigenvectors:
  0.990  0.000  0.000  0.000  0.009
  0.000  0.000  1.000  0.000  0.000
  0.000  0.000  0.000  1.000  0.000
  0.009  0.000  0.000  0.000  0.991
  0.000  1.000  0.000  0.000  0.000
    occupations:
  0.584 -0.004  0.001  0.039 -0.000
 -0.004  0.950 -0.000  0.000 -0.000
  0.001 -0.000  0.963 -0.000  0.001
  0.039  0.000 -0.000  0.984 -0.000
 -0.000 -0.000  0.001 -0.000  0.614
atom   16   Tr[ns(na)] =   8.24339
    eigenvalues:
  0.605  0.634  0.922  0.974  0.986
    eigenvectors:
  0.001  0.181  0.003  0.001  0.813
  0.996  0.004  0.000  0.000  0.000
  0.000  0.000  0.978  0.019  0.003
  0.003  0.815  0.000  0.000  0.182
  0.000  0.000  0.019  0.980  0.002
    occupations:
  0.922  0.005  0.002 -0.136  0.001
  0.005  0.605  0.001 -0.000 -0.004
  0.002  0.001  0.923 -0.004 -0.007
 -0.136 -0.000 -0.004  0.699  0.000
  0.001 -0.004 -0.007  0.000  0.973
atom   17   Tr[ns(na)] =   8.24530
    eigenvalues:
  0.620  0.673  0.902  0.941  0.987
    eigenvectors:
  0.001  0.989  0.000  0.000  0.011
  0.000  0.000  0.116  0.884  0.000
  0.000  0.000  0.884  0.116  0.000
  0.000  0.011  0.000  0.000  0.989
  0.999  0.001  0.000  0.000  0.000
    occupations:
  0.676 -0.003 -0.001  0.032  0.001
 -0.003  0.936  0.012  0.000 -0.002
 -0.001  0.012  0.907 -0.000  0.000
  0.032  0.000 -0.000  0.984  0.000
  0.001 -0.002  0.000  0.000  0.620
atom   22   Tr[ns(na)] =   8.23689
    eigenvalues:
  0.656  0.671  0.882  0.923  0.987
    eigenvectors:
  0.000  0.139  0.000  0.000  0.861
  1.000  0.000  0.000  0.000  0.000
  0.000  0.000  0.999  0.001  0.000
  0.000  0.861  0.000  0.000  0.139
  0.000  0.000  0.001  0.999  0.000
    occupations:
  0.943  0.001 -0.000 -0.109 -0.000
  0.001  0.656  0.001 -0.000 -0.000
 -0.000  0.001  0.882 -0.000  0.001
 -0.109 -0.000 -0.000  0.715  0.001
 -0.000 -0.000  0.001  0.001  0.923
atom   23   Tr[ns(na)] =   8.23041
    eigenvalues:
  0.627  0.680  0.874  0.947  0.987
    eigenvectors:
  0.000  0.988  0.000  0.000  0.011
  0.000  0.000  0.000  0.999  0.000
  0.000  0.000  1.000  0.000  0.000
  0.000  0.011  0.000  0.000  0.989
  1.000  0.000  0.000  0.000  0.000
    occupations:
  0.684  0.006 -0.000  0.033 -0.000
  0.006  0.947 -0.001 -0.000 -0.000
 -0.000 -0.001  0.874  0.000 -0.001
  0.033 -0.000  0.000  0.984 -0.000
 -0.000 -0.000 -0.001 -0.000  0.627
N of occupied +U levels =  65.8736483
 --- exit write_ns ---

[...]

          k = 0.2500-0.4953 0.0000 ( 31088 PWs)   bands (ev):

[...]

          k =-0.2500 0.2476 0.0000 ( 31099 PWs)   bands (ev):

   -50.2979 -50.2641 -50.1665 -50.1495 -50.1374 -50.1339 -50.1199 -50.1072
   -50.0688 -50.0623 -50.0489 -49.9965 -49.9891 -49.9155 -49.8536 -49.8366
   -49.8024 -49.7972 -49.7660 -49.7254 -49.7209 -49.6885 -49.6774 -49.6648
   -21.4099 -21.2339 -21.1412 -21.0166 -20.7695 -20.7071 -20.6952 -20.5756
   -20.4262 -20.3782 -20.2034 -20.1517 -20.0110 -19.9911 -19.9273 -19.8832
   -19.6950 -18.9958 -18.8379 -11.0418 -10.8435 -10.5916 -10.5663 -10.3321
   -10.2074 -10.1103  -9.9469  -9.7005  -9.1201  -9.0930  -8.9555  -8.9205
    -8.8620  -8.6998  -8.4818  -8.3844  -8.3459  -8.1360  -7.9427  -7.8339
    -7.6965  -7.5794  -7.5125  -7.3952  -7.3176  -7.2592  -7.0760  -6.9089
    -6.8815  -6.7135  -6.6433  -6.5752  -6.5095  -6.3674  -6.2817  -6.2266
    -6.1864  -6.1092  -5.9970  -5.9144  -5.6953  -5.4499  -5.2537  -5.1120
    -4.9720  -4.8419  -4.7496  -4.5987  -4.5501  -4.4235  -4.1539  -4.1187
    -3.9652  -3.9271  -3.8491  -3.7633  -3.6056  -3.4953  -3.4607  -3.3981
    -3.2958  -3.1724  -3.1344  -3.1012  -3.0558  -2.9465  -2.8278  -2.7455
    -2.6605  -2.5316  -2.1390  -1.9144  -1.7685  -1.5473  -1.3309  -1.3094
    -1.2559  -1.0153  -0.8722  -0.6388   0.0667   1.0448   1.1219   1.4324
     1.6852   1.8781   2.2752   2.4943   2.8054   2.8359   2.9708   3.0678
     3.2528   3.3812   3.4640   3.7666   3.8886   4.3111   4.7956   5.2141
     5.4818   5.6453   5.7131   5.9785   6.2705   6.5210   6.6089   6.6357
     6.7058   6.9004   7.0884   7.1777   7.3800   7.4874   7.6201   7.7288
     7.9296   8.0287   8.1274   8.1755   8.2712   8.4495   8.5292   8.6008
     8.8246   8.9100   8.9303   8.9896   9.1232   9.2264   9.3744   9.4346
     9.5952   9.6281   9.6679   9.7876   9.7994   9.8327   9.8545   9.8692
     9.9091   9.9163   9.9395  10.0761  10.0815  10.1036  10.1451  10.1583
    10.2279  10.3424  10.3589  10.4620  10.5415  10.6291  10.6646  10.8004
    10.8359  10.9688  11.0018  11.1703  11.2070  11.2735  11.4156  11.5197
    11.5552  11.6572  11.7325  11.7979  11.8398  11.9543  12.1373  12.2010
    12.2635  12.3520  12.3905  12.4890  12.5547  12.6230  12.6750  12.7392
    12.7917  12.8812  12.9464  13.0208  13.0480  13.2014  13.2624  13.2906
    13.3507  13.4266  13.5893  13.6929  13.7945  13.8409  13.9424  13.9527
    14.0271  14.0967  14.1883  14.2540  14.3411  14.4176  14.5013  14.5352
    14.7167  14.7796  14.8065  14.9694  15.1042  15.1974  15.2777  15.3509
    15.4428  15.5007  15.5201  15.6104  15.6843  15.7543  15.7836  15.8712
    15.9062  15.9271  16.0098  16.0443  16.1617  16.2017  16.2533  16.3149
    16.3836  16.4018  16.4705  16.5440  16.6000  16.7016  16.7240  16.7749
    16.8156  16.8833  17.0768  17.1345  17.1671  17.2934  17.3521  17.4339
    17.4564  17.5278  17.5648  17.6056  17.6680  17.7137  17.7434  17.8338
    17.9078  17.9299  17.9874  18.1068  18.2137  18.2378  18.3101  18.3874
    18.4637  18.6205  18.6572  18.7194  18.7945  18.8573  18.8853  18.9876
    19.0321  19.0911  19.1695  19.2313  19.3153  19.3364  19.4121  19.5728
    19.6228  19.6603  19.7390  19.7950  19.8510  19.9979  20.0660  20.1172
    20.1564  20.2515  20.4025  20.4363  20.5306  20.6329  20.6714  20.7106
    20.7841  20.7998  20.9383  20.9559  20.9706  21.0405  21.0938  21.1892
    21.2105  21.3034  21.3278  21.3655  21.4280  21.4696  21.5370  21.6350
    21.7157  21.7441  21.8282  21.8575  21.8786  21.9816

     the Fermi energy is    -1.3244 ev

!    total energy              =   -2104.59450305 Ry
     Harris-Foulkes estimate   =   -2104.59450305 Ry
     estimated scf accuracy    <          3.8E-09 Ry

     The total energy is the sum of the following terms:

     one-electron contribution =  -22816.54848077 Ry
     hartree contribution      =   11455.03642893 Ry
     xc contribution           =    -577.28638749 Ry
     ewald contribution        =    9831.52675604 Ry
     Hubbard energy            =       2.67798103 Ry
     smearing contrib. (-TS)   =      -0.00080079 Ry

     convergence has been achieved in  15 iterations

     Forces acting on atoms (Ry/au):

     negative rho (up, down):  0.314E+01 0.000E+00
     atom    1 type  1   force =    -0.00657334   -0.01171842    0.00017563
     atom    2 type  1   force =     0.00020158    0.00194272   -0.00045793
     atom    3 type  2   force =     0.02943542    0.00869755    0.00016607
     atom    4 type  2   force =     0.00854826    0.00752832    0.00002417
     atom    5 type  1   force =    -0.00547430   -0.01327184   -0.00031231
     atom    6 type  1   force =     0.00713481    0.01077237   -0.00016882
     atom    7 type  1   force =     0.00172721   -0.00248231   -0.00020848
     atom    8 type  1   force =    -0.00249089   -0.00064165   -0.00016915
     atom    9 type  2   force =     0.00664647    0.00020123    0.00013080
     atom   10 type  2   force =    -0.00782590   -0.00114979   -0.00011011
     atom   11 type  1   force =     0.00052409    0.01771205    0.00008486
     atom   12 type  1   force =     0.00091388   -0.01767309    0.00004064
     atom   13 type  1   force =    -0.00134397   -0.00016309    0.00002467
     atom   14 type  1   force =    -0.00774193   -0.01308682    0.00002285
     atom   15 type  1   force =     0.00028356    0.00277292   -0.00038957
     atom   16 type  2   force =    -0.03009984    0.00735698    0.00015456
     atom   17 type  2   force =     0.00885248    0.00800578    0.00002428
     atom   18 type  1   force =    -0.00488418   -0.01258514   -0.00029376
     atom   19 type  1   force =     0.00645012    0.01209683   -0.00017165
     atom   20 type  1   force =    -0.00170076   -0.00579692    0.00083220
     atom   21 type  1   force =    -0.00380572   -0.00060002   -0.00004315
     atom   22 type  2   force =    -0.00414131    0.00063640    0.00006700
     atom   23 type  2   force =     0.00323329    0.00002624    0.00025530
     atom   24 type  1   force =     0.00067829    0.02163672   -0.00016881
     atom   25 type  1   force =     0.00179383   -0.02178415   -0.00017873
     atom   26 type  1   force =    -0.00062382   -0.00024274    0.00029223
     atom   27 type  3   force =     0.00000077    0.00045170    0.00023597
     atom   28 type  3   force =     0.00003357    0.00063525    0.00063777
     atom   29 type  3   force =    -0.00007957    0.00008756    0.00024587
     atom   30 type  3   force =    -0.00020890    0.00068041    0.00014199
     atom   31 type  1   force =     0.00024330   -0.00009242   -0.00033805
     atom   32 type  3   force =     0.00029348    0.00004735   -0.00054632

     Total force =     0.001987     Total SCF correction =     0.000072

     bfgs converged in  10 scf cycles and   9 bfgs steps
     (criteria: energy < 0.10E-03, force < 0.10E-02)

     End of BFGS Geometry Optimization

     Final energy   =   -2104.5945030505 Ry
Begin final coordinates

ATOMIC_POSITIONS (crystal)
O0       0.000000000   0.000000000   0.378818110    0   0   1
O0       0.000000000   0.500000000   0.403545670    0   0   1
Ir1      0.250000000   0.500000000   0.453058040    0   0   1
Ir1      0.000000000   0.000000000   0.453232311    0   0   1
O0       0.250000000   0.810000000   0.453186632    0   0   1
O0       0.250000000   0.190000000   0.452719910    0   0   1
O0       0.000000000   0.500000000   0.499285600    0   0   1
O0       0.000000000   0.000000000   0.528475480    0   0   1
Ir1      0.250000000   0.000000000   0.575211548    0   0   1
Ir1      0.000000000   0.500000000   0.571946719    0   0   1
O0       0.250000000   0.690000000   0.575139833    0   0   1
O0       0.250000000   0.310000000   0.575190416    0   0   1
O0       0.000000000   0.000000000   0.619843609    0   0   1
O0       0.500000000   0.000000000   0.378468081    0   0   1
O0       0.500000000   0.500000000   0.402720879    0   0   1
Ir1      0.750000000   0.500000000   0.453061548    0   0   1
Ir1      0.500000000   0.000000000   0.452998642    0   0   1
O0       0.750000000   0.810000000   0.453207554    0   0   1
O0       0.750000000   0.190000000   0.452694657    0   0   1
O0       0.500000000   0.500000000   0.500037853    0   0   1
O0       0.500000000   0.000000000   0.528480650    0   0   1
Ir1      0.750000000   0.000000000   0.575158405    0   0   1
Ir1      0.500000000   0.500000000   0.574765693    0   0   1
O0       0.750000000   0.690000000   0.574487588    0   0   1
O0       0.750000000   0.310000000   0.574581427    0   0   1
O0       0.500000000   0.000000000   0.619550094    0   0   1
H2      -0.000250776   0.632120948   0.384229252
H2       0.499847181   0.636057656   0.385052362
H2       0.143652210   0.034095930   0.367259219
H2       0.642733445   0.037100484   0.366906228
O0       0.516317842   0.499664825   0.647639911
H2       0.375902441   0.500405885   0.663326076
End final coordinates

     General routines

     Parallel routines
     Hubbard U routines

   This run was terminated on:  17:52: 3  29Apr2014

   JOB DONE.