     Program PWSCF v.5.0.2 (svn rev. 9656) starts on 30May2014 at  1: 6:41

     Current dimensions of program PWSCF are:
     Max number of different atomic species (ntypx) = 10
     Max number of k-points (npk) =  40000
     Max angular momentum in pseudopotentials (lmaxx) =  3
     Reading input from pwscf.in
Warning: card &CELL ignored
Warning: card / ignored

     Subspace diagonalization in iterative solution of the eigenvalue problem:
     a serial algorithm will be used

     bravais-lattice index     =            0
     lattice parameter (alat)  =      12.0187  a.u.
     unit-cell volume          =    7280.5819 (a.u.)^3
     number of atoms/cell      =           33
     number of atomic types    =            3
     number of electrons       =       245.00
     number of Kohn-Sham states=          367
     kinetic-energy cutoff     =      40.0000  Ry
     charge density cutoff     =     500.0000  Ry
     convergence threshold     =      1.0E-06
     mixing beta               =       0.7000
     number of iterations used =            8  plain     mixing
     Exchange-correlation      = SLA  PW   PBE  PBE ( 1 4 3 4 0)
     EXX-fraction              =        0.00
     nstep                     =           50

     celldm(1)=  12.018658  celldm(2)=   0.000000  celldm(3)=   0.000000
     celldm(4)=   0.000000  celldm(5)=   0.000000  celldm(6)=   0.000000

     crystal axes: (cart. coord. in units of alat)
               a(1) = (   1.000000   0.000000   0.000000 )
               a(2) = (   0.000000   1.009517   0.000000 )
               a(3) = (   0.000000   0.000000   4.154171 )

     reciprocal axes: (cart. coord. in units 2 pi/alat)
               b(1) = (  1.000000  0.000000  0.000000 )
               b(2) = (  0.000000  0.990572  0.000000 )
               b(3) = (  0.000000  0.000000  0.240722 )

     PseudoPot. # 1 for O  read from file:
     /home/camp/zhonxu/pseudo/o_pbe_v1.01.uspp.F.UPF
     MD5 check sum: 2bcb18d16ea4b960afae9ec6d52f22d2
     Pseudo is Ultrasoft + core correction, Zval =  6.0
     Generated by new atomic code, or converted to UPF format
     Using radial grid of  737 points,  5 beta functions with:
                l(1) =   0
                l(2) =   0
                l(3) =   1
                l(4) =   1
                l(5) =   2
     Q(r) pseudized with  8 coefficients,  rinner =    0.900   0.900   0.900
                                                       0.900   0.900

     PseudoPot. # 2 for Ir read from file:
     /home/camp/zhonxu/pseudo/ir_pbe_v1.uspp.F.UPF
     MD5 check sum: abf987a9674477536ede83817f8f8b70
     Pseudo is Ultrasoft + core correction, Zval = 15.0
     Generated by new atomic code, or converted to UPF format
     Using radial grid of  983 points,  7 beta functions with:
                l(1) =   0
                l(2) =   0
                l(3) =   1
                l(4) =   1
                l(5) =   1
                l(6) =   2
                l(7) =   2
     Q(r) pseudized with  8 coefficients,  rinner =    1.350   1.350   1.350
                                                       1.350   1.350

     PseudoPot. # 3 for H  read from file:
     /home/camp/zhonxu/pseudo/h_pbe_v1.uspp.F.UPF
     MD5 check sum: 3408e3ff4ec8b0a4e358431e7e038a48
     Pseudo is Ultrasoft, Zval =  1.0
     Generated by new atomic code, or converted to UPF format
     Using radial grid of  615 points,  2 beta functions with:
                l(1) =   0
                l(2) =   0
     Q(r) pseudized with  8 coefficients,  rinner =    0.700

     atomic species   valence    mass     pseudopotential
        O0             6.00    15.99940     O ( 1.00)
        Ir1           15.00   192.22000     Ir( 1.00)
        H2             1.00     1.00794     H ( 1.00)

     Simplified LDA+U calculation (l_max = 2) with parameters (eV):
     atomic species    L          U    alpha       J0     beta
        Ir1            2     7.5000   0.0000   0.0000   0.0000

     No symmetry found

   Cartesian axes

     site n.     atom                  positions (alat units)
         1           O0  tau(   1) = (   0.0000000   0.0000000   1.5694875  )
         2           O0  tau(   2) = (   0.0000000   0.5047586   1.6702677  )
         3           Ir1 tau(   3) = (   0.2500000   0.5047586   1.8805934  )
         4           Ir1 tau(   4) = (   0.0000000   0.0000000   1.8807595  )
         5           O0  tau(   5) = (   0.2500000   0.8177090   1.8801779  )
         6           O0  tau(   6) = (   0.2500000   0.1918083   1.8787655  )
         7           O0  tau(   7) = (   0.0000000   0.5047586   2.0695666  )
         8           O0  tau(   8) = (   0.0000000   0.0000000   2.1948564  )
         9           Ir1 tau(   9) = (   0.2500000   0.0000000   2.3901025  )
        10           Ir1 tau(  10) = (   0.0000000   0.5047586   2.3742751  )
        11           O0  tau(  11) = (   0.2500000   0.6965669   2.3856575  )
        12           O0  tau(  12) = (   0.2500000   0.3129503   2.3949628  )
        13           O0  tau(  13) = (   0.0000000   0.0000000   2.5754200  )
        14           O0  tau(  14) = (   0.5000000   0.0000000   1.5694875  )
        15           O0  tau(  15) = (   0.5000000   0.5047586   1.6704338  )
        16           Ir1 tau(  16) = (   0.7500000   0.5047586   1.8805934  )
        17           Ir1 tau(  17) = (   0.5000000   0.0000000   1.8805518  )
        18           O0  tau(  18) = (   0.7500000   0.8177090   1.8801364  )
        19           O0  tau(  19) = (   0.7500000   0.1918083   1.8788486  )
        20           O0  tau(  20) = (   0.5000000   0.5047586   2.0759640  )
        21           O0  tau(  21) = (   0.5000000   0.0000000   2.1945241  )
        22           Ir1 tau(  22) = (   0.7500000   0.0000000   2.3900609  )
        23           Ir1 tau(  23) = (   0.5000000   0.5047586   2.3998648  )
        24           O0  tau(  24) = (   0.7500000   0.6965669   2.3856575  )
        25           O0  tau(  25) = (   0.7500000   0.3129503   2.3949628  )
        26           O0  tau(  26) = (   0.5000000   0.0000000   2.5728445  )
        27           H2  tau(  27) = (   0.0000400   0.6420328   1.5957418  )
        28           H2  tau(  28) = (   0.4999400   0.6424971   1.5965311  )
        29           H2  tau(  29) = (   0.1432100   0.0360095   1.5217560  )
        30           H2  tau(  30) = (   0.6436700   0.0339703   1.5215899  )
        31           O0  tau(  31) = (   0.4997900   0.5432313   2.6993805  )
        32           O0  tau(  32) = (   0.5001800   0.3480815   2.8224271  )
        33           H2  tau(  33) = (   0.4999800   0.4114489   2.9642920  )

     number of k points=    10  Methfessel-Paxton smearing, width (Ry)=  0.0100
                       cart. coord. in units 2pi/alat
        k(    1) = (   0.0000000   0.0000000   0.0000000), wk =   0.1250000
        k(    2) = (   0.0000000   0.2476431   0.0000000), wk =   0.2500000
        k(    3) = (   0.0000000  -0.4952862   0.0000000), wk =   0.1250000
        k(    4) = (   0.2500000   0.0000000   0.0000000), wk =   0.2500000
        k(    5) = (   0.2500000   0.2476431   0.0000000), wk =   0.2500000
        k(    6) = (   0.2500000  -0.4952862   0.0000000), wk =   0.2500000
        k(    7) = (  -0.5000000   0.0000000   0.0000000), wk =   0.1250000
        k(    8) = (  -0.5000000   0.2476431   0.0000000), wk =   0.2500000
        k(    9) = (  -0.5000000  -0.4952862   0.0000000), wk =   0.1250000
        k(   10) = (  -0.2500000   0.2476431   0.0000000), wk =   0.2500000

     Largest allocated arrays     est. size (Mb)     dimensions
     Largest temporary arrays     est. size (Mb)     dimensions

     Check: negative/imaginary core charge=   -0.000003    0.000000

     Initial potential from superposition of free atoms
     Check: negative starting charge=   -3.336869

     starting charge  240.99967, renormalised to  245.00000

     negative rho (up, down):  0.339E+01 0.000E+00
     Number of +U iterations with fixed ns =  0
     Starting occupations:
 --- enter write_ns ---
 LDA+U parameters:
U( 2)     =  7.50000000
alpha( 2) =  0.00000000
atom    3   Tr[ns(na)] =   7.00000
    eigenvalues:
  0.700  0.700  0.700  0.700  0.700
    eigenvectors:
  1.000  0.000  0.000  0.000  0.000
  0.000  1.000  0.000  0.000  0.000
  0.000  0.000  1.000  0.000  0.000
  0.000  0.000  0.000  1.000  0.000
  0.000  0.000  0.000  0.000  1.000
    occupations:
  0.700  0.000  0.000  0.000  0.000
  0.000  0.700  0.000  0.000  0.000
  0.000  0.000  0.700  0.000  0.000
  0.000  0.000  0.000  0.700  0.000
  0.000  0.000  0.000  0.000  0.700
atom    4   Tr[ns(na)] =   7.00000
    eigenvalues:
  0.700  0.700  0.700  0.700  0.700
    eigenvectors:
  1.000  0.000  0.000  0.000  0.000
  0.000  1.000  0.000  0.000  0.000
  0.000  0.000  1.000  0.000  0.000
  0.000  0.000  0.000  1.000  0.000
  0.000  0.000  0.000  0.000  1.000
    occupations:
  0.700  0.000  0.000  0.000  0.000
  0.000  0.700  0.000  0.000  0.000
  0.000  0.000  0.700  0.000  0.000
  0.000  0.000  0.000  0.700  0.000
  0.000  0.000  0.000  0.000  0.700
atom    9   Tr[ns(na)] =   7.00000
    eigenvalues:
  0.700  0.700  0.700  0.700  0.700
    eigenvectors:
  1.000  0.000  0.000  0.000  0.000
  0.000  1.000  0.000  0.000  0.000
  0.000  0.000  1.000  0.000  0.000
  0.000  0.000  0.000  1.000  0.000
  0.000  0.000  0.000  0.000  1.000
    occupations:
  0.700  0.000  0.000  0.000  0.000
  0.000  0.700  0.000  0.000  0.000
  0.000  0.000  0.700  0.000  0.000
  0.000  0.000  0.000  0.700  0.000
  0.000  0.000  0.000  0.000  0.700
atom   10   Tr[ns(na)] =   7.00000
    eigenvalues:
  0.700  0.700  0.700  0.700  0.700
    eigenvectors:
  1.000  0.000  0.000  0.000  0.000
  0.000  1.000  0.000  0.000  0.000
  0.000  0.000  1.000  0.000  0.000
  0.000  0.000  0.000  1.000  0.000
  0.000  0.000  0.000  0.000  1.000
    occupations:
  0.700  0.000  0.000  0.000  0.000
  0.000  0.700  0.000  0.000  0.000
  0.000  0.000  0.700  0.000  0.000
  0.000  0.000  0.000  0.700  0.000
  0.000  0.000  0.000  0.000  0.700
atom   16   Tr[ns(na)] =   7.00000
    eigenvalues:
  0.700  0.700  0.700  0.700  0.700
    eigenvectors:
  1.000  0.000  0.000  0.000  0.000
  0.000  1.000  0.000  0.000  0.000
  0.000  0.000  1.000  0.000  0.000
  0.000  0.000  0.000  1.000  0.000
  0.000  0.000  0.000  0.000  1.000
    occupations:
  0.700  0.000  0.000  0.000  0.000
  0.000  0.700  0.000  0.000  0.000
  0.000  0.000  0.700  0.000  0.000
  0.000  0.000  0.000  0.700  0.000
  0.000  0.000  0.000  0.000  0.700
atom   17   Tr[ns(na)] =   7.00000
    eigenvalues:
  0.700  0.700  0.700  0.700  0.700
    eigenvectors:
  1.000  0.000  0.000  0.000  0.000
  0.000  1.000  0.000  0.000  0.000
  0.000  0.000  1.000  0.000  0.000
  0.000  0.000  0.000  1.000  0.000
  0.000  0.000  0.000  0.000  1.000
    occupations:
  0.700  0.000  0.000  0.000  0.000
  0.000  0.700  0.000  0.000  0.000
  0.000  0.000  0.700  0.000  0.000
  0.000  0.000  0.000  0.700  0.000
  0.000  0.000  0.000  0.000  0.700
atom   22   Tr[ns(na)] =   7.00000
    eigenvalues:
  0.700  0.700  0.700  0.700  0.700
    eigenvectors:
  1.000  0.000  0.000  0.000  0.000
  0.000  1.000  0.000  0.000  0.000
[...]
  0.000  0.955 -0.000  0.000 -0.009
  0.007 -0.000  0.961 -0.000 -0.000
  0.040  0.000 -0.000  0.983  0.000
 -0.000 -0.009 -0.000  0.000  0.615
atom   16   Tr[ns(na)] =   8.23829
    eigenvalues:
  0.607  0.635  0.917  0.975  0.986
    eigenvectors:
  0.005  0.177  0.004  0.000  0.814
  0.977  0.023  0.000  0.000  0.000
  0.000  0.000  0.990  0.006  0.004
  0.018  0.800  0.000  0.000  0.182
  0.000  0.000  0.006  0.993  0.001
    occupations:
  0.921  0.005  0.003 -0.136  0.001
  0.005  0.608 -0.000  0.002 -0.005
  0.003 -0.000  0.917 -0.004 -0.004
 -0.136  0.002 -0.004  0.698 -0.000
  0.001 -0.005 -0.004 -0.000  0.974
atom   17   Tr[ns(na)] =   8.24471
    eigenvalues:
  0.620  0.673  0.901  0.941  0.987
    eigenvectors:
  0.000  0.989  0.000  0.000  0.011
  0.000  0.000  0.073  0.927  0.000
  0.000  0.000  0.927  0.073  0.000
  0.000  0.011  0.000  0.000  0.989
  0.999  0.000  0.000  0.000  0.000
    occupations:
  0.676 -0.003 -0.000  0.032  0.001
 -0.003  0.938  0.010  0.000 -0.002
 -0.000  0.010  0.904 -0.000  0.001
  0.032  0.000 -0.000  0.984  0.000
  0.001 -0.002  0.001  0.000  0.620
atom   22   Tr[ns(na)] =   8.24090
    eigenvalues:
  0.656  0.672  0.885  0.921  0.987
    eigenvectors:
  0.000  0.139  0.000  0.000  0.861
  1.000  0.000  0.000  0.000  0.000
  0.000  0.000  0.992  0.008  0.000
  0.000  0.861  0.000  0.000  0.139
  0.000  0.000  0.008  0.992  0.000
    occupations:
  0.943  0.001 -0.000 -0.109  0.000
  0.001  0.656  0.001 -0.001 -0.000
 -0.000  0.001  0.885 -0.004  0.003
 -0.109 -0.001 -0.004  0.716  0.001
  0.000 -0.000  0.003  0.001  0.920
atom   23   Tr[ns(na)] =   8.25032
    eigenvalues:
  0.622  0.665  0.889  0.963  0.987
    eigenvectors:
  0.000  0.992  0.000  0.003  0.005
  0.001  0.000  0.998  0.000  0.000
  0.000  0.002  0.000  0.996  0.001
  0.000  0.006  0.000  0.001  0.993
  0.999  0.000  0.001  0.000  0.000
    occupations:
  0.667 -0.000  0.014  0.024 -0.000
 -0.000  0.888 -0.001 -0.000 -0.010
  0.014 -0.001  0.963 -0.002  0.000
  0.024 -0.000 -0.002  0.985 -0.000
 -0.000 -0.010  0.000 -0.000  0.622
N of occupied +U levels =  65.8846841
 --- exit write_ns ---

     Threshold (ethr) on eigenvalues was too large:
     Diagonalizing with lowered threshold

     Davidson diagonalization with overlap
     ethr =  1.89E-08,  avg # of iterations =  1.6

[...]

     total energy              =   -2136.62295137 Ry
     Harris-Foulkes estimate   =   -2136.62295137 Ry
     estimated scf accuracy    <       0.00000002 Ry

     iteration # 16     ecut=    40.00 Ry     beta=0.70
     Davidson diagonalization with overlap
     ethr =  6.74E-12,  avg # of iterations =  1.0

     negative rho (up, down):  0.314E+01 0.000E+00

     End of self-consistent calculation
 --- enter write_ns ---
 LDA+U parameters:
U( 2)     =  7.50000000
alpha( 2) =  0.00000000
atom    3   Tr[ns(na)] =   8.23811
    eigenvalues:
  0.607  0.635  0.917  0.975  0.986
    eigenvectors:
  0.005  0.177  0.003  0.000  0.814
  0.976  0.024  0.000  0.000  0.000
  0.000  0.000  0.987  0.010  0.003
  0.018  0.800  0.000  0.000  0.182
  0.000  0.000  0.009  0.990  0.001
    occupations:
  0.921 -0.005  0.003 -0.136 -0.001
 -0.005  0.608 -0.001 -0.002 -0.005
  0.003 -0.001  0.917 -0.004  0.006
 -0.136 -0.002 -0.004  0.698 -0.000
 -0.001 -0.005  0.006 -0.000  0.974
atom    4   Tr[ns(na)] =   8.24543
    eigenvalues:
  0.620  0.673  0.900  0.943  0.987
    eigenvectors:
  0.000  0.989  0.000  0.000  0.011
  0.000  0.000  0.083  0.917  0.000
  0.000  0.000  0.917  0.083  0.000
  0.000  0.011  0.000  0.000  0.989
  1.000  0.000  0.000  0.000  0.000
    occupations:
  0.676 -0.003 -0.001  0.032  0.001
 -0.003  0.939  0.012  0.000 -0.002
 -0.001  0.012  0.903 -0.000  0.001
  0.032  0.000 -0.000  0.984  0.000
  0.001 -0.002  0.001  0.000  0.620
atom    9   Tr[ns(na)] =   8.24062
    eigenvalues:
  0.656  0.672  0.885  0.920  0.987
    eigenvectors:
  0.000  0.138  0.000  0.000  0.861
  0.998  0.002  0.000  0.000  0.000
  0.000  0.000  0.991  0.009  0.000
  0.002  0.859  0.000  0.000  0.139
  0.000  0.000  0.009  0.991  0.000
    occupations:
  0.943 -0.000  0.000 -0.109 -0.001
 -0.000  0.656  0.000  0.001 -0.000
  0.000  0.000  0.885 -0.004 -0.003
 -0.109  0.001 -0.004  0.716  0.001
 -0.001 -0.000 -0.003  0.001  0.920
atom   10   Tr[ns(na)] =   8.18555
    eigenvalues:
  0.575  0.615  0.955  0.961  0.987
    eigenvectors:
  0.990  0.000  0.000  0.000  0.009
  0.000  0.001  0.998  0.001  0.000
  0.000  0.000  0.001  0.998  0.000
  0.009  0.000  0.000  0.000  0.990
  0.000  0.999  0.001  0.000  0.000
    occupations:
  0.579  0.000  0.007  0.040 -0.000
  0.000  0.955 -0.000  0.000 -0.009
  0.007 -0.000  0.961 -0.000 -0.000
  0.040  0.000 -0.000  0.983  0.000
 -0.000 -0.009 -0.000  0.000  0.615
atom   16   Tr[ns(na)] =   8.23809
    eigenvalues:
  0.607  0.635  0.917  0.975  0.986
    eigenvectors:
  0.005  0.177  0.004  0.001  0.814
  0.977  0.023  0.000  0.000  0.000
  0.000  0.000  0.990  0.006  0.004
  0.018  0.800  0.000  0.000  0.182
  0.000  0.000  0.006  0.993  0.001
    occupations:
  0.921  0.005  0.003 -0.136  0.001
  0.005  0.608 -0.000  0.002 -0.005
  0.003 -0.000  0.917 -0.004 -0.004
 -0.136  0.002 -0.004  0.698 -0.000
  0.001 -0.005 -0.004 -0.000  0.974
atom   17   Tr[ns(na)] =   8.24449
    eigenvalues:
  0.620  0.673  0.901  0.941  0.987
    eigenvectors:
  0.000  0.989  0.000  0.000  0.011
  0.000  0.000  0.073  0.927  0.000
  0.000  0.000  0.927  0.073  0.000
  0.000  0.011  0.000  0.000  0.989
  0.999  0.000  0.000  0.000  0.000
    occupations:
  0.676 -0.003 -0.000  0.032  0.001
 -0.003  0.938  0.010  0.000 -0.002
 -0.000  0.010  0.904 -0.000  0.001
  0.032  0.000 -0.000  0.984  0.000
  0.001 -0.002  0.001  0.000  0.620
atom   22   Tr[ns(na)] =   8.24061
    eigenvalues:
  0.656  0.672  0.885  0.920  0.987
    eigenvectors:
  0.000  0.139  0.000  0.000  0.861
  1.000  0.000  0.000  0.000  0.000
  0.000  0.000  0.992  0.008  0.000
  0.000  0.861  0.000  0.000  0.139
  0.000  0.000  0.008  0.992  0.000
    occupations:
  0.943  0.001 -0.000 -0.109  0.000
  0.001  0.656  0.001 -0.001 -0.000
 -0.000  0.001  0.885 -0.004  0.003
 -0.109 -0.001 -0.004  0.716  0.001
  0.000 -0.000  0.003  0.001  0.920
atom   23   Tr[ns(na)] =   8.25092
    eigenvalues:
  0.622  0.665  0.889  0.963  0.987
    eigenvectors:
  0.000  0.992  0.000  0.003  0.005
  0.001  0.000  0.998  0.000  0.000
  0.000  0.002  0.000  0.996  0.001
  0.000  0.006  0.000  0.001  0.993
  0.999  0.000  0.001  0.000  0.000
    occupations:
  0.667 -0.000  0.014  0.024 -0.000
 -0.000  0.889 -0.001 -0.000 -0.010
  0.014 -0.001  0.963 -0.002  0.000
  0.024 -0.000 -0.002  0.985 -0.000
 -0.000 -0.010  0.000 -0.000  0.622
N of occupied +U levels =  65.8838099
 --- exit write_ns ---

[...]

          k = 0.2500-0.4953 0.0000 ( 31088 PWs)   bands (ev):

[...]

          k =-0.2500 0.2476 0.0000 ( 31099 PWs)   bands (ev):

   -49.8301 -49.6701 -49.6653 -49.6642 -49.6587 -49.6080 -49.6009 -49.5963
   -49.5845 -49.5441 -49.5383 -49.5185 -49.4055 -49.3953 -49.3157 -49.3116
   -49.3086 -49.3049 -49.2441 -49.2309 -49.2199 -49.2183 -49.1812 -49.1707
   -23.7219 -20.8777 -20.6943 -20.6330 -20.5078 -20.2313 -20.2278 -20.2074
   -19.9718 -19.9293 -19.6997 -19.6455 -19.5023 -19.4641 -19.3956 -19.3212
   -19.2296 -18.5456 -18.3606 -17.3892 -10.5126 -10.3358 -10.0760 -10.0080
    -9.7656  -9.6758  -9.4883  -9.4526  -9.3977  -8.9505  -8.5961  -8.5498
    -8.4260  -8.3743  -8.1905  -8.1075  -7.9482  -7.8907  -7.8195  -7.5648
    -7.3980  -7.2715  -7.1419  -7.0344  -6.9878  -6.9067  -6.7890  -6.7695
    -6.5937  -6.4184  -6.3536  -6.2141  -6.1334  -6.0681  -6.0273  -5.8985
    -5.8716  -5.7551  -5.6506  -5.6201  -5.4684  -5.3868  -5.2433  -5.1452
    -4.8250  -4.6584  -4.5035  -4.3877  -4.2855  -4.2242  -4.0649  -4.0190
    -3.8635  -3.7625  -3.5749  -3.4565  -3.4388  -3.3506  -3.2113  -3.1135
    -2.9955  -2.9096  -2.8707  -2.7480  -2.6772  -2.6423  -2.5913  -2.5622
    -2.3393  -2.2957  -2.2103  -2.0776  -1.7904  -1.4955  -1.2918  -1.2540
    -1.0762  -1.0365  -0.8074  -0.6487  -0.4571  -0.3814  -0.1757   0.5828
     1.5824   1.6072   1.8635   2.1703   2.3724   2.7774   2.9291   3.1407
     3.3019   3.4594   3.5104   3.6712   3.7616   3.9335   3.9553   4.0554
     4.2833   4.5215   4.7548   5.2637   5.4388   5.7706   6.0735   6.1151
     6.2165   6.4073   6.5756   6.6342   6.7404   7.0429   7.1533   7.3150
     7.5137   7.6879   7.8500   7.9169   7.9796   8.2280   8.3050   8.3693
     8.3788   8.4725   8.7469   8.8164   8.9137   9.0893   9.1429   9.2393
     9.2653   9.4392   9.5695   9.6260   9.7314   9.8039   9.8782   9.9965
    10.0593  10.1492  10.2076  10.2810  10.3288  10.3407  10.3639  10.3694
    10.4061  10.4075  10.4275  10.5074  10.5627  10.5761  10.5822  10.5970
    10.7001  10.7418  10.8523  10.9665  11.0311  11.0776  11.2012  11.2378
    11.3193  11.3956  11.4738  11.5774  11.7287  11.7659  11.8377  11.8960
    11.9275  12.0887  12.1285  12.2118  12.3535  12.5122  12.5238  12.5607
    12.6125  12.6951  12.8260  12.8842  13.0155  13.0522  13.0965  13.2209
    13.2752  13.3381  13.4058  13.5646  13.6604  13.7430  13.8083  13.8985
    13.9261  14.0291  14.0696  14.1975  14.2529  14.3085  14.3690  14.4550
    14.4746  14.5576  14.6633  14.7723  14.8413  14.8924  15.1015  15.1343
    15.1572  15.2456  15.3811  15.4220  15.5627  15.6066  15.6611  15.6852
    15.7303  15.7936  15.8598  15.9411  15.9763  16.0391  16.0825  16.1169
    16.2215  16.2761  16.3517  16.4175  16.4806  16.5419  16.5738  16.6609
    16.7171  16.7599  16.8011  16.8705  16.9642  17.0395  17.1938  17.2559
    17.2921  17.3425  17.3893  17.4398  17.5008  17.6012  17.6427  17.6901
    17.7439  17.8242  17.8580  17.8875  17.9264  18.0086  18.0655  18.1579
    18.2267  18.3106  18.4004  18.5131  18.6023  18.6916  18.7559  18.7911
    18.8125  18.8886  19.0406  19.0582  19.1401  19.2297  19.2962  19.3799
    19.3941  19.4871  19.5762  19.6380  19.7060  19.7634  19.8222  19.8758
    19.9601  20.0204  20.1511  20.2863  20.3227  20.3869  20.4437  20.5378
    20.6761  20.6976  20.7594  20.7985  20.8333  20.8872  20.9574  21.0492
    21.1139  21.1405  21.1865  21.2431  21.2928  21.3201  21.3650  21.4613
    21.5160  21.5866  21.6779  21.7107  21.7223  21.8448  21.8931  21.9416
    21.9968  22.0434  22.0920  22.1634  22.2378  22.3294  22.4114

     the Fermi energy is    -0.8650 ev

!    total energy              =   -2136.62295137 Ry
     Harris-Foulkes estimate   =   -2136.62295137 Ry
     estimated scf accuracy    <          2.2E-09 Ry

     The total energy is the sum of the following terms:

     one-electron contribution =  -23178.37995245 Ry
     hartree contribution      =   11642.39800287 Ry
     xc contribution           =    -584.28436087 Ry
     ewald contribution        =    9980.97274671 Ry
     Hubbard energy            =       2.67064271 Ry
     smearing contrib. (-TS)   =      -0.00003033 Ry

     convergence has been achieved in  16 iterations

     Forces acting on atoms (Ry/au):

     negative rho (up, down):  0.314E+01 0.000E+00
     atom    1 type  1   force =    -0.00713904   -0.01210583    0.00003996
     atom    2 type  1   force =     0.00008954    0.00278925   -0.00060951
     atom    3 type  2   force =     0.03025676    0.00597654    0.00006108
     atom    4 type  2   force =     0.00827983    0.00702587    0.00016997
     atom    5 type  1   force =    -0.00540100   -0.01868117   -0.00031817
     atom    6 type  1   force =     0.00631476    0.01842457   -0.00009932
     atom    7 type  1   force =    -0.00045243   -0.00444931   -0.00019241
     atom    8 type  1   force =    -0.00304737    0.00081275   -0.00003179
     atom    9 type  2   force =     0.00596578    0.00037626    0.00016677
     atom   10 type  2   force =    -0.00013818    0.00080603   -0.00001768
     atom   11 type  1   force =    -0.00083767    0.02284671    0.00017454
     atom   12 type  1   force =     0.00572905   -0.01764966    0.00021560
     atom   13 type  1   force =    -0.00075053   -0.00273357   -0.00016486
     atom   14 type  1   force =    -0.00658589   -0.01219890    0.00017195
     atom   15 type  1   force =     0.00006101    0.00283189   -0.00025322
     atom   16 type  2   force =    -0.02987489    0.00584122    0.00004671
     atom   17 type  2   force =     0.00811622    0.00750003    0.00013301
     atom   18 type  1   force =    -0.00444890   -0.01942232   -0.00030636
     atom   19 type  1   force =     0.00699813    0.01780537   -0.00010591
     atom   20 type  1   force =    -0.00031139   -0.00748895    0.00059979
     atom   21 type  1   force =    -0.00313462    0.00151064   -0.00017143
     atom   22 type  2   force =    -0.00373306   -0.00012308    0.00021713
     atom   23 type  2   force =    -0.00050031    0.00404103   -0.00029248
     atom   24 type  1   force =     0.00040418    0.02259902    0.00020467
     atom   25 type  1   force =    -0.00477585   -0.01780777    0.00026837
     atom   26 type  1   force =    -0.00091029   -0.00973857    0.00053556
     atom   27 type  3   force =     0.00001620    0.00047384    0.00028303
     atom   28 type  3   force =     0.00002469    0.00044165    0.00068071
     atom   29 type  3   force =    -0.00010099    0.00020588    0.00025366
     atom   30 type  3   force =    -0.00025806    0.00031717    0.00011106
     atom   31 type  1   force =    -0.00018876   -0.00044706   -0.00009098
     atom   32 type  1   force =     0.00033025    0.00081928   -0.00091833
     atom   33 type  3   force =     0.00000280   -0.00059880   -0.00076111

     Total force =     0.002428     Total SCF correction =     0.000099

     entering subroutine stress ...

     negative rho (up, down):  0.314E+01 0.000E+00
          total   stress  (Ry/bohr**3)                   (kbar)     P=  -16.34
  -0.00013886   0.00000878   0.00000370        -20.43      1.29      0.54
   0.00000878  -0.00014399   0.00000431          1.29    -21.18      0.63
   0.00000370   0.00000431  -0.00005044          0.54      0.63     -7.42

     bfgs converged in   9 scf cycles and   8 bfgs steps
     (criteria: energy < 0.10E-03, force < 0.10E-02)

     End of BFGS Geometry Optimization

     Final energy   =   -2136.6229513691 Ry
Begin final coordinates

ATOMIC_POSITIONS (crystal)
O0       0.000000000   0.000000000   0.378313170    0   0   1
O0       0.000000000   0.500000000   0.403096020    0   0   1
Ir1      0.250000000   0.500000000   0.453060585    0   0   1
Ir1      0.000000000   0.000000000   0.452856393    0   0   1
O0       0.250000000   0.810000000   0.452979788    0   0   1
O0       0.250000000   0.190000000   0.452430727    0   0   1
O0       0.000000000   0.500000000   0.499117986    0   0   1
O0       0.000000000   0.000000000   0.528165458    0   0   1
Ir1      0.250000000   0.000000000   0.574662689    0   0   1
Ir1      0.000000000   0.500000000   0.571769896    0   0   1
O0       0.250000000   0.690000000   0.573620518    0   0   1
O0       0.250000000   0.310000000   0.575817220    0   0   1
O0       0.000000000   0.000000000   0.619339122    0   0   1
O0       0.500000000   0.000000000   0.378125940    0   0   1
O0       0.500000000   0.500000000   0.402858712    0   0   1
Ir1      0.750000000   0.500000000   0.453057688    0   0   1
Ir1      0.500000000   0.000000000   0.452642639    0   0   1
O0       0.750000000   0.810000000   0.452973844    0   0   1
O0       0.750000000   0.190000000   0.452449453    0   0   1
O0       0.500000000   0.500000000   0.500045446    0   0   1
O0       0.500000000   0.000000000   0.528089524    0   0   1
Ir1      0.750000000   0.000000000   0.574664186    0   0   1
Ir1      0.500000000   0.500000000   0.576880808    0   0   1
O0       0.750000000   0.690000000   0.573629801    0   0   1
O0       0.750000000   0.310000000   0.575831303    0   0   1
O0       0.500000000   0.000000000   0.618923390    0   0   1
H2      -0.000147518   0.633955382   0.384556806
H2       0.499777833   0.635402903   0.384897512
H2       0.143072586   0.036291883   0.366801517
H2       0.643612818   0.034617246   0.366678275
O0       0.499343446   0.535380746   0.649507029
O0       0.500634120   0.346097592   0.678708973
H2       0.499996412   0.407873539   0.713017582
End final coordinates

     General routines

     Parallel routines
     Hubbard U routines

   This run was terminated on:  13:13: 1  30May2014

   JOB DONE.
Running PBS batch system epilogue script
Job id: 373288.audhumbla.fysik.dtu.dk
Username: zhonxu
Groupname: campgst
Jobname: IrO2/Eads-2-layers/OOH-U-7.5
Sessionid: 8436
Queuename: verylong
Accounting:
This job has allocated the following 16 nodes:
a118 a118 a118 a118 a118 a118 a118 a118 a106 a106 a106 a106 a106 a106 a106 a106
Finished epilogue job 373288.audhumbla.fysik.dtu.dk for zhonxu