     Program PWSCF v.5.0.2 (svn rev. 9656) starts on 23Jan2014 at 18:21:29

     Current dimensions of program PWSCF are:
     Max number of different atomic species (ntypx) = 10
     Max number of k-points (npk) =  40000
     Max angular momentum in pseudopotentials (lmaxx) =  3
     Reading input from SnO2-v-0.9.in

     Subspace diagonalization in iterative solution of the eigenvalue problem:
     a serial algorithm will be used

     bravais-lattice index     =            0
     lattice parameter (alat)  =       8.3602  a.u.
     unit-cell volume          =     376.5571 (a.u.)^3
     number of atoms/cell      =            6
     number of atomic types    =            2
     number of electrons       =        52.00
     number of Kohn-Sham states=           75
     kinetic-energy cutoff     =      40.0000  Ry
     charge density cutoff     =     500.0000  Ry
     convergence threshold     =      1.0E-06
     mixing beta               =       0.7000
     number of iterations used =            8  plain     mixing
     Exchange-correlation      = SLA  PW   PBE  PBE ( 1 4 3 4 0)
     EXX-fraction              =        0.00
     nstep                     =           50

     celldm(1)=   8.360170  celldm(2)=   0.000000  celldm(3)=   0.000000
     celldm(4)=   0.000000  celldm(5)=   0.000000  celldm(6)=   0.000000

     crystal axes: (cart. coord. in units of alat)
               a(1) = (   1.000000   0.000000   0.000000 )
               a(2) = (   0.000000   1.000000   0.000000 )
               a(3) = (   0.000000   0.000000   0.644444 )

     reciprocal axes: (cart. coord. in units 2 pi/alat)
               b(1) = (  1.000000  0.000000  0.000000 )
               b(2) = (  0.000000  1.000000  0.000000 )
               b(3) = (  0.000000  0.000000  1.551724 )

     PseudoPot. # 1 for Sn read from file:
     /home/camp/zhonxu/pseudo/sn_pbe_v1.uspp.F.UPF
     MD5 check sum: 4cf58ce39ec5d5d420df3dd08604eb00
     Pseudo is Ultrasoft + core correction, Zval = 14.0
     Generated by new atomic code, or converted to UPF format
     Using radial grid of  891 points,  6 beta functions with:
                l(1) =   0
                l(2) =   0
                l(3) =   1
                l(4) =   1
                l(5) =   2
                l(6) =   2
     Q(r) pseudized with  6 coefficients,  rinner =    1.200   1.200   1.200
                                                       1.200   1.200

     PseudoPot. # 2 for O  read from file:
     /home/camp/zhonxu/pseudo/o_pbe_v1.01.uspp.F.UPF
     MD5 check sum: 2bcb18d16ea4b960afae9ec6d52f22d2
     Pseudo is Ultrasoft + core correction, Zval =  6.0
     Generated by new atomic code, or converted to UPF format
     Using radial grid of  737 points,  5 beta functions with:
                l(1) =   0
                l(2) =   0
                l(3) =   1
                l(4) =   1
                l(5) =   2
     Q(r) pseudized with  8 coefficients,  rinner =    0.900   0.900   0.900
                                                       0.900   0.900

     atomic species   valence    mass     pseudopotential
        Sn0           14.00   118.71000     Sn( 1.00)
        O1             6.00    15.99940     O ( 1.00)

     Starting magnetic structure
     atomic species   magnetization
        Sn0          0.600
        O1           0.000

     16 Sym. Ops., with inversion, found ( 8 have fractional translation)

   Cartesian axes

     site n.     atom                  positions (alat units)
         1           Sn0 tau(   1) = (   0.0000000   0.0000000   0.0000000  )
         2           Sn0 tau(   2) = (   0.5000000   0.5000000   0.3222222  )
         3           O1  tau(   3) = (   0.3050000   0.3050000   0.0000000  )
         4           O1  tau(   4) = (  -0.3050000  -0.3050000   0.0000000  )
         5           O1  tau(   5) = (   0.8050000   0.1950000   0.3222222  )
         6           O1  tau(   6) = (   0.1950000   0.8050000   0.3222222  )

     number of k points=    36  Methfessel-Paxton smearing, width (Ry)=  0.0100
                       cart. coord. in units 2pi/alat
        k(    1) = (   0.0000000   0.0000000   0.0000000), wk =   0.0080000
        k(    2) = (   0.0000000   0.0000000   0.3103448), wk =   0.0160000
        k(    3) = (   0.0000000   0.0000000   0.6206897), wk =   0.0160000
        k(    4) = (   0.0000000   0.2000000   0.0000000), wk =   0.0320000
        k(    5) = (   0.0000000   0.2000000   0.3103448), wk =   0.0640000
        k(    6) = (   0.0000000   0.2000000   0.6206897), wk =   0.0640000
        k(    7) = (   0.0000000   0.4000000   0.0000000), wk =   0.0320000
        k(    8) = (   0.0000000   0.4000000   0.3103448), wk =   0.0640000
        k(    9) = (   0.0000000   0.4000000   0.6206897), wk =   0.0640000
        k(   10) = (   0.2000000   0.2000000   0.0000000), wk =   0.0320000
        k(   11) = (   0.2000000   0.2000000   0.3103448), wk =   0.0640000
        k(   12) = (   0.2000000   0.2000000   0.6206897), wk =   0.0640000
        k(   13) = (   0.2000000   0.4000000   0.0000000), wk =   0.0640000
        k(   14) = (   0.2000000   0.4000000   0.3103448), wk =   0.1280000
        k(   15) = (   0.2000000   0.4000000   0.6206897), wk =   0.1280000
        k(   16) = (   0.4000000   0.4000000   0.0000000), wk =   0.0320000
        k(   17) = (   0.4000000   0.4000000   0.3103448), wk =   0.0640000
        k(   18) = (   0.4000000   0.4000000   0.6206897), wk =   0.0640000
        k(   19) = (   0.0000000   0.0000000   0.0000000), wk =   0.0080000
        k(   20) = (   0.0000000   0.0000000   0.3103448), wk =   0.0160000
        k(   21) = (   0.0000000   0.0000000   0.6206897), wk =   0.0160000
        k(   22) = (   0.0000000   0.2000000   0.0000000), wk =   0.0320000
        k(   23) = (   0.0000000   0.2000000   0.3103448), wk =   0.0640000
        k(   24) = (   0.0000000   0.2000000   0.6206897), wk =   0.0640000
        k(   25) = (   0.0000000   0.4000000   0.0000000), wk =   0.0320000
        k(   26) = (   0.0000000   0.4000000   0.3103448), wk =   0.0640000
        k(   27) = (   0.0000000   0.4000000   0.6206897), wk =   0.0640000
        k(   28) = (   0.2000000   0.2000000   0.0000000), wk =   0.0320000
        k(   29) = (   0.2000000   0.2000000   0.3103448), wk =   0.0640000
        k(   30) = (   0.2000000   0.2000000   0.6206897), wk =   0.0640000
        k(   31) = (   0.2000000   0.4000000   0.0000000), wk =   0.0640000
        k(   32) = (   0.2000000   0.4000000   0.3103448), wk =   0.1280000
        k(   33) = (   0.2000000   0.4000000   0.6206897), wk =   0.1280000
        k(   34) = (   0.4000000   0.4000000   0.0000000), wk =   0.0320000
        k(   35) = (   0.4000000   0.4000000   0.3103448), wk =   0.0640000
        k(   36) = (   0.4000000   0.4000000   0.6206897), wk =   0.0640000

     Largest allocated arrays     est. size (Mb)     dimensions
     Largest temporary arrays     est. size (Mb)     dimensions

     Check: negative/imaginary core charge=   -0.000004    0.000000

     Initial potential from superposition of free atoms

     starting charge   49.99990, renormalised to   52.00000
     Starting wfc are   34 randomized atomic wfcs

     Self-consistent Calculation

     iteration #  1     ecut=    40.00 Ry     beta=0.70
     Davidson diagonalization with overlap
     ethr =  1.00E-02,  avg # of iterations =  5.1

     total energy              =    -454.20794796 Ry
     Harris-Foulkes estimate   =    -454.44355135 Ry
     estimated scf accuracy    <       3.57320041 Ry

     total magnetization       =    -0.00 Bohr mag/cell
     absolute magnetization    =     0.75 Bohr mag/cell

[...]

     End of self-consistent calculation

 ------ SPIN UP ------------

          k = 0.0000 0.0000 0.0000 (  1623 PWs)   bands (ev):

    -8.2610  -7.7487  -6.0915  -5.9188  -5.8538  -5.8538  -5.5484  -5.3574
    -5.2746  -5.2548  -5.2548  -4.3890  -4.3890  -0.6699   4.9565   8.5181
     8.5181   9.3256   9.5833  11.6024  12.3638  12.6921  12.6921  13.0420
    13.0420  13.7681  18.4362  22.0057  22.0057  22.9620  25.3689  27.6610
    28.2702  28.7693  28.9604  28.9604  32.3396  34.1522  35.6248  35.8627
    35.8627  35.9578  35.9673  36.6873  37.0891  37.0891  37.3714  37.3714
    39.3019  39.3894  39.5841  39.8409  43.9062  43.9062  45.6458  46.2198
    46.2634  46.2634  49.0812  49.0812  49.2319  49.6679  52.7470  52.7835
    52.9172  52.9172  53.2358  55.1522  55.1522  55.5398  55.9852  56.1715
    56.1715  56.3783  56.9218

[...]

 ------ SPIN DOWN ----------

[...]

     the Fermi energy is    17.1543 ev

!    total energy              =    -455.08796048 Ry
     Harris-Foulkes estimate   =    -455.08796040 Ry
     estimated scf accuracy    <       0.00000006 Ry

     The total energy is the sum of the following terms:

     one-electron contribution =     -92.73180394 Ry
     hartree contribution      =      96.57569360 Ry
     xc contribution           =    -126.21401006 Ry
     ewald contribution        =    -332.71784009 Ry
     smearing contrib. (-TS)   =       0.00000000 Ry

[...]

     convergence has been achieved in   7 iterations

     Forces acting on atoms (Ry/au):

     atom    1 type  1   force =     0.00000000    0.00000000    0.00000000
     atom    2 type  1   force =     0.00000000    0.00000000    0.00000000
     atom    3 type  2   force =    -0.05872036   -0.05872036    0.00000000
     atom    4 type  2   force =     0.05872036    0.05872036    0.00000000
     atom    5 type  2   force =    -0.05872036    0.05872036    0.00000000
     atom    6 type  2   force =     0.05872036   -0.05872036    0.00000000

     Total force =     0.166086     Total SCF correction =     0.000139

     entering subroutine stress ...

          total   stress  (Ry/bohr**3)                   (kbar)     P= 1171.59
   0.00684576   0.00000000   0.00000000       1007.05      0.00      0.00
   0.00000000   0.00684576   0.00000000          0.00   1007.05      0.00
   0.00000000   0.00000000   0.01020134          0.00      0.00   1500.67

     Volume is kept fixed: isostatic pressure set to zero

     BFGS Geometry Optimization

     number of scf cycles    =   1
     number of bfgs steps    =   0

     enthalpy new            =    -455.0879604819 Ry

     new trust radius        =       0.2170513495 bohr
     new conv_thr            =       0.0000010000 Ry

     new unit-cell volume =    376.55707 a.u.^3 (    55.80000 Ang^3 )

CELL_PARAMETERS (alat=  8.36016997)
   0.972783838   0.000000000   0.000000000
   0.000000000   0.972783838   0.000000000
   0.000000000   0.000000000   0.681008905

ATOMIC_POSITIONS (crystal)
Sn0      0.000000000   0.000000000   0.000000000    0   0   0
Sn0      0.500000000   0.500000000   0.500000000    0   0   0
O1       0.297976177   0.297976177   0.000000000    1   1   0
O1      -0.297976177  -0.297976177   0.000000000    1   1   0
O1       0.797976177   0.202023823   0.500000000    1   1   0
O1       0.202023823   0.797976177   0.500000000    1   1   0

     NEW-OLD atomic charge density approx. for the potential
     NEW k-points:
        k(    1) = (   0.0000000   0.0000000   0.0000000), wk =   0.0080000
[...]
        k(   11) = (   0.2078852   0.2078852   0.2872482), wk =   0.0640000
        k(   12) = (   0.2078852   0.2078852   0.5744963), wk =   0.0640000
        k(   13) = (   0.2078852   0.4157704   0.0000000), wk =   0.0640000
        k(   14) = (   0.2078852   0.4157704   0.2872482), wk =   0.1280000
        k(   15) = (   0.2078852   0.4157704   0.5744963), wk =   0.1280000
        k(   16) = (   0.4157704   0.4157704   0.0000000), wk =   0.0320000
        k(   17) = (   0.4157704   0.4157704   0.2872482), wk =   0.0640000
        k(   18) = (   0.4157704   0.4157704   0.5744963), wk =   0.0640000
        k(   19) = (   0.0000000   0.0000000   0.0000000), wk =   0.0080000
        k(   20) = (   0.0000000   0.0000000   0.2872482), wk =   0.0160000
        k(   21) = (   0.0000000   0.0000000   0.5744963), wk =   0.0160000
        k(   22) = (   0.0000000   0.2078852   0.0000000), wk =   0.0320000
        k(   23) = (   0.0000000   0.2078852   0.2872482), wk =   0.0640000
        k(   24) = (   0.0000000   0.2078852   0.5744963), wk =   0.0640000
        k(   25) = (   0.0000000   0.4157704   0.0000000), wk =   0.0320000
        k(   26) = (   0.0000000   0.4157704   0.2872482), wk =   0.0640000
        k(   27) = (   0.0000000   0.4157704   0.5744963), wk =   0.0640000
        k(   28) = (   0.2078852   0.2078852   0.0000000), wk =   0.0320000
        k(   29) = (   0.2078852   0.2078852   0.2872482), wk =   0.0640000
        k(   30) = (   0.2078852   0.2078852   0.5744963), wk =   0.0640000
        k(   31) = (   0.2078852   0.4157704   0.0000000), wk =   0.0640000
        k(   32) = (   0.2078852   0.4157704   0.2872482), wk =   0.1280000
        k(   33) = (   0.2078852   0.4157704   0.5744963), wk =   0.1280000
        k(   34) = (   0.4157704   0.4157704   0.0000000), wk =   0.0320000
        k(   35) = (   0.4157704   0.4157704   0.2872482), wk =   0.0640000
        k(   36) = (   0.4157704   0.4157704   0.5744963), wk =   0.0640000

[...]

     Threshold (ethr) on eigenvalues was too large:
     Diagonalizing with lowered threshold

     Davidson diagonalization with overlap
     ethr =  6.98E-10,  avg # of iterations =  2.0

[...]

     Volume is kept fixed: isostatic pressure set to zero
Begin final coordinates
     new unit-cell volume =    376.55707 a.u.^3 (    55.80000 Ang^3 )

[...]

ATOMIC_POSITIONS (crystal)
Sn0      0.000000000   0.000000000   0.000000000    0   0   0
Sn0      0.500000000   0.500000000   0.500000000    0   0   0
O1       0.307395542   0.307395542   0.000000000    1   1   0
O1      -0.307395542  -0.307395542   0.000000000    1   1   0
O1       0.807395542   0.192604458   0.500000000    1   1   0
O1       0.192604458   0.807395542   0.500000000    1   1   0
End final coordinates

     lsda relaxation :  a final configuration with zero
                        absolute magnetization has been found

     the program is checking if it is really the minimum energy structure
     by performing a new scf iteration without any "electronic" history

[...]

     starting charge   49.99990, renormalised to   52.00000
     Starting wfc are   34 randomized atomic wfcs
     NEW-OLD atomic charge density approx. for the potential
     NEW k-points:
        k(    1) = (   0.0000000   0.0000000   0.0000000), wk =   0.0080000
        k(    2) = (   0.0000000   0.0000000   0.2872482), wk =   0.0160000
        k(    3) = (   0.0000000   0.0000000   0.5744963), wk =   0.0160000
        k(    4) = (   0.0000000   0.2078852   0.0000000), wk =   0.0320000
        k(    5) = (   0.0000000   0.2078852   0.2872482), wk =   0.0640000
        k(    6) = (   0.0000000   0.2078852   0.5744963), wk =   0.0640000
        k(    7) = (   0.0000000   0.4157704   0.0000000), wk =   0.0320000
        k(    8) = (   0.0000000   0.4157704   0.2872482), wk =   0.0640000
        k(    9) = (   0.0000000   0.4157704   0.5744963), wk =   0.0640000
        k(   10) = (   0.2078852   0.2078852   0.0000000), wk =   0.0320000
        k(   11) = (   0.2078852   0.2078852   0.2872482), wk =   0.0640000
        k(   12) = (   0.2078852   0.2078852   0.5744963), wk =   0.0640000
        k(   13) = (   0.2078852   0.4157704   0.0000000), wk =   0.0640000
        k(   14) = (   0.2078852   0.4157704   0.2872482), wk =   0.1280000
        k(   15) = (   0.2078852   0.4157704   0.5744963), wk =   0.1280000
        k(   16) = (   0.4157704   0.4157704   0.0000000), wk =   0.0320000
        k(   17) = (   0.4157704   0.4157704   0.2872482), wk =   0.0640000
        k(   18) = (   0.4157704   0.4157704   0.5744963), wk =   0.0640000
        k(   19) = (   0.0000000   0.0000000   0.0000000), wk =   0.0080000
        k(   20) = (   0.0000000   0.0000000   0.2872482), wk =   0.0160000
        k(   21) = (   0.0000000   0.0000000   0.5744963), wk =   0.0160000
        k(   22) = (   0.0000000   0.2078852   0.0000000), wk =   0.0320000
        k(   23) = (   0.0000000   0.2078852   0.2872482), wk =   0.0640000
        k(   24) = (   0.0000000   0.2078852   0.5744963), wk =   0.0640000
        k(   25) = (   0.0000000   0.4157704   0.0000000), wk =   0.0320000
        k(   26) = (   0.0000000   0.4157704   0.2872482), wk =   0.0640000
        k(   27) = (   0.0000000   0.4157704   0.5744963), wk =   0.0640000
        k(   28) = (   0.2078852   0.2078852   0.0000000), wk =   0.0320000
        k(   29) = (   0.2078852   0.2078852   0.2872482), wk =   0.0640000
        k(   30) = (   0.2078852   0.2078852   0.5744963), wk =   0.0640000
        k(   31) = (   0.2078852   0.4157704   0.0000000), wk =   0.0640000
        k(   32) = (   0.2078852   0.4157704   0.2872482), wk =   0.1280000
        k(   33) = (   0.2078852   0.4157704   0.5744963), wk =   0.1280000
        k(   34) = (   0.4157704   0.4157704   0.0000000), wk =   0.0320000
        k(   35) = (   0.4157704   0.4157704   0.2872482), wk =   0.0640000
        k(   36) = (   0.4157704   0.4157704   0.5744963), wk =   0.0640000

[...]

     Volume is kept fixed: isostatic pressure set to zero

     bfgs converged in   7 scf cycles and   6 bfgs steps
     (criteria: energy < 0.10E-03, force < 0.10E-02, cell < 0.50E+00)

     End of BFGS Geometry Optimization

     Final enthalpy =    -455.1313199938 Ry
Begin final coordinates
     new unit-cell volume =    376.55707 a.u.^3 (    55.80000 Ang^3 )

CELL_PARAMETERS (alat=  8.36016997)
   0.962069339   0.000000000   0.000000000
   0.000000000   0.962069339   0.000000000
   0.000000000   0.000000000   0.696262069

ATOMIC_POSITIONS (crystal)
Sn0      0.000000000   0.000000000   0.000000000    0   0   0
Sn0      0.500000000   0.500000000   0.500000000    0   0   0
O1       0.307395542   0.307395542   0.000000000    1   1   0
O1      -0.307395542  -0.307395542   0.000000000    1   1   0
O1       0.807395542   0.192604458   0.500000000    1   1   0
O1       0.192604458   0.807395542   0.500000000    1   1   0
End final coordinates

     A final scf calculation at the relaxed structure.
     The G-vectors are recalculated for the final unit cell
     Results may differ from those at the preceding step.

     bravais-lattice index     =            0
     lattice parameter (alat)  =       8.3602  a.u.
     unit-cell volume          =     376.5571 (a.u.)^3
     number of atoms/cell      =            6
     number of atomic types    =            2
     number of electrons       =        52.00
     number of Kohn-Sham states=           75
     kinetic-energy cutoff     =      40.0000  Ry
     charge density cutoff     =     500.0000  Ry
     convergence threshold     =      1.0E-08
     mixing beta               =       0.7000
     number of iterations used =            8  plain     mixing
     Exchange-correlation      = SLA  PW   PBE  PBE ( 1 4 3 4 0)
     EXX-fraction              =        0.00

     celldm(1)=   8.360170  celldm(2)=   0.000000  celldm(3)=   0.000000
     celldm(4)=   0.000000  celldm(5)=   0.000000  celldm(6)=   0.000000

     crystal axes: (cart. coord. in units of alat)
               a(1) = (   0.962069   0.000000   0.000000 )
               a(2) = (   0.000000   0.962069   0.000000 )
               a(3) = (   0.000000   0.000000   0.696262 )

     reciprocal axes: (cart. coord. in units 2 pi/alat)
               b(1) = (  1.039426  0.000000  0.000000 )
               b(2) = (  0.000000  1.039426  0.000000 )
               b(3) = (  0.000000  0.000000  1.436241 )

     PseudoPot. # 1 for Sn read from file:
     /home/camp/zhonxu/pseudo/sn_pbe_v1.uspp.F.UPF
     MD5 check sum: 4cf58ce39ec5d5d420df3dd08604eb00
     Pseudo is Ultrasoft + core correction, Zval = 14.0
     Generated by new atomic code, or converted to UPF format
     Using radial grid of  891 points,  6 beta functions with:
                l(1) =   0
                l(2) =   0
                l(3) =   1
                l(4) =   1
                l(5) =   2
                l(6) =   2
     Q(r) pseudized with  6 coefficients,  rinner =    1.200   1.200   1.200
                                                       1.200   1.200

     PseudoPot. # 2 for O  read from file:
     /home/camp/zhonxu/pseudo/o_pbe_v1.01.uspp.F.UPF
     MD5 check sum: 2bcb18d16ea4b960afae9ec6d52f22d2
     Pseudo is Ultrasoft + core correction, Zval =  6.0
     Generated by new atomic code, or converted to UPF format
     Using radial grid of  737 points,  5 beta functions with:
                l(1) =   0
                l(2) =   0
                l(3) =   1
                l(4) =   1
                l(5) =   2
     Q(r) pseudized with  8 coefficients,  rinner =    0.900   0.900   0.900
                                                       0.900   0.900

     atomic species   valence    mass     pseudopotential
        Sn0           14.00   118.71000     Sn( 1.00)
        O1             6.00    15.99940     O ( 1.00)

     Starting magnetic structure
     atomic species   magnetization
        Sn0          0.600
        O1           0.000

     16 Sym. Ops., with inversion, found ( 8 have fractional translation)

   Cartesian axes

     site n.     atom                  positions (alat units)
         1           Sn0 tau(   1) = (   0.0000000   0.0000000   0.0000000  )
         2           Sn0 tau(   2) = (   0.4810347   0.4810347   0.3481310  )
         3           O1  tau(   3) = (   0.2957358   0.2957358   0.0000000  )
         4           O1  tau(   4) = (  -0.2957358  -0.2957358   0.0000000  )
         5           O1  tau(   5) = (   0.7767705   0.1852988   0.3481310  )
         6           O1  tau(   6) = (   0.1852988   0.7767705   0.3481310  )

     number of k points=    36  Methfessel-Paxton smearing, width (Ry)=  0.0100
                       cart. coord. in units 2pi/alat
        k(    1) = (   0.0000000   0.0000000   0.0000000), wk =   0.0080000
        k(    2) = (   0.0000000   0.0000000   0.2872482), wk =   0.0160000
        k(    3) = (   0.0000000   0.0000000   0.5744963), wk =   0.0160000
        k(    4) = (   0.0000000   0.2078852   0.0000000), wk =   0.0320000
        k(    5) = (   0.0000000   0.2078852   0.2872482), wk =   0.0640000
        k(    6) = (   0.0000000   0.2078852   0.5744963), wk =   0.0640000
        k(    7) = (   0.0000000   0.4157704   0.0000000), wk =   0.0320000
        k(    8) = (   0.0000000   0.4157704   0.2872482), wk =   0.0640000
        k(    9) = (   0.0000000   0.4157704   0.5744963), wk =   0.0640000
        k(   10) = (   0.2078852   0.2078852   0.0000000), wk =   0.0320000
        k(   11) = (   0.2078852   0.2078852   0.2872482), wk =   0.0640000
        k(   12) = (   0.2078852   0.2078852   0.5744963), wk =   0.0640000
        k(   13) = (   0.2078852   0.4157704   0.0000000), wk =   0.0640000
        k(   14) = (   0.2078852   0.4157704   0.2872482), wk =   0.1280000
        k(   15) = (   0.2078852   0.4157704   0.5744963), wk =   0.1280000
        k(   16) = (   0.4157704   0.4157704   0.0000000), wk =   0.0320000
        k(   17) = (   0.4157704   0.4157704   0.2872482), wk =   0.0640000
        k(   18) = (   0.4157704   0.4157704   0.5744963), wk =   0.0640000
        k(   19) = (   0.0000000   0.0000000   0.0000000), wk =   0.0080000
        k(   20) = (   0.0000000   0.0000000   0.2872482), wk =   0.0160000
        k(   21) = (   0.0000000   0.0000000   0.5744963), wk =   0.0160000
        k(   22) = (   0.0000000   0.2078852   0.0000000), wk =   0.0320000
        k(   23) = (   0.0000000   0.2078852   0.2872482), wk =   0.0640000
        k(   24) = (   0.0000000   0.2078852   0.5744963), wk =   0.0640000
        k(   25) = (   0.0000000   0.4157704   0.0000000), wk =   0.0320000
        k(   26) = (   0.0000000   0.4157704   0.2872482), wk =   0.0640000
        k(   27) = (   0.0000000   0.4157704   0.5744963), wk =   0.0640000
        k(   28) = (   0.2078852   0.2078852   0.0000000), wk =   0.0320000
        k(   29) = (   0.2078852   0.2078852   0.2872482), wk =   0.0640000
        k(   30) = (   0.2078852   0.2078852   0.5744963), wk =   0.0640000
        k(   31) = (   0.2078852   0.4157704   0.0000000), wk =   0.0640000
        k(   32) = (   0.2078852   0.4157704   0.2872482), wk =   0.1280000
        k(   33) = (   0.2078852   0.4157704   0.5744963), wk =   0.1280000
        k(   34) = (   0.4157704   0.4157704   0.0000000), wk =   0.0320000
        k(   35) = (   0.4157704   0.4157704   0.2872482), wk =   0.0640000
        k(   36) = (   0.4157704   0.4157704   0.5744963), wk =   0.0640000

     Largest allocated arrays     est. size (Mb)     dimensions
     Largest temporary arrays     est. size (Mb)     dimensions

     Check: negative/imaginary core charge=   -0.000004    0.000000

     Initial potential from superposition of free atoms

     starting charge   49.99990, renormalised to   52.00000
     Starting wfc are   34 randomized atomic wfcs

     Self-consistent Calculation

[...]

     total energy              =    -455.13135108 Ry
     Harris-Foulkes estimate   =    -455.13135101 Ry
     estimated scf accuracy    <       0.00000006 Ry

[...]

     iteration #  8     ecut=    40.00 Ry     beta=0.70
     Davidson diagonalization with overlap
     ethr =  1.19E-10,  avg # of iterations =  2.0

     End of self-consistent calculation

 ------ SPIN UP ------------

[...]

 ------ SPIN DOWN ----------

[...]

          k = 0.4158 0.4158 0.5745 (  1620 PWs)   bands (ev):

    -7.5687  -7.2404  -7.1463  -6.6711  -5.4481  -5.4362  -5.3217  -5.3208
    -5.3097  -5.3092  -3.7691  -3.2502  -1.7538  -1.3764   4.8473   5.0173
     7.9526   8.0045   9.9058  11.1253  11.7713  12.5433  12.5629  12.7780
    12.8593  12.9830  22.0916  22.2525  24.1085  24.3496  26.1229  26.4679
    27.6022  27.7749  29.0280  29.0920  30.8734  30.9772  32.3804  34.3683
    35.2908  35.6388  35.9082  35.9237  36.2115  36.7818  38.4509  39.2340
    42.2117  42.2441  42.5279  42.6707  44.1740  44.5570  46.7342  46.9952
    47.2909  49.1174  49.6471  49.9514  51.1468  51.5899  52.5088  52.5166
    53.0211  54.1059  54.3642  54.8876  55.0939  55.3535  56.5204  56.5245
    57.5147  57.6103  58.0329

     the Fermi energy is    17.2768 ev

!    total energy              =    -455.13135112 Ry
     Harris-Foulkes estimate   =    -455.13135112 Ry
     estimated scf accuracy    <          6.4E-10 Ry

     The total energy is the sum of the following terms:

     one-electron contribution =     -86.14879182 Ry
     hartree contribution      =      93.43610215 Ry
     xc contribution           =    -126.09548127 Ry
     ewald contribution        =    -336.32318018 Ry
     smearing contrib. (-TS)   =       0.00000000 Ry

     total magnetization       =    -0.00 Bohr mag/cell
     absolute magnetization    =     0.00 Bohr mag/cell

     convergence has been achieved in   8 iterations

     Forces acting on atoms (Ry/au):

     atom    1 type  1   force =     0.00000000    0.00000000    0.00000000
     atom    2 type  1   force =     0.00000000    0.00000000   -0.00000000
     atom    3 type  2   force =    -0.00014085   -0.00014085   -0.00000000
     atom    4 type  2   force =     0.00014085    0.00014085   -0.00000000
     atom    5 type  2   force =    -0.00014085    0.00014085    0.00000000
     atom    6 type  2   force =     0.00014085   -0.00014085    0.00000000

     Total force =     0.000398     Total SCF correction =     0.000002

     entering subroutine stress ...

          total   stress  (Ry/bohr**3)                   (kbar)     P= 1080.58
   0.00734497   0.00000000   0.00000000       1080.48      0.00      0.00
   0.00000000   0.00734497   0.00000000          0.00   1080.48      0.00
   0.00000000   0.00000000   0.00734704          0.00      0.00   1080.79

     General routines

     Parallel routines

   This run was terminated on:  18:43:24  23Jan2014

   JOB DONE.