     Program PWSCF v.5.0.2 (svn rev. 9656) starts on 21May2014 at  5:41: 9

     Current dimensions of program PWSCF are:
     Max number of different atomic species (ntypx) = 10
     Max number of k-points (npk) =  40000
     Max angular momentum in pseudopotentials (lmaxx) =  3
     Reading input from pwscf.in
Warning: card &CELL ignored
Warning: card / ignored

     Subspace diagonalization in iterative solution of the eigenvalue problem:
     a serial algorithm will be used

     Found symmetry operation: I + ( -0.5000  0.0000  0.0000)
     This is a supercell, fractional translations are disabled

     bravais-lattice index     =            0
     lattice parameter (alat)  =      10.3179  a.u.
     unit-cell volume          =    6964.3238 (a.u.)^3
     number of atoms/cell      =           30
     number of atomic types    =            3
     number of electrons       =       224.00
     number of Kohn-Sham states=          336
     kinetic-energy cutoff     =      40.0000  Ry
     charge density cutoff     =     500.0000  Ry
     convergence threshold     =      1.0E-06
     mixing beta               =       0.7000
     number of iterations used =            8  plain     mixing
     Exchange-correlation      = SLA  PW   PBE  PBE ( 1 4 3 4 0)
     EXX-fraction              =        0.00
     nstep                     =           50

     celldm(1)=  10.317905  celldm(2)=   0.000000  celldm(3)=   0.000000
     celldm(4)=   0.000000  celldm(5)=   0.000000  celldm(6)=   0.000000

     crystal axes: (cart. coord. in units of alat)
               a(1) = (   1.000000   0.000000   0.000000 )
               a(2) = (   0.000000   1.282117   0.000000 )
               a(3) = (   0.000000   0.000000   4.945120 )

     reciprocal axes: (cart. coord. in units 2 pi/alat)
               b(1) = (  1.000000  0.000000  0.000000 )
               b(2) = (  0.000000  0.779960  0.000000 )
               b(3) = (  0.000000  0.000000  0.202220 )

     PseudoPot. # 1 for O  read from file:
     /home/camp/zhonxu/pseudo/o_pbe_v1.01.uspp.F.UPF
     MD5 check sum: 2bcb18d16ea4b960afae9ec6d52f22d2
     Pseudo is Ultrasoft + core correction, Zval =  6.0
     Generated by new atomic code, or converted to UPF format
     Using radial grid of  737 points,  5 beta functions with:
                l(1) =   0
                l(2) =   0
                l(3) =   1
                l(4) =   1
                l(5) =   2
     Q(r) pseudized with  8 coefficients,  rinner =    0.900   0.900   0.900
                                                       0.900   0.900

     PseudoPot. # 2 for Mo read from file:
     /home/camp/zhonxu/pseudo/mo_pbe_v1.uspp.F.UPF
     MD5 check sum: 30c4dcd161f5d35cd49bb5239c51a633
     Pseudo is Ultrasoft + core correction, Zval = 14.0
     Generated by new atomic code, or converted to UPF format
     Using radial grid of  889 points,  6 beta functions with:
                l(1) =   0
                l(2) =   0
                l(3) =   1
                l(4) =   1
                l(5) =   2
                l(6) =   2
     Q(r) pseudized with  6 coefficients,  rinner =    1.000   1.000   1.000
                                                       1.000   1.000

     PseudoPot. # 3 for H  read from file:
     /home/camp/zhonxu/pseudo/h_pbe_v1.uspp.F.UPF
     MD5 check sum: 3408e3ff4ec8b0a4e358431e7e038a48
     Pseudo is Ultrasoft, Zval =  1.0
     Generated by new atomic code, or converted to UPF format
     Using radial grid of  615 points,  2 beta functions with:
                l(1) =   0
                l(2) =   0
     Q(r) pseudized with  8 coefficients,  rinner =    0.700

     atomic species   valence    mass     pseudopotential
        O0             6.00    15.99940     O ( 1.00)
        Mo1           14.00    95.94000     Mo( 1.00)
        H2             1.00     1.00794     H ( 1.00)

     Simplified LDA+U calculation (l_max = 2) with parameters (eV):
     atomic species    L          U    alpha       J0     beta
        Mo1            2     8.0000   0.0000   0.0000   0.0000

     No symmetry found

   Cartesian axes

     site n.     atom                  positions (alat units)
         1           O0  tau(   1) = (   0.0000000   0.0000000   1.8465574  )
         2           O0  tau(   2) = (   0.0000000   0.6410583   1.8808271  )
         3           Mo1 tau(   3) = (   0.2500000   0.6410583   2.1650231  )
         4           Mo1 tau(   4) = (   0.0000000   0.0000000   2.2064633  )
         5           O0  tau(   5) = (   0.2500000   1.0000510   2.1927158  )
         6           O0  tau(   6) = (   0.2500000   0.2820657   2.1921224  )
         7           O0  tau(   7) = (   0.0000000   0.6410583   2.4520379  )
         8           O0  tau(   8) = (   0.0000000   0.0000000   2.5658746  )
         9           Mo1 tau(   9) = (   0.2500000   0.0000000   2.8596642  )
        10           Mo1 tau(  10) = (   0.0000000   0.6410583   2.7884050  )
        11           O0  tau(  11) = (   0.2500000   0.9231240   2.8369661  )
        12           O0  tau(  12) = (   0.2500000   0.3589927   2.8372628  )
        13           O0  tau(  13) = (   0.0000000   0.0000000   3.1104807  )
        14           O0  tau(  14) = (   0.5000000   0.0000000   1.8465574  )
        15           O0  tau(  15) = (   0.5000000   0.6410583   1.8808271  )
        16           Mo1 tau(  16) = (   0.7500000   0.6410583   2.1650231  )
        17           Mo1 tau(  17) = (   0.5000000   0.0000000   2.2064633  )
        18           O0  tau(  18) = (   0.7500000   1.0000510   2.1927158  )
        19           O0  tau(  19) = (   0.7500000   0.2820657   2.1921224  )
        20           O0  tau(  20) = (   0.5000000   0.6410583   2.4520379  )
        21           O0  tau(  21) = (   0.5000000   0.0000000   2.5658746  )
        22           Mo1 tau(  22) = (   0.7500000   0.0000000   2.8596642  )
        23           Mo1 tau(  23) = (   0.5000000   0.6410583   2.7884050  )
        24           O0  tau(  24) = (   0.7500000   0.9231240   2.8369661  )
        25           O0  tau(  25) = (   0.7500000   0.3589927   2.8372628  )
        26           O0  tau(  26) = (   0.5000000   0.0000000   3.1104807  )
        27           H2  tau(  27) = (  -0.0004900   0.7868222   1.7746059  )
        28           H2  tau(  28) = (   0.4995100   0.7868222   1.7746059  )
        29           H2  tau(  29) = (   0.1657500   0.0265270   1.7749026  )
        30           H2  tau(  30) = (   0.6657500   0.0265270   1.7749026  )

     number of k points=    10  Methfessel-Paxton smearing, width (Ry)=  0.0100
                       cart. coord. in units 2pi/alat
        k(    1) = (   0.0000000   0.0000000   0.0000000), wk =   0.1250000
        k(    2) = (   0.0000000   0.1949901   0.0000000), wk =   0.2500000
        k(    3) = (   0.0000000  -0.3899801   0.0000000), wk =   0.1250000
        k(    4) = (   0.2500000   0.0000000   0.0000000), wk =   0.2500000
        k(    5) = (   0.2500000   0.1949901   0.0000000), wk =   0.2500000
        k(    6) = (   0.2500000  -0.3899801   0.0000000), wk =   0.2500000
        k(    7) = (  -0.5000000   0.0000000   0.0000000), wk =   0.1250000
        k(    8) = (  -0.5000000   0.1949901   0.0000000), wk =   0.2500000
        k(    9) = (  -0.5000000  -0.3899801   0.0000000), wk =   0.1250000
        k(   10) = (  -0.2500000   0.1949901   0.0000000), wk =   0.2500000

     Largest allocated arrays     est. size (Mb)     dimensions
     Largest temporary arrays     est. size (Mb)     dimensions

     Check: negative/imaginary core charge=   -0.000003    0.000000

     Initial potential from superposition of free atoms
     Check: negative starting charge=   -0.002478

     starting charge  223.99143, renormalised to  224.00000

     negative rho (up, down):  0.248E-02 0.000E+00
     Number of +U iterations with fixed ns =  0
     Starting occupations:
 --- enter write_ns ---
 LDA+U parameters:
U( 2)     =  8.00000000
alpha( 2) =  0.00000000
atom    3   Tr[ns(na)] =   5.00000
    eigenvalues:
  0.500  0.500  0.500  0.500  0.500
    eigenvectors:
  1.000  0.000  0.000  0.000  0.000
  0.000  1.000  0.000  0.000  0.000
  0.000  0.000  1.000  0.000  0.000
  0.000  0.000  0.000  1.000  0.000
  0.000  0.000  0.000  0.000  1.000
    occupations:
  0.500  0.000  0.000  0.000  0.000
  0.000  0.500  0.000  0.000  0.000
  0.000  0.000  0.500  0.000  0.000
  0.000  0.000  0.000  0.500  0.000
  0.000  0.000  0.000  0.000  0.500
atom    4   Tr[ns(na)] =   5.00000
    eigenvalues:
  0.500  0.500  0.500  0.500  0.500
    eigenvectors:
  1.000  0.000  0.000  0.000  0.000
  0.000  1.000  0.000  0.000  0.000
  0.000  0.000  1.000  0.000  0.000
  0.000  0.000  0.000  1.000  0.000
  0.000  0.000  0.000  0.000  1.000
    occupations:
  0.500  0.000  0.000  0.000  0.000
  0.000  0.500  0.000  0.000  0.000
  0.000  0.000  0.500  0.000  0.000
  0.000  0.000  0.000  0.500  0.000
  0.000  0.000  0.000  0.000  0.500
atom    9   Tr[ns(na)] =   5.00000
    eigenvalues:
  0.500  0.500  0.500  0.500  0.500
    eigenvectors:
  1.000  0.000  0.000  0.000  0.000
  0.000  1.000  0.000  0.000  0.000
  0.000  0.000  1.000  0.000  0.000
  0.000  0.000  0.000  1.000  0.000
  0.000  0.000  0.000  0.000  1.000
    occupations:
  0.500  0.000  0.000  0.000  0.000
  0.000  0.500  0.000  0.000  0.000
  0.000  0.000  0.500  0.000  0.000
  0.000  0.000  0.000  0.500  0.000
  0.000  0.000  0.000  0.000  0.500
atom   10   Tr[ns(na)] =   5.00000
    eigenvalues:
  0.500  0.500  0.500  0.500  0.500
    eigenvectors:
  1.000  0.000  0.000  0.000  0.000
  0.000  1.000  0.000  0.000  0.000
  0.000  0.000  1.000  0.000  0.000
  0.000  0.000  0.000  1.000  0.000
  0.000  0.000  0.000  0.000  1.000
    occupations:
  0.500  0.000  0.000  0.000  0.000
  0.000  0.500  0.000  0.000  0.000
  0.000  0.000  0.500  0.000  0.000
  0.000  0.000  0.000  0.500  0.000
  0.000  0.000  0.000  0.000  0.500
atom   16   Tr[ns(na)] =   5.00000
    eigenvalues:
  0.500  0.500  0.500  0.500  0.500
    eigenvectors:
  1.000  0.000  0.000  0.000  0.000
  0.000  1.000  0.000  0.000  0.000
  0.000  0.000  1.000  0.000  0.000
  0.000  0.000  0.000  1.000  0.000
  0.000  0.000  0.000  0.000  1.000
    occupations:
  0.500  0.000  0.000  0.000  0.000
  0.000  0.500  0.000  0.000  0.000
  0.000  0.000  0.500  0.000  0.000
  0.000  0.000  0.000  0.500  0.000
  0.000  0.000  0.000  0.000  0.500
atom   17   Tr[ns(na)] =   5.00000
    eigenvalues:
  0.500  0.500  0.500  0.500  0.500
    eigenvectors:
  1.000  0.000  0.000  0.000  0.000
  0.000  1.000  0.000  0.000  0.000
  0.000  0.000  1.000  0.000  0.000
  0.000  0.000  0.000  1.000  0.000
  0.000  0.000  0.000  0.000  1.000
    occupations:
  0.500  0.000  0.000  0.000  0.000
  0.000  0.500  0.000  0.000  0.000
  0.000  0.000  0.500  0.000  0.000
  0.000  0.000  0.000  0.500  0.000
  0.000  0.000  0.000  0.000  0.500
atom   22   Tr[ns(na)] =   5.00000
    eigenvalues:
  0.500  0.500  0.500  0.500  0.500
    eigenvectors:
  1.000  0.000  0.000  0.000  0.000
  0.000  1.000  0.000  0.000  0.000
  0.000  0.000  1.000  0.000  0.000
  0.000  0.000  0.000  1.000  0.000
  0.000  0.000  0.000  0.000  1.000
    occupations:
[...]
  0.008  0.686 -0.007 -0.013 -0.001
  0.002 -0.007  0.319 -0.003  0.001
  0.003 -0.013 -0.003  0.800  0.000
 -0.000 -0.001  0.001  0.000  0.509
atom    9   Tr[ns(na)] =   5.83745
    eigenvalues:
  0.442  0.468  0.613  0.620  0.776
    eigenvectors:
  0.000  0.000  0.000  0.202  0.798
  0.000  0.000  1.000  0.000  0.000
  0.000  1.000  0.000  0.000  0.000
  0.000  0.000  0.000  0.797  0.202
  1.000  0.000  0.000  0.000  0.000
    occupations:
  0.744  0.000  0.000 -0.063 -0.000
  0.000  0.613 -0.000  0.000  0.000
  0.000 -0.000  0.468  0.000  0.000
 -0.063  0.000  0.000  0.651  0.000
 -0.000  0.000  0.000  0.000  0.442
atom   10   Tr[ns(na)] =   5.53277
    eigenvalues:
  0.165  0.342  0.498  0.789  0.972
    eigenvectors:
  0.000  0.968  0.000  0.032  0.000
  0.000  0.000  0.000  0.000  1.000
  1.000  0.000  0.000  0.000  0.000
  0.000  0.032  0.000  0.968  0.000
  0.000  0.000  1.000  0.000  0.000
    occupations:
  0.357 -0.000 -0.001  0.079 -0.000
 -0.000  0.972 -0.000 -0.000 -0.000
 -0.001 -0.000  0.165 -0.001  0.000
  0.079 -0.000 -0.001  0.775 -0.000
 -0.000 -0.000  0.000 -0.000  0.498
atom   16   Tr[ns(na)] =   5.79664
    eigenvalues:
  0.442  0.477  0.571  0.606  0.803
    eigenvectors:
  0.016  0.001  0.000  0.290  0.693
  0.000  0.000  1.000  0.000  0.000
  0.939  0.042  0.000  0.002  0.017
  0.001  0.000  0.000  0.709  0.290
  0.044  0.956  0.000  0.000  0.000
    occupations:
  0.739  0.000  0.043 -0.087 -0.002
  0.000  0.571  0.000  0.000 -0.002
  0.043  0.000  0.450 -0.020 -0.008
 -0.087  0.000 -0.020  0.663  0.002
 -0.002 -0.002 -0.008  0.002  0.476
atom   17   Tr[ns(na)] =   5.80733
    eigenvalues:
  0.318  0.509  0.589  0.687  0.801
    eigenvectors:
  0.000  0.000  0.992  0.008  0.000
  0.000  0.000  0.008  0.979  0.013
  0.999  0.000  0.000  0.000  0.000
  0.000  0.000  0.000  0.012  0.987
  0.000  1.000  0.000  0.000  0.000
    occupations:
  0.590  0.008  0.002  0.003 -0.000
  0.008  0.687 -0.007 -0.013 -0.002
  0.002 -0.007  0.318 -0.003  0.001
  0.003 -0.013 -0.003  0.799  0.000
 -0.000 -0.002  0.001  0.000  0.509
atom   22   Tr[ns(na)] =   5.83999
    eigenvalues:
  0.446  0.470  0.614  0.620  0.770
    eigenvectors:
  0.000  0.000  0.000  0.197  0.803
  0.000  0.000  1.000  0.000  0.000
  0.000  1.000  0.000  0.000  0.000
  0.000  0.000  0.000  0.803  0.197
  1.000  0.000  0.000  0.000  0.000
    occupations:
  0.740  0.000  0.000 -0.060 -0.000
  0.000  0.614 -0.000  0.000  0.000
  0.000 -0.000  0.470  0.000  0.000
 -0.060  0.000  0.000  0.649  0.000
 -0.000  0.000  0.000  0.000  0.446
atom   23   Tr[ns(na)] =   5.53275
    eigenvalues:
  0.165  0.342  0.498  0.789  0.972
    eigenvectors:
  0.000  0.968  0.000  0.032  0.000
  0.000  0.000  0.000  0.000  1.000
  1.000  0.000  0.000  0.000  0.000
  0.000  0.032  0.000  0.968  0.000
  0.000  0.000  1.000  0.000  0.000
    occupations:
  0.357 -0.000 -0.001  0.079 -0.000
 -0.000  0.972 -0.001  0.000 -0.000
 -0.001 -0.001  0.165 -0.001 -0.000
  0.079  0.000 -0.001  0.775 -0.000
 -0.000 -0.000 -0.000 -0.000  0.498
N of occupied +U levels =  45.9508057
 --- exit write_ns ---

     Threshold (ethr) on eigenvalues was too large:
     Diagonalizing with lowered threshold

     Davidson diagonalization with overlap
     ethr =  5.78E-09,  avg # of iterations =  3.0

[...]

     total energy              =   -1694.82159945 Ry
     Harris-Foulkes estimate   =   -1694.82159946 Ry
     estimated scf accuracy    <       0.00000001 Ry

     iteration # 18     ecut=    40.00 Ry     beta=0.70
     Davidson diagonalization with overlap
     ethr =  4.53E-12,  avg # of iterations =  1.4

     negative rho (up, down):  0.371E-02 0.000E+00

     End of self-consistent calculation
 --- enter write_ns ---
 LDA+U parameters:
U( 2)     =  8.00000000
alpha( 2) =  0.00000000
atom    3   Tr[ns(na)] =   5.79711
    eigenvalues:
  0.440  0.479  0.571  0.606  0.803
    eigenvectors:
  0.016  0.001  0.000  0.289  0.694
  0.000  0.000  1.000  0.000  0.000
  0.946  0.035  0.000  0.002  0.017
  0.001  0.000  0.000  0.710  0.289
  0.037  0.963  0.000  0.000  0.000
    occupations:
  0.740  0.000  0.043 -0.087 -0.002
  0.000  0.571  0.000  0.000 -0.002
  0.043  0.000  0.447 -0.020 -0.008
 -0.087  0.000 -0.020  0.662  0.002
 -0.002 -0.002 -0.008  0.002  0.478
atom    4   Tr[ns(na)] =   5.80737
    eigenvalues:
  0.319  0.509  0.590  0.684  0.801
    eigenvectors:
  0.000  0.000  0.992  0.008  0.000
  0.000  0.000  0.008  0.979  0.013
  0.999  0.000  0.000  0.000  0.000
  0.000  0.000  0.000  0.012  0.987
  0.000  1.000  0.000  0.000  0.000
    occupations:
  0.591  0.008  0.002  0.003 -0.000
  0.008  0.685 -0.007 -0.013 -0.001
  0.002 -0.007  0.319 -0.003  0.001
  0.003 -0.013 -0.003  0.800  0.000
 -0.000 -0.001  0.001  0.000  0.509
atom    9   Tr[ns(na)] =   5.83675
    eigenvalues:
  0.442  0.468  0.613  0.620  0.777
    eigenvectors:
  0.000  0.000  0.000  0.203  0.797
  0.000  0.000  1.000  0.000  0.000
  0.000  1.000  0.000  0.000  0.000
  0.000  0.000  0.000  0.797  0.203
  1.000  0.000  0.000  0.000  0.000
    occupations:
  0.745  0.000  0.000 -0.063 -0.000
  0.000  0.613 -0.000  0.000  0.000
  0.000 -0.000  0.468  0.000  0.000
 -0.063  0.000  0.000  0.651  0.000
 -0.000  0.000  0.000  0.000  0.442
atom   10   Tr[ns(na)] =   5.53275
    eigenvalues:
  0.165  0.342  0.498  0.789  0.972
    eigenvectors:
  0.000  0.968  0.000  0.032  0.000
  0.000  0.000  0.000  0.000  1.000
  1.000  0.000  0.000  0.000  0.000
  0.000  0.032  0.000  0.968  0.000
  0.000  0.000  1.000  0.000  0.000
    occupations:
  0.357 -0.000 -0.001  0.079 -0.000
 -0.000  0.972 -0.000 -0.000 -0.000
 -0.001 -0.000  0.165 -0.001  0.000
  0.079 -0.000 -0.001  0.774 -0.000
 -0.000 -0.000  0.000 -0.000  0.498
atom   16   Tr[ns(na)] =   5.79715
    eigenvalues:
  0.441  0.478  0.571  0.606  0.803
    eigenvectors:
  0.016  0.001  0.000  0.289  0.693
  0.000  0.000  1.000  0.000  0.000
  0.941  0.041  0.000  0.002  0.017
  0.001  0.000  0.000  0.709  0.289
  0.042  0.958  0.000  0.000  0.000
    occupations:
  0.739  0.000  0.043 -0.087 -0.002
  0.000  0.571  0.000  0.000 -0.002
  0.043  0.000  0.449 -0.020 -0.008
 -0.087  0.000 -0.020  0.663  0.002
 -0.002 -0.002 -0.008  0.002  0.476
atom   17   Tr[ns(na)] =   5.80742
    eigenvalues:
  0.319  0.509  0.589  0.686  0.801
    eigenvectors:
  0.000  0.000  0.992  0.008  0.000
  0.000  0.000  0.008  0.979  0.013
  0.999  0.000  0.000  0.000  0.000
  0.000  0.000  0.000  0.013  0.987
  0.000  1.000  0.000  0.000  0.000
    occupations:
  0.590  0.008  0.002  0.003 -0.000
  0.008  0.687 -0.007 -0.013 -0.001
  0.002 -0.007  0.319 -0.003  0.001
  0.003 -0.013 -0.003  0.799  0.000
 -0.000 -0.001  0.001  0.000  0.509
atom   22   Tr[ns(na)] =   5.84056
    eigenvalues:
  0.446  0.470  0.614  0.620  0.769
    eigenvectors:
  0.000  0.000  0.000  0.197  0.803
  0.000  0.000  1.000  0.000  0.000
  0.000  1.000  0.000  0.000  0.000
  0.000  0.000  0.000  0.803  0.197
  1.000  0.000  0.000  0.000  0.000
    occupations:
  0.740  0.000 -0.000 -0.060 -0.000
  0.000  0.615 -0.000  0.000  0.000
 -0.000 -0.000  0.470  0.000  0.000
 -0.060  0.000  0.000  0.649  0.000
 -0.000  0.000  0.000  0.000  0.446
atom   23   Tr[ns(na)] =   5.53274
    eigenvalues:
  0.165  0.342  0.498  0.789  0.972
    eigenvectors:
  0.000  0.968  0.000  0.032  0.000
  0.000  0.000  0.000  0.000  1.000
  1.000  0.000  0.000  0.000  0.000
  0.000  0.032  0.000  0.968  0.000
  0.000  0.000  1.000  0.000  0.000
    occupations:
  0.357 -0.000 -0.001  0.079 -0.000
 -0.000  0.972 -0.001  0.000 -0.000
 -0.001 -0.001  0.165 -0.001 -0.000
  0.079  0.000 -0.001  0.775 -0.000
 -0.000 -0.000 -0.000 -0.000  0.498
N of occupied +U levels =  45.9518588
 --- exit write_ns ---

[...]

          k = 0.2500-0.3900 0.0000 ( 29726 PWs)   bands (ev):

[...]

          k =-0.2500 0.1950 0.0000 ( 29746 PWs)   bands (ev):

   -62.5458 -62.4608 -62.3543 -62.2637 -61.8987 -61.8187 -61.1515 -61.0731
   -37.0146 -36.9433 -36.9295 -36.8839 -36.8129 -36.7342 -36.4558 -36.2980
   -36.2474 -36.1903 -36.1746 -36.1634 -36.1597 -36.0978 -36.0693 -36.0184
   -36.0049 -35.7016 -35.5553 -35.4911 -35.4178 -35.3368 -35.1073 -34.3583
   -20.6545 -20.4692 -19.7855 -19.6114 -19.4463 -19.3901 -19.3031 -19.0890
   -19.0817 -19.0227 -18.9799 -18.8745 -18.8465 -18.6462 -18.4852 -18.2826
   -18.1922 -18.0179  -9.1620  -8.7708  -8.3444  -8.2185  -8.2093  -7.8412
    -7.7164  -7.5729  -7.4851  -7.4330  -7.2296  -7.2251  -6.9647  -6.6068
    -6.5651  -6.4576  -6.3231  -6.1874  -6.1163  -5.9016  -5.8239  -5.7302
    -5.6196  -5.6135  -5.3304  -5.2089  -4.9591  -4.7675  -4.7149  -4.6449
    -4.6138  -4.5750  -4.4849  -4.3576  -4.3373  -4.2028  -4.1837  -4.0934
    -4.0491  -3.9131  -3.7998  -3.7454  -3.6321  -3.6168  -3.4369  -3.3814
    -3.2054  -3.1961  -3.0580  -2.9037  -2.8577  -2.7014  -2.5947  -2.4886
    -2.2877  -2.1532  -1.6610  -1.3859  -0.9906  -0.8663  -0.7574  -0.1977
     0.4894   0.5887   0.6668   0.7220   1.0557   1.0948   1.2024   1.3610
     1.3799   1.4630   1.7638   1.8775   2.2614   2.2735   2.7214   2.7907
     2.9800   3.3162   3.5981   3.6194   3.8579   4.0789   4.1919   4.2439
     4.3527   4.5291   4.5432   4.6854   4.7037   4.9141   5.0324   5.1504
     5.5555   5.7120   5.7985   5.9453   6.0846   6.3037   6.3656   6.3851
     6.5494   6.6784   7.0029   7.0649   7.0730   7.2582   7.4901   7.5604
     7.8869   7.9697   8.1425   8.3043   8.3094   8.5138   8.6489   8.7269
     8.8718   9.0250   9.0836   9.2966   9.3583   9.3903   9.4872   9.5591
     9.6024   9.6458   9.8037   9.9982  10.0266  10.2435  10.2525  10.3270
    10.4869  10.5718  10.6816  10.7670  10.8348  10.9835  11.0880  11.0997
    11.1585  11.3881  11.6418  11.6444  11.7087  11.7837  11.8801  11.8876
    11.9733  12.0720  12.2517  12.2741  12.3188  12.3970  12.4424  12.6353
    12.6807  12.8557  12.9487  12.9557  13.0187  13.0499  13.1343  13.2464
    13.3435  13.3827  13.4473  13.4863  13.5454  13.6233  13.6743  13.7733
    13.8583  13.9108  13.9750  14.0099  14.1232  14.1457  14.2044  14.3301
    14.4160  14.4377  14.4413  14.5399  14.5956  14.7782  14.8373  14.8933
    14.9575  15.0159  15.0803  15.2585  15.3302  15.4024  15.4801  15.5874
    15.6685  15.6788  15.7757  15.8784  15.9868  16.0344  16.1059  16.1476
    16.2271  16.3308  16.3602  16.3789  16.4165  16.4549  16.6083  16.7170
    16.7527  16.7960  16.8258  16.9109  16.9836  17.1391  17.1468  17.2126
    17.2643  17.2743  17.4048  17.4291  17.4720  17.6225  17.7187  17.7848
    17.8826  17.9009  18.0537  18.0581  18.1141  18.2546  18.3254  18.3695
    18.4402  18.4756  18.5718  18.6123  18.6681  18.8437  18.8640  19.0100
    19.0465  19.0659  19.1262  19.2635  19.3501  19.4542  19.5287  19.6132
    19.7519  19.7817  19.8042  19.9071  20.0064  20.0281  20.0747  20.1488
    20.1546  20.2380  20.3204  20.3364  20.3894  20.4642  20.4735  20.5123
    20.6432  20.6507  20.7362  20.8175  20.8989  20.9281  21.0523  21.0686
    21.1773  21.2412  21.3374  21.3502  21.4521  21.4710  21.5225  21.6029

     the Fermi energy is    -0.2535 ev

!    total energy              =   -1694.82159945 Ry
     Harris-Foulkes estimate   =   -1694.82159946 Ry
     estimated scf accuracy    <          6.7E-09 Ry

     The total energy is the sum of the following terms:

     one-electron contribution =  -21350.81121079 Ry
     hartree contribution      =   10699.30254758 Ry
     xc contribution           =    -286.88455827 Ry
     ewald contribution        =    9238.66508205 Ry
     Hubbard energy            =       4.90671461 Ry
     smearing contrib. (-TS)   =      -0.00017463 Ry

     convergence has been achieved in  18 iterations

     Forces acting on atoms (Ry/au):

     negative rho (up, down):  0.371E-02 0.000E+00
     atom    1 type  1   force =    -0.00062961   -0.00548084   -0.00027767
     atom    2 type  1   force =    -0.00021309    0.00875361    0.00006970
     atom    3 type  2   force =    -0.00015849   -0.01288060    0.00033320
     atom    4 type  2   force =    -0.00278982    0.00194743    0.00052397
     atom    5 type  1   force =     0.00190708   -0.04928150   -0.00029488
     atom    6 type  1   force =    -0.00078065    0.05194463   -0.00002478
     atom    7 type  1   force =     0.00047830    0.00475765   -0.00047263
     atom    8 type  1   force =     0.00308713    0.00053664    0.00031859
     atom    9 type  2   force =    -0.00181663    0.00067407   -0.00076125
     atom   10 type  2   force =    -0.00029293   -0.00020355    0.00001521
     atom   11 type  1   force =    -0.00000465    0.04656797   -0.00023711
     atom   12 type  1   force =     0.00010363   -0.04684702   -0.00011892
     atom   13 type  1   force =    -0.00138751   -0.00041846   -0.00014328
     atom   14 type  1   force =    -0.00112540   -0.00551523   -0.00039996
     atom   15 type  1   force =    -0.00025311    0.00876862    0.00006611
     atom   16 type  2   force =    -0.00015289   -0.01292964    0.00034161
     atom   17 type  2   force =    -0.00044950    0.00196576    0.00046103
     atom   18 type  1   force =     0.00191387   -0.04965775   -0.00028985
     atom   19 type  1   force =    -0.00077357    0.05238485   -0.00004042
     atom   20 type  1   force =     0.00037890    0.00475218   -0.00046812
     atom   21 type  1   force =     0.00375817    0.00052724    0.00041769
     atom   22 type  2   force =    -0.00251917    0.00075858    0.00086717
     atom   23 type  2   force =     0.00019104   -0.00020401    0.00001031
     atom   24 type  1   force =     0.00003757    0.04649898   -0.00011110
     atom   25 type  1   force =     0.00014537   -0.04690179    0.00000408
     atom   26 type  1   force =     0.00089633   -0.00041877   -0.00011112
     atom   27 type  3   force =     0.00000238    0.00043528    0.00031707
     atom   28 type  3   force =     0.00001014    0.00043515    0.00032356
     atom   29 type  3   force =     0.00019306   -0.00048818   -0.00016439
     atom   30 type  3   force =     0.00024405   -0.00048129   -0.00015381

     Total force =     0.002122     Total SCF correction =     0.000377
     SCF correction compared to forces is large: reduce conv_thr to get better values

     entering subroutine stress ...

     negative rho (up, down):  0.371E-02 0.000E+00
          total   stress  (Ry/bohr**3)                   (kbar)     P=   -0.04
   0.00009974  -0.00000214   0.00000008         14.67     -0.32      0.01
  -0.00000214  -0.00006765   0.00000136         -0.32     -9.95      0.20
   0.00000008   0.00000136  -0.00003281          0.01      0.20     -4.83

     bfgs converged in  21 scf cycles and  20 bfgs steps
     (criteria: energy < 0.10E-03, force < 0.10E-02)

     End of BFGS Geometry Optimization

     Final energy   =   -1694.8215994536 Ry
Begin final coordinates

ATOMIC_POSITIONS (crystal)
O0       0.000000000   0.000000000   0.371096674    0   0   1
O0       0.000000000   0.500000000   0.383565686    0   0   1
Mo1      0.250000000   0.500000000   0.441864478    0   0   1
Mo1      0.000000000   0.000000000   0.443229956    0   0   1
O0       0.250000000   0.780000000   0.442147130    0   0   1
O0       0.250000000   0.220000000   0.441673325    0   0   1
O0       0.000000000   0.500000000   0.495245839    0   0   1
O0       0.000000000   0.000000000   0.517117871    0   0   1
Mo1      0.250000000   0.000000000   0.575557050    0   0   1
Mo1      0.000000000   0.500000000   0.571663145    0   0   1
O0       0.250000000   0.720000000   0.574829354    0   0   1
O0       0.250000000   0.280000000   0.574843737    0   0   1
O0       0.000000000   0.000000000   0.626296037    0   0   1
O0       0.500000000   0.000000000   0.371073636    0   0   1
O0       0.500000000   0.500000000   0.383565958    0   0   1
Mo1      0.750000000   0.500000000   0.441863050    0   0   1
Mo1      0.500000000   0.000000000   0.443218123    0   0   1
O0       0.750000000   0.780000000   0.442148780    0   0   1
O0       0.750000000   0.220000000   0.441672947    0   0   1
O0       0.500000000   0.500000000   0.495245450    0   0   1
O0       0.500000000   0.000000000   0.517135372    0   0   1
Mo1      0.750000000   0.000000000   0.575848804    0   0   1
Mo1      0.500000000   0.500000000   0.571661869    0   0   1
O0       0.750000000   0.720000000   0.574852958    0   0   1
O0       0.750000000   0.280000000   0.574867550    0   0   1
O0       0.500000000   0.000000000   0.626299331    0   0   1
H2      -0.000620930   0.606130687   0.359785489
H2       0.499385664   0.606138077   0.359787244
H2       0.165301947   0.023166161   0.356461124
H2       0.665343722   0.023175754   0.356462037
End final coordinates

     General routines

     Parallel routines
     Hubbard U routines

   This run was terminated on:  10:36:48  22May2014

   JOB DONE.