     Program PWSCF v.5.0.2 (svn rev. 9656) starts on 28May2014 at  8: 6:37

     Current dimensions of program PWSCF are:
     Max number of different atomic species (ntypx) = 10
     Max number of k-points (npk) =  40000
     Max angular momentum in pseudopotentials (lmaxx) =  3
     Reading input from pwscf.in
Warning: card &CELL ignored
Warning: card / ignored

     Subspace diagonalization in iterative solution of the eigenvalue problem:
     a serial algorithm will be used

     bravais-lattice index     =            0
     lattice parameter (alat)  =      12.0187  a.u.
     unit-cell volume          =    7280.5819 (a.u.)^3
     number of atoms/cell      =           33
     number of atomic types    =            3
     number of electrons       =       245.00
     number of Kohn-Sham states=          367
     kinetic-energy cutoff     =      40.0000  Ry
     charge density cutoff     =     500.0000  Ry
     convergence threshold     =      1.0E-06
     mixing beta               =       0.7000
     number of iterations used =            8  plain     mixing
     Exchange-correlation      = SLA  PW   PBE  PBE ( 1 4 3 4 0)
     EXX-fraction              =        0.00
     nstep                     =           50

     celldm(1)=  12.018658  celldm(2)=   0.000000  celldm(3)=   0.000000
     celldm(4)=   0.000000  celldm(5)=   0.000000  celldm(6)=   0.000000

     crystal axes: (cart. coord. in units of alat)
               a(1) = (   1.000000   0.000000   0.000000 )
               a(2) = (   0.000000   1.009517   0.000000 )
               a(3) = (   0.000000   0.000000   4.154171 )

     reciprocal axes: (cart. coord. in units 2 pi/alat)
               b(1) = (  1.000000  0.000000  0.000000 )
               b(2) = (  0.000000  0.990572  0.000000 )
               b(3) = (  0.000000  0.000000  0.240722 )

     PseudoPot. # 1 for O  read from file:
     /home/camp/zhonxu/pseudo/o_pbe_v1.01.uspp.F.UPF
     MD5 check sum: 2bcb18d16ea4b960afae9ec6d52f22d2
     Pseudo is Ultrasoft + core correction, Zval =  6.0
     Generated by new atomic code, or converted to UPF format
     Using radial grid of  737 points,  5 beta functions with:
                l(1) =   0
                l(2) =   0
                l(3) =   1
                l(4) =   1
                l(5) =   2
     Q(r) pseudized with  8 coefficients,  rinner =    0.900   0.900   0.900
                                                       0.900   0.900

     PseudoPot. # 2 for Ir read from file:
     /home/camp/zhonxu/pseudo/ir_pbe_v1.uspp.F.UPF
     MD5 check sum: abf987a9674477536ede83817f8f8b70
     Pseudo is Ultrasoft + core correction, Zval = 15.0
     Generated by new atomic code, or converted to UPF format
     Using radial grid of  983 points,  7 beta functions with:
                l(1) =   0
                l(2) =   0
                l(3) =   1
                l(4) =   1
                l(5) =   1
                l(6) =   2
                l(7) =   2
     Q(r) pseudized with  8 coefficients,  rinner =    1.350   1.350   1.350
                                                       1.350   1.350

     PseudoPot. # 3 for H  read from file:
     /home/camp/zhonxu/pseudo/h_pbe_v1.uspp.F.UPF
     MD5 check sum: 3408e3ff4ec8b0a4e358431e7e038a48
     Pseudo is Ultrasoft, Zval =  1.0
     Generated by new atomic code, or converted to UPF format
     Using radial grid of  615 points,  2 beta functions with:
                l(1) =   0
                l(2) =   0
     Q(r) pseudized with  8 coefficients,  rinner =    0.700

     atomic species   valence    mass     pseudopotential
        O0             6.00    15.99940     O ( 1.00)
        Ir1           15.00   192.22000     Ir( 1.00)
        H2             1.00     1.00794     H ( 1.00)

     Simplified LDA+U calculation (l_max = 2) with parameters (eV):
     atomic species    L          U    alpha       J0     beta
        Ir1            2     1.0000   0.0000   0.0000   0.0000

     No symmetry found

   Cartesian axes

     site n.     atom                  positions (alat units)
         1           O0  tau(   1) = (   0.0000000   0.0000000   1.5694875  )
         2           O0  tau(   2) = (   0.0000000   0.5047586   1.6702677  )
         3           Ir1 tau(   3) = (   0.2500000   0.5047586   1.8805934  )
         4           Ir1 tau(   4) = (   0.0000000   0.0000000   1.8807595  )
         5           O0  tau(   5) = (   0.2500000   0.8177090   1.8801779  )
         6           O0  tau(   6) = (   0.2500000   0.1918083   1.8787655  )
         7           O0  tau(   7) = (   0.0000000   0.5047586   2.0695666  )
         8           O0  tau(   8) = (   0.0000000   0.0000000   2.1948564  )
         9           Ir1 tau(   9) = (   0.2500000   0.0000000   2.3901025  )
        10           Ir1 tau(  10) = (   0.0000000   0.5047586   2.3742751  )
        11           O0  tau(  11) = (   0.2500000   0.6965669   2.3856575  )
        12           O0  tau(  12) = (   0.2500000   0.3129503   2.3949628  )
        13           O0  tau(  13) = (   0.0000000   0.0000000   2.5754200  )
        14           O0  tau(  14) = (   0.5000000   0.0000000   1.5694875  )
        15           O0  tau(  15) = (   0.5000000   0.5047586   1.6704338  )
        16           Ir1 tau(  16) = (   0.7500000   0.5047586   1.8805934  )
        17           Ir1 tau(  17) = (   0.5000000   0.0000000   1.8805518  )
        18           O0  tau(  18) = (   0.7500000   0.8177090   1.8801364  )
        19           O0  tau(  19) = (   0.7500000   0.1918083   1.8788486  )
        20           O0  tau(  20) = (   0.5000000   0.5047586   2.0759640  )
        21           O0  tau(  21) = (   0.5000000   0.0000000   2.1945241  )
        22           Ir1 tau(  22) = (   0.7500000   0.0000000   2.3900609  )
        23           Ir1 tau(  23) = (   0.5000000   0.5047586   2.3998648  )
        24           O0  tau(  24) = (   0.7500000   0.6965669   2.3856575  )
        25           O0  tau(  25) = (   0.7500000   0.3129503   2.3949628  )
        26           O0  tau(  26) = (   0.5000000   0.0000000   2.5728445  )
        27           H2  tau(  27) = (   0.0000400   0.6420328   1.5957418  )
        28           H2  tau(  28) = (   0.4999400   0.6424971   1.5965311  )
        29           H2  tau(  29) = (   0.1432100   0.0360095   1.5217560  )
        30           H2  tau(  30) = (   0.6436700   0.0339703   1.5215899  )
        31           O0  tau(  31) = (   0.4997900   0.5432313   2.6993805  )
        32           O0  tau(  32) = (   0.5001800   0.3480815   2.8224271  )
        33           H2  tau(  33) = (   0.4999800   0.4114489   2.9642920  )

     number of k points=    10  Methfessel-Paxton smearing, width (Ry)=  0.0100
                       cart. coord. in units 2pi/alat
        k(    1) = (   0.0000000   0.0000000   0.0000000), wk =   0.1250000
        k(    2) = (   0.0000000   0.2476431   0.0000000), wk =   0.2500000
        k(    3) = (   0.0000000  -0.4952862   0.0000000), wk =   0.1250000
        k(    4) = (   0.2500000   0.0000000   0.0000000), wk =   0.2500000
        k(    5) = (   0.2500000   0.2476431   0.0000000), wk =   0.2500000
        k(    6) = (   0.2500000  -0.4952862   0.0000000), wk =   0.2500000
        k(    7) = (  -0.5000000   0.0000000   0.0000000), wk =   0.1250000
        k(    8) = (  -0.5000000   0.2476431   0.0000000), wk =   0.2500000
        k(    9) = (  -0.5000000  -0.4952862   0.0000000), wk =   0.1250000
        k(   10) = (  -0.2500000   0.2476431   0.0000000), wk =   0.2500000

     Largest allocated arrays     est. size (Mb)     dimensions
     Largest temporary arrays     est. size (Mb)     dimensions

     Check: negative/imaginary core charge=   -0.000003    0.000000

     Initial potential from superposition of free atoms
     Check: negative starting charge=   -3.336869

     starting charge  240.99967, renormalised to  245.00000

     negative rho (up, down):  0.339E+01 0.000E+00
     Number of +U iterations with fixed ns =  0
     Starting occupations:
 --- enter write_ns ---
 LDA+U parameters:
U( 2)     =  1.00000000
alpha( 2) =  0.00000000
atom    3   Tr[ns(na)] =   7.00000
    eigenvalues:
  0.700  0.700  0.700  0.700  0.700
    eigenvectors:
  1.000  0.000  0.000  0.000  0.000
  0.000  1.000  0.000  0.000  0.000
  0.000  0.000  1.000  0.000  0.000
  0.000  0.000  0.000  1.000  0.000
  0.000  0.000  0.000  0.000  1.000
    occupations:
  0.700  0.000  0.000  0.000  0.000
  0.000  0.700  0.000  0.000  0.000
  0.000  0.000  0.700  0.000  0.000
  0.000  0.000  0.000  0.700  0.000
  0.000  0.000  0.000  0.000  0.700
atom    4   Tr[ns(na)] =   7.00000
    eigenvalues:
  0.700  0.700  0.700  0.700  0.700
    eigenvectors:
  1.000  0.000  0.000  0.000  0.000
  0.000  1.000  0.000  0.000  0.000
  0.000  0.000  1.000  0.000  0.000
  0.000  0.000  0.000  1.000  0.000
  0.000  0.000  0.000  0.000  1.000
    occupations:
  0.700  0.000  0.000  0.000  0.000
  0.000  0.700  0.000  0.000  0.000
  0.000  0.000  0.700  0.000  0.000
  0.000  0.000  0.000  0.700  0.000
  0.000  0.000  0.000  0.000  0.700
atom    9   Tr[ns(na)] =   7.00000
    eigenvalues:
  0.700  0.700  0.700  0.700  0.700
    eigenvectors:
  1.000  0.000  0.000  0.000  0.000
  0.000  1.000  0.000  0.000  0.000
  0.000  0.000  1.000  0.000  0.000
  0.000  0.000  0.000  1.000  0.000
  0.000  0.000  0.000  0.000  1.000
    occupations:
  0.700  0.000  0.000  0.000  0.000
  0.000  0.700  0.000  0.000  0.000
  0.000  0.000  0.700  0.000  0.000
  0.000  0.000  0.000  0.700  0.000
  0.000  0.000  0.000  0.000  0.700
atom   10   Tr[ns(na)] =   7.00000
    eigenvalues:
  0.700  0.700  0.700  0.700  0.700
    eigenvectors:
  1.000  0.000  0.000  0.000  0.000
  0.000  1.000  0.000  0.000  0.000
  0.000  0.000  1.000  0.000  0.000
  0.000  0.000  0.000  1.000  0.000
  0.000  0.000  0.000  0.000  1.000
    occupations:
  0.700  0.000  0.000  0.000  0.000
  0.000  0.700  0.000  0.000  0.000
  0.000  0.000  0.700  0.000  0.000
  0.000  0.000  0.000  0.700  0.000
  0.000  0.000  0.000  0.000  0.700
atom   16   Tr[ns(na)] =   7.00000
    eigenvalues:
  0.700  0.700  0.700  0.700  0.700
    eigenvectors:
  1.000  0.000  0.000  0.000  0.000
  0.000  1.000  0.000  0.000  0.000
  0.000  0.000  1.000  0.000  0.000
  0.000  0.000  0.000  1.000  0.000
  0.000  0.000  0.000  0.000  1.000
    occupations:
  0.700  0.000  0.000  0.000  0.000
  0.000  0.700  0.000  0.000  0.000
  0.000  0.000  0.700  0.000  0.000
  0.000  0.000  0.000  0.700  0.000
  0.000  0.000  0.000  0.000  0.700
atom   17   Tr[ns(na)] =   7.00000
    eigenvalues:
  0.700  0.700  0.700  0.700  0.700
    eigenvectors:
  1.000  0.000  0.000  0.000  0.000
  0.000  1.000  0.000  0.000  0.000
  0.000  0.000  1.000  0.000  0.000
  0.000  0.000  0.000  1.000  0.000
  0.000  0.000  0.000  0.000  1.000
    occupations:
  0.700  0.000  0.000  0.000  0.000
  0.000  0.700  0.000  0.000  0.000
  0.000  0.000  0.700  0.000  0.000
  0.000  0.000  0.000  0.700  0.000
  0.000  0.000  0.000  0.000  0.700
atom   22   Tr[ns(na)] =   7.00000
    eigenvalues:
  0.700  0.700  0.700  0.700  0.700
    eigenvectors:
  1.000  0.000  0.000  0.000  0.000
  0.000  1.000  0.000  0.000  0.000
[...]
 -0.001 -0.000 -0.004  0.001  0.882
atom   10   Tr[ns(na)] =   8.03125
    eigenvalues:
  0.597  0.608  0.913  0.919  0.978
    eigenvectors:
  0.992  0.000  0.000  0.000  0.008
  0.000  0.001  0.002  0.997  0.000
  0.000  0.000  0.998  0.002  0.000
  0.008  0.000  0.000  0.000  0.992
  0.000  0.999  0.000  0.001  0.000
    occupations:
  0.600 -0.000  0.006  0.034 -0.000
 -0.000  0.919 -0.000  0.000 -0.008
  0.006 -0.000  0.913  0.000  0.000
  0.034  0.000  0.000  0.975  0.000
 -0.000 -0.008  0.000  0.000  0.609
atom   16   Tr[ns(na)] =   8.06933
    eigenvalues:
  0.606  0.632  0.869  0.957  0.971
    eigenvectors:
  0.005  0.182  0.003  0.002  0.808
  0.978  0.022  0.000  0.000  0.000
  0.000  0.000  0.994  0.003  0.003
  0.017  0.796  0.000  0.001  0.186
  0.000  0.000  0.002  0.994  0.003
    occupations:
  0.907  0.005  0.005 -0.132  0.001
  0.005  0.607 -0.000  0.002 -0.006
  0.005 -0.000  0.870 -0.004 -0.004
 -0.132  0.002 -0.004  0.694 -0.000
  0.001 -0.006 -0.004 -0.000  0.956
atom   17   Tr[ns(na)] =   8.04616
    eigenvalues:
  0.618  0.664  0.856  0.906  0.980
    eigenvectors:
  0.000  0.990  0.000  0.000  0.010
  0.000  0.000  0.038  0.962  0.000
  0.000  0.000  0.962  0.038  0.000
  0.000  0.010  0.000  0.000  0.990
  1.000  0.000  0.000  0.000  0.000
    occupations:
  0.667 -0.003 -0.001  0.031  0.001
 -0.003  0.904  0.010  0.000 -0.001
 -0.001  0.010  0.858 -0.000  0.001
  0.031  0.000 -0.000  0.977  0.000
  0.001 -0.001  0.001  0.000  0.618
atom   22   Tr[ns(na)] =   8.02891
    eigenvalues:
  0.651  0.667  0.838  0.882  0.977
    eigenvectors:
  0.000  0.142  0.001  0.000  0.858
  1.000  0.000  0.000  0.000  0.000
  0.000  0.000  0.993  0.006  0.000
  0.000  0.858  0.000  0.000  0.142
  0.000  0.000  0.006  0.994  0.000
    occupations:
  0.933  0.002  0.001 -0.108  0.000
  0.002  0.651  0.001 -0.001 -0.000
  0.001  0.001  0.838 -0.004  0.003
 -0.108 -0.001 -0.004  0.711  0.000
  0.000 -0.000  0.003  0.000  0.882
atom   23   Tr[ns(na)] =   8.06382
    eigenvalues:
  0.617  0.656  0.847  0.935  0.977
    eigenvectors:
  0.000  0.993  0.000  0.003  0.004
  0.002  0.000  0.998  0.000  0.000
  0.000  0.003  0.000  0.996  0.001
  0.000  0.004  0.000  0.001  0.995
  0.998  0.000  0.002  0.000  0.000
    occupations:
  0.658 -0.000  0.015  0.021 -0.000
 -0.000  0.846 -0.001 -0.000 -0.009
  0.015 -0.001  0.935 -0.002  0.000
  0.021 -0.000 -0.002  0.976 -0.000
 -0.000 -0.009  0.000 -0.000  0.617
N of occupied +U levels =  64.3872644
 --- exit write_ns ---

     Threshold (ethr) on eigenvalues was too large:
     Diagonalizing with lowered threshold

     Davidson diagonalization with overlap
     ethr =  1.36E-08,  avg # of iterations =  2.0

[...]

     total energy              =   -2139.07209401 Ry
     Harris-Foulkes estimate   =   -2139.07209401 Ry
     estimated scf accuracy    <       0.00000002 Ry

     iteration # 16     ecut=    40.00 Ry     beta=0.70
     Davidson diagonalization with overlap
     ethr =  4.53E-12,  avg # of iterations =  1.0

     negative rho (up, down):  0.313E+01 0.000E+00

     End of self-consistent calculation
 --- enter write_ns ---
 LDA+U parameters:
U( 2)     =  1.00000000
alpha( 2) =  0.00000000
atom    3   Tr[ns(na)] =   8.06823
    eigenvalues:
  0.606  0.631  0.869  0.957  0.971
    eigenvectors:
  0.006  0.181  0.003  0.002  0.808
  0.976  0.023  0.000  0.000  0.000
  0.000  0.000  0.992  0.005  0.003
  0.018  0.795  0.000  0.001  0.186
  0.000  0.000  0.004  0.993  0.003
    occupations:
  0.907 -0.005  0.005 -0.132 -0.001
 -0.005  0.607 -0.001 -0.002 -0.006
  0.005 -0.001  0.870 -0.004  0.006
 -0.132 -0.002 -0.004  0.694 -0.000
 -0.001 -0.006  0.006 -0.000  0.956
atom    4   Tr[ns(na)] =   8.05091
    eigenvalues:
  0.618  0.663  0.858  0.907  0.979
    eigenvectors:
  0.000  0.990  0.000  0.000  0.010
  0.000  0.000  0.052  0.948  0.000
  0.000  0.000  0.948  0.052  0.000
  0.000  0.010  0.000  0.000  0.990
  1.000  0.000  0.000  0.000  0.000
    occupations:
  0.666 -0.003 -0.001  0.031  0.001
 -0.003  0.904  0.011  0.000 -0.001
 -0.001  0.011  0.861 -0.000  0.000
  0.031  0.000 -0.000  0.976  0.000
  0.001 -0.001  0.000  0.000  0.618
atom    9   Tr[ns(na)] =   8.02688
    eigenvalues:
  0.651  0.667  0.837  0.882  0.976
    eigenvectors:
  0.000  0.142  0.001  0.000  0.857
  0.999  0.001  0.000  0.000  0.000
  0.000  0.000  0.992  0.007  0.001
  0.001  0.857  0.000  0.000  0.142
  0.000  0.000  0.007  0.993  0.000
    occupations:
  0.932 -0.001  0.002 -0.108 -0.001
 -0.001  0.651 -0.000  0.001 -0.000
  0.002 -0.000  0.838 -0.004 -0.004
 -0.108  0.001 -0.004  0.710  0.001
 -0.001 -0.000 -0.004  0.001  0.882
atom   10   Tr[ns(na)] =   8.03299
    eigenvalues:
  0.597  0.609  0.914  0.919  0.978
    eigenvectors:
  0.992  0.000  0.000  0.000  0.008
  0.000  0.001  0.002  0.997  0.000
  0.000  0.000  0.997  0.002  0.000
  0.008  0.000  0.000  0.000  0.992
  0.000  0.999  0.000  0.001  0.000
    occupations:
  0.600  0.000  0.006  0.034 -0.000
  0.000  0.919 -0.000  0.000 -0.008
  0.006 -0.000  0.914  0.000  0.000
  0.034  0.000  0.000  0.975  0.000
 -0.000 -0.008  0.000  0.000  0.609
atom   16   Tr[ns(na)] =   8.06815
    eigenvalues:
  0.606  0.631  0.869  0.957  0.971
    eigenvectors:
  0.005  0.182  0.003  0.002  0.807
  0.978  0.022  0.000  0.000  0.000
  0.000  0.000  0.994  0.003  0.003
  0.017  0.796  0.000  0.001  0.186
  0.000  0.000  0.002  0.994  0.003
    occupations:
  0.907  0.005  0.005 -0.132  0.001
  0.005  0.607 -0.000  0.002 -0.006
  0.005 -0.000  0.870 -0.004 -0.004
 -0.132  0.002 -0.004  0.694 -0.000
  0.001 -0.006 -0.004 -0.000  0.956
atom   17   Tr[ns(na)] =   8.04881
    eigenvalues:
  0.618  0.664  0.857  0.907  0.980
    eigenvectors:
  0.000  0.990  0.000  0.000  0.010
  0.000  0.000  0.038  0.961  0.000
  0.000  0.000  0.961  0.038  0.000
  0.000  0.010  0.000  0.000  0.990
  1.000  0.000  0.000  0.000  0.000
    occupations:
  0.667 -0.003 -0.001  0.031  0.001
 -0.003  0.905  0.010  0.000 -0.001
 -0.001  0.010  0.859 -0.000  0.000
  0.031  0.000 -0.000  0.977  0.000
  0.001 -0.001  0.000  0.000  0.618
atom   22   Tr[ns(na)] =   8.02705
    eigenvalues:
  0.651  0.666  0.837  0.882  0.977
    eigenvectors:
  0.000  0.142  0.001  0.000  0.858
  1.000  0.000  0.000  0.000  0.000
  0.000  0.000  0.993  0.006  0.000
  0.000  0.858  0.000  0.000  0.142
  0.000  0.000  0.006  0.994  0.000
    occupations:
  0.933  0.002  0.001 -0.108  0.000
  0.002  0.651  0.001 -0.001 -0.000
  0.001  0.001  0.838 -0.004  0.004
 -0.108 -0.001 -0.004  0.710  0.000
  0.000 -0.000  0.004  0.000  0.882
atom   23   Tr[ns(na)] =   8.06409
    eigenvalues:
  0.617  0.656  0.847  0.935  0.977
    eigenvectors:
  0.000  0.993  0.000  0.003  0.004
  0.002  0.000  0.998  0.000  0.000
  0.000  0.003  0.000  0.996  0.001
  0.000  0.004  0.000  0.001  0.995
  0.998  0.000  0.002  0.000  0.000
    occupations:
  0.659 -0.000  0.015  0.021 -0.000
 -0.000  0.846 -0.001 -0.000 -0.009
  0.015 -0.001  0.935 -0.002  0.000
  0.021 -0.000 -0.002  0.976 -0.000
 -0.000 -0.009  0.000 -0.000  0.617
N of occupied +U levels =  64.3870945
 --- exit write_ns ---

[...]

          k = 0.2500-0.4953 0.0000 ( 31088 PWs)   bands (ev):

[...]

          k =-0.2500 0.2476 0.0000 ( 31099 PWs)   bands (ev):

   -50.6743 -50.6646 -50.6561 -50.5525 -50.5451 -50.5121 -50.5061 -50.4926
   -50.4780 -50.4355 -50.3649 -50.3386 -50.3338 -50.3182 -50.2782 -50.2767
   -50.2319 -50.1733 -50.1680 -50.1638 -50.1618 -50.1574 -50.1425 -50.0098
   -23.0703 -21.0173 -20.6370 -20.5878 -20.5196 -20.1994 -20.0517 -20.0231
   -19.8607 -19.7537 -19.6444 -19.5421 -19.4917 -19.4075 -19.2815 -19.1937
   -19.1035 -18.2905 -18.1534 -17.1171  -9.3355  -9.2448  -9.1578  -8.8116
    -8.5185  -8.4330  -8.3729  -8.3361  -8.2213  -8.1786  -8.0776  -8.0235
    -7.9845  -7.8582  -7.7369  -7.6099  -7.5218  -7.3972  -7.2783  -7.0594
    -6.9883  -6.8400  -6.7047  -6.6330  -6.5830  -6.3316  -6.0747  -5.9850
    -5.8451  -5.7722  -5.7309  -5.6601  -5.5824  -5.5216  -5.4675  -5.4461
    -5.3097  -5.1715  -5.0579  -4.9387  -4.8441  -4.7823  -4.6271  -4.5017
    -4.3042  -4.2483  -4.1531  -4.0127  -3.9251  -3.8522  -3.7213  -3.6163
    -3.4413  -3.2555  -3.2230  -2.9123  -2.8472  -2.6615  -2.6215  -2.4373
    -2.2093  -2.2000  -2.1504  -2.0857  -2.0039  -1.9406  -1.8633  -1.8220
    -1.7650  -1.6993  -1.6320  -1.4611  -1.3000  -1.0950  -0.8598  -0.7649
    -0.6400  -0.6022  -0.3838  -0.2433  -0.1122  -0.0153   0.1547   0.4266
     1.3724   1.4359   1.6468   2.0567   2.1478   2.5952   2.6544   2.9386
     3.0677   3.2539   3.2863   3.5461   3.5783   3.7428   3.8179   4.0767
     4.2063   4.4418   4.8440   5.3403   5.3927   5.8905   5.9955   6.0846
     6.3346   6.4717   6.6058   6.7225   6.8147   7.0723   7.2237   7.3155
     7.5325   7.6690   7.8131   7.9074   8.0052   8.1391   8.2609   8.3442
     8.3700   8.5294   8.7157   8.7892   8.8639   9.0300   9.0940   9.1673
     9.1936   9.3547   9.3906   9.4035   9.4131   9.4233   9.4249   9.5428
     9.5528   9.5679   9.5968   9.6004   9.6337   9.7549   9.8260   9.9276
    10.0017  10.1347  10.2259  10.2627  10.3510  10.3988  10.5123  10.5486
    10.6317  10.7093  10.8193  10.8794  10.9549  11.0281  11.1463  11.1923
    11.3213  11.3941  11.4544  11.5922  11.6498  11.7587  11.8002  11.9126
    11.9754  12.0537  12.1881  12.2536  12.3449  12.4531  12.4943  12.5521
    12.5761  12.6959  12.7843  12.8687  12.9287  13.0174  13.0768  13.1247
    13.2021  13.3071  13.3654  13.4531  13.5557  13.6641  13.6905  13.7834
    13.8882  13.9456  14.0372  14.0735  14.1125  14.1772  14.2914  14.3909
    14.4643  14.5130  14.6301  14.7031  14.8335  14.8802  15.0144  15.0745
    15.1291  15.2320  15.3816  15.4397  15.4819  15.6129  15.6706  15.6830
    15.7353  15.7670  15.8598  15.8896  15.9586  16.0131  16.0704  16.0911
    16.2250  16.2557  16.3476  16.3829  16.4686  16.5142  16.5464  16.5837
    16.6980  16.7510  16.7823  16.8241  16.8884  16.9617  17.1517  17.2368
    17.2976  17.3437  17.4080  17.4978  17.5508  17.5852  17.6215  17.6803
    17.7459  17.8259  17.8693  17.9018  17.9169  18.0184  18.0610  18.1423
    18.2406  18.3368  18.3770  18.5113  18.6095  18.7079  18.7471  18.7915
    18.8377  18.8711  19.0148  19.0337  19.0804  19.1721  19.2346  19.3497
    19.3814  19.4057  19.5381  19.6238  19.6782  19.7589  19.7928  19.8391
    19.9224  19.9868  20.1263  20.1502  20.2488  20.3202  20.4539  20.5130
    20.5543  20.6310  20.7246  20.7595  20.8026  20.8611  20.9010  21.0361
    21.0906  21.1452  21.1762  21.2514  21.2671  21.3008  21.3415  21.4112
    21.5099  21.5324  21.6280  21.6737  21.7478  21.7965  21.8495  21.8923
    21.9697  21.9853  22.0625  22.1236  22.1907  22.2677  22.3809

     the Fermi energy is    -0.4467 ev

!    total energy              =   -2139.07209401 Ry
     Harris-Foulkes estimate   =   -2139.07209401 Ry
     estimated scf accuracy    <          1.4E-09 Ry

     The total energy is the sum of the following terms:

     one-electron contribution =  -23090.02306492 Ry
     hartree contribution      =   11594.60934426 Ry
     xc contribution           =    -584.11594221 Ry
     ewald contribution        =    9940.05785790 Ry
     Hubbard energy            =       0.39947431 Ry
     smearing contrib. (-TS)   =       0.00023664 Ry

     convergence has been achieved in  16 iterations

     Forces acting on atoms (Ry/au):

     negative rho (up, down):  0.313E+01 0.000E+00
     atom    1 type  1   force =    -0.00752903   -0.01372549    0.00045307
     atom    2 type  1   force =     0.00019512    0.00625765    0.00088312
     atom    3 type  2   force =     0.03076158    0.00417406    0.00063858
     atom    4 type  2   force =     0.00910216    0.00776660    0.00038671
     atom    5 type  1   force =    -0.00285556   -0.02125642    0.00002670
     atom    6 type  1   force =     0.00313884    0.02005950    0.00002805
     atom    7 type  1   force =    -0.00030830   -0.00327770    0.00010858
     atom    8 type  1   force =    -0.00307909    0.00037652   -0.00007895
     atom    9 type  2   force =     0.00718689    0.00160262    0.00004652
     atom   10 type  2   force =    -0.00010749   -0.00098009    0.00068778
     atom   11 type  1   force =    -0.00642790    0.01343879   -0.00074987
     atom   12 type  1   force =    -0.00061801   -0.00807360   -0.00050205
     atom   13 type  1   force =    -0.00087173   -0.00295182   -0.00047287
     atom   14 type  1   force =    -0.00723415   -0.01388944    0.00002999
     atom   15 type  1   force =     0.00013953    0.00622411    0.00053415
     atom   16 type  2   force =    -0.03075108    0.00406713    0.00063388
     atom   17 type  2   force =     0.00911038    0.00838859    0.00003298
     atom   18 type  1   force =    -0.00169503   -0.02169797    0.00004666
     atom   19 type  1   force =     0.00396403    0.01971565    0.00001547
     atom   20 type  1   force =    -0.00027651   -0.00619263   -0.00008740
     atom   21 type  1   force =    -0.00329655    0.00123558   -0.00018369
     atom   22 type  2   force =    -0.00471600    0.00130473    0.00005129
     atom   23 type  2   force =    -0.00017589    0.00261576   -0.00044284
     atom   24 type  1   force =     0.00631473    0.01340393   -0.00074803
     atom   25 type  1   force =     0.00114631   -0.00815712   -0.00048648
     atom   26 type  1   force =    -0.00104408   -0.01026024   -0.00005763
     atom   27 type  3   force =    -0.00002170   -0.00030451    0.00006625
     atom   28 type  3   force =    -0.00002074   -0.00005001    0.00010896
     atom   29 type  3   force =    -0.00013553   -0.00002153    0.00008568
     atom   30 type  3   force =     0.00008677    0.00011860    0.00006358
     atom   31 type  1   force =    -0.00014894    0.00014559   -0.00058614
     atom   32 type  1   force =     0.00016053   -0.00037926   -0.00043283
     atom   33 type  3   force =     0.00000643    0.00032241   -0.00009923

     Total force =     0.002414     Total SCF correction =     0.000189

     entering subroutine stress ...

     negative rho (up, down):  0.313E+01 0.000E+00
          total   stress  (Ry/bohr**3)                   (kbar)     P=  -13.49
  -0.00010185   0.00000524   0.00000395        -14.98      0.77      0.58
   0.00000524  -0.00012111   0.00000503          0.77    -17.82      0.74
   0.00000395   0.00000503  -0.00005214          0.58      0.74     -7.67

     bfgs converged in   3 scf cycles and   2 bfgs steps
     (criteria: energy < 0.10E-03, force < 0.10E-02)

     End of BFGS Geometry Optimization

     Final energy   =   -2139.0720940090 Ry
Begin final coordinates

ATOMIC_POSITIONS (crystal)
O0       0.000000000   0.000000000   0.377853037    0   0   1
O0       0.000000000   0.500000000   0.402113313    0   0   1
Ir1      0.250000000   0.500000000   0.452678796    0   0   1
Ir1      0.000000000   0.000000000   0.452738272    0   0   1
O0       0.250000000   0.810000000   0.452603466    0   0   1
O0       0.250000000   0.190000000   0.452263070    0   0   1
O0       0.000000000   0.500000000   0.498349650    0   0   1
O0       0.000000000   0.000000000   0.528386058    0   0   1
Ir1      0.250000000   0.000000000   0.575302230    0   0   1
Ir1      0.000000000   0.500000000   0.571482448    0   0   1
O0       0.250000000   0.690000000   0.574237607    0   0   1
O0       0.250000000   0.310000000   0.576495705    0   0   1
O0       0.000000000   0.000000000   0.619939756    0   0   1
O0       0.500000000   0.000000000   0.377832080    0   0   1
O0       0.500000000   0.500000000   0.402139777    0   0   1
Ir1      0.750000000   0.500000000   0.452675108    0   0   1
Ir1      0.500000000   0.000000000   0.452652041    0   0   1
O0       0.750000000   0.810000000   0.452595569    0   0   1
O0       0.750000000   0.190000000   0.452283381    0   0   1
O0       0.500000000   0.500000000   0.499737008    0   0   1
O0       0.500000000   0.000000000   0.528295643    0   0   1
Ir1      0.750000000   0.000000000   0.575298729    0   0   1
Ir1      0.500000000   0.500000000   0.577655222    0   0   1
O0       0.750000000   0.690000000   0.574236830    0   0   1
O0       0.750000000   0.310000000   0.576495186    0   0   1
O0       0.500000000   0.000000000   0.619374164    0   0   1
H2       0.000034898   0.635815481   0.384146965
H2       0.499935730   0.636303752   0.384342590
H2       0.143163410   0.035660242   0.366322289
H2       0.643659367   0.033667238   0.366285467
O0       0.499762010   0.537723102   0.649840628
O0       0.500209201   0.345135067   0.679370415
H2       0.499981414   0.407587698   0.713547503
End final coordinates

     General routines

     Parallel routines
     Hubbard U routines

   This run was terminated on:  12:13:59  28May2014

   JOB DONE.