     Program PWSCF v.5.0.2 (svn rev. 9656) starts on 31May2014 at 13:45:39

     Current dimensions of program PWSCF are:
     Max number of different atomic species (ntypx) = 10
     Max number of k-points (npk) =  40000
     Max angular momentum in pseudopotentials (lmaxx) =  3
     Reading input from pwscf.in
Warning: card &CELL ignored
Warning: card / ignored

     Subspace diagonalization in iterative solution of the eigenvalue problem:
     a serial algorithm will be used

     bravais-lattice index     =            0
     lattice parameter (alat)  =      11.2250  a.u.
     unit-cell volume          =    7005.5484 (a.u.)^3
     number of atoms/cell      =           33
     number of atomic types    =            3
     number of electrons       =       221.00
     number of Kohn-Sham states=          319
     kinetic-energy cutoff     =      40.0000  Ry
     charge density cutoff     =     500.0000  Ry
     convergence threshold     =      1.0E-06
     mixing beta               =       0.7000
     number of iterations used =            8  plain     mixing
     Exchange-correlation      = SLA  PW   PBE  PBE ( 1 4 3 4 0)
     EXX-fraction              =        0.00
     nstep                     =           50

     celldm(1)=  11.224973  celldm(2)=   0.000000  celldm(3)=   0.000000
     celldm(4)=   0.000000  celldm(5)=   0.000000  celldm(6)=   0.000000

     crystal axes: (cart. coord. in units of alat)
               a(1) = (   1.000000   0.000000   0.000000 )
               a(2) = (   0.000000   1.107086   0.000000 )
               a(3) = (   0.000000   0.000000   4.474090 )

     reciprocal axes: (cart. coord. in units 2 pi/alat)
               b(1) = (  1.000000  0.000000  0.000000 )
               b(2) = (  0.000000  0.903272  0.000000 )
               b(3) = (  0.000000  0.000000  0.223509 )

     PseudoPot. # 1 for O  read from file:
     /home/camp/zhonxu/pseudo/o_pbe_v1.01.uspp.F.UPF
     MD5 check sum: 2bcb18d16ea4b960afae9ec6d52f22d2
     Pseudo is Ultrasoft + core correction, Zval =  6.0
     Generated by new atomic code, or converted to UPF format
     Using radial grid of  737 points,  5 beta functions with:
                l(1) =   0
                l(2) =   0
                l(3) =   1
                l(4) =   1
                l(5) =   2
     Q(r) pseudized with  8 coefficients,  rinner =    0.900   0.900   0.900
                                                       0.900   0.900

     PseudoPot. # 2 for Ti read from file:
     /home/camp/zhonxu/pseudo/ti_pbe_v1.uspp.F.UPF
     MD5 check sum: bcc8f6961b3b91f0cac3ca967d22d0fb
     Pseudo is Ultrasoft + core correction, Zval = 12.0
     Generated by new atomic code, or converted to UPF format
     Using radial grid of  851 points,  6 beta functions with:
                l(1) =   0
                l(2) =   0
                l(3) =   1
                l(4) =   1
                l(5) =   2
                l(6) =   2
     Q(r) pseudized with  6 coefficients,  rinner =    1.000   1.000   1.000
                                                       1.000   1.000

     PseudoPot. # 3 for H  read from file:
     /home/camp/zhonxu/pseudo/h_pbe_v1.uspp.F.UPF
     MD5 check sum: 3408e3ff4ec8b0a4e358431e7e038a48
     Pseudo is Ultrasoft, Zval =  1.0
     Generated by new atomic code, or converted to UPF format
     Using radial grid of  615 points,  2 beta functions with:
                l(1) =   0
                l(2) =   0
     Q(r) pseudized with  8 coefficients,  rinner =    0.700

     atomic species   valence    mass     pseudopotential
        O0             6.00    15.99940     O ( 1.00)
        Ti1           12.00    47.88000     Ti( 1.00)
        H2             1.00     1.00794     H ( 1.00)

     Simplified LDA+U calculation (l_max = 2) with parameters (eV):
     atomic species    L          U    alpha       J0     beta
        Ti1            2     1.5000   0.0000   0.0000   0.0000

     No symmetry found

   Cartesian axes

     site n.     atom                  positions (alat units)
         1           O0  tau(   1) = (   0.0000000   0.0000000   1.6912954  )
         2           O0  tau(   2) = (   0.0000000   0.5535432   1.7865040  )
         3           Ti1 tau(   3) = (   0.2500000   0.5535432   2.0182619  )
         4           Ti1 tau(   4) = (   0.0000000   0.0000000   2.0215280  )
         5           O0  tau(   5) = (   0.2500000   0.8967400   2.0132062  )
         6           O0  tau(   6) = (   0.2500000   0.2103464   2.0173223  )
         7           O0  tau(   7) = (   0.0000000   0.5535432   2.2297074  )
         8           O0  tau(   8) = (   0.0000000   0.0000000   2.3520737  )
         9           Ti1 tau(   9) = (   0.2500000   0.0000000   2.5974328  )
        10           Ti1 tau(  10) = (   0.0000000   0.5535432   2.5411040  )
        11           O0  tau(  11) = (   0.2500000   0.7638896   2.5876345  )
        12           O0  tau(  12) = (   0.2500000   0.3431968   2.5923323  )
        13           O0  tau(  13) = (   0.0000000   0.0000000   2.7826601  )
        14           O0  tau(  14) = (   0.5000000   0.0000000   1.6946510  )
        15           O0  tau(  15) = (   0.5000000   0.5535432   1.7849381  )
        16           Ti1 tau(  16) = (   0.7500000   0.5535432   2.0183066  )
        17           Ti1 tau(  17) = (   0.5000000   0.0000000   2.0277470  )
        18           O0  tau(  18) = (   0.7500000   0.8967400   2.0129377  )
        19           O0  tau(  19) = (   0.7500000   0.2103464   2.0175013  )
        20           O0  tau(  20) = (   0.5000000   0.5535432   2.2179405  )
        21           O0  tau(  21) = (   0.5000000   0.0000000   2.3528791  )
        22           Ti1 tau(  22) = (   0.7500000   0.0000000   2.5974328  )
        23           Ti1 tau(  23) = (   0.5000000   0.5535432   2.6181478  )
        24           O0  tau(  24) = (   0.7500000   0.7638896   2.5875898  )
        25           O0  tau(  25) = (   0.7500000   0.3431968   2.5922429  )
        26           O0  tau(  26) = (   0.5000000   0.0000000   2.7811837  )
        27           H2  tau(  27) = (  -0.0004600   0.6930693   1.6949194  )
        28           H2  tau(  28) = (   0.4997200   0.6918293   1.6916086  )
        29           H2  tau(  29) = (   0.1490000   0.0365781   1.6268238  )
        30           H2  tau(  30) = (   0.6482800   0.0381834   1.6297319  )
        31           O0  tau(  31) = (   0.5003100   0.5833902   2.9430115  )
        32           O0  tau(  32) = (   0.4991200   0.3876242   3.0783974  )
        33           H2  tau(  33) = (   0.5003600   0.4575034   3.2295322  )

     number of k points=    10  Methfessel-Paxton smearing, width (Ry)=  0.0100
                       cart. coord. in units 2pi/alat
        k(    1) = (   0.0000000   0.0000000   0.0000000), wk =   0.1250000
        k(    2) = (   0.0000000   0.2258180   0.0000000), wk =   0.2500000
        k(    3) = (   0.0000000  -0.4516359   0.0000000), wk =   0.1250000
        k(    4) = (   0.2500000   0.0000000   0.0000000), wk =   0.2500000
        k(    5) = (   0.2500000   0.2258180   0.0000000), wk =   0.2500000
        k(    6) = (   0.2500000  -0.4516359   0.0000000), wk =   0.2500000
        k(    7) = (  -0.5000000   0.0000000   0.0000000), wk =   0.1250000
        k(    8) = (  -0.5000000   0.2258180   0.0000000), wk =   0.2500000
        k(    9) = (  -0.5000000  -0.4516359   0.0000000), wk =   0.1250000
        k(   10) = (  -0.2500000   0.2258180   0.0000000), wk =   0.2500000

     Largest allocated arrays     est. size (Mb)     dimensions
     Largest temporary arrays     est. size (Mb)     dimensions

     Check: negative/imaginary core charge=   -0.000006    0.000000

     Initial potential from superposition of free atoms
     Check: negative starting charge=   -0.102033

     starting charge  212.99957, renormalised to  221.00000

     negative rho (up, down):  0.106E+00 0.000E+00
     Number of +U iterations with fixed ns =  0
     Starting occupations:
 --- enter write_ns ---
 LDA+U parameters:
U( 2)     =  1.50000000
alpha( 2) =  0.00000000
atom    3   Tr[ns(na)] =   2.00000
    eigenvalues:
  0.200  0.200  0.200  0.200  0.200
    eigenvectors:
  1.000  0.000  0.000  0.000  0.000
  0.000  1.000  0.000  0.000  0.000
  0.000  0.000  1.000  0.000  0.000
  0.000  0.000  0.000  1.000  0.000
  0.000  0.000  0.000  0.000  1.000
    occupations:
  0.200  0.000  0.000  0.000  0.000
  0.000  0.200  0.000  0.000  0.000
  0.000  0.000  0.200  0.000  0.000
  0.000  0.000  0.000  0.200  0.000
  0.000  0.000  0.000  0.000  0.200
atom    4   Tr[ns(na)] =   2.00000
    eigenvalues:
  0.200  0.200  0.200  0.200  0.200
    eigenvectors:
  1.000  0.000  0.000  0.000  0.000
  0.000  1.000  0.000  0.000  0.000
  0.000  0.000  1.000  0.000  0.000
  0.000  0.000  0.000  1.000  0.000
  0.000  0.000  0.000  0.000  1.000
    occupations:
  0.200  0.000  0.000  0.000  0.000
  0.000  0.200  0.000  0.000  0.000
  0.000  0.000  0.200  0.000  0.000
  0.000  0.000  0.000  0.200  0.000
  0.000  0.000  0.000  0.000  0.200
atom    9   Tr[ns(na)] =   2.00000
    eigenvalues:
  0.200  0.200  0.200  0.200  0.200
    eigenvectors:
  1.000  0.000  0.000  0.000  0.000
  0.000  1.000  0.000  0.000  0.000
  0.000  0.000  1.000  0.000  0.000
  0.000  0.000  0.000  1.000  0.000
  0.000  0.000  0.000  0.000  1.000
    occupations:
  0.200  0.000  0.000  0.000  0.000
  0.000  0.200  0.000  0.000  0.000
  0.000  0.000  0.200  0.000  0.000
  0.000  0.000  0.000  0.200  0.000
  0.000  0.000  0.000  0.000  0.200
atom   10   Tr[ns(na)] =   2.00000
    eigenvalues:
  0.200  0.200  0.200  0.200  0.200
    eigenvectors:
  1.000  0.000  0.000  0.000  0.000
  0.000  1.000  0.000  0.000  0.000
  0.000  0.000  1.000  0.000  0.000
  0.000  0.000  0.000  1.000  0.000
  0.000  0.000  0.000  0.000  1.000
    occupations:
  0.200  0.000  0.000  0.000  0.000
  0.000  0.200  0.000  0.000  0.000
  0.000  0.000  0.200  0.000  0.000
  0.000  0.000  0.000  0.200  0.000
  0.000  0.000  0.000  0.000  0.200
atom   16   Tr[ns(na)] =   2.00000
    eigenvalues:
  0.200  0.200  0.200  0.200  0.200
    eigenvectors:
  1.000  0.000  0.000  0.000  0.000
  0.000  1.000  0.000  0.000  0.000
  0.000  0.000  1.000  0.000  0.000
  0.000  0.000  0.000  1.000  0.000
  0.000  0.000  0.000  0.000  1.000
    occupations:
  0.200  0.000  0.000  0.000  0.000
  0.000  0.200  0.000  0.000  0.000
  0.000  0.000  0.200  0.000  0.000
  0.000  0.000  0.000  0.200  0.000
  0.000  0.000  0.000  0.000  0.200
atom   17   Tr[ns(na)] =   2.00000
    eigenvalues:
  0.200  0.200  0.200  0.200  0.200
    eigenvectors:
  1.000  0.000  0.000  0.000  0.000
  0.000  1.000  0.000  0.000  0.000
  0.000  0.000  1.000  0.000  0.000
  0.000  0.000  0.000  1.000  0.000
  0.000  0.000  0.000  0.000  1.000
    occupations:
  0.200  0.000  0.000  0.000  0.000
  0.000  0.200  0.000  0.000  0.000
  0.000  0.000  0.200  0.000  0.000
  0.000  0.000  0.000  0.200  0.000
  0.000  0.000  0.000  0.000  0.200
atom   22   Tr[ns(na)] =   2.00000
    eigenvalues:
  0.200  0.200  0.200  0.200  0.200
    eigenvectors:
  1.000  0.000  0.000  0.000  0.000
  0.000  1.000  0.000  0.000  0.000
  0.000  0.000  1.000  0.000  0.000
[...]
    occupations:
  0.425  0.012  0.004 -0.019 -0.000
  0.012  0.211 -0.006  0.000 -0.002
  0.004 -0.006  0.227  0.001 -0.000
 -0.019  0.000  0.001  0.176 -0.000
 -0.000 -0.002 -0.000 -0.000  0.416
atom    9   Tr[ns(na)] =   2.89957
    eigenvalues:
  0.181  0.222  0.239  0.375  0.433
    eigenvectors:
  0.000  0.001  0.917  0.082  0.000
  0.000  0.000  0.000  0.000  1.000
  1.000  0.000  0.000  0.000  0.000
  0.000  0.000  0.082  0.918  0.000
  0.000  0.999  0.001  0.000  0.000
    occupations:
  0.250  0.000  0.001  0.037  0.000
  0.000  0.433 -0.000 -0.001  0.000
  0.001 -0.000  0.181  0.001 -0.000
  0.037 -0.001  0.001  0.364 -0.000
  0.000  0.000 -0.000 -0.000  0.222
atom   10   Tr[ns(na)] =   2.84326
    eigenvalues:
  0.183  0.228  0.240  0.339  0.431
    eigenvectors:
  0.016  0.000  0.000  0.984  0.000
  0.000  0.000  1.000  0.000  0.000
  0.000  1.000  0.000  0.000  0.000
  0.984  0.000  0.000  0.016  0.000
  0.000  0.000  0.000  0.000  1.000
    occupations:
  0.337 -0.000 -0.001 -0.019 -0.000
 -0.000  0.240 -0.000 -0.000  0.002
 -0.001 -0.000  0.228 -0.001  0.000
 -0.019 -0.000 -0.001  0.186  0.000
 -0.000  0.002  0.000  0.000  0.431
atom   16   Tr[ns(na)] =   2.80689
    eigenvalues:
  0.182  0.193  0.216  0.392  0.420
    eigenvectors:
  0.698  0.075  0.037  0.172  0.017
  0.002  0.001  0.001  0.143  0.853
  0.113  0.247  0.639  0.000  0.000
  0.169  0.014  0.006  0.684  0.127
  0.018  0.662  0.317  0.000  0.002
    occupations:
  0.224 -0.004 -0.005  0.083 -0.002
 -0.004  0.415 -0.002  0.013  0.011
 -0.005 -0.002  0.207  0.007  0.011
  0.083  0.013  0.007  0.356  0.001
 -0.002  0.011  0.011  0.001  0.201
atom   17   Tr[ns(na)] =   2.90810
    eigenvalues:
  0.173  0.210  0.229  0.413  0.429
    eigenvectors:
  0.006  0.003  0.000  0.000  0.991
  0.001  0.920  0.077  0.000  0.002
  0.000  0.077  0.923  0.000  0.000
  0.993  0.001  0.000  0.000  0.006
  0.000  0.000  0.000  1.000  0.000
    occupations:
  0.427  0.011  0.004 -0.019 -0.000
  0.011  0.212 -0.005  0.000 -0.002
  0.004 -0.005  0.228  0.001 -0.000
 -0.019  0.000  0.001  0.175 -0.000
 -0.000 -0.002 -0.000 -0.000  0.413
atom   22   Tr[ns(na)] =   2.89965
    eigenvalues:
  0.181  0.222  0.239  0.375  0.433
    eigenvectors:
  0.000  0.000  0.918  0.082  0.000
  0.000  0.000  0.000  0.000  1.000
  1.000  0.000  0.000  0.000  0.000
  0.000  0.000  0.082  0.918  0.000
  0.000  1.000  0.000  0.000  0.000
    occupations:
  0.250 -0.001  0.001  0.037 -0.000
 -0.001  0.433  0.000  0.001  0.000
  0.001  0.000  0.181  0.001  0.000
  0.037  0.001  0.001  0.364  0.000
 -0.000  0.000  0.000  0.000  0.222
atom   23   Tr[ns(na)] =   2.82387
    eigenvalues:
  0.180  0.186  0.246  0.364  0.436
    eigenvectors:
  0.003  0.005  0.000  0.993  0.000
  0.000  0.000  1.000  0.000  0.000
  0.845  0.155  0.000  0.000  0.000
  0.153  0.840  0.000  0.007  0.000
  0.000  0.000  0.000  0.000  1.000
    occupations:
  0.363 -0.000  0.004 -0.015 -0.000
 -0.000  0.246 -0.000 -0.000 -0.000
  0.004 -0.000  0.181  0.002  0.000
 -0.015 -0.000  0.002  0.186 -0.000
 -0.000 -0.000  0.000 -0.000  0.436
N of occupied +U levels =  22.8977358
 --- exit write_ns ---

[...]

     total energy              =   -1599.46482695 Ry
     Harris-Foulkes estimate   =   -1599.46482696 Ry
     estimated scf accuracy    <       0.00000014 Ry

     iteration # 12     ecut=    40.00 Ry     beta=0.70
     Davidson diagonalization with overlap
     ethr =  6.26E-11,  avg # of iterations =  1.0

     negative rho (up, down):  0.103E+00 0.000E+00

     End of self-consistent calculation
 --- enter write_ns ---
 LDA+U parameters:
U( 2)     =  1.50000000
alpha( 2) =  0.00000000
atom    3   Tr[ns(na)] =   2.80620
    eigenvalues:
  0.182  0.193  0.216  0.392  0.420
    eigenvectors:
  0.688  0.084  0.038  0.173  0.018
  0.002  0.001  0.001  0.143  0.853
  0.121  0.244  0.635  0.000  0.000
  0.167  0.017  0.006  0.684  0.127
  0.022  0.654  0.321  0.000  0.002
    occupations:
  0.224  0.004 -0.005  0.083  0.001
  0.004  0.415  0.002 -0.013  0.011
 -0.005  0.002  0.206  0.007 -0.011
  0.083 -0.013  0.007  0.356 -0.001
  0.001  0.011 -0.011 -0.001  0.201
atom    4   Tr[ns(na)] =   2.90981
    eigenvalues:
  0.174  0.208  0.228  0.416  0.427
    eigenvectors:
  0.006  0.003  0.000  0.000  0.991
  0.001  0.909  0.086  0.000  0.003
  0.001  0.086  0.914  0.000  0.000
  0.992  0.002  0.000  0.000  0.006
  0.000  0.000  0.000  1.000  0.000
    occupations:
  0.425  0.012  0.004 -0.019 -0.000
  0.012  0.211 -0.006  0.000 -0.002
  0.004 -0.006  0.227  0.001 -0.000
 -0.019  0.000  0.001  0.176 -0.000
 -0.000 -0.002 -0.000 -0.000  0.416
atom    9   Tr[ns(na)] =   2.90011
    eigenvalues:
  0.181  0.222  0.239  0.375  0.433
    eigenvectors:
  0.000  0.001  0.918  0.082  0.000
  0.000  0.000  0.000  0.000  1.000
  1.000  0.000  0.000  0.000  0.000
  0.000  0.000  0.082  0.918  0.000
  0.000  0.999  0.001  0.000  0.000
    occupations:
  0.250  0.000  0.001  0.037  0.000
  0.000  0.433 -0.000 -0.001  0.000
  0.001 -0.000  0.181  0.001 -0.000
  0.037 -0.001  0.001  0.364 -0.000
  0.000  0.000 -0.000 -0.000  0.222
atom   10   Tr[ns(na)] =   2.84373
    eigenvalues:
  0.184  0.228  0.240  0.339  0.431
    eigenvectors:
  0.016  0.000  0.000  0.984  0.000
  0.000  0.000  1.000  0.000  0.000
  0.000  1.000  0.000  0.000  0.000
  0.984  0.000  0.000  0.016  0.000
  0.000  0.000  0.000  0.000  1.000
    occupations:
  0.337 -0.000 -0.001 -0.019 -0.000
 -0.000  0.240 -0.000 -0.000  0.002
 -0.001 -0.000  0.228 -0.001  0.000
 -0.019 -0.000 -0.001  0.186  0.000
 -0.000  0.002  0.000  0.000  0.431
atom   16   Tr[ns(na)] =   2.80643
    eigenvalues:
  0.182  0.193  0.216  0.392  0.420
    eigenvectors:
  0.697  0.076  0.037  0.173  0.017
  0.002  0.001  0.001  0.143  0.853
  0.114  0.247  0.639  0.000  0.000
  0.169  0.014  0.006  0.684  0.127
  0.018  0.662  0.317  0.000  0.002
    occupations:
  0.224 -0.004 -0.005  0.083 -0.002
 -0.004  0.415 -0.002  0.013  0.011
 -0.005 -0.002  0.206  0.007  0.011
  0.083  0.013  0.007  0.356  0.001
 -0.002  0.011  0.011  0.001  0.201
atom   17   Tr[ns(na)] =   2.90777
    eigenvalues:
  0.173  0.210  0.229  0.413  0.429
    eigenvectors:
  0.006  0.003  0.000  0.000  0.991
  0.001  0.920  0.077  0.000  0.002
  0.000  0.077  0.923  0.000  0.000
  0.993  0.001  0.000  0.000  0.006
  0.000  0.000  0.000  1.000  0.000
    occupations:
  0.427  0.011  0.004 -0.019 -0.000
  0.011  0.212 -0.005  0.000 -0.002
  0.004 -0.005  0.227  0.001 -0.000
 -0.019  0.000  0.001  0.175 -0.000
 -0.000 -0.002 -0.000 -0.000  0.413
atom   22   Tr[ns(na)] =   2.90018
    eigenvalues:
  0.181  0.222  0.239  0.375  0.433
    eigenvectors:
  0.000  0.000  0.918  0.082  0.000
  0.000  0.000  0.000  0.000  1.000
  1.000  0.000  0.000  0.000  0.000
  0.000  0.000  0.082  0.918  0.000
  0.000  1.000  0.000  0.000  0.000
    occupations:
  0.250 -0.001  0.001  0.037 -0.000
 -0.001  0.433  0.000  0.001  0.000
  0.001  0.000  0.181  0.001  0.000
  0.037  0.001  0.001  0.364  0.000
 -0.000  0.000  0.000  0.000  0.222
atom   23   Tr[ns(na)] =   2.82344
    eigenvalues:
  0.180  0.186  0.246  0.364  0.436
    eigenvectors:
  0.003  0.005  0.000  0.993  0.000
  0.000  0.000  1.000  0.000  0.000
  0.847  0.153  0.000  0.000  0.000
  0.151  0.842  0.000  0.007  0.000
  0.000  0.000  0.000  0.000  1.000
    occupations:
  0.363 -0.000  0.004 -0.015 -0.000
 -0.000  0.246 -0.000 -0.000 -0.000
  0.004 -0.000  0.181  0.002  0.000
 -0.015 -0.000  0.002  0.186 -0.000
 -0.000 -0.000  0.000 -0.000  0.436
N of occupied +U levels =  22.8976764
 --- exit write_ns ---

[...]

          k = 0.2500-0.4516 0.0000 ( 29882 PWs)   bands (ev):

[...]

          k =-0.2500 0.2258 0.0000 ( 29912 PWs)   bands (ev):

   -59.9835 -59.9568 -59.7597 -59.5561 -58.8408 -58.8092 -58.5031 -58.4748
   -36.4633 -36.2313 -36.1958 -36.1196 -36.1133 -36.1099 -36.0877 -36.0640
   -35.9337 -35.8092 -35.7741 -35.7356 -35.3942 -35.1601 -35.0838 -35.0767
   -34.9518 -34.9350 -34.9034 -34.8203 -34.7975 -34.7392 -34.6670 -34.5867
   -24.7618 -21.1074 -20.8833 -20.1886 -19.6423 -19.5701 -19.1793 -19.1232
   -19.0462 -19.0073 -18.9517 -18.8793 -18.8120 -18.6931 -18.6298 -18.2526
   -17.9190 -17.7206 -17.6417 -17.5947  -9.5636  -8.8645  -8.5886  -7.9103
    -7.3019  -7.2696  -7.0982  -7.0882  -6.9992  -6.6598  -6.6494  -6.4510
    -6.4077  -6.3869  -6.3280  -6.2511  -6.2002  -6.1318  -6.0924  -5.8593
    -5.7894  -5.6950  -5.5830  -5.5184  -5.3997  -5.1372  -4.9872  -4.9036
    -4.8454  -4.8034  -4.6666  -4.6355  -4.5745  -4.5128  -4.4360  -4.3363
    -4.2618  -4.2394  -4.1988  -4.1015  -4.0739  -3.9036  -3.8656  -3.7774
    -3.7055  -3.5737  -3.3890  -3.2616  -3.1119  -2.9634  -2.9471  -2.8360
    -2.7572  -2.7061  -2.6676  -2.4500  -2.3275  -2.2223  -2.1815  -0.2257
    -0.1338  -0.0213   0.1382   0.2840   0.3824   0.4516   0.5112   0.6811
     0.7273   0.8130   0.8823   1.0421   1.1970   1.3472   1.4033   1.4290
     1.5943   1.7128   1.7981   1.8890   2.0112   2.0724   2.0986   2.2774
     2.3766   2.5229   2.7273   2.7916   2.8539   2.9398   3.1005   3.5729
     3.6969   3.7165   3.7709   4.0087   4.0674   4.1846   4.2662   4.3223
     4.5274   4.6240   4.8529   4.9118   5.1633   5.2060   5.5221   5.6303
     5.6767   5.9259   6.0334   6.2050   6.4031   6.5628   6.6730   7.0141
     7.0933   7.2619   7.4946   7.5537   7.6976   7.9034   7.9753   8.1075
     8.1919   8.3358   8.4797   8.5536   8.6667   8.8063   8.9047   9.0047
     9.1083   9.2091   9.2522   9.3649   9.4788   9.6528   9.7128   9.7743
     9.8509   9.9949  10.1739  10.2588  10.3267  10.3904  10.4757  10.5255
    10.6613  10.7852  10.9072  10.9629  11.0035  11.1253  11.2017  11.3004
    11.3698  11.4461  11.5096  11.5927  11.6290  11.7329  11.8010  11.9133
    12.0046  12.1315  12.1676  12.2537  12.2850  12.3255  12.4209  12.4938
    12.5358  12.6253  12.7055  12.7980  12.8283  12.9665  13.0028  13.0532
    13.1372  13.2594  13.2950  13.3514  13.4672  13.5663  13.6548  13.7809
    13.8462  13.9412  14.0002  14.0803  14.1327  14.2186  14.2871  14.3087
    14.3531  14.4371  14.5167  14.6101  14.6586  14.7327  14.8121  14.8934
    14.9309  15.0663  15.1076  15.1938  15.2502  15.3411  15.3911  15.4259
    15.5036  15.5719  15.6454  15.6949  15.7075  15.8246  15.8825  15.9519
    16.0057  16.1401  16.1714  16.2023  16.2608  16.3512  16.4303  16.4976
    16.5239  16.5682  16.6564  16.7183  16.7723  16.8073  16.8830  16.9718
    17.0699  17.1302  17.2046  17.2525  17.3100  17.3454  17.4305  17.4726
    17.5721  17.6255  17.6894  17.8310  17.8968  17.9825  18.0510  18.0985
    18.1768  18.2223  18.3221  18.3711  18.4261  18.5105  18.5646  18.6149
    18.6593  18.7501  18.8126  18.8771  18.9579  19.0803  19.1190

     the Fermi energy is    -2.1650 ev

!    total energy              =   -1599.46482695 Ry
     Harris-Foulkes estimate   =   -1599.46482696 Ry
     estimated scf accuracy    <          1.3E-09 Ry

     The total energy is the sum of the following terms:

     one-electron contribution =  -19171.61950424 Ry
     hartree contribution      =    9609.79075014 Ry
     xc contribution           =    -284.61571798 Ry
     ewald contribution        =    8246.12539490 Ry
     Hubbard energy            =       0.85577818 Ry
     smearing contrib. (-TS)   =      -0.00152796 Ry

     convergence has been achieved in  12 iterations

     Forces acting on atoms (Ry/au):

     negative rho (up, down):  0.103E+00 0.000E+00
     atom    1 type  1   force =    -0.00019489   -0.01235590    0.00011280
     atom    2 type  1   force =     0.00009562    0.01811068    0.00031817
     atom    3 type  2   force =     0.05666628   -0.01118696   -0.00027430
     atom    4 type  2   force =    -0.00343719    0.00697518    0.00025647
     atom    5 type  1   force =    -0.00144575   -0.08214763   -0.00024325
     atom    6 type  1   force =    -0.00564419    0.08292510   -0.00027674
     atom    7 type  1   force =     0.00009680   -0.00050418   -0.00048062
     atom    8 type  1   force =     0.00216024   -0.00044747    0.00012040
     atom    9 type  2   force =     0.00013518   -0.00037878   -0.00058877
     atom   10 type  2   force =    -0.00005613    0.00092777    0.00074965
     atom   11 type  1   force =    -0.01972585   -0.01800855    0.00007796
     atom   12 type  1   force =    -0.01596720    0.02215909    0.00020388
     atom   13 type  1   force =     0.00034059   -0.00191908    0.00010947
     atom   14 type  1   force =    -0.00166365   -0.01200711    0.00038824
     atom   15 type  1   force =     0.00010418    0.01615951    0.00009706
     atom   16 type  2   force =    -0.05645554   -0.01179785   -0.00028061
     atom   17 type  2   force =    -0.00370000    0.00616708    0.00048991
     atom   18 type  1   force =     0.00756879   -0.08201328   -0.00027631
     atom   19 type  1   force =     0.00443261    0.08339562   -0.00022485
     atom   20 type  1   force =    -0.00010143   -0.00012286   -0.00006155
     atom   21 type  1   force =     0.00218903    0.00003580    0.00033716
     atom   22 type  2   force =    -0.00116563   -0.00028920   -0.00059209
     atom   23 type  2   force =     0.00000677   -0.00305036    0.00016535
     atom   24 type  1   force =     0.01993656   -0.01797651    0.00006876
     atom   25 type  1   force =     0.01586629    0.02195441    0.00018082
     atom   26 type  1   force =     0.00036988   -0.00467660    0.00009948
     atom   27 type  3   force =     0.00001229   -0.00032780    0.00041651
     atom   28 type  3   force =    -0.00001048   -0.00004203    0.00066648
     atom   29 type  3   force =    -0.00011547   -0.00036991    0.00002235
     atom   30 type  3   force =    -0.00027355   -0.00044466   -0.00007376
     atom   31 type  1   force =     0.00012878    0.00073160    0.00004848
     atom   32 type  1   force =    -0.00018119   -0.00002091   -0.00072899
     atom   33 type  3   force =     0.00002825    0.00054576   -0.00082758

     Total force =     0.002452     Total SCF correction =     0.000112

     entering subroutine stress ...

     negative rho (up, down):  0.103E+00 0.000E+00
          total   stress  (Ry/bohr**3)                   (kbar)     P=   -1.07
   0.00003429  -0.00000219   0.00000318          5.04     -0.32      0.47
  -0.00000219  -0.00001916   0.00000047         -0.32     -2.82      0.07
   0.00000318   0.00000047  -0.00003696          0.47      0.07     -5.44

     bfgs converged in   8 scf cycles and   7 bfgs steps
     (criteria: energy < 0.10E-03, force < 0.10E-02)

     End of BFGS Geometry Optimization

     Final energy   =   -1599.4648269542 Ry
Begin final coordinates

ATOMIC_POSITIONS (crystal)
O0       0.000000000   0.000000000   0.377635353    0   0   1
O0       0.000000000   0.500000000   0.398949807    0   0   1
Ti1      0.250000000   0.500000000   0.450942619    0   0   1
Ti1      0.000000000   0.000000000   0.451449103    0   0   1
O0       0.250000000   0.810000000   0.449848119    0   0   1
O0       0.250000000   0.190000000   0.450785554    0   0   1
O0       0.000000000   0.500000000   0.498260843    0   0   1
O0       0.000000000   0.000000000   0.525882371    0   0   1
Ti1      0.250000000   0.000000000   0.580665339    0   0   1
Ti1      0.000000000   0.500000000   0.568253488    0   0   1
O0       0.250000000   0.690000000   0.578449981    0   0   1
O0       0.250000000   0.310000000   0.579648222    0   0   1
O0       0.000000000   0.000000000   0.622421249    0   0   1
O0       0.500000000   0.000000000   0.378285054    0   0   1
O0       0.500000000   0.500000000   0.398752036    0   0   1
Ti1      0.750000000   0.500000000   0.450951437    0   0   1
Ti1      0.500000000   0.000000000   0.452980910    0   0   1
O0       0.750000000   0.810000000   0.449783783    0   0   1
O0       0.750000000   0.190000000   0.450854467    0   0   1
O0       0.500000000   0.500000000   0.496173352    0   0   1
O0       0.500000000   0.000000000   0.526053206    0   0   1
Ti1      0.750000000   0.000000000   0.580671627    0   0   1
Ti1      0.500000000   0.500000000   0.584527116    0   0   1
O0       0.750000000   0.690000000   0.578443887    0   0   1
O0       0.750000000   0.310000000   0.579623070    0   0   1
O0       0.500000000   0.000000000   0.622064995    0   0   1
H2      -0.000443206   0.626964624   0.378794918
H2       0.499655012   0.625879373   0.378220518
H2       0.150147317   0.032803614   0.363775267
H2       0.649463522   0.034122572   0.364301204
O0       0.500497737   0.528760785   0.658124446
O0       0.498895587   0.351137615   0.687957531
H2       0.500388314   0.412569268   0.721939129
End final coordinates

     General routines

     Parallel routines
     Hubbard U routines

   This run was terminated on:  20:59: 0  31May2014

   JOB DONE.