     Program PWSCF v.5.0.2 (svn rev. 9656) starts on 30May2014 at  0:32: 4

     Current dimensions of program PWSCF are:
     Max number of different atomic species (ntypx) = 10
     Max number of k-points (npk) =  40000
     Max angular momentum in pseudopotentials (lmaxx) =  3
     Reading input from pwscf.in
Warning: card &CELL ignored
Warning: card / ignored

     Subspace diagonalization in iterative solution of the eigenvalue problem:
     a serial algorithm will be used

     bravais-lattice index     =            0
     lattice parameter (alat)  =      12.0187  a.u.
     unit-cell volume          =    7280.5819 (a.u.)^3
     number of atoms/cell      =           33
     number of atomic types    =            3
     number of electrons       =       245.00
     number of Kohn-Sham states=          367
     kinetic-energy cutoff     =      40.0000  Ry
     charge density cutoff     =     500.0000  Ry
     convergence threshold     =      1.0E-06
     mixing beta               =       0.7000
     number of iterations used =            8  plain     mixing
     Exchange-correlation      = SLA  PW   PBE  PBE ( 1 4 3 4 0)
     EXX-fraction              =        0.00
     nstep                     =           50

     celldm(1)=  12.018658  celldm(2)=   0.000000  celldm(3)=   0.000000
     celldm(4)=   0.000000  celldm(5)=   0.000000  celldm(6)=   0.000000

     crystal axes: (cart. coord. in units of alat)
               a(1) = (   1.000000   0.000000   0.000000 )
               a(2) = (   0.000000   1.009517   0.000000 )
               a(3) = (   0.000000   0.000000   4.154171 )

     reciprocal axes: (cart. coord. in units 2 pi/alat)
               b(1) = (  1.000000  0.000000  0.000000 )
               b(2) = (  0.000000  0.990572  0.000000 )
               b(3) = (  0.000000  0.000000  0.240722 )

     PseudoPot. # 1 for O  read from file:
     /home/camp/zhonxu/pseudo/o_pbe_v1.01.uspp.F.UPF
     MD5 check sum: 2bcb18d16ea4b960afae9ec6d52f22d2
     Pseudo is Ultrasoft + core correction, Zval =  6.0
     Generated by new atomic code, or converted to UPF format
     Using radial grid of  737 points,  5 beta functions with:
                l(1) =   0
                l(2) =   0
                l(3) =   1
                l(4) =   1
                l(5) =   2
     Q(r) pseudized with  8 coefficients,  rinner =    0.900   0.900   0.900
                                                       0.900   0.900

     PseudoPot. # 2 for Ir read from file:
     /home/camp/zhonxu/pseudo/ir_pbe_v1.uspp.F.UPF
     MD5 check sum: abf987a9674477536ede83817f8f8b70
     Pseudo is Ultrasoft + core correction, Zval = 15.0
     Generated by new atomic code, or converted to UPF format
     Using radial grid of  983 points,  7 beta functions with:
                l(1) =   0
                l(2) =   0
                l(3) =   1
                l(4) =   1
                l(5) =   1
                l(6) =   2
                l(7) =   2
     Q(r) pseudized with  8 coefficients,  rinner =    1.350   1.350   1.350
                                                       1.350   1.350

     PseudoPot. # 3 for H  read from file:
     /home/camp/zhonxu/pseudo/h_pbe_v1.uspp.F.UPF
     MD5 check sum: 3408e3ff4ec8b0a4e358431e7e038a48
     Pseudo is Ultrasoft, Zval =  1.0
     Generated by new atomic code, or converted to UPF format
     Using radial grid of  615 points,  2 beta functions with:
                l(1) =   0
                l(2) =   0
     Q(r) pseudized with  8 coefficients,  rinner =    0.700

     atomic species   valence    mass     pseudopotential
        O0             6.00    15.99940     O ( 1.00)
        Ir1           15.00   192.22000     Ir( 1.00)
        H2             1.00     1.00794     H ( 1.00)

     Simplified LDA+U calculation (l_max = 2) with parameters (eV):
     atomic species    L          U    alpha       J0     beta
        Ir1            2     5.5000   0.0000   0.0000   0.0000

     No symmetry found

   Cartesian axes

     site n.     atom                  positions (alat units)
         1           O0  tau(   1) = (   0.0000000   0.0000000   1.5694875  )
         2           O0  tau(   2) = (   0.0000000   0.5047586   1.6702677  )
         3           Ir1 tau(   3) = (   0.2500000   0.5047586   1.8805934  )
         4           Ir1 tau(   4) = (   0.0000000   0.0000000   1.8807595  )
         5           O0  tau(   5) = (   0.2500000   0.8177090   1.8801779  )
         6           O0  tau(   6) = (   0.2500000   0.1918083   1.8787655  )
         7           O0  tau(   7) = (   0.0000000   0.5047586   2.0695666  )
         8           O0  tau(   8) = (   0.0000000   0.0000000   2.1948564  )
         9           Ir1 tau(   9) = (   0.2500000   0.0000000   2.3901025  )
        10           Ir1 tau(  10) = (   0.0000000   0.5047586   2.3742751  )
        11           O0  tau(  11) = (   0.2500000   0.6965669   2.3856575  )
        12           O0  tau(  12) = (   0.2500000   0.3129503   2.3949628  )
        13           O0  tau(  13) = (   0.0000000   0.0000000   2.5754200  )
        14           O0  tau(  14) = (   0.5000000   0.0000000   1.5694875  )
        15           O0  tau(  15) = (   0.5000000   0.5047586   1.6704338  )
        16           Ir1 tau(  16) = (   0.7500000   0.5047586   1.8805934  )
        17           Ir1 tau(  17) = (   0.5000000   0.0000000   1.8805518  )
        18           O0  tau(  18) = (   0.7500000   0.8177090   1.8801364  )
        19           O0  tau(  19) = (   0.7500000   0.1918083   1.8788486  )
        20           O0  tau(  20) = (   0.5000000   0.5047586   2.0759640  )
        21           O0  tau(  21) = (   0.5000000   0.0000000   2.1945241  )
        22           Ir1 tau(  22) = (   0.7500000   0.0000000   2.3900609  )
        23           Ir1 tau(  23) = (   0.5000000   0.5047586   2.3998648  )
        24           O0  tau(  24) = (   0.7500000   0.6965669   2.3856575  )
        25           O0  tau(  25) = (   0.7500000   0.3129503   2.3949628  )
        26           O0  tau(  26) = (   0.5000000   0.0000000   2.5728445  )
        27           H2  tau(  27) = (   0.0000400   0.6420328   1.5957418  )
        28           H2  tau(  28) = (   0.4999400   0.6424971   1.5965311  )
        29           H2  tau(  29) = (   0.1432100   0.0360095   1.5217560  )
        30           H2  tau(  30) = (   0.6436700   0.0339703   1.5215899  )
        31           O0  tau(  31) = (   0.4997900   0.5432313   2.6993805  )
        32           O0  tau(  32) = (   0.5001800   0.3480815   2.8224271  )
        33           H2  tau(  33) = (   0.4999800   0.4114489   2.9642920  )

     number of k points=    10  Methfessel-Paxton smearing, width (Ry)=  0.0100
                       cart. coord. in units 2pi/alat
        k(    1) = (   0.0000000   0.0000000   0.0000000), wk =   0.1250000
        k(    2) = (   0.0000000   0.2476431   0.0000000), wk =   0.2500000
        k(    3) = (   0.0000000  -0.4952862   0.0000000), wk =   0.1250000
        k(    4) = (   0.2500000   0.0000000   0.0000000), wk =   0.2500000
        k(    5) = (   0.2500000   0.2476431   0.0000000), wk =   0.2500000
        k(    6) = (   0.2500000  -0.4952862   0.0000000), wk =   0.2500000
        k(    7) = (  -0.5000000   0.0000000   0.0000000), wk =   0.1250000
        k(    8) = (  -0.5000000   0.2476431   0.0000000), wk =   0.2500000
        k(    9) = (  -0.5000000  -0.4952862   0.0000000), wk =   0.1250000
        k(   10) = (  -0.2500000   0.2476431   0.0000000), wk =   0.2500000

     Largest allocated arrays     est. size (Mb)     dimensions
     Largest temporary arrays     est. size (Mb)     dimensions

     Check: negative/imaginary core charge=   -0.000003    0.000000

     Initial potential from superposition of free atoms
     Check: negative starting charge=   -3.336869

     starting charge  240.99967, renormalised to  245.00000

     negative rho (up, down):  0.339E+01 0.000E+00
     Number of +U iterations with fixed ns =  0
     Starting occupations:
 --- enter write_ns ---
 LDA+U parameters:
U( 2)     =  5.50000000
alpha( 2) =  0.00000000
atom    3   Tr[ns(na)] =   7.00000
    eigenvalues:
  0.700  0.700  0.700  0.700  0.700
    eigenvectors:
  1.000  0.000  0.000  0.000  0.000
  0.000  1.000  0.000  0.000  0.000
  0.000  0.000  1.000  0.000  0.000
  0.000  0.000  0.000  1.000  0.000
  0.000  0.000  0.000  0.000  1.000
    occupations:
  0.700  0.000  0.000  0.000  0.000
  0.000  0.700  0.000  0.000  0.000
  0.000  0.000  0.700  0.000  0.000
  0.000  0.000  0.000  0.700  0.000
  0.000  0.000  0.000  0.000  0.700
atom    4   Tr[ns(na)] =   7.00000
    eigenvalues:
  0.700  0.700  0.700  0.700  0.700
    eigenvectors:
  1.000  0.000  0.000  0.000  0.000
  0.000  1.000  0.000  0.000  0.000
  0.000  0.000  1.000  0.000  0.000
  0.000  0.000  0.000  1.000  0.000
  0.000  0.000  0.000  0.000  1.000
    occupations:
  0.700  0.000  0.000  0.000  0.000
  0.000  0.700  0.000  0.000  0.000
  0.000  0.000  0.700  0.000  0.000
  0.000  0.000  0.000  0.700  0.000
  0.000  0.000  0.000  0.000  0.700
atom    9   Tr[ns(na)] =   7.00000
    eigenvalues:
  0.700  0.700  0.700  0.700  0.700
    eigenvectors:
  1.000  0.000  0.000  0.000  0.000
  0.000  1.000  0.000  0.000  0.000
  0.000  0.000  1.000  0.000  0.000
  0.000  0.000  0.000  1.000  0.000
  0.000  0.000  0.000  0.000  1.000
    occupations:
  0.700  0.000  0.000  0.000  0.000
  0.000  0.700  0.000  0.000  0.000
  0.000  0.000  0.700  0.000  0.000
  0.000  0.000  0.000  0.700  0.000
  0.000  0.000  0.000  0.000  0.700
atom   10   Tr[ns(na)] =   7.00000
    eigenvalues:
  0.700  0.700  0.700  0.700  0.700
    eigenvectors:
  1.000  0.000  0.000  0.000  0.000
  0.000  1.000  0.000  0.000  0.000
  0.000  0.000  1.000  0.000  0.000
  0.000  0.000  0.000  1.000  0.000
  0.000  0.000  0.000  0.000  1.000
    occupations:
  0.700  0.000  0.000  0.000  0.000
  0.000  0.700  0.000  0.000  0.000
  0.000  0.000  0.700  0.000  0.000
  0.000  0.000  0.000  0.700  0.000
  0.000  0.000  0.000  0.000  0.700
atom   16   Tr[ns(na)] =   7.00000
    eigenvalues:
  0.700  0.700  0.700  0.700  0.700
    eigenvectors:
  1.000  0.000  0.000  0.000  0.000
  0.000  1.000  0.000  0.000  0.000
  0.000  0.000  1.000  0.000  0.000
  0.000  0.000  0.000  1.000  0.000
  0.000  0.000  0.000  0.000  1.000
    occupations:
  0.700  0.000  0.000  0.000  0.000
  0.000  0.700  0.000  0.000  0.000
  0.000  0.000  0.700  0.000  0.000
  0.000  0.000  0.000  0.700  0.000
  0.000  0.000  0.000  0.000  0.700
atom   17   Tr[ns(na)] =   7.00000
    eigenvalues:
  0.700  0.700  0.700  0.700  0.700
    eigenvectors:
  1.000  0.000  0.000  0.000  0.000
  0.000  1.000  0.000  0.000  0.000
  0.000  0.000  1.000  0.000  0.000
  0.000  0.000  0.000  1.000  0.000
  0.000  0.000  0.000  0.000  1.000
    occupations:
  0.700  0.000  0.000  0.000  0.000
  0.000  0.700  0.000  0.000  0.000
  0.000  0.000  0.700  0.000  0.000
  0.000  0.000  0.000  0.700  0.000
  0.000  0.000  0.000  0.000  0.700
atom   22   Tr[ns(na)] =   7.00000
    eigenvalues:
  0.700  0.700  0.700  0.700  0.700
    eigenvectors:
  1.000  0.000  0.000  0.000  0.000
  0.000  1.000  0.000  0.000  0.000
[...]
 -0.001 -0.000 -0.004  0.001  0.910
atom   10   Tr[ns(na)] =   8.14525
    eigenvalues:
  0.578  0.612  0.946  0.952  0.985
    eigenvectors:
  0.991  0.000  0.000  0.000  0.009
  0.000  0.001  0.998  0.002  0.000
  0.000  0.000  0.002  0.998  0.000
  0.009  0.000  0.000  0.000  0.991
  0.000  0.999  0.001  0.000  0.000
    occupations:
  0.581  0.000  0.007  0.038 -0.000
  0.000  0.946 -0.000  0.000 -0.009
  0.007 -0.000  0.952 -0.000 -0.000
  0.038  0.000 -0.000  0.982  0.000
 -0.000 -0.009 -0.000  0.000  0.612
atom   16   Tr[ns(na)] =   8.18975
    eigenvalues:
  0.606  0.633  0.901  0.971  0.983
    eigenvectors:
  0.006  0.177  0.003  0.001  0.813
  0.975  0.025  0.000  0.000  0.000
  0.000  0.000  0.991  0.005  0.004
  0.019  0.798  0.000  0.000  0.182
  0.000  0.000  0.005  0.994  0.001
    occupations:
  0.918  0.005  0.004 -0.135  0.001
  0.005  0.607 -0.000  0.002 -0.005
  0.004 -0.000  0.902 -0.004 -0.005
 -0.135  0.002 -0.004  0.696 -0.000
  0.001 -0.005 -0.005 -0.000  0.971
atom   17   Tr[ns(na)] =   8.18802
    eigenvalues:
  0.619  0.669  0.888  0.932  0.986
    eigenvectors:
  0.000  0.989  0.000  0.000  0.011
  0.000  0.000  0.063  0.937  0.000
  0.000  0.000  0.937  0.063  0.000
  0.000  0.011  0.000  0.000  0.989
  1.000  0.000  0.000  0.000  0.000
    occupations:
  0.673 -0.003 -0.001  0.032  0.001
 -0.003  0.929  0.011  0.000 -0.002
 -0.001  0.011  0.891 -0.000  0.001
  0.032  0.000 -0.000  0.982  0.000
  0.001 -0.002  0.001  0.000  0.619
atom   22   Tr[ns(na)] =   8.17770
    eigenvalues:
  0.655  0.670  0.869  0.910  0.985
    eigenvectors:
  0.000  0.139  0.000  0.000  0.860
  1.000  0.000  0.000  0.000  0.000
  0.000  0.000  0.993  0.007  0.000
  0.000  0.861  0.000  0.000  0.139
  0.000  0.000  0.007  0.993  0.000
    occupations:
  0.941  0.002  0.000 -0.109  0.000
  0.002  0.655  0.001 -0.001 -0.000
  0.000  0.001  0.870 -0.004  0.003
 -0.109 -0.001 -0.004  0.714  0.000
  0.000 -0.000  0.003  0.000  0.910
atom   23   Tr[ns(na)] =   8.19599
    eigenvalues:
  0.620  0.662  0.874  0.957  0.985
    eigenvectors:
  0.000  0.992  0.000  0.003  0.005
  0.001  0.000  0.998  0.000  0.000
  0.000  0.002  0.000  0.996  0.002
  0.000  0.005  0.000  0.001  0.994
  0.999  0.000  0.001  0.000  0.000
    occupations:
  0.664 -0.000  0.014  0.023 -0.000
 -0.000  0.874 -0.001 -0.000 -0.010
  0.014 -0.001  0.957 -0.002  0.000
  0.023 -0.000 -0.002  0.983 -0.000
 -0.000 -0.010  0.000 -0.000  0.620
N of occupied +U levels =  65.4539685
 --- exit write_ns ---

     Threshold (ethr) on eigenvalues was too large:
     Diagonalizing with lowered threshold

     Davidson diagonalization with overlap
     ethr =  1.33E-08,  avg # of iterations =  2.0

[...]

     total energy              =   -2137.34709883 Ry
     Harris-Foulkes estimate   =   -2137.34709883 Ry
     estimated scf accuracy    <       0.00000002 Ry

     iteration # 15     ecut=    40.00 Ry     beta=0.70
     Davidson diagonalization with overlap
     ethr =  6.74E-12,  avg # of iterations =  1.0

     negative rho (up, down):  0.314E+01 0.000E+00

     End of self-consistent calculation
 --- enter write_ns ---
 LDA+U parameters:
U( 2)     =  5.50000000
alpha( 2) =  0.00000000
atom    3   Tr[ns(na)] =   8.18957
    eigenvalues:
  0.606  0.633  0.901  0.972  0.983
    eigenvectors:
  0.006  0.177  0.003  0.001  0.813
  0.974  0.025  0.000  0.000  0.000
  0.000  0.000  0.988  0.009  0.003
  0.020  0.798  0.000  0.000  0.182
  0.000  0.000  0.008  0.991  0.001
    occupations:
  0.918 -0.005  0.003 -0.135 -0.001
 -0.005  0.607 -0.001 -0.002 -0.005
  0.003 -0.001  0.902 -0.004  0.006
 -0.135 -0.002 -0.004  0.696 -0.000
 -0.001 -0.005  0.006 -0.000  0.971
atom    4   Tr[ns(na)] =   8.18907
    eigenvalues:
  0.619  0.669  0.887  0.934  0.986
    eigenvectors:
  0.000  0.989  0.000  0.000  0.011
  0.000  0.000  0.074  0.926  0.000
  0.000  0.000  0.926  0.074  0.000
  0.000  0.011  0.000  0.000  0.989
  1.000  0.000  0.000  0.000  0.000
    occupations:
  0.673 -0.003 -0.001  0.032  0.001
 -0.003  0.930  0.012  0.000 -0.002
 -0.001  0.012  0.891 -0.000  0.000
  0.032  0.000 -0.000  0.982  0.000
  0.001 -0.002  0.000  0.000  0.619
atom    9   Tr[ns(na)] =   8.17745
    eigenvalues:
  0.655  0.670  0.870  0.910  0.985
    eigenvectors:
  0.000  0.139  0.001  0.000  0.860
  0.998  0.002  0.000  0.000  0.000
  0.000  0.000  0.992  0.008  0.000
  0.002  0.859  0.000  0.000  0.139
  0.000  0.000  0.008  0.992  0.000
    occupations:
  0.941 -0.001  0.000 -0.109 -0.001
 -0.001  0.655  0.000  0.001 -0.000
  0.000  0.000  0.870 -0.004 -0.004
 -0.109  0.001 -0.004  0.714  0.001
 -0.001 -0.000 -0.004  0.001  0.910
atom   10   Tr[ns(na)] =   8.14563
    eigenvalues:
  0.578  0.612  0.946  0.952  0.985
    eigenvectors:
  0.991  0.000  0.000  0.000  0.009
  0.000  0.001  0.998  0.002  0.000
  0.000  0.000  0.002  0.998  0.000
  0.009  0.000  0.000  0.000  0.991
  0.000  0.999  0.001  0.000  0.000
    occupations:
  0.582  0.000  0.007  0.038 -0.000
  0.000  0.946 -0.000  0.000 -0.009
  0.007 -0.000  0.952 -0.000 -0.000
  0.038  0.000 -0.000  0.982  0.000
 -0.000 -0.009 -0.000  0.000  0.612
atom   16   Tr[ns(na)] =   8.18952
    eigenvalues:
  0.606  0.633  0.901  0.971  0.983
    eigenvectors:
  0.006  0.177  0.003  0.001  0.813
  0.975  0.025  0.000  0.000  0.000
  0.000  0.000  0.991  0.005  0.004
  0.019  0.798  0.000  0.000  0.182
  0.000  0.000  0.005  0.993  0.001
    occupations:
  0.918  0.005  0.004 -0.135  0.001
  0.005  0.607 -0.000  0.002 -0.005
  0.004 -0.000  0.902 -0.004 -0.005
 -0.135  0.002 -0.004  0.696 -0.000
  0.001 -0.005 -0.005 -0.000  0.971
atom   17   Tr[ns(na)] =   8.18782
    eigenvalues:
  0.619  0.669  0.888  0.932  0.986
    eigenvectors:
  0.000  0.989  0.000  0.000  0.011
  0.000  0.000  0.063  0.937  0.000
  0.000  0.000  0.937  0.063  0.000
  0.000  0.011  0.000  0.000  0.989
  1.000  0.000  0.000  0.000  0.000
    occupations:
  0.673 -0.003 -0.001  0.032  0.001
 -0.003  0.929  0.011  0.000 -0.002
 -0.001  0.011  0.891 -0.000  0.001
  0.032  0.000 -0.000  0.982  0.000
  0.001 -0.002  0.001  0.000  0.619
atom   22   Tr[ns(na)] =   8.17747
    eigenvalues:
  0.655  0.670  0.869  0.910  0.985
    eigenvectors:
  0.000  0.139  0.000  0.000  0.860
  1.000  0.000  0.000  0.000  0.000
  0.000  0.000  0.993  0.007  0.000
  0.000  0.861  0.000  0.000  0.139
  0.000  0.000  0.007  0.993  0.000
    occupations:
  0.941  0.002  0.000 -0.109  0.000
  0.002  0.655  0.001 -0.001 -0.000
  0.000  0.001  0.870 -0.004  0.003
 -0.109 -0.001 -0.004  0.714  0.000
  0.000 -0.000  0.003  0.000  0.910
atom   23   Tr[ns(na)] =   8.19652
    eigenvalues:
  0.620  0.662  0.875  0.957  0.985
    eigenvectors:
  0.000  0.992  0.000  0.003  0.005
  0.001  0.000  0.998  0.000  0.000
  0.000  0.002  0.000  0.996  0.002
  0.000  0.005  0.000  0.001  0.994
  0.999  0.000  0.001  0.000  0.000
    occupations:
  0.664 -0.000  0.014  0.023 -0.000
 -0.000  0.874 -0.001 -0.000 -0.010
  0.014 -0.001  0.957 -0.002  0.000
  0.023 -0.000 -0.002  0.983 -0.000
 -0.000 -0.010  0.000 -0.000  0.620
N of occupied +U levels =  65.4530320
 --- exit write_ns ---

[...]

          k = 0.2500-0.4953 0.0000 ( 31088 PWs)   bands (ev):

[...]

          k =-0.2500 0.2476 0.0000 ( 31099 PWs)   bands (ev):

   -50.0899 -49.9831 -49.9774 -49.9357 -49.9264 -49.8795 -49.8545 -49.8330
   -49.8280 -49.8164 -49.8056 -49.8004 -49.6839 -49.6738 -49.5935 -49.5903
   -49.5755 -49.5640 -49.5254 -49.5145 -49.5059 -49.4696 -49.4589 -49.4311
   -23.5319 -20.9038 -20.6356 -20.6003 -20.5280 -20.1875 -20.1377 -20.1083
   -19.9861 -19.8437 -19.6834 -19.6383 -19.4838 -19.4429 -19.3628 -19.2715
   -19.1855 -18.4689 -18.2962 -17.3158 -10.0489  -9.9272  -9.6670  -9.5491
    -9.1964  -9.1492  -9.0655  -9.0209  -8.8597  -8.5511  -8.4373  -8.3976
    -8.3469  -8.1950  -8.0469  -7.8992  -7.8225  -7.7402  -7.6485  -7.3043
    -7.1966  -7.0641  -6.9729  -6.8679  -6.8175  -6.7305  -6.6386  -6.5358
    -6.3588  -6.1831  -6.0763  -5.9786  -5.9191  -5.8516  -5.7377  -5.6884
    -5.6293  -5.6127  -5.4881  -5.2906  -5.2072  -5.1602  -5.0756  -4.8621
    -4.7240  -4.5358  -4.3665  -4.2675  -4.1748  -4.1268  -3.9377  -3.8850
    -3.7372  -3.6309  -3.3806  -3.3377  -3.1621  -3.0994  -3.0706  -2.9752
    -2.9239  -2.7620  -2.7393  -2.5817  -2.5585  -2.4807  -2.4713  -2.3887
    -2.1928  -2.1654  -2.0819  -1.9530  -1.6651  -1.3852  -1.1683  -1.1414
    -0.9494  -0.9186  -0.6790  -0.5281  -0.3463  -0.2735  -0.0705   0.5348
     1.5362   1.5602   1.8175   2.1432   2.3161   2.7336   2.8675   3.0815
     3.2400   3.4100   3.4550   3.6441   3.7072   3.8878   3.9145   4.0697
     4.2643   4.4896   4.7812   5.2887   5.4270   5.8040   6.0568   6.1093
     6.2533   6.4245   6.5872   6.6565   6.7608   7.0545   7.1756   7.3146
     7.5200   7.6913   7.8606   7.9188   7.9845   8.1986   8.2930   8.3656
     8.3771   8.4866   8.7505   8.8090   8.8987   9.0928   9.1314   9.2033
     9.2455   9.4311   9.5607   9.6269   9.6993   9.7844   9.8616   9.9761
    10.0104  10.0477  10.0769  10.0812  10.0990  10.1005  10.1272  10.1479
    10.2174  10.2919  10.2937  10.3329  10.4020  10.4840  10.5356  10.5809
    10.6766  10.7273  10.8407  10.9549  10.9943  11.0655  11.1838  11.2261
    11.3201  11.3894  11.4720  11.5816  11.7239  11.7641  11.8137  11.9109
    11.9287  12.0895  12.1346  12.2246  12.3554  12.4982  12.5341  12.5456
    12.6048  12.6946  12.8157  12.8953  12.9882  13.0271  13.0967  13.2066
    13.2580  13.3071  13.3957  13.5428  13.6409  13.7270  13.7738  13.8813
    13.9241  13.9851  14.0593  14.1601  14.2108  14.2729  14.3449  14.4398
    14.4659  14.5457  14.6536  14.7535  14.8363  14.8889  15.0901  15.1162
    15.1494  15.2395  15.3919  15.4133  15.5455  15.6158  15.6632  15.6918
    15.7305  15.7953  15.8449  15.9427  15.9720  16.0387  16.0786  16.0966
    16.2197  16.2789  16.3496  16.4026  16.4836  16.5361  16.5652  16.6350
    16.7142  16.7571  16.7892  16.8572  16.9521  17.0057  17.1805  17.2440
    17.2999  17.3352  17.4038  17.4506  17.5128  17.5973  17.6409  17.6970
    17.7316  17.8305  17.8563  17.8853  17.9245  18.0118  18.0639  18.1507
    18.2275  18.3176  18.3928  18.5121  18.6059  18.6944  18.7657  18.7868
    18.8210  18.8813  19.0381  19.0524  19.1248  19.2175  19.2687  19.3751
    19.3887  19.4628  19.5631  19.6383  19.6954  19.7642  19.8185  19.8590
    19.9541  20.0069  20.1419  20.2533  20.3037  20.3745  20.4501  20.5348
    20.6415  20.6810  20.7460  20.7964  20.8101  20.8827  20.9315  21.0453
    21.1199  21.1356  21.1933  21.2509  21.2846  21.3208  21.3555  21.4406
    21.5132  21.5748  21.6744  21.6921  21.7283  21.8508  21.8679  21.9288
    21.9887  22.0252  22.0795  22.1486  22.2240  22.3089  22.4014

     the Fermi energy is    -0.7425 ev

!    total energy              =   -2137.34709882 Ry
     Harris-Foulkes estimate   =   -2137.34709883 Ry
     estimated scf accuracy    <          7.2E-09 Ry

     The total energy is the sum of the following terms:

     one-electron contribution =  -23159.31190093 Ry
     hartree contribution      =   11631.79361508 Ry
     xc contribution           =    -584.23860103 Ry
     ewald contribution        =    9972.38447091 Ry
     Hubbard energy            =       2.02528615 Ry
     smearing contrib. (-TS)   =       0.00003100 Ry

     convergence has been achieved in  15 iterations

     Forces acting on atoms (Ry/au):

     negative rho (up, down):  0.314E+01 0.000E+00
     atom    1 type  1   force =    -0.00731128   -0.01254672   -0.00001221
     atom    2 type  1   force =     0.00011826    0.00352719   -0.00050266
     atom    3 type  2   force =     0.03081596    0.00561531    0.00007814
     atom    4 type  2   force =     0.00855881    0.00724127    0.00015182
     atom    5 type  1   force =    -0.00478063   -0.02011739   -0.00024723
     atom    6 type  1   force =     0.00563311    0.01959822   -0.00008696
     atom    7 type  1   force =    -0.00043744   -0.00417309   -0.00010084
     atom    8 type  1   force =    -0.00309777    0.00075057   -0.00002597
     atom    9 type  2   force =     0.00650402    0.00069748    0.00010096
     atom   10 type  2   force =    -0.00013112    0.00036295   -0.00004289
     atom   11 type  1   force =    -0.00210195    0.02084753    0.00012503
     atom   12 type  1   force =     0.00435001   -0.01563096    0.00016407
     atom   13 type  1   force =    -0.00078521   -0.00280785   -0.00017703
     atom   14 type  1   force =    -0.00665227   -0.01263918    0.00015935
     atom   15 type  1   force =     0.00007918    0.00365923   -0.00019051
     atom   16 type  2   force =    -0.03050684    0.00548751    0.00006235
     atom   17 type  2   force =     0.00838119    0.00775766    0.00012148
     atom   18 type  1   force =    -0.00389349   -0.02078740   -0.00023870
     atom   19 type  1   force =     0.00625194    0.01905132   -0.00008829
     atom   20 type  1   force =    -0.00031686   -0.00715298    0.00044307
     atom   21 type  1   force =    -0.00318376    0.00144726   -0.00012777
     atom   22 type  2   force =    -0.00419356    0.00024626    0.00015216
     atom   23 type  2   force =    -0.00044001    0.00354965   -0.00021945
     atom   24 type  1   force =     0.00172843    0.02062309    0.00015076
     atom   25 type  1   force =    -0.00347516   -0.01576799    0.00020825
     atom   26 type  1   force =    -0.00094457   -0.00985658    0.00043252
     atom   27 type  3   force =     0.00001158    0.00037372    0.00023847
     atom   28 type  3   force =     0.00002020    0.00032561    0.00055898
     atom   29 type  3   force =    -0.00007787    0.00014528    0.00021276
     atom   30 type  3   force =    -0.00024864    0.00023160    0.00007108
     atom   31 type  1   force =    -0.00016468   -0.00042840    0.00004366
     atom   32 type  1   force =     0.00028577    0.00081452   -0.00072854
     atom   33 type  3   force =     0.00000466   -0.00044469   -0.00068584

     Total force =     0.002024     Total SCF correction =     0.000171

     entering subroutine stress ...

     negative rho (up, down):  0.314E+01 0.000E+00
          total   stress  (Ry/bohr**3)                   (kbar)     P=  -15.60
  -0.00012809   0.00000796   0.00000376        -18.84      1.17      0.55
   0.00000796  -0.00014043   0.00000453          1.17    -20.66      0.67
   0.00000376   0.00000453  -0.00004965          0.55      0.67     -7.30

     bfgs converged in   9 scf cycles and   8 bfgs steps
     (criteria: energy < 0.10E-03, force < 0.10E-02)

     End of BFGS Geometry Optimization

     Final energy   =   -2137.3470988226 Ry
Begin final coordinates

ATOMIC_POSITIONS (crystal)
O0       0.000000000   0.000000000   0.378237191    0   0   1
O0       0.000000000   0.500000000   0.402898792    0   0   1
Ir1      0.250000000   0.500000000   0.452996158    0   0   1
Ir1      0.000000000   0.000000000   0.452841833    0   0   1
O0       0.250000000   0.810000000   0.452894328    0   0   1
O0       0.250000000   0.190000000   0.452395123    0   0   1
O0       0.000000000   0.500000000   0.499003017    0   0   1
O0       0.000000000   0.000000000   0.528228871    0   0   1
Ir1      0.250000000   0.000000000   0.574811030    0   0   1
Ir1      0.000000000   0.500000000   0.571706731    0   0   1
O0       0.250000000   0.690000000   0.573730016    0   0   1
O0       0.250000000   0.310000000   0.575951089    0   0   1
O0       0.000000000   0.000000000   0.619470724    0   0   1
O0       0.500000000   0.000000000   0.378048865    0   0   1
O0       0.500000000   0.500000000   0.402704515    0   0   1
Ir1      0.750000000   0.500000000   0.452992997    0   0   1
Ir1      0.500000000   0.000000000   0.452624290    0   0   1
O0       0.750000000   0.810000000   0.452888182    0   0   1
O0       0.750000000   0.190000000   0.452412433    0   0   1
O0       0.500000000   0.500000000   0.499971608    0   0   1
O0       0.500000000   0.000000000   0.528135798    0   0   1
Ir1      0.750000000   0.000000000   0.574812128    0   0   1
Ir1      0.500000000   0.500000000   0.577081702    0   0   1
O0       0.750000000   0.690000000   0.573737717    0   0   1
O0       0.750000000   0.310000000   0.575965195    0   0   1
O0       0.500000000   0.000000000   0.619014667    0   0   1
H2      -0.000105898   0.634319963   0.384461329
H2       0.499816748   0.635615060   0.384775810
H2       0.143061142   0.036109272   0.366695853
H2       0.643624206   0.034402451   0.366576447
O0       0.499408863   0.535985508   0.649524739
O0       0.500585889   0.345815128   0.678862726
H2       0.499996414   0.407956025   0.713118097
End final coordinates

     General routines

     Parallel routines
     Hubbard U routines

   This run was terminated on:  12:23: 7  30May2014

   JOB DONE.