     Program PWSCF v.5.0.2 (svn rev. 9656) starts on 17Sep2014 at 14:12:51

     Current dimensions of program PWSCF are:
     Max number of different atomic species (ntypx) = 10
     Max number of k-points (npk) =  40000
     Max angular momentum in pseudopotentials (lmaxx) =  3
     Reading input from pwscf.in
Warning: card &CELL ignored
Warning: card / ignored

     Subspace diagonalization in iterative solution of the eigenvalue problem:
     a serial algorithm will be used

     bravais-lattice index     =            0
     lattice parameter (alat)  =      10.7336  a.u.
     unit-cell volume          =    6184.1966 (a.u.)^3
     number of atoms/cell      =           33
     number of atomic types    =            3
     number of electrons       =       245.00 (up: 134.00, down: 111.00)
     number of Kohn-Sham states=          367
     kinetic-energy cutoff     =      40.0000  Ry
     charge density cutoff     =     500.0000  Ry
     convergence threshold     =      1.0E-06
     mixing beta               =       0.7000
     number of iterations used =            8  plain     mixing
     Exchange-correlation      = SLA  PW   PBE  PBE ( 1 4 3 4 0)
     EXX-fraction              =        0.00
     nstep                     =           50

     celldm(1)=  10.733644  celldm(2)=   0.000000  celldm(3)=   0.000000
     celldm(4)=   0.000000  celldm(5)=   0.000000  celldm(6)=   0.000000

     crystal axes: (cart. coord. in units of alat)
               a(1) = (   1.000000   0.000000   0.000000 )
               a(2) = (   0.000000   1.085558   0.000000 )
               a(3) = (   0.000000   0.000000   4.606685 )

     reciprocal axes: (cart. coord. in units 2 pi/alat)
               b(1) = (  1.000000  0.000000  0.000000 )
               b(2) = (  0.000000  0.921185  0.000000 )
               b(3) = (  0.000000  0.000000  0.217076 )

     PseudoPot. # 1 for O  read from file:
     /home-research/zhongnanxu/pseudopotentials/gbrv_espresso_pseudo_v1.01/o_pbe_v1.01.uspp.F.UPF
     MD5 check sum: 2bcb18d16ea4b960afae9ec6d52f22d2
     Pseudo is Ultrasoft + core correction, Zval =  6.0
     Generated by new atomic code, or converted to UPF format
     Using radial grid of  737 points,  5 beta functions with:
                l(1) =   0
                l(2) =   0
                l(3) =   1
                l(4) =   1
                l(5) =   2
     Q(r) pseudized with  8 coefficients,  rinner =    0.900   0.900   0.900
                                                       0.900   0.900

     PseudoPot. # 2 for Mn read from file:
     /home-research/zhongnanxu/pseudopotentials/gbrv_espresso_pseudo_v1.01/mn_pbe_v1.uspp.F.UPF
     MD5 check sum: 5fd7c7b5c956fd19902447332617373a
     Pseudo is Ultrasoft + core correction, Zval = 15.0
     Generated by new atomic code, or converted to UPF format
     Using radial grid of  859 points,  6 beta functions with:
                l(1) =   0
                l(2) =   0
                l(3) =   1
                l(4) =   1
                l(5) =   2
                l(6) =   2
     Q(r) pseudized with  6 coefficients,  rinner =    1.150   1.150   1.150
                                                       1.150   1.150

     PseudoPot. # 3 for H  read from file:
     /home-research/zhongnanxu/pseudopotentials/gbrv_espresso_pseudo_v1.01/h_pbe_v1.uspp.F.UPF
     MD5 check sum: 3408e3ff4ec8b0a4e358431e7e038a48
     Pseudo is Ultrasoft, Zval =  1.0
     Generated by new atomic code, or converted to UPF format
     Using radial grid of  615 points,  2 beta functions with:
                l(1) =   0
                l(2) =   0
     Q(r) pseudized with  8 coefficients,  rinner =    0.700

     atomic species   valence    mass     pseudopotential
        O0             6.00    15.99940     O ( 1.00)
        Mn1           15.00    54.93800     Mn( 1.00)
        H2             1.00     1.00794     H ( 1.00)

     Starting magnetic structure
     atomic species   magnetization
        O0           0.000
        Mn1          0.600
        H2           0.000

     Simplified LDA+U calculation (l_max = 2) with parameters (eV):
     atomic species    L          U    alpha       J0     beta
        Mn1            2     4.0000   0.0000   0.0000   0.0000

     No symmetry found

   Cartesian axes

     site n.     atom                  positions (alat units)
         1           O0  tau(   1) = (   0.0000000   0.0000000   1.7437224  )
         2           O0  tau(   2) = (   0.0000000   0.5427791   1.8429044  )
         3           Mn1 tau(   3) = (   0.2500000   0.5427791   2.0790891  )
         4           Mn1 tau(   4) = (   0.0000000   0.0000000   2.0720409  )
         5           O0  tau(   5) = (   0.2500000   0.8684466   2.0701982  )
         6           O0  tau(   6) = (   0.2500000   0.2171117   2.0775689  )
         7           O0  tau(   7) = (   0.0000000   0.5427791   2.2916415  )
         8           O0  tau(   8) = (   0.0000000   0.0000000   2.4165748  )
         9           Mn1 tau(   9) = (   0.2500000   0.0000000   2.6429013  )
        10           Mn1 tau(  10) = (   0.0000000   0.5427791   2.6202364  )
        11           O0  tau(  11) = (   0.2500000   0.7598908   2.6530821  )
        12           O0  tau(  12) = (   0.2500000   0.3256675   2.6691594  )
        13           O0  tau(  13) = (   0.0000000   0.0000000   2.8472538  )
        14           O0  tau(  14) = (   0.5000000   0.0000000   1.7445516  )
        15           O0  tau(  15) = (   0.5000000   0.5427791   1.8431808  )
        16           Mn1 tau(  16) = (   0.7500000   0.5427791   2.0791352  )
        17           Mn1 tau(  17) = (   0.5000000   0.0000000   2.0732386  )
        18           O0  tau(  18) = (   0.7500000   0.8684466   2.0702443  )
        19           O0  tau(  19) = (   0.7500000   0.2171117   2.0776150  )
        20           O0  tau(  20) = (   0.5000000   0.5427791   2.2991504  )
        21           O0  tau(  21) = (   0.5000000   0.0000000   2.4162063  )
        22           Mn1 tau(  22) = (   0.7500000   0.0000000   2.6429474  )
        23           Mn1 tau(  23) = (   0.5000000   0.5427791   2.6555697  )
        24           O0  tau(  24) = (   0.7500000   0.7598908   2.6530360  )
        25           O0  tau(  25) = (   0.7500000   0.3256675   2.6692055  )
        26           O0  tau(  26) = (   0.5000000   0.0000000   2.8451348  )
        27           H2  tau(  27) = (   0.0001200   0.7023996   1.7685525  )
        28           H2  tau(  28) = (   0.5001300   0.7024539   1.7688749  )
        29           H2  tau(  29) = (   0.1617300   0.0395469   1.6903309  )
        30           H2  tau(  30) = (   0.6616200   0.0396554   1.6909759  )
        31           O0  tau(  31) = (   0.4997000   0.5889697   2.9894622  )
        32           O0  tau(  32) = (   0.5006400   0.3801951   3.1245302  )
        33           H2  tau(  33) = (   0.4997200   0.4495948   3.2842900  )

     number of k points=    20  Methfessel-Paxton smearing, width (Ry)=  0.0100
                       cart. coord. in units 2pi/alat
        k(    1) = (   0.0000000   0.0000000   0.0000000), wk =   0.0625000
        k(    2) = (   0.0000000   0.2302962   0.0000000), wk =   0.1250000
        k(    3) = (   0.0000000  -0.4605925   0.0000000), wk =   0.0625000
        k(    4) = (   0.2500000   0.0000000   0.0000000), wk =   0.1250000
        k(    5) = (   0.2500000   0.2302962   0.0000000), wk =   0.1250000
        k(    6) = (   0.2500000  -0.4605925   0.0000000), wk =   0.1250000
        k(    7) = (  -0.5000000   0.0000000   0.0000000), wk =   0.0625000
        k(    8) = (  -0.5000000   0.2302962   0.0000000), wk =   0.1250000
        k(    9) = (  -0.5000000  -0.4605925   0.0000000), wk =   0.0625000
        k(   10) = (  -0.2500000   0.2302962   0.0000000), wk =   0.1250000
        k(   11) = (   0.0000000   0.0000000   0.0000000), wk =   0.0625000
        k(   12) = (   0.0000000   0.2302962   0.0000000), wk =   0.1250000
        k(   13) = (   0.0000000  -0.4605925   0.0000000), wk =   0.0625000
        k(   14) = (   0.2500000   0.0000000   0.0000000), wk =   0.1250000
        k(   15) = (   0.2500000   0.2302962   0.0000000), wk =   0.1250000
        k(   16) = (   0.2500000  -0.4605925   0.0000000), wk =   0.1250000
        k(   17) = (  -0.5000000   0.0000000   0.0000000), wk =   0.0625000
        k(   18) = (  -0.5000000   0.2302962   0.0000000), wk =   0.1250000
        k(   19) = (  -0.5000000  -0.4605925   0.0000000), wk =   0.0625000
        k(   20) = (  -0.2500000   0.2302962   0.0000000), wk =   0.1250000

     Largest allocated arrays     est. size (Mb)     dimensions
     Largest temporary arrays     est. size (Mb)     dimensions

     Check: negative/imaginary core charge=   -0.000022    0.000000

     Initial potential from superposition of free atoms
     Check: negative starting charge=(component1):   -0.000638
     Check: negative starting charge=(component2):   -0.000356

     starting charge  236.99986, renormalised to  245.00000

     negative rho (up, down):  0.660E-03 0.368E-03
     Number of +U iterations with fixed ns =  0
     Starting occupations:
 --- enter write_ns ---
 LDA+U parameters:
U( 2)     =  4.00000000
alpha( 2) =  0.00000000
atom    3   Tr[ns(na)] (up, down, total) =   5.00000  0.00000  5.00000
   spin  1
    eigenvalues:
  1.000  1.000  1.000  1.000  1.000
    eigenvectors:
  1.000  0.000  0.000  0.000  0.000
  0.000  1.000  0.000  0.000  0.000
  0.000  0.000  1.000  0.000  0.000
  0.000  0.000  0.000  1.000  0.000
  0.000  0.000  0.000  0.000  1.000
    occupations:
  1.000  0.000  0.000  0.000  0.000
  0.000  1.000  0.000  0.000  0.000
  0.000  0.000  1.000  0.000  0.000
  0.000  0.000  0.000  1.000  0.000
  0.000  0.000  0.000  0.000  1.000
   spin  2
    eigenvalues:
  0.000  0.000  0.000  0.000  0.000
    eigenvectors:
  1.000  0.000  0.000  0.000  0.000
  0.000  1.000  0.000  0.000  0.000
  0.000  0.000  1.000  0.000  0.000
  0.000  0.000  0.000  1.000  0.000
  0.000  0.000  0.000  0.000  1.000
    occupations:
  0.000  0.000  0.000  0.000  0.000
  0.000  0.000  0.000  0.000  0.000
  0.000  0.000  0.000  0.000  0.000
  0.000  0.000  0.000  0.000  0.000
  0.000  0.000  0.000  0.000  0.000
atomic mag. moment =     5.000000
atom    4   Tr[ns(na)] (up, down, total) =   5.00000  0.00000  5.00000
   spin  1
    eigenvalues:
  1.000  1.000  1.000  1.000  1.000
    eigenvectors:
  1.000  0.000  0.000  0.000  0.000
  0.000  1.000  0.000  0.000  0.000
  0.000  0.000  1.000  0.000  0.000
  0.000  0.000  0.000  1.000  0.000
  0.000  0.000  0.000  0.000  1.000
    occupations:
  1.000  0.000  0.000  0.000  0.000
  0.000  1.000  0.000  0.000  0.000
  0.000  0.000  1.000  0.000  0.000
  0.000  0.000  0.000  1.000  0.000
  0.000  0.000  0.000  0.000  1.000
   spin  2
    eigenvalues:
  0.000  0.000  0.000  0.000  0.000
    eigenvectors:
  1.000  0.000  0.000  0.000  0.000
  0.000  1.000  0.000  0.000  0.000
  0.000  0.000  1.000  0.000  0.000
  0.000  0.000  0.000  1.000  0.000
  0.000  0.000  0.000  0.000  1.000
    occupations:
  0.000  0.000  0.000  0.000  0.000
  0.000  0.000  0.000  0.000  0.000
  0.000  0.000  0.000  0.000  0.000
[...]
  0.000  0.010  0.002  0.000  0.122
atomic mag. moment =     3.260587
atom    4   Tr[ns(na)] (up, down, total) =   4.30901  1.10324  5.41225
   spin  1
    eigenvalues:
  0.626  0.679  0.995  1.004  1.004
    eigenvectors:
  0.000  0.998  0.000  0.001  0.000
  0.000  0.001  0.000  0.975  0.024
  0.000  0.000  0.000  0.024  0.976
  0.000  0.000  0.999  0.000  0.000
  1.000  0.000  0.000  0.000  0.000
    occupations:
  0.680 -0.010 -0.005  0.007  0.000
 -0.010  1.004  0.000  0.000  0.001
 -0.005  0.000  1.004  0.000  0.000
  0.007  0.000  0.000  0.995  0.000
  0.000  0.001  0.000  0.000  0.626
   spin  2
    eigenvalues:
  0.095  0.125  0.142  0.364  0.378
    eigenvectors:
  0.003  0.003  0.000  0.994  0.000
  0.001  0.842  0.154  0.003  0.000
  0.001  0.153  0.846  0.000  0.000
  0.995  0.002  0.000  0.003  0.000
  0.000  0.000  0.000  0.000  1.000
    occupations:
  0.363  0.012  0.005 -0.014  0.000
  0.012  0.128 -0.006  0.000 -0.003
  0.005 -0.006  0.139  0.001  0.000
 -0.014  0.000  0.001  0.096  0.000
  0.000 -0.003  0.000  0.000  0.378
atomic mag. moment =     3.205770
atom    9   Tr[ns(na)] (up, down, total) =   4.29307  1.15552  5.44859
   spin  1
    eigenvalues:
  0.666  0.673  0.974  0.982  0.998
    eigenvectors:
  0.212  0.006  0.000  0.000  0.782
  0.026  0.974  0.000  0.000  0.000
  0.000  0.000  0.064  0.936  0.000
  0.762  0.020  0.000  0.000  0.218
  0.000  0.000  0.936  0.064  0.000
    occupations:
  0.926  0.000  0.000 -0.137  0.000
  0.000  0.673  0.000  0.001  0.000
  0.000  0.000  0.982  0.000 -0.002
 -0.137  0.001  0.000  0.739  0.000
  0.000  0.000 -0.002  0.000  0.974
   spin  2
    eigenvalues:
  0.116  0.133  0.134  0.375  0.398
    eigenvectors:
  0.815  0.000  0.000  0.185  0.000
  0.000  0.000  0.000  0.001  0.999
  0.000  0.028  0.972  0.000  0.000
  0.185  0.000  0.000  0.815  0.000
  0.000  0.972  0.028  0.000  0.000
    occupations:
  0.164  0.000  0.001  0.101  0.000
  0.000  0.398  0.000  0.000  0.000
  0.001  0.000  0.134  0.001  0.000
  0.101  0.000  0.001  0.327  0.000
  0.000  0.000  0.000  0.000  0.133
atomic mag. moment =     3.137548
atom   10   Tr[ns(na)] (up, down, total) =   4.56350  0.77335  5.33686
   spin  1
    eigenvalues:
  0.642  0.934  0.992  0.997  0.999
    eigenvectors:
  0.000  0.952  0.000  0.048  0.000
  0.000  0.000  1.000  0.000  0.000
  0.000  0.000  0.000  0.000  1.000
  0.000  0.048  0.000  0.952  0.000
  1.000  0.000  0.000  0.000  0.000
    occupations:
  0.937  0.000  0.000  0.014  0.000
  0.000  0.992  0.000  0.000 -0.001
  0.000  0.000  0.999  0.000  0.000
  0.014  0.000  0.000  0.994  0.000
  0.000 -0.001  0.000  0.000  0.642
   spin  2
    eigenvalues:
  0.080  0.092  0.100  0.169  0.333
    eigenvectors:
  0.028  0.000  0.000  0.972  0.000
  0.000  0.000  1.000  0.000  0.000
  0.001  0.999  0.000  0.000  0.000
  0.971  0.001  0.000  0.028  0.000
  0.000  0.000  0.000  0.000  1.000
    occupations:
  0.166  0.000  0.000 -0.015  0.000
  0.000  0.100  0.000  0.000  0.001
  0.000  0.000  0.092  0.000  0.000
 -0.015  0.000  0.000  0.083  0.000
  0.000  0.001  0.000  0.000  0.333
atomic mag. moment =     3.790151
atom   16   Tr[ns(na)] (up, down, total) =   4.33768  1.07711  5.41479
   spin  1
    eigenvalues:
  0.652  0.686  0.998  0.998  1.005
    eigenvectors:
  0.251  0.000  0.091  0.645  0.012
  0.010  0.989  0.001  0.001  0.000
  0.000  0.000  0.001  0.013  0.985
  0.739  0.010  0.031  0.218  0.002
  0.000  0.001  0.876  0.123  0.000
    occupations:
  0.911 -0.011 -0.003 -0.150  0.000
 -0.011  0.686 -0.001  0.002 -0.008
 -0.003 -0.001  1.005 -0.004  0.000
 -0.150  0.002 -0.004  0.739  0.000
  0.000 -0.008  0.000  0.000  0.997
   spin  2
    eigenvalues:
  0.093  0.121  0.143  0.351  0.370
    eigenvectors:
  0.774  0.000  0.004  0.014  0.208
  0.000  0.002  0.000  0.948  0.050
  0.004  0.008  0.988  0.000  0.000
  0.222  0.000  0.000  0.036  0.742
  0.000  0.990  0.008  0.002  0.000
    occupations:
  0.154  0.001 -0.002  0.115  0.000
  0.001  0.351  0.000 -0.006  0.010
 -0.002  0.000  0.142  0.004 -0.002
  0.115 -0.006  0.004  0.308 -0.001
  0.000  0.010 -0.002 -0.001  0.122
atomic mag. moment =     3.260570
atom   17   Tr[ns(na)] (up, down, total) =   4.30996  1.10225  5.41221
   spin  1
    eigenvalues:
  0.626  0.679  0.995  1.005  1.005
    eigenvectors:
  0.000  0.998  0.000  0.000  0.001
  0.000  0.001  0.000  0.421  0.578
  0.000  0.000  0.000  0.579  0.421
  0.000  0.000  0.999  0.000  0.000
  1.000  0.000  0.000  0.000  0.000
    occupations:
  0.680 -0.010 -0.005  0.007  0.000
 -0.010  1.004  0.000  0.000  0.001
 -0.005  0.000  1.005  0.000  0.000
  0.007  0.000  0.000  0.995  0.000
  0.000  0.001  0.000  0.000  0.626
   spin  2
    eigenvalues:
  0.095  0.124  0.142  0.363  0.378
    eigenvectors:
  0.003  0.003  0.000  0.994  0.000
  0.001  0.833  0.162  0.003  0.000
  0.001  0.161  0.837  0.000  0.000
  0.995  0.002  0.000  0.003  0.000
  0.000  0.000  0.000  0.000  1.000
    occupations:
  0.362  0.012  0.005 -0.015  0.000
  0.012  0.128 -0.006  0.000 -0.003
  0.005 -0.006  0.139  0.001  0.000
 -0.015  0.000  0.001  0.095  0.000
  0.000 -0.003  0.000  0.000  0.378
atomic mag. moment =     3.207707
atom   22   Tr[ns(na)] (up, down, total) =   4.29314  1.15542  5.44855
   spin  1
    eigenvalues:
  0.666  0.673  0.974  0.982  0.998
    eigenvectors:
  0.218  0.000  0.000  0.000  0.782
  0.001  0.999  0.000  0.000  0.000
  0.000  0.000  0.063  0.937  0.000
  0.781  0.001  0.000  0.000  0.218
  0.000  0.000  0.937  0.063  0.000
    occupations:
  0.926  0.000  0.000 -0.137  0.000
  0.000  0.673  0.000  0.000  0.000
  0.000  0.000  0.982  0.000  0.002
 -0.137  0.000  0.000  0.739  0.000
  0.000  0.000  0.002  0.000  0.974
   spin  2
    eigenvalues:
  0.116  0.133  0.134  0.375  0.398
    eigenvectors:
  0.815  0.000  0.000  0.185  0.000
  0.000  0.000  0.000  0.001  0.999
  0.000  0.041  0.959  0.000  0.000
  0.185  0.000  0.000  0.814  0.001
  0.000  0.959  0.041  0.000  0.000
    occupations:
  0.164  0.000  0.001  0.101  0.000
  0.000  0.398  0.000 -0.001  0.000
  0.001  0.000  0.134  0.001  0.000
  0.101 -0.001  0.001  0.327  0.000
  0.000  0.000  0.000  0.000  0.133
atomic mag. moment =     3.137717
atom   23   Tr[ns(na)] (up, down, total) =   4.49974  0.84535  5.34509
   spin  1
    eigenvalues:
  0.657  0.846  0.998  0.998  1.000
    eigenvectors:
  0.000  0.991  0.009  0.000  0.000
  0.000  0.000  0.000  1.000  0.000
  0.000  0.000  0.000  0.000  0.999
  0.000  0.009  0.991  0.000  0.000
  1.000  0.000  0.000  0.000  0.000
    occupations:
  0.848  0.000  0.003  0.014  0.000
  0.000  0.998  0.000  0.000 -0.001
  0.003  0.000  1.000  0.000  0.000
  0.014  0.000  0.000  0.997  0.000
  0.000 -0.001  0.000  0.000  0.657
   spin  2
    eigenvalues:
  0.086  0.099  0.105  0.208  0.347
    eigenvectors:
  0.015  0.000  0.000  0.985  0.000
  0.000  0.000  1.000  0.000  0.000
  0.001  0.999  0.000  0.000  0.000
  0.984  0.001  0.000  0.015  0.000
  0.000  0.000  0.000  0.000  1.000
    occupations:
  0.206  0.000 -0.001 -0.015  0.000
  0.000  0.105  0.000  0.000  0.001
 -0.001  0.000  0.099  0.000  0.000
 -0.015  0.000  0.000  0.088  0.000
  0.000  0.001  0.000  0.000  0.347
atomic mag. moment =     3.654389
N of occupied +U levels =  43.2331730
 --- exit write_ns ---

 ------ SPIN UP ------------

[...]

 ------ SPIN DOWN ----------

[...]

          k = 0.2500-0.4606 0.0000 ( 26462 PWs)   bands (ev):

[...]

          k =-0.2500 0.2303 0.0000 ( 26396 PWs)   bands (ev):

   -79.5008 -79.4929 -79.3903 -79.3785 -79.3440 -79.3359 -78.8039 -78.4703
   -48.3805 -48.3644 -48.3424 -48.3306 -48.2844 -48.2573 -48.2296 -48.2168
   -48.2115 -48.1986 -48.1943 -48.1857 -48.1778 -48.1283 -48.0296 -48.0111
   -48.0060 -47.9954 -47.8570 -47.6934 -47.5830 -47.4196 -47.3097 -46.8757
   -26.0019 -20.7904 -20.3480 -20.1081 -19.8808 -19.4333 -19.3839 -19.3166
   -19.2515 -19.0626 -19.0399 -18.9715 -18.8554 -18.8127 -18.7769 -18.6920
   -18.6316 -18.5056 -18.3967 -17.8233  -9.9604  -8.1885  -8.0839  -7.9411
    -7.7679  -7.4748  -7.3904  -7.2883  -7.0146  -6.8077  -6.6718  -6.5298
    -6.4893  -6.3024  -6.2820  -6.1351  -6.0971  -5.9420  -5.9228  -5.8358
    -5.8046  -5.6249  -5.4946  -5.4354  -5.3821  -5.3045  -5.1781  -5.1525
    -4.8241  -4.8063  -4.7479  -4.6379  -4.4778  -4.4466  -4.3955  -4.2599
    -4.1732  -4.1112  -4.0823  -3.9478  -3.7956  -3.7352  -3.6140  -3.5385
    -3.4696  -3.3538  -3.2396  -3.2191  -3.0090  -2.9688  -2.9325  -2.8644
    -2.7734  -2.6946  -2.6112  -2.4652  -2.2540  -2.2158  -1.8714   1.2562
     1.2883   1.3079   1.3906   1.4197   1.5348   1.5451   1.6191   1.6403
     1.6552   1.7392   1.7790   1.8841   1.9910   2.0117   2.0825   2.1152
     2.1647   2.2526   2.3135   2.3994   2.4249   2.4795   2.5098   2.5540
     2.5949   2.6877   2.7754   2.8300   2.9186   3.0735   3.1078   3.1486
     3.2206   3.3093   3.4614   3.4929   3.5975   3.7758   3.8843   3.9537
     3.9767   4.3383   4.4617   4.8543   5.2081   5.5361   5.6962   6.0855
     6.2410   6.3731   6.5143   6.5895   6.8493   6.9865   7.1797   7.4921
     7.6066   7.7947   7.9741   8.1149   8.2653   8.3568   8.4838   8.7265
     8.7595   9.0038   9.1715   9.3117   9.4407   9.5677   9.6014   9.7519
     9.8562   9.9414  10.0335  10.1724  10.2217  10.4206  10.4768  10.5541
    10.6536  10.8270  10.9040  10.9398  11.1409  11.1855  11.3057  11.3550
    11.5097  11.5998  11.7533  11.8122  11.9433  12.0044  12.0922  12.1301
    12.1935  12.2994  12.3867  12.4372  12.5035  12.5752  12.6931  12.7528
    12.8932  12.9413  13.0299  13.1355  13.2057  13.2917  13.4090  13.4542
    13.5404  13.5836  13.6262  13.6786  13.9118  14.0278  14.0560  14.1244
    14.2514  14.3633  14.3892  14.4205  14.4415  14.5109  14.6175  14.7348
    14.8211  14.8570  14.9084  14.9658  15.1031  15.1389  15.2294  15.2564
    15.3041  15.3921  15.4832  15.5851  15.6701  15.7137  15.7667  15.8573
    15.9475  16.0378  16.1153  16.1647  16.2241  16.2938  16.3650  16.4506
    16.4891  16.5785  16.6768  16.7437  16.8335  16.9507  17.0097  17.0545
    17.1372  17.1864  17.2823  17.3729  17.3982  17.5320  17.5572  17.6390
    17.7082  17.7633  17.8383  17.9224  17.9875  18.0268  18.0628  18.1457
    18.2532  18.3013  18.3704  18.4299  18.5330  18.5998  18.7008  18.7373
    18.7810  18.8684  18.9689  19.0267  19.0924  19.1200  19.2291  19.2674
    19.3830  19.4720  19.5687  19.6161  19.6881  19.7461  19.7889  19.8870
    19.9928  20.0681  20.1144  20.2231  20.2918  20.3947  20.4209  20.5070
    20.5930  20.6700  20.7633  20.8108  20.9251  20.9779  21.0317  21.1455
    21.2170  21.2900  21.3538  21.4574  21.4888  21.5897  21.6597  21.7075
    21.9033  21.9468  21.9690  22.0434  22.1240  22.1759  22.2266  22.3248
    22.3492  22.4323  22.4977  22.5324  22.6578  22.6993  22.7812  22.9110
    22.9695  23.0359  23.1115  23.1799  23.3154  23.3524  23.4559  23.5034
    23.5802  23.6139  23.6525  23.7420  23.7903  23.8013  23.8748

     the spin up/dw Fermi energies are    -1.2972   -0.9613 ev

!    total energy              =   -2352.70962499 Ry
     Harris-Foulkes estimate   =   -2352.70962499 Ry
     estimated scf accuracy    <          1.1E-09 Ry

     The total energy is the sum of the following terms:

     one-electron contribution =  -26498.60933292 Ry
     hartree contribution      =   13277.88987273 Ry
     xc contribution           =    -356.47008263 Ry
     ewald contribution        =   11223.09744238 Ry
     Hubbard energy            =       1.38306108 Ry
     smearing contrib. (-TS)   =      -0.00058563 Ry

     total magnetization       =    23.00 Bohr mag/cell
     absolute magnetization    =    32.16 Bohr mag/cell

     convergence has been achieved in  16 iterations

     Forces acting on atoms (Ry/au):

     negative rho (up, down):  0.176E-02 0.129E-02
     atom    1 type  1   force =    -0.00521187   -0.01592684   -0.00002639
     atom    2 type  1   force =     0.00037782    0.01215343    0.00083686
     atom    3 type  2   force =    -0.00059924   -0.00149348    0.00001653
     atom    4 type  2   force =     0.00660230    0.01165143   -0.00022402
     atom    5 type  1   force =     0.00253377    0.01402799   -0.00052914
     atom    6 type  1   force =    -0.00157721   -0.01825498    0.00002472
     atom    7 type  1   force =     0.00002654   -0.00008011   -0.00029274
     atom    8 type  1   force =    -0.00133124   -0.00114649   -0.00045563
     atom    9 type  2   force =     0.00060670    0.00190001    0.00057141
     atom   10 type  2   force =    -0.00007541   -0.00282034    0.00034836
     atom   11 type  1   force =    -0.00385226   -0.03250958   -0.00011654
     atom   12 type  1   force =    -0.00259067    0.03434951   -0.00025340
     atom   13 type  1   force =    -0.00037830   -0.00084324    0.00052765
     atom   14 type  1   force =    -0.00518055   -0.01552065    0.00001983
     atom   15 type  1   force =     0.00041882    0.01108580    0.00019042
     atom   16 type  2   force =    -0.00065421   -0.00144069    0.00005771
     atom   17 type  2   force =     0.00646967    0.01150613   -0.00016778
     atom   18 type  1   force =     0.00161434    0.01402864   -0.00054673
     atom   19 type  1   force =    -0.00294156   -0.01826647   -0.00002044
     atom   20 type  1   force =     0.00003540    0.00056597   -0.00037583
     atom   21 type  1   force =    -0.00131416   -0.00107233   -0.00051699
     atom   22 type  2   force =     0.00080812    0.00194926    0.00057239
     atom   23 type  2   force =    -0.00002458   -0.00387504   -0.00010750
     atom   24 type  1   force =     0.00393415   -0.03248856   -0.00012012
     atom   25 type  1   force =     0.00264112    0.03437315   -0.00025773
     atom   26 type  1   force =    -0.00038864   -0.00185086    0.00017626
     atom   27 type  3   force =     0.00001655   -0.00030477    0.00044820
     atom   28 type  3   force =     0.00000770    0.00005191    0.00032345
     atom   29 type  3   force =     0.00001745   -0.00023771   -0.00017198
     atom   30 type  3   force =     0.00001268   -0.00033134   -0.00019669
     atom   31 type  1   force =    -0.00002622    0.00070024    0.00087673
     atom   32 type  1   force =     0.00003659   -0.00013820    0.00006781
     atom   33 type  3   force =    -0.00001360    0.00025822   -0.00067868

     Total force =     0.002409     Total SCF correction =     0.000100

     bfgs converged in  27 scf cycles and  26 bfgs steps
     (criteria: energy < 0.10E-03, force < 0.10E-02)

     End of BFGS Geometry Optimization

     Final energy   =   -2352.7096249936 Ry
Begin final coordinates

ATOMIC_POSITIONS (crystal)
O0       0.000000000   0.000000000   0.374854565    0   0   1
O0       0.000000000   0.500000000   0.394944857    0   0   1
Mn1      0.250000000   0.500000000   0.447281540    0   0   1
Mn1      0.000000000   0.000000000   0.447097858    0   0   1
O0       0.250000000   0.800000000   0.447077941    0   0   1
O0       0.250000000   0.200000000   0.448752665    0   0   1
O0       0.000000000   0.500000000   0.494255276    0   0   1
O0       0.000000000   0.000000000   0.524360072    0   0   1
Mn1      0.250000000   0.000000000   0.573092693    0   0   1
Mn1      0.000000000   0.500000000   0.570550621    0   0   1
O0       0.250000000   0.700000000   0.581383212    0   0   1
O0       0.250000000   0.300000000   0.582142565    0   0   1
O0       0.000000000   0.000000000   0.620382512    0   0   1
O0       0.500000000   0.000000000   0.374706555    0   0   1
O0       0.500000000   0.500000000   0.395036099    0   0   1
Mn1      0.750000000   0.500000000   0.447273434    0   0   1
Mn1      0.500000000   0.000000000   0.446880400    0   0   1
O0       0.750000000   0.800000000   0.447103017    0   0   1
O0       0.750000000   0.200000000   0.448743070    0   0   1
O0       0.500000000   0.500000000   0.496029409    0   0   1
O0       0.500000000   0.000000000   0.524321761    0   0   1
Mn1      0.750000000   0.000000000   0.573089291    0   0   1
Mn1      0.500000000   0.500000000   0.571732892    0   0   1
O0       0.750000000   0.700000000   0.581391616    0   0   1
O0       0.750000000   0.300000000   0.582142061    0   0   1
O0       0.500000000   0.000000000   0.620343754    0   0   1
H2       0.000428628   0.648080011   0.379324470
H2       0.500474744   0.647472367   0.379254125
H2       0.161748714   0.041262496   0.364198437
H2       0.661553013   0.042025179   0.364084546
O0       0.499700000   0.549369166   0.663715210    0   1   1
O0       0.500640000   0.369616784   0.693204951    0   1   1
H2       0.499720000   0.428718755   0.728578525    0   1   1
End final coordinates

     General routines

     Parallel routines
     Hubbard U routines

   This run was terminated on:  22:28:40  19Sep2014

   JOB DONE.