     Program PWSCF v.5.0.2 (svn rev. 9656) starts on  6Jun2014 at  0:42:52

     Current dimensions of program PWSCF are:
     Max number of different atomic species (ntypx) = 10
     Max number of k-points (npk) =  40000
     Max angular momentum in pseudopotentials (lmaxx) =  3
     Reading input from pwscf.in
Warning: card &CELL ignored
Warning: card / ignored

     Subspace diagonalization in iterative solution of the eigenvalue problem:
     a serial algorithm will be used

     bravais-lattice index     =            0
     lattice parameter (alat)  =      10.7336  a.u.
     unit-cell volume          =    6184.1966 (a.u.)^3
     number of atoms/cell      =           33
     number of atomic types    =            3
     number of electrons       =       245.00 (up: 134.00, down: 111.00)
     number of Kohn-Sham states=          355
     kinetic-energy cutoff     =      40.0000  Ry
     charge density cutoff     =     500.0000  Ry
     convergence threshold     =      1.0E-06
     mixing beta               =       0.7000
     number of iterations used =            8  plain     mixing
     Exchange-correlation      = SLA  PW   PBE  PBE ( 1 4 3 4 0)
     EXX-fraction              =        0.00
     nstep                     =           50

     celldm(1)=  10.733644  celldm(2)=   0.000000  celldm(3)=   0.000000
     celldm(4)=   0.000000  celldm(5)=   0.000000  celldm(6)=   0.000000

     crystal axes: (cart. coord. in units of alat)
               a(1) = (   1.000000   0.000000   0.000000 )
               a(2) = (   0.000000   1.085558   0.000000 )
               a(3) = (   0.000000   0.000000   4.606685 )

     reciprocal axes: (cart. coord. in units 2 pi/alat)
               b(1) = (  1.000000  0.000000  0.000000 )
               b(2) = (  0.000000  0.921185  0.000000 )
               b(3) = (  0.000000  0.000000  0.217076 )

     PseudoPot. # 1 for O  read from file:
     /home/camp/zhonxu/pseudo/o_pbe_v1.01.uspp.F.UPF
     MD5 check sum: 2bcb18d16ea4b960afae9ec6d52f22d2
     Pseudo is Ultrasoft + core correction, Zval =  6.0
     Generated by new atomic code, or converted to UPF format
     Using radial grid of  737 points,  5 beta functions with:
                l(1) =   0
                l(2) =   0
                l(3) =   1
                l(4) =   1
                l(5) =   2
     Q(r) pseudized with  8 coefficients,  rinner =    0.900   0.900   0.900
                                                       0.900   0.900

     PseudoPot. # 2 for Mn read from file:
     /home/camp/zhonxu/pseudo/mn_pbe_v1.uspp.F.UPF
     MD5 check sum: 5fd7c7b5c956fd19902447332617373a
     Pseudo is Ultrasoft + core correction, Zval = 15.0
     Generated by new atomic code, or converted to UPF format
     Using radial grid of  859 points,  6 beta functions with:
                l(1) =   0
                l(2) =   0
                l(3) =   1
                l(4) =   1
                l(5) =   2
                l(6) =   2
     Q(r) pseudized with  6 coefficients,  rinner =    1.150   1.150   1.150
                                                       1.150   1.150

     PseudoPot. # 3 for H  read from file:
     /home/camp/zhonxu/pseudo/h_pbe_v1.uspp.F.UPF
     MD5 check sum: 3408e3ff4ec8b0a4e358431e7e038a48
     Pseudo is Ultrasoft, Zval =  1.0
     Generated by new atomic code, or converted to UPF format
     Using radial grid of  615 points,  2 beta functions with:
                l(1) =   0
                l(2) =   0
     Q(r) pseudized with  8 coefficients,  rinner =    0.700

     atomic species   valence    mass     pseudopotential
        O0             6.00    15.99940     O ( 1.00)
        Mn1           15.00    54.93800     Mn( 1.00)
        H2             1.00     1.00794     H ( 1.00)

     Starting magnetic structure
     atomic species   magnetization
        O0           0.000
        Mn1          0.600
        H2           0.000

     Simplified LDA+U calculation (l_max = 2) with parameters (eV):
     atomic species    L          U    alpha       J0     beta
        Mn1            2     4.0000   0.0000   0.0000   0.0000

     No symmetry found

   Cartesian axes

     site n.     atom                  positions (alat units)
         1           O0  tau(   1) = (   0.0000000   0.0000000   1.7270462  )
         2           O0  tau(   2) = (   0.0000000   0.5427791   1.8203777  )
         3           Mn1 tau(   3) = (   0.2500000   0.5427791   2.0609388  )
         4           Mn1 tau(   4) = (   0.0000000   0.0000000   2.0598332  )
         5           O0  tau(   5) = (   0.2500000   0.8684466   2.0600635  )
         6           O0  tau(   6) = (   0.2500000   0.2171117   2.0672039  )
         7           O0  tau(   7) = (   0.0000000   0.5427791   2.2774069  )
         8           O0  tau(   8) = (   0.0000000   0.0000000   2.4155614  )
         9           Mn1 tau(   9) = (   0.2500000   0.0000000   2.6401373  )
        10           Mn1 tau(  10) = (   0.0000000   0.5427791   2.6291273  )
        11           O0  tau(  11) = (   0.2500000   0.7598908   2.6784188  )
        12           O0  tau(  12) = (   0.2500000   0.3256675   2.6818738  )
        13           O0  tau(  13) = (   0.0000000   0.0000000   2.8579413  )
        14           O0  tau(  14) = (   0.5000000   0.0000000   1.7261710  )
        15           O0  tau(  15) = (   0.5000000   0.5427791   1.8196867  )
        16           Mn1 tau(  16) = (   0.7500000   0.5427791   2.0609388  )
        17           Mn1 tau(  17) = (   0.5000000   0.0000000   2.0585894  )
        18           O0  tau(  18) = (   0.7500000   0.8684466   2.0601556  )
        19           O0  tau(  19) = (   0.7500000   0.2171117   2.0671578  )
        20           O0  tau(  20) = (   0.5000000   0.5427791   2.2858371  )
        21           O0  tau(  21) = (   0.5000000   0.0000000   2.4152850  )
        22           Mn1 tau(  22) = (   0.7500000   0.0000000   2.6400451  )
        23           Mn1 tau(  23) = (   0.5000000   0.5427791   2.6337800  )
        24           O0  tau(  24) = (   0.7500000   0.7598908   2.6785570  )
        25           O0  tau(  25) = (   0.7500000   0.3256675   2.6818278  )
        26           O0  tau(  26) = (   0.5000000   0.0000000   2.8576189  )
        27           H2  tau(  27) = (   0.0004100   0.7028230   1.7470853  )
        28           H2  tau(  28) = (   0.5004600   0.7027036   1.7464864  )
        29           H2  tau(  29) = (   0.1615300   0.0448336   1.6773862  )
        30           H2  tau(  30) = (   0.6613400   0.0458974   1.6768334  )
        31           O0  tau(  31) = (   0.4981300   0.5954179   3.0559367  )
        32           O0  tau(  32) = (   0.5046300   0.4006470   3.1922485  )
        33           H2  tau(  33) = (   0.4978700   0.4648795   3.3550487  )

     number of k points=    20  Methfessel-Paxton smearing, width (Ry)=  0.0100
                       cart. coord. in units 2pi/alat
        k(    1) = (   0.0000000   0.0000000   0.0000000), wk =   0.0625000
        k(    2) = (   0.0000000   0.2302962   0.0000000), wk =   0.1250000
        k(    3) = (   0.0000000  -0.4605925   0.0000000), wk =   0.0625000
        k(    4) = (   0.2500000   0.0000000   0.0000000), wk =   0.1250000
        k(    5) = (   0.2500000   0.2302962   0.0000000), wk =   0.1250000
        k(    6) = (   0.2500000  -0.4605925   0.0000000), wk =   0.1250000
        k(    7) = (  -0.5000000   0.0000000   0.0000000), wk =   0.0625000
        k(    8) = (  -0.5000000   0.2302962   0.0000000), wk =   0.1250000
        k(    9) = (  -0.5000000  -0.4605925   0.0000000), wk =   0.0625000
        k(   10) = (  -0.2500000   0.2302962   0.0000000), wk =   0.1250000
        k(   11) = (   0.0000000   0.0000000   0.0000000), wk =   0.0625000
        k(   12) = (   0.0000000   0.2302962   0.0000000), wk =   0.1250000
        k(   13) = (   0.0000000  -0.4605925   0.0000000), wk =   0.0625000
        k(   14) = (   0.2500000   0.0000000   0.0000000), wk =   0.1250000
        k(   15) = (   0.2500000   0.2302962   0.0000000), wk =   0.1250000
        k(   16) = (   0.2500000  -0.4605925   0.0000000), wk =   0.1250000
        k(   17) = (  -0.5000000   0.0000000   0.0000000), wk =   0.0625000
        k(   18) = (  -0.5000000   0.2302962   0.0000000), wk =   0.1250000
        k(   19) = (  -0.5000000  -0.4605925   0.0000000), wk =   0.0625000
        k(   20) = (  -0.2500000   0.2302962   0.0000000), wk =   0.1250000

     Largest allocated arrays     est. size (Mb)     dimensions
     Largest temporary arrays     est. size (Mb)     dimensions

     Check: negative/imaginary core charge=   -0.000023    0.000000

     Initial potential from superposition of free atoms
     Check: negative starting charge=(component1):   -0.000608
     Check: negative starting charge=(component2):   -0.000342

     starting charge  236.99986, renormalised to  245.00000

     negative rho (up, down):  0.629E-03 0.354E-03
     Number of +U iterations with fixed ns =  0
     Starting occupations:
 --- enter write_ns ---
 LDA+U parameters:
U( 2)     =  4.00000000
alpha( 2) =  0.00000000
atom    3   Tr[ns(na)] (up, down, total) =   5.00000  0.00000  5.00000
   spin  1
    eigenvalues:
  1.000  1.000  1.000  1.000  1.000
    eigenvectors:
  1.000  0.000  0.000  0.000  0.000
  0.000  1.000  0.000  0.000  0.000
  0.000  0.000  1.000  0.000  0.000
  0.000  0.000  0.000  1.000  0.000
  0.000  0.000  0.000  0.000  1.000
    occupations:
  1.000  0.000  0.000  0.000  0.000
  0.000  1.000  0.000  0.000  0.000
  0.000  0.000  1.000  0.000  0.000
  0.000  0.000  0.000  1.000  0.000
  0.000  0.000  0.000  0.000  1.000
   spin  2
    eigenvalues:
  0.000  0.000  0.000  0.000  0.000
    eigenvectors:
  1.000  0.000  0.000  0.000  0.000
  0.000  1.000  0.000  0.000  0.000
  0.000  0.000  1.000  0.000  0.000
  0.000  0.000  0.000  1.000  0.000
  0.000  0.000  0.000  0.000  1.000
    occupations:
  0.000  0.000  0.000  0.000  0.000
  0.000  0.000  0.000  0.000  0.000
  0.000  0.000  0.000  0.000  0.000
  0.000  0.000  0.000  0.000  0.000
  0.000  0.000  0.000  0.000  0.000
atomic mag. moment =     5.000000
atom    4   Tr[ns(na)] (up, down, total) =   5.00000  0.00000  5.00000
   spin  1
    eigenvalues:
  1.000  1.000  1.000  1.000  1.000
    eigenvectors:
  1.000  0.000  0.000  0.000  0.000
  0.000  1.000  0.000  0.000  0.000
  0.000  0.000  1.000  0.000  0.000
  0.000  0.000  0.000  1.000  0.000
  0.000  0.000  0.000  0.000  1.000
    occupations:
  1.000  0.000  0.000  0.000  0.000
  0.000  1.000  0.000  0.000  0.000
  0.000  0.000  1.000  0.000  0.000
  0.000  0.000  0.000  1.000  0.000
  0.000  0.000  0.000  0.000  1.000
   spin  2
    eigenvalues:
  0.000  0.000  0.000  0.000  0.000
    eigenvectors:
  1.000  0.000  0.000  0.000  0.000
  0.000  1.000  0.000  0.000  0.000
  0.000  0.000  1.000  0.000  0.000
  0.000  0.000  0.000  1.000  0.000
  0.000  0.000  0.000  0.000  1.000
    occupations:
  0.000  0.000  0.000  0.000  0.000
  0.000  0.000  0.000  0.000  0.000
  0.000  0.000  0.000  0.000  0.000
  0.000  0.000  0.000  0.000  0.000
  0.000  0.000  0.000  0.000  0.000
atomic mag. moment =     5.000000
[...]
  0.001  0.842  0.153  0.003  0.000
  0.001  0.153  0.846  0.000  0.000
  0.995  0.002  0.000  0.003  0.000
  0.000  0.000  0.000  0.000  1.000
    occupations:
  0.363  0.012  0.005 -0.014 -0.000
  0.012  0.128 -0.006  0.000 -0.003
  0.005 -0.006  0.139  0.001  0.000
 -0.014  0.000  0.001  0.096 -0.000
 -0.000 -0.003  0.000 -0.000  0.378
atomic mag. moment =     3.205345
atom    9   Tr[ns(na)] (up, down, total) =   4.29308  1.15549  5.44857
   spin  1
    eigenvalues:
  0.666  0.673  0.974  0.982  0.998
    eigenvectors:
  0.212  0.006  0.000  0.000  0.782
  0.027  0.973  0.000  0.000  0.000
  0.000  0.000  0.065  0.935  0.000
  0.761  0.021  0.000  0.000  0.218
  0.000  0.000  0.935  0.065  0.000
    occupations:
  0.926  0.000 -0.000 -0.137  0.000
  0.000  0.673 -0.000  0.001  0.000
 -0.000 -0.000  0.982 -0.000 -0.002
 -0.137  0.001 -0.000  0.739  0.000
  0.000  0.000 -0.002  0.000  0.974
   spin  2
    eigenvalues:
  0.116  0.133  0.134  0.375  0.398
    eigenvectors:
  0.815  0.000  0.000  0.185  0.000
  0.000  0.000  0.000  0.000  1.000
  0.000  0.017  0.983  0.000  0.000
  0.185  0.000  0.000  0.815  0.000
  0.000  0.983  0.017  0.000  0.000
    occupations:
  0.164  0.000  0.001  0.101 -0.000
  0.000  0.398 -0.000  0.000 -0.000
  0.001 -0.000  0.134  0.001  0.000
  0.101  0.000  0.001  0.327 -0.000
 -0.000 -0.000  0.000 -0.000  0.133
atomic mag. moment =     3.137590
atom   10   Tr[ns(na)] (up, down, total) =   4.56362  0.77337  5.33698
   spin  1
    eigenvalues:
  0.641  0.935  0.992  0.997  0.999
    eigenvectors:
  0.000  0.952  0.000  0.048  0.000
  0.000  0.000  1.000  0.000  0.000
  0.000  0.000  0.000  0.000  1.000
  0.000  0.048  0.000  0.952  0.000
  1.000  0.000  0.000  0.000  0.000
    occupations:
  0.938  0.000  0.000  0.013  0.000
  0.000  0.992  0.000 -0.000 -0.001
  0.000  0.000  0.999 -0.000 -0.000
  0.013 -0.000 -0.000  0.994 -0.000
  0.000 -0.001 -0.000 -0.000  0.641
   spin  2
    eigenvalues:
  0.081  0.092  0.100  0.169  0.333
    eigenvectors:
  0.028  0.000  0.000  0.972  0.000
  0.000  0.000  1.000  0.000  0.000
  0.001  0.999  0.000  0.000  0.000
  0.971  0.001  0.000  0.028  0.000
  0.000  0.000  0.000  0.000  1.000
    occupations:
  0.166  0.000 -0.000 -0.015 -0.000
  0.000  0.100 -0.000 -0.000  0.001
 -0.000 -0.000  0.092 -0.000  0.000
 -0.015 -0.000 -0.000  0.083  0.000
 -0.000  0.001  0.000  0.000  0.333
atomic mag. moment =     3.790248
atom   16   Tr[ns(na)] (up, down, total) =   4.33739  1.07736  5.41475
   spin  1
    eigenvalues:
  0.652  0.685  0.998  0.998  1.005
    eigenvectors:
  0.251  0.001  0.072  0.665  0.012
  0.013  0.985  0.001  0.001  0.000
  0.000  0.000  0.001  0.013  0.986
  0.736  0.013  0.024  0.224  0.002
  0.000  0.001  0.902  0.097  0.000
    occupations:
  0.911 -0.011 -0.003 -0.150 -0.000
 -0.011  0.685 -0.001  0.002 -0.008
 -0.003 -0.001  1.005 -0.004  0.000
 -0.150  0.002 -0.004  0.739  0.000
 -0.000 -0.008  0.000  0.000  0.997
   spin  2
    eigenvalues:
  0.093  0.121  0.143  0.351  0.370
    eigenvectors:
  0.774  0.000  0.004  0.013  0.209
  0.000  0.002  0.000  0.950  0.048
  0.004  0.008  0.988  0.000  0.000
  0.222  0.000  0.000  0.035  0.743
  0.000  0.990  0.008  0.002  0.000
    occupations:
  0.154  0.001 -0.002  0.115  0.000
  0.001  0.351  0.000 -0.005  0.010
 -0.002  0.000  0.143  0.004 -0.002
  0.115 -0.005  0.004  0.308 -0.001
  0.000  0.010 -0.002 -0.001  0.122
atomic mag. moment =     3.260029
atom   17   Tr[ns(na)] (up, down, total) =   4.30986  1.10233  5.41219
   spin  1
    eigenvalues:
  0.626  0.679  0.995  1.005  1.005
    eigenvectors:
  0.000  0.998  0.000  0.000  0.001
  0.000  0.001  0.000  0.350  0.649
  0.000  0.000  0.000  0.650  0.349
  0.000  0.000  0.999  0.000  0.000
  1.000  0.000  0.000  0.000  0.000
    occupations:
  0.680 -0.010 -0.005  0.007 -0.000
 -0.010  1.004 -0.000  0.000  0.001
 -0.005 -0.000  1.005  0.000  0.000
  0.007  0.000  0.000  0.995  0.000
 -0.000  0.001  0.000  0.000  0.626
   spin  2
    eigenvalues:
  0.095  0.124  0.142  0.363  0.378
    eigenvectors:
  0.003  0.003  0.000  0.994  0.000
  0.001  0.832  0.164  0.003  0.000
  0.001  0.163  0.836  0.000  0.000
  0.995  0.002  0.000  0.003  0.000
  0.000  0.000  0.000  0.000  1.000
    occupations:
  0.362  0.012  0.005 -0.015 -0.000
  0.012  0.128 -0.006  0.000 -0.003
  0.005 -0.006  0.139  0.001  0.000
 -0.015  0.000  0.001  0.095 -0.000
 -0.000 -0.003  0.000 -0.000  0.378
atomic mag. moment =     3.207524
atom   22   Tr[ns(na)] (up, down, total) =   4.29341  1.15493  5.44835
   spin  1
    eigenvalues:
  0.666  0.673  0.974  0.983  0.998
    eigenvectors:
  0.218  0.000  0.000  0.000  0.782
  0.002  0.998  0.000  0.000  0.000
  0.000  0.000  0.068  0.932  0.000
  0.780  0.002  0.000  0.000  0.218
  0.000  0.000  0.932  0.068  0.000
    occupations:
  0.926  0.000 -0.000 -0.137 -0.000
  0.000  0.673  0.000 -0.000  0.000
 -0.000  0.000  0.982 -0.000  0.002
 -0.137 -0.000 -0.000  0.739 -0.000
 -0.000  0.000  0.002 -0.000  0.974
   spin  2
    eigenvalues:
  0.116  0.133  0.134  0.375  0.398
    eigenvectors:
  0.815  0.000  0.000  0.185  0.000
  0.000  0.000  0.000  0.001  0.999
  0.000  0.026  0.974  0.000  0.000
  0.185  0.000  0.000  0.814  0.000
  0.000  0.974  0.026  0.000  0.000
    occupations:
  0.164 -0.000  0.001  0.101  0.000
 -0.000  0.398 -0.000 -0.000 -0.000
  0.001 -0.000  0.134  0.001 -0.000
  0.101 -0.000  0.001  0.327  0.000
  0.000 -0.000 -0.000  0.000  0.133
atomic mag. moment =     3.138484
atom   23   Tr[ns(na)] (up, down, total) =   4.49735  0.84848  5.34583
   spin  1
    eigenvalues:
  0.657  0.843  0.998  0.998  1.000
    eigenvectors:
  0.000  0.991  0.008  0.000  0.000
  0.000  0.000  0.005  0.995  0.000
  0.000  0.000  0.000  0.000  0.999
  0.000  0.008  0.986  0.005  0.000
  1.000  0.000  0.000  0.000  0.000
    occupations:
  0.844 -0.000  0.003  0.014 -0.000
 -0.000  0.998  0.000  0.000 -0.001
  0.003  0.000  1.000 -0.000  0.000
  0.014  0.000 -0.000  0.997 -0.000
 -0.000 -0.001  0.000 -0.000  0.657
   spin  2
    eigenvalues:
  0.086  0.100  0.106  0.210  0.347
    eigenvectors:
  0.015  0.000  0.000  0.985  0.000
  0.000  0.000  1.000  0.000  0.000
  0.000  0.999  0.000  0.000  0.000
  0.985  0.001  0.000  0.015  0.000
  0.000  0.000  0.000  0.000  1.000
    occupations:
  0.208  0.000 -0.001 -0.015  0.000
  0.000  0.106 -0.000  0.000  0.001
 -0.001 -0.000  0.100 -0.000  0.000
 -0.015  0.000 -0.000  0.088  0.000
  0.000  0.001  0.000  0.000  0.347
atomic mag. moment =     3.648865
N of occupied +U levels =  43.2337109
 --- exit write_ns ---

 ------ SPIN UP ------------

[...]

 ------ SPIN DOWN ----------

[...]

          k = 0.2500-0.4606 0.0000 ( 26462 PWs)   bands (ev):

[...]

          k =-0.2500 0.2303 0.0000 ( 26396 PWs)   bands (ev):

   -79.4990 -79.4911 -79.3852 -79.3730 -79.3388 -79.3301 -78.8152 -78.4673
   -48.3790 -48.3591 -48.3398 -48.3279 -48.2829 -48.2517 -48.2237 -48.2144
   -48.2069 -48.1967 -48.1890 -48.1811 -48.1723 -48.1224 -48.0242 -48.0055
   -48.0011 -47.9901 -47.8650 -47.7015 -47.5809 -47.4175 -47.3257 -46.8715
   -26.0022 -20.7916 -20.3448 -20.1044 -19.8761 -19.4298 -19.3803 -19.3128
   -19.2472 -19.0581 -19.0356 -18.9695 -18.8517 -18.8089 -18.7732 -18.6881
   -18.6246 -18.4981 -18.3888 -17.8279  -9.9625  -8.1956  -8.0931  -7.9403
    -7.7680  -7.4699  -7.3843  -7.2871  -7.0104  -6.8059  -6.6686  -6.5262
    -6.4857  -6.2977  -6.2793  -6.1319  -6.0934  -5.9397  -5.9213  -5.8360
    -5.8023  -5.6197  -5.4914  -5.4312  -5.3755  -5.3016  -5.1750  -5.1478
    -4.8202  -4.8026  -4.7442  -4.6344  -4.4727  -4.4434  -4.3918  -4.2579
    -4.1685  -4.1099  -4.0794  -3.9434  -3.7940  -3.7304  -3.6080  -3.5340
    -3.4632  -3.3485  -3.2403  -3.2162  -3.0052  -2.9642  -2.9244  -2.8643
    -2.7680  -2.6905  -2.6063  -2.4592  -2.2491  -2.2101  -1.8665   1.2576
     1.2916   1.3120   1.3931   1.4221   1.5364   1.5480   1.6224   1.6446
     1.6595   1.7423   1.7825   1.8880   1.9945   2.0126   2.0830   2.1174
     2.1672   2.2553   2.3153   2.4006   2.4285   2.4818   2.5119   2.5570
     2.5974   2.6898   2.7781   2.8318   2.9188   3.0737   3.1100   3.1484
     3.2241   3.3138   3.4666   3.4943   3.5990   3.7797   3.8874   3.9554
     3.9778   4.3329   4.4567   4.8530   5.2189   5.5306   5.6931   6.0826
     6.2402   6.3678   6.5127   6.5849   6.8477   6.9841   7.1794   7.4969
     7.6029   7.7932   7.9782   8.1170   8.2656   8.3582   8.4825   8.7285
     8.7686   9.0046   9.1764   9.3135   9.4395   9.5701   9.6008   9.7570
     9.8590   9.9438  10.0325  10.1756  10.2229  10.4211  10.4806  10.5523
    10.6545  10.8281  10.9057  10.9440  11.1412  11.1739  11.3109  11.3583
    11.5107  11.6008  11.7483  11.8149  11.9449  12.0061  12.0940  12.1340
    12.1932  12.3019  12.3915  12.4391  12.5040  12.5772  12.6969  12.7579
    12.8913  12.9449  13.0309  13.1414  13.2081  13.2918  13.4141  13.4578
    13.5402  13.5879  13.6277  13.6818  13.9157  14.0304  14.0612  14.1294
    14.2536  14.3604  14.3926  14.4221  14.4487  14.5135  14.6200  14.7359
    14.8210  14.8610  14.9104  14.9681  15.1063  15.1434  15.2324  15.2575
    15.3023  15.3956  15.4832  15.5856  15.6714  15.7162  15.7651  15.8572
    15.9516  16.0391  16.1163  16.1693  16.2252  16.2950  16.3656  16.4501
    16.4920  16.5789  16.6794  16.7436  16.8360  16.9487  17.0076  17.0520
    17.1391  17.1874  17.2783  17.3728  17.3981  17.5330  17.5580  17.6373
    17.7087  17.7641  17.8380  17.9256  17.9898  18.0269  18.0653  18.1445
    18.2526  18.3021  18.3716  18.4272  18.5321  18.6004  18.7030  18.7358
    18.7805  18.8682  18.9676  19.0278  19.0953  19.1192  19.2286  19.2654
    19.3868  19.4665  19.5697  19.6129  19.6888  19.7424  19.7927  19.8836
    19.9934  20.0685  20.1141  20.2289  20.2903  20.3921  20.4252  20.5064
    20.5914  20.6689  20.7614  20.8130  20.9263  20.9779  21.0323  21.1497
    21.2151  21.2852  21.3539  21.4557  21.4899  21.5883  21.6624  21.7102
    21.9019  21.9463  21.9648  22.0418  22.1234  22.1745  22.2260  22.3247
    22.3510  22.4360  22.5012  22.5316  22.6639  22.6997  22.7788  22.9091
    22.9703  23.0384  23.1159

     the spin up/dw Fermi energies are    -1.2920    0.1204 ev

!    total energy              =   -2352.70961148 Ry
     Harris-Foulkes estimate   =   -2352.70961148 Ry
     estimated scf accuracy    <          3.8E-09 Ry

     The total energy is the sum of the following terms:

     one-electron contribution =  -26505.27537673 Ry
     hartree contribution      =   13281.25087991 Ry
     xc contribution           =    -356.47009998 Ry
     ewald contribution        =   11226.40195967 Ry
     Hubbard energy            =       1.38358832 Ry
     smearing contrib. (-TS)   =      -0.00056267 Ry

     total magnetization       =    23.00 Bohr mag/cell
     absolute magnetization    =    32.14 Bohr mag/cell

     convergence has been achieved in  13 iterations

     Forces acting on atoms (Ry/au):

     negative rho (up, down):  0.176E-02 0.129E-02
     atom    1 type  1   force =    -0.00553950   -0.01605823   -0.00036487
     atom    2 type  1   force =     0.00034523    0.01113479   -0.00025954
     atom    3 type  2   force =    -0.00041765   -0.00122920   -0.00006220
     atom    4 type  2   force =     0.00670583    0.01162343   -0.00017700
     atom    5 type  1   force =     0.00260562    0.01399570   -0.00064308
     atom    6 type  1   force =    -0.00151771   -0.01810419    0.00007293
     atom    7 type  1   force =     0.00002737   -0.00021309   -0.00026082
     atom    8 type  1   force =    -0.00129684   -0.00111498    0.00013671
     atom    9 type  2   force =     0.00062191    0.00181667    0.00013000
     atom   10 type  2   force =    -0.00021188   -0.00276738   -0.00030993
     atom   11 type  1   force =    -0.00355563   -0.03264841   -0.00008138
     atom   12 type  1   force =    -0.00239048    0.03434752   -0.00018358
     atom   13 type  1   force =    -0.00037677   -0.00079523    0.00031452
     atom   14 type  1   force =    -0.00551126   -0.01564681   -0.00012804
     atom   15 type  1   force =     0.00044442    0.01090073    0.00067878
     atom   16 type  2   force =    -0.00084702   -0.00115503   -0.00007799
     atom   17 type  2   force =     0.00657778    0.01148058   -0.00003182
     atom   18 type  1   force =     0.00153624    0.01400236   -0.00065466
     atom   19 type  1   force =    -0.00301834   -0.01813888   -0.00000196
     atom   20 type  1   force =     0.00005215    0.00047877   -0.00064223
     atom   21 type  1   force =    -0.00136158   -0.00103346    0.00017956
     atom   22 type  2   force =     0.00091780    0.00196201    0.00015355
     atom   23 type  2   force =     0.00009663   -0.00396192    0.00007966
     atom   24 type  1   force =     0.00366692   -0.03242028   -0.00009349
     atom   25 type  1   force =     0.00231475    0.03436641   -0.00015965
     atom   26 type  1   force =    -0.00036686   -0.00189372    0.00034963
     atom   27 type  3   force =     0.00001412    0.00049425    0.00069064
     atom   28 type  3   force =     0.00002549    0.00008156    0.00078204
     atom   29 type  3   force =     0.00025834   -0.00020104    0.00015797
     atom   30 type  3   force =     0.00025395   -0.00033802    0.00007186
     atom   31 type  1   force =    -0.00020868    0.00084726    0.00073056
     atom   32 type  1   force =     0.00018334    0.00012390   -0.00018288
     atom   33 type  3   force =    -0.00002771    0.00006393   -0.00021330

     Total force =     0.002371     Total SCF correction =     0.000294
     SCF correction compared to forces is large: reduce conv_thr to get better values

     entering subroutine stress ...

     negative rho (up, down):  0.176E-02 0.129E-02
          total   stress  (Ry/bohr**3)                   (kbar)     P=   21.40
   0.00023718  -0.00000318   0.00000439         34.89     -0.47      0.65
  -0.00000318   0.00025211   0.00000711         -0.47     37.09      1.05
   0.00000439   0.00000711  -0.00005284          0.65      1.05     -7.77

     bfgs converged in   3 scf cycles and   2 bfgs steps
     (criteria: energy < 0.10E-03, force < 0.10E-02)

     End of BFGS Geometry Optimization

     Final energy   =   -2352.7096114783 Ry
Begin final coordinates

ATOMIC_POSITIONS (crystal)
O0       0.000000000   0.000000000   0.374882419    0   0   1
O0       0.000000000   0.500000000   0.395146186    0   0   1
Mn1      0.250000000   0.500000000   0.447373456    0   0   1
Mn1      0.000000000   0.000000000   0.447118084    0   0   1
O0       0.250000000   0.800000000   0.447159860    0   0   1
O0       0.250000000   0.200000000   0.448744439    0   0   1
O0       0.000000000   0.500000000   0.494350954    0   0   1
O0       0.000000000   0.000000000   0.524353369    0   0   1
Mn1      0.250000000   0.000000000   0.573123989    0   0   1
Mn1      0.000000000   0.500000000   0.570706311    0   0   1
O0       0.250000000   0.700000000   0.581416449    0   0   1
O0       0.250000000   0.300000000   0.582158834    0   0   1
O0       0.000000000   0.000000000   0.620412537    0   0   1
O0       0.500000000   0.000000000   0.374699620    0   0   1
O0       0.500000000   0.500000000   0.395059615    0   0   1
Mn1      0.750000000   0.500000000   0.447371899    0   0   1
Mn1      0.500000000   0.000000000   0.446869914    0   0   1
O0       0.750000000   0.800000000   0.447179281    0   0   1
O0       0.750000000   0.200000000   0.448730309    0   0   1
O0       0.500000000   0.500000000   0.496142083    0   0   1
O0       0.500000000   0.000000000   0.524299610    0   0   1
Mn1      0.750000000   0.000000000   0.573106230    0   0   1
Mn1      0.500000000   0.500000000   0.571738077    0   0   1
O0       0.750000000   0.700000000   0.581445507    0   0   1
O0       0.750000000   0.300000000   0.582149830    0   0   1
O0       0.500000000   0.000000000   0.620342950    0   0   1
H2       0.000412566   0.647532376   0.379289255
H2       0.500466401   0.647257276   0.379170030
H2       0.161591525   0.041260483   0.364133053
H2       0.661373941   0.042203261   0.364009230
O0       0.498082543   0.548668420   0.663431492
O0       0.504671315   0.369031071   0.692949889
H2       0.497863035   0.428317422   0.728265239
End final coordinates

     General routines

     Parallel routines
     Hubbard U routines

   This run was terminated on:   5:52:14   6Jun2014

   JOB DONE.
Running PBS batch system epilogue script
Job id: 381434.audhumbla.fysik.dtu.dk
Username: zhonxu
Groupname: campgst
Jobname: MnO2/Eads-2-layers/OOH-U-4.0
Sessionid: 19752
Queuename: verylong
Accounting:
This job has allocated the following 16 nodes:
b090 b090 b090 b090 b090 b090 b090 b090 b020 b020 b020 b020 b020 b020 b020 b020
Finished epilogue job 381434.audhumbla.fysik.dtu.dk for zhonxu