     Program PWSCF v.5.0.2 (svn rev. 9656) starts on  5May2014 at 19: 4:15

     Current dimensions of program PWSCF are:
     Max number of different atomic species (ntypx) = 10
     Max number of k-points (npk) =  40000
     Max angular momentum in pseudopotentials (lmaxx) =  3
     Reading input from pwscf.in
Warning: card &CELL ignored
Warning: card / ignored

     Subspace diagonalization in iterative solution of the eigenvalue problem:
     a serial algorithm will be used

     Found symmetry operation: I + ( -0.5000  0.0000  0.0000)
     This is a supercell, fractional translations are disabled

     bravais-lattice index     =            0
     lattice parameter (alat)  =      10.3179  a.u.
     unit-cell volume          =    6964.3238 (a.u.)^3
     number of atoms/cell      =           30
     number of atomic types    =            3
     number of electrons       =       224.00
     number of Kohn-Sham states=          336
     kinetic-energy cutoff     =      40.0000  Ry
     charge density cutoff     =     500.0000  Ry
     convergence threshold     =      1.0E-06
     mixing beta               =       0.7000
     number of iterations used =            8  plain     mixing
     Exchange-correlation      = SLA  PW   PBE  PBE ( 1 4 3 4 0)
     EXX-fraction              =        0.00
     nstep                     =           50

     celldm(1)=  10.317905  celldm(2)=   0.000000  celldm(3)=   0.000000
     celldm(4)=   0.000000  celldm(5)=   0.000000  celldm(6)=   0.000000

     crystal axes: (cart. coord. in units of alat)
               a(1) = (   1.000000   0.000000   0.000000 )
               a(2) = (   0.000000   1.282117   0.000000 )
               a(3) = (   0.000000   0.000000   4.945120 )

     reciprocal axes: (cart. coord. in units 2 pi/alat)
               b(1) = (  1.000000  0.000000  0.000000 )
               b(2) = (  0.000000  0.779960  0.000000 )
               b(3) = (  0.000000  0.000000  0.202220 )

     PseudoPot. # 1 for O  read from file:
     /home/camp/zhonxu/pseudo/o_pbe_v1.01.uspp.F.UPF
     MD5 check sum: 2bcb18d16ea4b960afae9ec6d52f22d2
     Pseudo is Ultrasoft + core correction, Zval =  6.0
     Generated by new atomic code, or converted to UPF format
     Using radial grid of  737 points,  5 beta functions with:
                l(1) =   0
                l(2) =   0
                l(3) =   1
                l(4) =   1
                l(5) =   2
     Q(r) pseudized with  8 coefficients,  rinner =    0.900   0.900   0.900
                                                       0.900   0.900

     PseudoPot. # 2 for Mo read from file:
     /home/camp/zhonxu/pseudo/mo_pbe_v1.uspp.F.UPF
     MD5 check sum: 30c4dcd161f5d35cd49bb5239c51a633
     Pseudo is Ultrasoft + core correction, Zval = 14.0
     Generated by new atomic code, or converted to UPF format
     Using radial grid of  889 points,  6 beta functions with:
                l(1) =   0
                l(2) =   0
                l(3) =   1
                l(4) =   1
                l(5) =   2
                l(6) =   2
     Q(r) pseudized with  6 coefficients,  rinner =    1.000   1.000   1.000
                                                       1.000   1.000

     PseudoPot. # 3 for H  read from file:
     /home/camp/zhonxu/pseudo/h_pbe_v1.uspp.F.UPF
     MD5 check sum: 3408e3ff4ec8b0a4e358431e7e038a48
     Pseudo is Ultrasoft, Zval =  1.0
     Generated by new atomic code, or converted to UPF format
     Using radial grid of  615 points,  2 beta functions with:
                l(1) =   0
                l(2) =   0
     Q(r) pseudized with  8 coefficients,  rinner =    0.700

     atomic species   valence    mass     pseudopotential
        O0             6.00    15.99940     O ( 1.00)
        Mo1           14.00    95.94000     Mo( 1.00)
        H2             1.00     1.00794     H ( 1.00)

     Simplified LDA+U calculation (l_max = 2) with parameters (eV):
     atomic species    L          U    alpha       J0     beta
        Mo1            2     5.5000   0.0000   0.0000   0.0000

     No symmetry found

   Cartesian axes

     site n.     atom                  positions (alat units)
         1           O0  tau(   1) = (   0.0000000   0.0000000   1.8465574  )
         2           O0  tau(   2) = (   0.0000000   0.6410583   1.8808271  )
         3           Mo1 tau(   3) = (   0.2500000   0.6410583   2.1650231  )
         4           Mo1 tau(   4) = (   0.0000000   0.0000000   2.2064633  )
         5           O0  tau(   5) = (   0.2500000   1.0000510   2.1927158  )
         6           O0  tau(   6) = (   0.2500000   0.2820657   2.1921224  )
         7           O0  tau(   7) = (   0.0000000   0.6410583   2.4520379  )
         8           O0  tau(   8) = (   0.0000000   0.0000000   2.5658746  )
         9           Mo1 tau(   9) = (   0.2500000   0.0000000   2.8596642  )
        10           Mo1 tau(  10) = (   0.0000000   0.6410583   2.7884050  )
        11           O0  tau(  11) = (   0.2500000   0.9231240   2.8369661  )
        12           O0  tau(  12) = (   0.2500000   0.3589927   2.8372628  )
        13           O0  tau(  13) = (   0.0000000   0.0000000   3.1104807  )
        14           O0  tau(  14) = (   0.5000000   0.0000000   1.8465574  )
        15           O0  tau(  15) = (   0.5000000   0.6410583   1.8808271  )
        16           Mo1 tau(  16) = (   0.7500000   0.6410583   2.1650231  )
        17           Mo1 tau(  17) = (   0.5000000   0.0000000   2.2064633  )
        18           O0  tau(  18) = (   0.7500000   1.0000510   2.1927158  )
        19           O0  tau(  19) = (   0.7500000   0.2820657   2.1921224  )
        20           O0  tau(  20) = (   0.5000000   0.6410583   2.4520379  )
        21           O0  tau(  21) = (   0.5000000   0.0000000   2.5658746  )
        22           Mo1 tau(  22) = (   0.7500000   0.0000000   2.8596642  )
        23           Mo1 tau(  23) = (   0.5000000   0.6410583   2.7884050  )
        24           O0  tau(  24) = (   0.7500000   0.9231240   2.8369661  )
        25           O0  tau(  25) = (   0.7500000   0.3589927   2.8372628  )
        26           O0  tau(  26) = (   0.5000000   0.0000000   3.1104807  )
        27           H2  tau(  27) = (  -0.0004900   0.7868222   1.7746059  )
        28           H2  tau(  28) = (   0.4995100   0.7868222   1.7746059  )
        29           H2  tau(  29) = (   0.1657500   0.0265270   1.7749026  )
        30           H2  tau(  30) = (   0.6657500   0.0265270   1.7749026  )

     number of k points=    10  Methfessel-Paxton smearing, width (Ry)=  0.0100
                       cart. coord. in units 2pi/alat
        k(    1) = (   0.0000000   0.0000000   0.0000000), wk =   0.1250000
        k(    2) = (   0.0000000   0.1949901   0.0000000), wk =   0.2500000
        k(    3) = (   0.0000000  -0.3899801   0.0000000), wk =   0.1250000
        k(    4) = (   0.2500000   0.0000000   0.0000000), wk =   0.2500000
        k(    5) = (   0.2500000   0.1949901   0.0000000), wk =   0.2500000
        k(    6) = (   0.2500000  -0.3899801   0.0000000), wk =   0.2500000
        k(    7) = (  -0.5000000   0.0000000   0.0000000), wk =   0.1250000
        k(    8) = (  -0.5000000   0.1949901   0.0000000), wk =   0.2500000
        k(    9) = (  -0.5000000  -0.3899801   0.0000000), wk =   0.1250000
        k(   10) = (  -0.2500000   0.1949901   0.0000000), wk =   0.2500000

     Largest allocated arrays     est. size (Mb)     dimensions
     Largest temporary arrays     est. size (Mb)     dimensions

     Check: negative/imaginary core charge=   -0.000003    0.000000

     Initial potential from superposition of free atoms
     Check: negative starting charge=   -0.002478

     starting charge  223.99143, renormalised to  224.00000

     negative rho (up, down):  0.248E-02 0.000E+00
     Number of +U iterations with fixed ns =  0
     Starting occupations:
 --- enter write_ns ---
 LDA+U parameters:
U( 2)     =  5.50000000
alpha( 2) =  0.00000000
atom    3   Tr[ns(na)] =   5.00000
    eigenvalues:
  0.500  0.500  0.500  0.500  0.500
    eigenvectors:
  1.000  0.000  0.000  0.000  0.000
  0.000  1.000  0.000  0.000  0.000
  0.000  0.000  1.000  0.000  0.000
  0.000  0.000  0.000  1.000  0.000
  0.000  0.000  0.000  0.000  1.000
    occupations:
  0.500  0.000  0.000  0.000  0.000
  0.000  0.500  0.000  0.000  0.000
  0.000  0.000  0.500  0.000  0.000
  0.000  0.000  0.000  0.500  0.000
  0.000  0.000  0.000  0.000  0.500
atom    4   Tr[ns(na)] =   5.00000
    eigenvalues:
  0.500  0.500  0.500  0.500  0.500
    eigenvectors:
  1.000  0.000  0.000  0.000  0.000
  0.000  1.000  0.000  0.000  0.000
  0.000  0.000  1.000  0.000  0.000
  0.000  0.000  0.000  1.000  0.000
  0.000  0.000  0.000  0.000  1.000
    occupations:
  0.500  0.000  0.000  0.000  0.000
  0.000  0.500  0.000  0.000  0.000
  0.000  0.000  0.500  0.000  0.000
  0.000  0.000  0.000  0.500  0.000
  0.000  0.000  0.000  0.000  0.500
atom    9   Tr[ns(na)] =   5.00000
    eigenvalues:
  0.500  0.500  0.500  0.500  0.500
    eigenvectors:
  1.000  0.000  0.000  0.000  0.000
  0.000  1.000  0.000  0.000  0.000
  0.000  0.000  1.000  0.000  0.000
  0.000  0.000  0.000  1.000  0.000
  0.000  0.000  0.000  0.000  1.000
    occupations:
  0.500  0.000  0.000  0.000  0.000
  0.000  0.500  0.000  0.000  0.000
  0.000  0.000  0.500  0.000  0.000
  0.000  0.000  0.000  0.500  0.000
  0.000  0.000  0.000  0.000  0.500
atom   10   Tr[ns(na)] =   5.00000
    eigenvalues:
  0.500  0.500  0.500  0.500  0.500
    eigenvectors:
  1.000  0.000  0.000  0.000  0.000
  0.000  1.000  0.000  0.000  0.000
  0.000  0.000  1.000  0.000  0.000
  0.000  0.000  0.000  1.000  0.000
  0.000  0.000  0.000  0.000  1.000
    occupations:
  0.500  0.000  0.000  0.000  0.000
  0.000  0.500  0.000  0.000  0.000
  0.000  0.000  0.500  0.000  0.000
  0.000  0.000  0.000  0.500  0.000
  0.000  0.000  0.000  0.000  0.500
atom   16   Tr[ns(na)] =   5.00000
    eigenvalues:
  0.500  0.500  0.500  0.500  0.500
    eigenvectors:
  1.000  0.000  0.000  0.000  0.000
  0.000  1.000  0.000  0.000  0.000
  0.000  0.000  1.000  0.000  0.000
  0.000  0.000  0.000  1.000  0.000
  0.000  0.000  0.000  0.000  1.000
    occupations:
  0.500  0.000  0.000  0.000  0.000
  0.000  0.500  0.000  0.000  0.000
  0.000  0.000  0.500  0.000  0.000
  0.000  0.000  0.000  0.500  0.000
  0.000  0.000  0.000  0.000  0.500
atom   17   Tr[ns(na)] =   5.00000
    eigenvalues:
  0.500  0.500  0.500  0.500  0.500
    eigenvectors:
  1.000  0.000  0.000  0.000  0.000
  0.000  1.000  0.000  0.000  0.000
  0.000  0.000  1.000  0.000  0.000
  0.000  0.000  0.000  1.000  0.000
  0.000  0.000  0.000  0.000  1.000
    occupations:
  0.500  0.000  0.000  0.000  0.000
  0.000  0.500  0.000  0.000  0.000
  0.000  0.000  0.500  0.000  0.000
  0.000  0.000  0.000  0.500  0.000
  0.000  0.000  0.000  0.000  0.500
atom   22   Tr[ns(na)] =   5.00000
    eigenvalues:
  0.500  0.500  0.500  0.500  0.500
    eigenvectors:
  1.000  0.000  0.000  0.000  0.000
  0.000  1.000  0.000  0.000  0.000
  0.000  0.000  1.000  0.000  0.000
  0.000  0.000  0.000  1.000  0.000
  0.000  0.000  0.000  0.000  1.000
    occupations:
[...]
  0.000  1.000  0.000  0.000  0.000
    occupations:
  0.587  0.005  0.002  0.002  0.000
  0.005  0.657  0.004 -0.003 -0.000
  0.002  0.004  0.383 -0.002  0.000
  0.002 -0.003 -0.002  0.762 -0.000
  0.000 -0.000  0.000 -0.000  0.523
atom    9   Tr[ns(na)] =   5.84098
    eigenvalues:
  0.476  0.494  0.595  0.601  0.753
    eigenvectors:
  0.000  0.000  0.218  0.000  0.782
  0.000  0.000  0.000  0.999  0.000
  0.000  1.000  0.000  0.000  0.000
  0.000  0.000  0.781  0.000  0.218
  1.000  0.000  0.000  0.000  0.000
    occupations:
  0.719  0.000  0.002 -0.065 -0.002
  0.000  0.601 -0.000  0.000 -0.001
  0.002 -0.000  0.494 -0.001  0.000
 -0.065  0.000 -0.001  0.630  0.001
 -0.002 -0.001  0.000  0.001  0.476
atom   10   Tr[ns(na)] =   5.78546
    eigenvalues:
  0.410  0.492  0.496  0.718  0.775
    eigenvectors:
  0.002  0.997  0.000  0.000  0.001
  0.000  0.000  0.000  1.000  0.000
  0.998  0.002  0.000  0.000  0.000
  0.000  0.001  0.000  0.000  0.999
  0.000  0.000  1.000  0.000  0.000
    occupations:
  0.492  0.000 -0.004 -0.007 -0.000
  0.000  0.718 -0.001 -0.000  0.000
 -0.004 -0.001  0.411  0.000  0.000
 -0.007 -0.000  0.000  0.775  0.000
 -0.000  0.000  0.000  0.000  0.496
atom   16   Tr[ns(na)] =   5.82733
    eigenvalues:
  0.409  0.489  0.564  0.679  0.773
    eigenvectors:
  0.011  0.000  0.308  0.000  0.681
  0.000  0.998  0.000  0.002  0.000
  0.989  0.000  0.001  0.000  0.010
  0.001  0.000  0.690  0.000  0.309
  0.000  0.002  0.000  0.998  0.000
    occupations:
  0.705  0.000  0.033 -0.096 -0.000
  0.000  0.489 -0.000 -0.000 -0.009
  0.033 -0.000  0.413 -0.016 -0.000
 -0.096 -0.000 -0.016  0.629  0.000
 -0.000 -0.009 -0.000  0.000  0.678
atom   17   Tr[ns(na)] =   5.82577
    eigenvalues:
  0.383  0.523  0.587  0.658  0.762
    eigenvectors:
  0.000  0.000  0.994  0.006  0.000
  0.000  0.000  0.006  0.993  0.001
  1.000  0.000  0.000  0.000  0.000
  0.000  0.000  0.000  0.001  0.999
  0.000  1.000  0.000  0.000  0.000
    occupations:
  0.587  0.005  0.002  0.002  0.000
  0.005  0.657  0.004 -0.003 -0.000
  0.002  0.004  0.383 -0.002  0.000
  0.002 -0.003 -0.002  0.762 -0.000
  0.000 -0.000  0.000 -0.000  0.523
atom   22   Tr[ns(na)] =   5.84114
    eigenvalues:
  0.476  0.494  0.595  0.601  0.753
    eigenvectors:
  0.000  0.000  0.218  0.000  0.782
  0.000  0.000  0.000  0.999  0.000
  0.000  1.000  0.000  0.000  0.000
  0.000  0.000  0.781  0.000  0.218
  1.000  0.000  0.000  0.000  0.000
    occupations:
  0.719  0.000  0.002 -0.065 -0.002
  0.000  0.601 -0.000  0.000 -0.001
  0.002 -0.000  0.494 -0.001  0.000
 -0.065  0.000 -0.001  0.630  0.001
 -0.002 -0.001  0.000  0.001  0.476
atom   23   Tr[ns(na)] =   5.78523
    eigenvalues:
  0.410  0.492  0.496  0.718  0.775
    eigenvectors:
  0.002  0.997  0.000  0.000  0.001
  0.000  0.000  0.000  1.000  0.000
  0.998  0.002  0.000  0.000  0.000
  0.000  0.001  0.000  0.000  0.999
  0.000  0.000  1.000  0.000  0.000
    occupations:
  0.492  0.000 -0.004 -0.007 -0.000
  0.000  0.718 -0.001 -0.000  0.000
 -0.004 -0.001  0.411  0.000  0.000
 -0.007 -0.000  0.000  0.775  0.000
 -0.000  0.000  0.000  0.000  0.496
N of occupied +U levels =  46.5595708
 --- exit write_ns ---

     Threshold (ethr) on eigenvalues was too large:
     Diagonalizing with lowered threshold

     Davidson diagonalization with overlap
     ethr =  6.69E-09,  avg # of iterations =  3.0

[...]

     total energy              =   -1696.44636983 Ry
     Harris-Foulkes estimate   =   -1696.44636983 Ry
     estimated scf accuracy    <       0.00000001 Ry

     iteration # 16     ecut=    40.00 Ry     beta=0.70
     Davidson diagonalization with overlap
     ethr =  4.76E-12,  avg # of iterations =  1.0

     negative rho (up, down):  0.356E-02 0.000E+00

     End of self-consistent calculation
 --- enter write_ns ---
 LDA+U parameters:
U( 2)     =  5.50000000
alpha( 2) =  0.00000000
atom    3   Tr[ns(na)] =   5.82748
    eigenvalues:
  0.409  0.489  0.564  0.678  0.773
    eigenvectors:
  0.011  0.000  0.309  0.000  0.681
  0.000  0.998  0.000  0.002  0.000
  0.989  0.000  0.001  0.000  0.010
  0.001  0.000  0.690  0.000  0.309
  0.000  0.002  0.000  0.998  0.000
    occupations:
  0.705  0.000  0.033 -0.096 -0.000
  0.000  0.489 -0.000 -0.000 -0.009
  0.033 -0.000  0.413 -0.016 -0.000
 -0.096 -0.000 -0.016  0.629  0.000
 -0.000 -0.009 -0.000  0.000  0.678
atom    4   Tr[ns(na)] =   5.82673
    eigenvalues:
  0.383  0.523  0.587  0.658  0.762
    eigenvectors:
  0.000  0.000  0.994  0.006  0.000
  0.000  0.000  0.006  0.993  0.001
  1.000  0.000  0.000  0.000  0.000
  0.000  0.000  0.000  0.001  0.999
  0.000  1.000  0.000  0.000  0.000
    occupations:
  0.587  0.005  0.002  0.002  0.000
  0.005  0.657  0.004 -0.003 -0.000
  0.002  0.004  0.383 -0.002  0.001
  0.002 -0.003 -0.002  0.762 -0.000
  0.000 -0.000  0.001 -0.000  0.523
atom    9   Tr[ns(na)] =   5.84172
    eigenvalues:
  0.476  0.494  0.595  0.601  0.753
    eigenvectors:
  0.000  0.000  0.218  0.000  0.782
  0.000  0.000  0.001  0.999  0.000
  0.000  1.000  0.000  0.000  0.000
  0.000  0.000  0.781  0.000  0.218
  1.000  0.000  0.000  0.000  0.000
    occupations:
  0.719  0.000  0.002 -0.065 -0.002
  0.000  0.601 -0.000  0.000 -0.001
  0.002 -0.000  0.494 -0.001  0.000
 -0.065  0.000 -0.001  0.630  0.001
 -0.002 -0.001  0.000  0.001  0.477
atom   10   Tr[ns(na)] =   5.78421
    eigenvalues:
  0.410  0.492  0.496  0.718  0.775
    eigenvectors:
  0.002  0.997  0.000  0.000  0.001
  0.000  0.000  0.000  1.000  0.000
  0.998  0.002  0.000  0.000  0.000
  0.000  0.001  0.000  0.000  0.999
  0.000  0.000  1.000  0.000  0.000
    occupations:
  0.492  0.000 -0.004 -0.007 -0.000
  0.000  0.718 -0.001 -0.000  0.000
 -0.004 -0.001  0.410  0.000  0.000
 -0.007 -0.000  0.000  0.775  0.000
 -0.000  0.000  0.000  0.000  0.496
atom   16   Tr[ns(na)] =   5.82747
    eigenvalues:
  0.409  0.489  0.564  0.678  0.773
    eigenvectors:
  0.011  0.000  0.309  0.000  0.681
  0.000  0.998  0.000  0.002  0.000
  0.989  0.000  0.001  0.000  0.010
  0.001  0.000  0.690  0.000  0.309
  0.000  0.002  0.000  0.998  0.000
    occupations:
  0.705  0.000  0.033 -0.096 -0.000
  0.000  0.489 -0.000 -0.000 -0.009
  0.033 -0.000  0.413 -0.016 -0.000
 -0.096 -0.000 -0.016  0.629  0.000
 -0.000 -0.009 -0.000  0.000  0.678
atom   17   Tr[ns(na)] =   5.82669
    eigenvalues:
  0.383  0.523  0.587  0.658  0.762
    eigenvectors:
  0.000  0.000  0.994  0.006  0.000
  0.000  0.000  0.006  0.993  0.001
  1.000  0.000  0.000  0.000  0.000
  0.000  0.000  0.000  0.001  0.999
  0.000  1.000  0.000  0.000  0.000
    occupations:
  0.587  0.005  0.002  0.002  0.000
  0.005  0.657  0.004 -0.003 -0.000
  0.002  0.004  0.383 -0.002  0.001
  0.002 -0.003 -0.002  0.762 -0.000
  0.000 -0.000  0.001 -0.000  0.523
atom   22   Tr[ns(na)] =   5.84173
    eigenvalues:
  0.476  0.494  0.595  0.601  0.753
    eigenvectors:
  0.000  0.000  0.218  0.000  0.782
  0.000  0.000  0.000  0.999  0.000
  0.000  1.000  0.000  0.000  0.000
  0.000  0.000  0.781  0.000  0.218
  1.000  0.000  0.000  0.000  0.000
    occupations:
  0.719  0.000  0.002 -0.065 -0.002
  0.000  0.601 -0.000  0.000 -0.001
  0.002 -0.000  0.494 -0.001  0.000
 -0.065  0.000 -0.001  0.630  0.001
 -0.002 -0.001  0.000  0.001  0.477
atom   23   Tr[ns(na)] =   5.78422
    eigenvalues:
  0.410  0.492  0.496  0.718  0.775
    eigenvectors:
  0.002  0.997  0.000  0.000  0.001
  0.000  0.000  0.000  1.000  0.000
  0.998  0.002  0.000  0.000  0.000
  0.000  0.001  0.000  0.000  0.999
  0.000  0.000  1.000  0.000  0.000
    occupations:
  0.492  0.000 -0.004 -0.007 -0.000
  0.000  0.718 -0.001 -0.000  0.000
 -0.004 -0.001  0.410  0.000  0.000
 -0.007 -0.000  0.000  0.775  0.000
 -0.000  0.000  0.000  0.000  0.496
N of occupied +U levels =  46.5602393
 --- exit write_ns ---

[...]

          k = 0.2500-0.3900 0.0000 ( 29726 PWs)   bands (ev):

[...]

          k =-0.2500 0.1950 0.0000 ( 29746 PWs)   bands (ev):

   -62.3870 -62.2988 -62.1752 -62.0952 -61.9445 -61.9407 -61.8651 -61.8595
   -36.9162 -36.8651 -36.7847 -36.7082 -36.6285 -36.3811 -36.3076 -36.2868
   -36.2797 -36.2454 -36.2222 -36.2202 -36.1902 -36.1804 -36.1647 -36.1562
   -36.1316 -36.1206 -36.0681 -36.0517 -35.9970 -35.5821 -35.4582 -35.4386
   -20.6672 -20.3908 -19.8648 -19.6715 -19.6512 -19.5280 -19.4373 -19.3650
   -19.2227 -19.1653 -19.0672 -18.9685 -18.8427 -18.7985 -18.6835 -18.4631
   -18.2418 -18.0636  -8.7263  -8.5590  -8.1905  -8.0201  -7.8386  -7.7359
    -7.7256  -7.5565  -7.4622  -7.3913  -7.2271  -7.1474  -6.9373  -6.8350
    -6.6519  -6.4854  -6.3770  -6.2622  -6.1390  -6.0389  -5.9038  -5.8675
    -5.7252  -5.6635  -5.4266  -5.3310  -5.2390  -5.1013  -4.9770  -4.8885
    -4.7750  -4.6526  -4.5722  -4.5209  -4.4527  -4.3673  -4.2968  -4.2770
    -4.1561  -4.0457  -3.9639  -3.9017  -3.8377  -3.7296  -3.5296  -3.4475
    -3.4063  -3.3179  -3.1645  -3.0211  -3.0184  -2.7916  -2.6537  -2.4768
    -2.3255  -2.1371  -1.8362  -1.0090  -0.8005  -0.7955  -0.4081   0.1079
     0.1550   0.4411   0.6922   0.8399   0.9013   1.0715   1.1941   1.2729
     1.3836   1.5144   1.5975   1.6140   1.7394   1.8234   1.9439   2.2201
     2.3079   2.6205   3.3517   3.4410   3.7233   3.7841   3.9411   4.1403
     4.3420   4.4151   4.4939   4.6058   4.6755   4.7539   4.9287   5.1498
     5.5045   5.6819   5.7568   5.8302   5.9286   6.1219   6.3048   6.3967
     6.5315   6.6368   6.9532   6.9868   7.0918   7.2844   7.5101   7.5978
     7.9127   7.9405   8.1802   8.2788   8.2899   8.4820   8.6426   8.6709
     8.8983   8.9890   9.0709   9.3128   9.3706   9.4215   9.5023   9.5553
     9.5645   9.6216   9.8219   9.9824  10.0358  10.1884  10.2521  10.2820
    10.4662  10.5008  10.6539  10.7333  10.7491  10.9825  11.0955  11.0989
    11.1080  11.2528  11.5533  11.6153  11.6169  11.7407  11.8051  11.9031
    11.9753  12.0851  12.2777  12.3043  12.3493  12.3559  12.4533  12.6392
    12.6579  12.7721  12.8887  12.8932  12.9646  13.1017  13.1024  13.1960
    13.3231  13.4334  13.4543  13.5107  13.5173  13.6561  13.6705  13.7310
    13.8566  13.8942  13.9859  13.9895  14.1425  14.1536  14.2363  14.3412
    14.4004  14.4498  14.4989  14.5515  14.6023  14.7350  14.8392  14.8574
    14.9621  15.0367  15.0735  15.2249  15.2981  15.4009  15.4855  15.5657
    15.6475  15.6640  15.7676  15.8422  15.9000  15.9634  16.0603  16.1105
    16.1949  16.2806  16.3109  16.3566  16.3823  16.4485  16.5872  16.7154
    16.7179  16.7675  16.7851  16.8964  17.0067  17.0984  17.1676  17.2219
    17.2320  17.3062  17.3413  17.4099  17.4948  17.6788  17.6931  17.8114
    17.9110  17.9115  18.0886  18.0918  18.1724  18.2595  18.3592  18.3923
    18.4339  18.4385  18.5524  18.5809  18.6169  18.8302  18.8875  19.0128
    19.0675  19.1264  19.1442  19.2722  19.3155  19.4931  19.5832  19.6079
    19.7147  19.7873  19.8209  19.9111  19.9654  20.0956  20.1560  20.1901
    20.2003  20.2517  20.3400  20.3921  20.3958  20.4198  20.5048  20.5374
    20.6596  20.6975  20.7482  20.8462  20.9238  20.9658  21.0452  21.0671
    21.1256  21.2158  21.2225  21.3198  21.4234  21.4806  21.5502  21.6372

     the Fermi energy is     0.0378 ev

!    total energy              =   -1696.44636983 Ry
     Harris-Foulkes estimate   =   -1696.44636983 Ry
     estimated scf accuracy    <          2.7E-09 Ry

     The total energy is the sum of the following terms:

     one-electron contribution =  -21392.28216673 Ry
     hartree contribution      =   10718.44422474 Ry
     xc contribution           =    -286.67396345 Ry
     ewald contribution        =    9260.38889516 Ry
     Hubbard energy            =       3.67823797 Ry
     smearing contrib. (-TS)   =      -0.00159752 Ry

     convergence has been achieved in  16 iterations

     Forces acting on atoms (Ry/au):

     negative rho (up, down):  0.356E-02 0.000E+00
     atom    1 type  1   force =    -0.00166682   -0.00512159   -0.00046510
     atom    2 type  1   force =    -0.00005608    0.01025289    0.00098079
     atom    3 type  2   force =    -0.00015034   -0.00569008    0.00055306
     atom    4 type  2   force =    -0.00077106    0.00292333   -0.00099903
     atom    5 type  1   force =     0.00154342   -0.02134286   -0.00052717
     atom    6 type  1   force =    -0.00011840    0.01857080   -0.00056109
     atom    7 type  1   force =     0.00009828    0.00120134    0.00003284
     atom    8 type  1   force =     0.00341828    0.00060163    0.00007450
     atom    9 type  2   force =    -0.00206296   -0.00023789    0.00020777
     atom   10 type  2   force =    -0.00001313    0.00066830   -0.00002549
     atom   11 type  1   force =    -0.00005146   -0.02648726    0.00030257
     atom   12 type  1   force =     0.00012603    0.02547518    0.00030792
     atom   13 type  1   force =    -0.00028713    0.00002417    0.00045592
     atom   14 type  1   force =    -0.00166602   -0.00512009   -0.00045443
     atom   15 type  1   force =    -0.00005480    0.01024839    0.00098543
     atom   16 type  2   force =    -0.00018045   -0.00568986    0.00055229
     atom   17 type  2   force =    -0.00077371    0.00292340   -0.00099652
     atom   18 type  1   force =     0.00154300   -0.02134334   -0.00052697
     atom   19 type  1   force =    -0.00011991    0.01857042   -0.00056058
     atom   20 type  1   force =     0.00009945    0.00120114    0.00003263
     atom   21 type  1   force =     0.00341611    0.00060317    0.00006740
     atom   22 type  2   force =    -0.00207109   -0.00023750    0.00020685
     atom   23 type  2   force =    -0.00001314    0.00066775   -0.00002731
     atom   24 type  1   force =    -0.00004330   -0.02648745    0.00030338
     atom   25 type  1   force =     0.00013499    0.02547499    0.00030869
     atom   26 type  1   force =    -0.00029009    0.00002600    0.00045122
     atom   27 type  3   force =     0.00000769   -0.00062712    0.00023657
     atom   28 type  3   force =     0.00000771   -0.00062656    0.00023801
     atom   29 type  3   force =    -0.00000159   -0.00021085   -0.00057695
     atom   30 type  3   force =    -0.00000348   -0.00021048   -0.00057720

     Total force =     0.002946     Total SCF correction =     0.000156

     bfgs converged in   7 scf cycles and   6 bfgs steps
     (criteria: energy < 0.10E-03, force < 0.10E-02)

     End of BFGS Geometry Optimization

     Final energy   =   -1696.4463698269 Ry
Begin final coordinates

ATOMIC_POSITIONS (crystal)
O0       0.000000000   0.000000000   0.373376232    0   0   1
O0       0.000000000   0.500000000   0.379768379    0   0   1
Mo1      0.250000000   0.500000000   0.437513810    0   0   1
Mo1      0.000000000   0.000000000   0.445526544    0   0   1
O0       0.250000000   0.780000000   0.443412465    0   0   1
O0       0.250000000   0.220000000   0.443384666    0   0   1
O0       0.000000000   0.500000000   0.496529503    0   0   1
O0       0.000000000   0.000000000   0.518802486    0   0   1
Mo1      0.250000000   0.000000000   0.577888126    0   0   1
Mo1      0.000000000   0.500000000   0.564219947    0   0   1
O0       0.250000000   0.720000000   0.574497474    0   0   1
O0       0.250000000   0.280000000   0.574610346    0   0   1
O0       0.000000000   0.000000000   0.628495398    0   0   1
O0       0.500000000   0.000000000   0.373376390    0   0   1
O0       0.500000000   0.500000000   0.379766044    0   0   1
Mo1      0.750000000   0.500000000   0.437513788    0   0   1
Mo1      0.500000000   0.000000000   0.445526694    0   0   1
O0       0.750000000   0.780000000   0.443412391    0   0   1
O0       0.750000000   0.220000000   0.443384588    0   0   1
O0       0.500000000   0.500000000   0.496530165    0   0   1
O0       0.500000000   0.000000000   0.518802330    0   0   1
Mo1      0.750000000   0.000000000   0.577887761    0   0   1
Mo1      0.500000000   0.500000000   0.564219981    0   0   1
O0       0.750000000   0.720000000   0.574497417    0   0   1
O0       0.750000000   0.280000000   0.574610166    0   0   1
O0       0.500000000   0.000000000   0.628496326    0   0   1
H2      -0.000478592   0.614500338   0.358578579
H2       0.499521265   0.614504694   0.358577804
H2       0.166330758   0.020431033   0.358937219
H2       0.666329815   0.020431228   0.358936982
End final coordinates

     General routines

     Parallel routines
     Hubbard U routines

   This run was terminated on:   1: 6:59   6May2014

   JOB DONE.
Running PBS batch system epilogue script
Job id: 340751.audhumbla.fysik.dtu.dk
Username: zhonxu
Groupname: campgst
Jobname: MoO2/Eads-2-layers/bare-U-5.5
Sessionid: 6419
Queuename: verylong
Accounting:
This job has allocated the following 16 nodes:
a019 a019 a019 a019 a019 a019 a019 a019 a013 a013 a013 a013 a013 a013 a013 a013
Finished epilogue job 340751.audhumbla.fysik.dtu.dk for zhonxu