     Program PWSCF v.5.0.2 (svn rev. 9656) starts on 15May2014 at 14:12:28

     Current dimensions of program PWSCF are:
     Max number of different atomic species (ntypx) = 10
     Max number of k-points (npk) =  40000
     Max angular momentum in pseudopotentials (lmaxx) =  3
     Reading input from pwscf.in
Warning: card &CELL ignored
Warning: card / ignored

     Subspace diagonalization in iterative solution of the eigenvalue problem:
     a serial algorithm will be used

     bravais-lattice index     =            0
     lattice parameter (alat)  =      10.1289  a.u.
     unit-cell volume          =    6836.7721 (a.u.)^3
     number of atoms/cell      =           30
     number of atomic types    =            3
     number of electrons       =       232.00
     number of Kohn-Sham states=          348
     kinetic-energy cutoff     =      40.0000  Ry
     charge density cutoff     =     500.0000  Ry
     convergence threshold     =      1.0E-06
     mixing beta               =       0.7000
     number of iterations used =            8  plain     mixing
     Exchange-correlation      = SLA  PW   PBE  PBE ( 1 4 3 4 0)
     EXX-fraction              =        0.00
     nstep                     =           50

     celldm(1)=  10.128932  celldm(2)=   0.000000  celldm(3)=   0.000000
     celldm(4)=   0.000000  celldm(5)=   0.000000  celldm(6)=   0.000000

     crystal axes: (cart. coord. in units of alat)
               a(1) = (   1.000000   0.000000   0.000000 )
               a(2) = (   0.000000   1.306037   0.000000 )
               a(3) = (   0.000000   0.000000   5.037380 )

     reciprocal axes: (cart. coord. in units 2 pi/alat)
               b(1) = (  1.000000  0.000000  0.000000 )
               b(2) = (  0.000000  0.765675  0.000000 )
               b(3) = (  0.000000  0.000000  0.198516 )

     PseudoPot. # 1 for O  read from file:
     /home/camp/zhonxu/pseudo/o_pbe_v1.01.uspp.F.UPF
     MD5 check sum: 2bcb18d16ea4b960afae9ec6d52f22d2
     Pseudo is Ultrasoft + core correction, Zval =  6.0
     Generated by new atomic code, or converted to UPF format
     Using radial grid of  737 points,  5 beta functions with:
                l(1) =   0
                l(2) =   0
                l(3) =   1
                l(4) =   1
                l(5) =   2
     Q(r) pseudized with  8 coefficients,  rinner =    0.900   0.900   0.900
                                                       0.900   0.900

     PseudoPot. # 2 for Re read from file:
     /home/camp/zhonxu/pseudo/re_pbe_v1.uspp.F.UPF
     MD5 check sum: 6f5a5dcaf9c96c20d0ffdde0de57afc6
     Pseudo is Ultrasoft + core correction, Zval = 15.0
     Generated by new atomic code, or converted to UPF format
     Using radial grid of  981 points,  8 beta functions with:
                l(1) =   0
                l(2) =   0
                l(3) =   1
                l(4) =   1
                l(5) =   2
                l(6) =   2
                l(7) =   3
                l(8) =   3
     Q(r) pseudized with  8 coefficients,  rinner =    1.000   1.000   1.000
                                                       1.000   1.000   1.000
                                                       1.000

     PseudoPot. # 3 for H  read from file:
     /home/camp/zhonxu/pseudo/h_pbe_v1.uspp.F.UPF
     MD5 check sum: 3408e3ff4ec8b0a4e358431e7e038a48
     Pseudo is Ultrasoft, Zval =  1.0
     Generated by new atomic code, or converted to UPF format
     Using radial grid of  615 points,  2 beta functions with:
                l(1) =   0
                l(2) =   0
     Q(r) pseudized with  8 coefficients,  rinner =    0.700

     atomic species   valence    mass     pseudopotential
        O0             6.00    15.99940     O ( 1.00)
        Re1           15.00   186.20700     Re( 1.00)
        H2             1.00     1.00794     H ( 1.00)

     Simplified LDA+U calculation (l_max = 2) with parameters (eV):
     atomic species    L          U    alpha       J0     beta
        Re1            2     0.0000   0.0000   0.0000   0.0000

     No symmetry found

   Cartesian axes

     site n.     atom                  positions (alat units)
         1           O0  tau(   1) = (   0.0000000   0.0000000   1.8688176  )
         2           O0  tau(   2) = (   0.0000000   0.6530184   1.9243296  )
         3           Re1 tau(   3) = (   0.2500000   0.6530184   2.2228951  )
         4           Re1 tau(   4) = (   0.0000000   0.0000000   2.2352367  )
         5           O0  tau(   5) = (   0.2500000   1.0187087   2.2249100  )
         6           O0  tau(   6) = (   0.2500000   0.2873281   2.2250611  )
         7           O0  tau(   7) = (   0.0000000   0.6530184   2.5071041  )
         8           O0  tau(   8) = (   0.0000000   0.0000000   2.5966183  )
         9           Re1 tau(   9) = (   0.2500000   0.0000000   2.8989619  )
        10           Re1 tau(  10) = (   0.0000000   0.6530184   2.8608793  )
        11           O0  tau(  11) = (   0.2500000   0.9403465   2.8908013  )
        12           O0  tau(  12) = (   0.2500000   0.3656903   2.8907005  )
        13           O0  tau(  13) = (   0.0000000   0.0000000   3.1620138  )
        14           O0  tau(  14) = (   0.5000000   0.0000000   1.8688176  )
        15           O0  tau(  15) = (   0.5000000   0.6530184   1.9243296  )
        16           Re1 tau(  16) = (   0.7500000   0.6530184   2.2228951  )
        17           Re1 tau(  17) = (   0.5000000   0.0000000   2.2352367  )
        18           O0  tau(  18) = (   0.7500000   1.0187087   2.2249604  )
        19           O0  tau(  19) = (   0.7500000   0.2873281   2.2250611  )
        20           O0  tau(  20) = (   0.5000000   0.6530184   2.5071041  )
        21           O0  tau(  21) = (   0.5000000   0.0000000   2.5966183  )
        22           Re1 tau(  22) = (   0.7500000   0.0000000   2.8989619  )
        23           Re1 tau(  23) = (   0.5000000   0.6530184   2.8609296  )
        24           O0  tau(  24) = (   0.7500000   0.9403465   2.8908013  )
        25           O0  tau(  25) = (   0.7500000   0.3656903   2.8907005  )
        26           O0  tau(  26) = (   0.5000000   0.0000000   3.1620138  )
        27           H2  tau(  27) = (  -0.0003800   0.8172395   1.8403061  )
        28           H2  tau(  28) = (   0.4996200   0.8172395   1.8403061  )
        29           H2  tau(  29) = (   0.1698700   0.0284977   1.7974380  )
        30           H2  tau(  30) = (   0.6698800   0.0284977   1.7974380  )

     number of k points=    10  Methfessel-Paxton smearing, width (Ry)=  0.0100
                       cart. coord. in units 2pi/alat
        k(    1) = (   0.0000000   0.0000000   0.0000000), wk =   0.1250000
        k(    2) = (   0.0000000   0.1914188   0.0000000), wk =   0.2500000
        k(    3) = (   0.0000000  -0.3828376   0.0000000), wk =   0.1250000
        k(    4) = (   0.2500000   0.0000000   0.0000000), wk =   0.2500000
        k(    5) = (   0.2500000   0.1914188   0.0000000), wk =   0.2500000
        k(    6) = (   0.2500000  -0.3828376   0.0000000), wk =   0.2500000
        k(    7) = (  -0.5000000   0.0000000   0.0000000), wk =   0.1250000
        k(    8) = (  -0.5000000   0.1914188   0.0000000), wk =   0.2500000
        k(    9) = (  -0.5000000  -0.3828376   0.0000000), wk =   0.1250000
        k(   10) = (  -0.2500000   0.1914188   0.0000000), wk =   0.2500000

     Largest allocated arrays     est. size (Mb)     dimensions
     Largest temporary arrays     est. size (Mb)     dimensions

     Check: negative/imaginary core charge=   -0.000003    0.000000

     Initial potential from superposition of free atoms
     Check: negative starting charge=   -0.237311

     starting charge  227.99958, renormalised to  232.00000

     negative rho (up, down):  0.241E+00 0.000E+00
     Number of +U iterations with fixed ns =  0
     Starting occupations:
 --- enter write_ns ---
 LDA+U parameters:
U( 2)     =  0.00000000
alpha( 2) =  0.00000000
atom    3   Tr[ns(na)] =   5.00000
    eigenvalues:
  0.500  0.500  0.500  0.500  0.500
    eigenvectors:
  1.000  0.000  0.000  0.000  0.000
  0.000  1.000  0.000  0.000  0.000
  0.000  0.000  1.000  0.000  0.000
  0.000  0.000  0.000  1.000  0.000
  0.000  0.000  0.000  0.000  1.000
    occupations:
  0.500  0.000  0.000  0.000  0.000
  0.000  0.500  0.000  0.000  0.000
  0.000  0.000  0.500  0.000  0.000
  0.000  0.000  0.000  0.500  0.000
  0.000  0.000  0.000  0.000  0.500
atom    4   Tr[ns(na)] =   5.00000
    eigenvalues:
  0.500  0.500  0.500  0.500  0.500
    eigenvectors:
  1.000  0.000  0.000  0.000  0.000
  0.000  1.000  0.000  0.000  0.000
  0.000  0.000  1.000  0.000  0.000
  0.000  0.000  0.000  1.000  0.000
  0.000  0.000  0.000  0.000  1.000
    occupations:
  0.500  0.000  0.000  0.000  0.000
  0.000  0.500  0.000  0.000  0.000
  0.000  0.000  0.500  0.000  0.000
  0.000  0.000  0.000  0.500  0.000
  0.000  0.000  0.000  0.000  0.500
atom    9   Tr[ns(na)] =   5.00000
    eigenvalues:
  0.500  0.500  0.500  0.500  0.500
    eigenvectors:
  1.000  0.000  0.000  0.000  0.000
  0.000  1.000  0.000  0.000  0.000
  0.000  0.000  1.000  0.000  0.000
  0.000  0.000  0.000  1.000  0.000
  0.000  0.000  0.000  0.000  1.000
    occupations:
  0.500  0.000  0.000  0.000  0.000
  0.000  0.500  0.000  0.000  0.000
  0.000  0.000  0.500  0.000  0.000
  0.000  0.000  0.000  0.500  0.000
  0.000  0.000  0.000  0.000  0.500
atom   10   Tr[ns(na)] =   5.00000
    eigenvalues:
  0.500  0.500  0.500  0.500  0.500
    eigenvectors:
  1.000  0.000  0.000  0.000  0.000
  0.000  1.000  0.000  0.000  0.000
  0.000  0.000  1.000  0.000  0.000
  0.000  0.000  0.000  1.000  0.000
  0.000  0.000  0.000  0.000  1.000
    occupations:
  0.500  0.000  0.000  0.000  0.000
  0.000  0.500  0.000  0.000  0.000
  0.000  0.000  0.500  0.000  0.000
  0.000  0.000  0.000  0.500  0.000
  0.000  0.000  0.000  0.000  0.500
atom   16   Tr[ns(na)] =   5.00000
    eigenvalues:
  0.500  0.500  0.500  0.500  0.500
    eigenvectors:
  1.000  0.000  0.000  0.000  0.000
  0.000  1.000  0.000  0.000  0.000
  0.000  0.000  1.000  0.000  0.000
  0.000  0.000  0.000  1.000  0.000
  0.000  0.000  0.000  0.000  1.000
    occupations:
  0.500  0.000  0.000  0.000  0.000
  0.000  0.500  0.000  0.000  0.000
  0.000  0.000  0.500  0.000  0.000
  0.000  0.000  0.000  0.500  0.000
  0.000  0.000  0.000  0.000  0.500
atom   17   Tr[ns(na)] =   5.00000
    eigenvalues:
  0.500  0.500  0.500  0.500  0.500
    eigenvectors:
  1.000  0.000  0.000  0.000  0.000
  0.000  1.000  0.000  0.000  0.000
  0.000  0.000  1.000  0.000  0.000
  0.000  0.000  0.000  1.000  0.000
  0.000  0.000  0.000  0.000  1.000
    occupations:
  0.500  0.000  0.000  0.000  0.000
  0.000  0.500  0.000  0.000  0.000
  0.000  0.000  0.500  0.000  0.000
  0.000  0.000  0.000  0.500  0.000
  0.000  0.000  0.000  0.000  0.500
atom   22   Tr[ns(na)] =   5.00000
    eigenvalues:
  0.500  0.500  0.500  0.500  0.500
    eigenvectors:
  1.000  0.000  0.000  0.000  0.000
  0.000  1.000  0.000  0.000  0.000
  0.000  0.000  1.000  0.000  0.000
  0.000  0.000  0.000  1.000  0.000
  0.000  0.000  0.000  0.000  1.000
    occupations:
[...]

     iteration #  2     ecut=    40.00 Ry     beta=0.70
     Davidson diagonalization with overlap
     ethr =  6.79E-03,  avg # of iterations =  5.1

[...]

     total energy              =   -2143.05082219 Ry
     Harris-Foulkes estimate   =   -2143.05082270 Ry
     estimated scf accuracy    <       0.00000590 Ry

     iteration # 23     ecut=    40.00 Ry     beta=0.70
     Davidson diagonalization with overlap
     ethr =  2.54E-09,  avg # of iterations =  1.0

     negative rho (up, down):  0.243E+00 0.000E+00

     End of self-consistent calculation
 --- enter write_ns ---
 LDA+U parameters:
U( 2)     =  0.00000000
alpha( 2) =  0.00000000
atom    3   Tr[ns(na)] =   6.52760
    eigenvalues:
  0.535  0.570  0.661  0.743  0.754
    eigenvectors:
  0.000  0.398  0.008  0.594  0.000
  0.999  0.000  0.000  0.000  0.001
  0.000  0.000  0.986  0.014  0.000
  0.000  0.602  0.007  0.391  0.000
  0.001  0.000  0.000  0.000  0.999
    occupations:
  0.673  0.000  0.008 -0.084 -0.000
  0.000  0.535  0.000 -0.000 -0.008
  0.008  0.000  0.663 -0.006  0.000
 -0.084 -0.000 -0.006  0.638  0.000
 -0.000 -0.008  0.000  0.000  0.754
atom    4   Tr[ns(na)] =   6.48032
    eigenvalues:
  0.564  0.601  0.619  0.689  0.767
    eigenvectors:
  0.000  0.981  0.000  0.001  0.018
  0.000  0.001  0.004  0.995  0.000
  0.000  0.000  0.996  0.004  0.000
  0.000  0.018  0.000  0.000  0.982
  1.000  0.000  0.000  0.000  0.000
    occupations:
  0.604  0.002  0.000 -0.022  0.000
  0.002  0.689  0.004 -0.000 -0.001
  0.000  0.004  0.619  0.001 -0.000
 -0.022 -0.000  0.001  0.764 -0.000
  0.000 -0.001 -0.000 -0.000  0.564
atom    9   Tr[ns(na)] =   6.48855
    eigenvalues:
  0.590  0.602  0.623  0.697  0.732
    eigenvectors:
  0.273  0.000  0.000  0.001  0.726
  0.000  1.000  0.000  0.000  0.000
  0.000  0.000  1.000  0.000  0.000
  0.727  0.000  0.000  0.000  0.273
  0.000  0.000  0.000  0.999  0.001
    occupations:
  0.693  0.000 -0.001 -0.063  0.001
  0.000  0.602  0.000  0.000 -0.000
 -0.001  0.000  0.623  0.000 -0.000
 -0.063  0.000  0.000  0.628 -0.001
  0.001 -0.000 -0.000 -0.001  0.697
atom   10   Tr[ns(na)] =   6.47929
    eigenvalues:
  0.498  0.542  0.694  0.749  0.756
    eigenvectors:
  0.994  0.000  0.000  0.006  0.000
  0.000  0.000  0.000  0.000  1.000
  0.000  0.000  1.000  0.000  0.000
  0.006  0.000  0.000  0.994  0.000
  0.000  1.000  0.000  0.000  0.000
    occupations:
  0.500  0.000  0.001 -0.020 -0.000
  0.000  0.756  0.000 -0.000  0.001
  0.001  0.000  0.694  0.000  0.000
 -0.020 -0.000  0.000  0.748 -0.000
 -0.000  0.001  0.000 -0.000  0.542
atom   16   Tr[ns(na)] =   6.52758
    eigenvalues:
  0.535  0.570  0.661  0.743  0.754
    eigenvectors:
  0.000  0.398  0.008  0.594  0.000
  0.999  0.000  0.000  0.000  0.001
  0.000  0.000  0.986  0.014  0.000
  0.000  0.602  0.007  0.391  0.000
  0.001  0.000  0.000  0.000  0.999
    occupations:
  0.673  0.000  0.008 -0.084 -0.000
  0.000  0.535  0.000 -0.000 -0.008
  0.008  0.000  0.663 -0.006  0.000
 -0.084 -0.000 -0.006  0.638  0.000
 -0.000 -0.008  0.000  0.000  0.754
atom   17   Tr[ns(na)] =   6.48106
    eigenvalues:
  0.564  0.601  0.619  0.690  0.767
    eigenvectors:
  0.000  0.981  0.000  0.001  0.018
  0.000  0.001  0.004  0.995  0.000
  0.000  0.000  0.996  0.004  0.000
  0.000  0.018  0.000  0.000  0.982
  1.000  0.000  0.000  0.000  0.000
    occupations:
  0.604  0.002  0.000 -0.022  0.000
  0.002  0.689  0.004 -0.000 -0.001
  0.000  0.004  0.619  0.001 -0.000
 -0.022 -0.000  0.001  0.764 -0.000
  0.000 -0.001 -0.000 -0.000  0.564
atom   22   Tr[ns(na)] =   6.48838
    eigenvalues:
  0.590  0.602  0.623  0.697  0.732
    eigenvectors:
  0.273  0.000  0.000  0.001  0.726
  0.000  1.000  0.000  0.000  0.000
  0.000  0.000  1.000  0.000  0.000
  0.727  0.000  0.000  0.000  0.273
  0.000  0.000  0.000  0.999  0.001
    occupations:
  0.693  0.000 -0.001 -0.063  0.001
  0.000  0.602  0.000  0.000 -0.000
 -0.001  0.000  0.623  0.000  0.000
 -0.063  0.000  0.000  0.628 -0.001
  0.001 -0.000  0.000 -0.001  0.697
atom   23   Tr[ns(na)] =   6.47935
    eigenvalues:
  0.498  0.542  0.694  0.749  0.756
    eigenvectors:
  0.994  0.000  0.000  0.006  0.000
  0.000  0.000  0.000  0.000  1.000
  0.000  0.000  1.000  0.000  0.000
  0.006  0.000  0.000  0.994  0.000
  0.000  1.000  0.000  0.000  0.000
    occupations:
  0.500  0.000  0.001 -0.020 -0.000
  0.000  0.756  0.000 -0.000  0.001
  0.001  0.000  0.694  0.000  0.000
 -0.020 -0.000  0.000  0.748 -0.000
 -0.000  0.001  0.000 -0.000  0.542
N of occupied +U levels =  51.9521321
 --- exit write_ns ---

          k = 0.0000 0.0000 0.0000 ( 29221 PWs)   bands (ev):

   -81.4967 -81.4415 -81.2401 -81.1839 -81.0793 -81.0237 -80.9914 -80.9356
   -43.7083 -43.5188 -43.4005 -43.3928 -43.3344 -43.3054 -43.2621 -43.2566
   -43.2242 -43.1323 -43.1056 -43.0651 -42.9665 -42.9589 -42.9309 -42.9174
   -42.9054 -42.8836 -42.8464 -42.8400 -42.7682 -42.6284 -42.4602 -42.3835
   -21.1281 -20.5938 -20.5026 -20.4481 -20.1524 -19.7971 -19.7830 -19.5181
   -19.4752 -19.4743 -19.3616 -19.2915 -19.2605 -19.2136 -19.1779 -18.7394
   -18.2297 -17.8933  -9.4961  -9.3709  -9.2231  -8.7052  -8.6681  -8.2011
    -8.1718  -7.9288  -7.8847  -7.7389  -7.5655  -7.5429  -7.3071  -7.3060
    -7.2062  -7.1495  -6.9732  -6.8910  -6.7828  -6.7143  -6.4476  -6.1810
    -6.1238  -5.6242  -5.5597  -5.5208  -5.4132  -5.3406  -5.2701  -5.0788
    -5.0430  -4.9333  -4.7553  -4.7509  -4.7099  -4.6776  -4.4558  -4.4191
    -4.1617  -4.1078  -4.0668  -4.0433  -3.6534  -3.5253  -3.4473  -3.4170
    -3.2592  -3.2589  -3.2038  -3.1340  -3.0858  -3.0482  -2.9538  -2.7607
    -2.7420  -2.5931  -2.4135  -1.0502  -0.8311  -0.6337  -0.2204  -0.2002
    -0.0678   0.3641   0.5287   0.5918   0.6795   0.6932   1.0243   1.1234
     1.1645   1.1833   1.2733   1.7973   1.9133   2.6875   3.0630   3.2072
     3.3037   3.3068   3.4360   3.5294   3.7002   4.0474   4.2025   4.4821
     4.5956   4.6767   4.6888   4.7654   4.7947   4.9198   4.9483   5.0307
     5.0996   5.3046   5.3932   5.6119   6.0770   6.3342   6.5002   6.7424
     7.3495   7.5415   7.5475   7.6617   7.8170   7.9474   8.0430   8.1189
     8.1920   8.3176   8.4035   8.4841   8.4859   8.6860   8.8022   8.8567
     8.9441   9.0120   9.1381   9.2001   9.3336   9.5774   9.6142   9.7232
     9.7244   9.8201  10.0230  10.0231  10.1403  10.1736  10.1877  10.4246
    10.5098  10.6019  10.6629  10.7216  10.9579  10.9962  11.1599  11.2953
    11.3658  11.4039  11.4134  11.6861  11.8679  11.8821  12.0105  12.0453
    12.0634  12.1963  12.2672  12.2861  12.5705  12.7196  12.8199  12.8413
    12.9595  12.9603  12.9883  13.0367  13.0705  13.1777  13.1876  13.2047
    13.2195  13.3255  13.3512  13.4273  13.4536  13.5356  13.6165  13.8001
    13.8569  13.8645  13.9493  13.9841  14.0219  14.0332  14.0369  14.2351
    14.2529  14.2938  14.3134  14.5192  14.5319  14.8279  14.8313  14.9464
    14.9506  14.9966  15.0623  15.1385  15.2029  15.4176  15.4218  15.4878
    15.5507  15.6177  15.7149  15.8723  15.9136  15.9362  16.0252  16.0942
    16.2707  16.3602  16.4994  16.5344  16.6001  16.7580  16.7790  16.8556
    16.8618  16.9901  17.0089  17.1264  17.1726  17.2090  17.2173  17.3876
    17.4381  17.4829  17.5869  17.6374  17.8675  18.0024  18.0391  18.1196
    18.2598  18.3019  18.3180  18.4294  18.5411  18.5646  18.6367  18.8170
    18.8450  18.9554  19.0027  19.0173  19.0235  19.2317  19.2577  19.2730
    19.3724  19.4195  19.5080  19.6538  19.6603  19.8075  19.8499  20.0269
    20.0522  20.0868  20.1160  20.1405  20.3936  20.4587  20.5254  20.5592
    20.6802  20.7260  20.8711  20.8973  20.9567  20.9911  21.0395  21.0675
    21.2269  21.4588  21.5020  21.5298  21.6517  21.7150  21.7625  21.8505
    21.9325  22.0259  22.0420  22.0455  22.1670  22.1820  22.1954  22.2258
    22.2961  22.3584  22.3878  22.4477  22.4772  22.5137  22.5512  22.5827
    22.6426  22.6877  22.7185  22.7702

[...]

          k = 0.2500-0.3828 0.0000 ( 29202 PWs)   bands (ev):

[...]

          k =-0.5000 0.0000 0.0000 ( 29180 PWs)   bands (ev):

[...]

          k =-0.2500 0.1914 0.0000 ( 29229 PWs)   bands (ev):

   -81.4886 -81.4496 -81.2319 -81.1922 -81.0712 -81.0319 -80.9832 -80.9438
   -43.5874 -43.3954 -43.3806 -43.3781 -43.3177 -43.2783 -43.2118 -43.2088
   -43.1567 -43.1282 -43.0848 -43.0444 -42.9809 -42.9740 -42.9543 -42.9391
   -42.9193 -42.8951 -42.8879 -42.8588 -42.7889 -42.7647 -42.5943 -42.5185
   -20.9430 -20.5042 -20.3848 -20.1947 -20.0994 -19.9716 -19.7546 -19.7218
   -19.6914 -19.4486 -19.4272 -19.3699 -19.2971 -19.1235 -19.0913 -18.8334
   -18.2305 -18.0146  -9.0270  -8.7232  -8.6642  -8.6247  -8.3978  -8.3003
    -8.2634  -8.0343  -7.9053  -7.8360  -7.7189  -7.6119  -7.3765  -7.3005
    -7.2161  -6.9253  -6.7600  -6.6647  -6.5223  -6.4086  -6.4063  -6.0929
    -5.9320  -5.8966  -5.7243  -5.5976  -5.5542  -5.5223  -5.4788  -5.1197
    -5.0667  -5.0022  -4.8647  -4.8616  -4.7046  -4.6370  -4.6055  -4.5393
    -4.4206  -4.3403  -4.2508  -4.0343  -3.9665  -3.9022  -3.7003  -3.5724
    -3.5506  -3.3545  -3.2947  -3.1149  -3.0510  -2.8283  -2.7253  -2.5762
    -2.1170  -2.0011  -1.8325  -1.1322  -0.9329  -0.7776  -0.7352  -0.1933
    -0.0094   0.4598   0.4720   0.5793   0.8170   0.8314   0.9405   1.1550
     1.2395   1.2840   1.3354   1.5184   1.6842   1.6942   1.9234   2.0199
     2.2303   2.3784   3.5988   3.6357   3.7556   3.8487   3.9871   4.1287
     4.4125   4.5045   4.6151   4.6688   4.8371   4.8884   5.2356   5.4109
     5.7348   5.7848   6.0150   6.1120   6.2307   6.3796   6.5812   6.7293
     6.8898   6.9875   7.2115   7.2410   7.4510   7.7065   7.7602   8.0479
     8.1148   8.2745   8.3443   8.4565   8.5361   8.6237   8.7270   8.8863
     9.0725   9.3405   9.3899   9.3980   9.5890   9.6487   9.7073   9.7309
     9.7988   9.9193   9.9387  10.1076  10.1491  10.2381  10.3075  10.3508
    10.3638  10.6109  10.7050  10.8127  10.9169  11.0013  11.0316  11.1422
    11.3769  11.4200  11.4446  11.6407  11.7699  11.8480  11.9671  12.1105
    12.2828  12.3296  12.4871  12.5149  12.6047  12.6415  12.6655  12.7777
    12.8661  12.9739  12.9753  13.1834  13.2253  13.3416  13.4690  13.5349
    13.6100  13.6566  13.7760  13.8009  13.8712  13.8717  13.9630  14.0263
    14.0558  14.1906  14.2236  14.3002  14.4503  14.4810  14.5382  14.5536
    14.6503  14.7691  14.7838  14.8518  14.8746  14.9337  14.9861  14.9997
    15.1037  15.1962  15.2604  15.3985  15.4839  15.5514  15.6214  15.7326
    15.8414  15.9406  16.0672  16.0878  16.1577  16.2166  16.2677  16.4026
    16.5327  16.5422  16.5892  16.6664  16.7573  16.8057  16.8550  16.9926
    17.1178  17.1333  17.1889  17.2769  17.3636  17.4333  17.5546  17.6697
    17.6841  17.7088  17.7267  17.8771  17.9536  18.0143  18.0503  18.1915
    18.2166  18.2588  18.2978  18.3562  18.4529  18.5126  18.6142  18.6555
    18.7574  18.8528  18.8795  18.9755  19.0326  19.0589  19.1181  19.2813
    19.4165  19.4872  19.5595  19.6327  19.7365  19.8474  19.9346  19.9844
    20.0124  20.0683  20.1961  20.2057  20.4093  20.4413  20.5553  20.5621
    20.5820  20.6983  20.7317  20.7949  20.8290  20.9171  20.9561  21.0723
    21.1478  21.1789  21.2776  21.3082  21.3494  21.4570  21.4812  21.4975
    21.5907  21.6274  21.7501  21.8220  21.9114  21.9169  22.0748  22.0886
    22.1475  22.2450  22.2592  22.3574  22.3755  22.4020  22.4416  22.5139
    22.5380  22.6342  22.6399  22.6908

     the Fermi energy is     0.5718 ev

!    total energy              =   -2143.05082217 Ry
     Harris-Foulkes estimate   =   -2143.05082252 Ry
     estimated scf accuracy    <       0.00000038 Ry

     The total energy is the sum of the following terms:

     one-electron contribution =  -23474.19454670 Ry
     hartree contribution      =   11751.30117805 Ry
     xc contribution           =    -587.10011865 Ry
     ewald contribution        =   10166.94488344 Ry
     Hubbard energy            =       0.00000000 Ry
     smearing contrib. (-TS)   =      -0.00221831 Ry

     convergence has been achieved in  23 iterations

     Forces acting on atoms (Ry/au):

     negative rho (up, down):  0.243E+00 0.000E+00
     atom    1 type  1   force =    -0.00429698   -0.00751017   -0.00067015
     atom    2 type  1   force =     0.00001619    0.00784549    0.00016525
     atom    3 type  2   force =    -0.00002139   -0.00544875   -0.00025601
     atom    4 type  2   force =     0.00170128    0.00898686   -0.00004600
     atom    5 type  1   force =     0.00186304    0.01676509    0.00002153
     atom    6 type  1   force =     0.00011163   -0.01876331    0.00007170
     atom    7 type  1   force =    -0.00020900   -0.00009511   -0.00067181
     atom    8 type  1   force =     0.00276342   -0.00118585   -0.00004724
     atom    9 type  2   force =    -0.00156672    0.00086883    0.00025963
     atom   10 type  2   force =    -0.00000440   -0.00001352    0.00093747
     atom   11 type  1   force =     0.00004354   -0.02037233    0.00012016
     atom   12 type  1   force =    -0.00010576    0.01890313    0.00012025
     atom   13 type  1   force =    -0.00053594    0.00051559   -0.00042659
     atom   14 type  1   force =    -0.00423890   -0.00750509   -0.00081222
     atom   15 type  1   force =     0.00002710    0.00782667    0.00016048
     atom   16 type  2   force =    -0.00011604   -0.00544757   -0.00023976
     atom   17 type  2   force =     0.00171328    0.00898916   -0.00005455
     atom   18 type  1   force =     0.00201976    0.01675819   -0.00003982
     atom   19 type  1   force =     0.00026415   -0.01875969    0.00007038
     atom   20 type  1   force =    -0.00021224   -0.00009340   -0.00051527
     atom   21 type  1   force =     0.00277803   -0.00118817    0.00005562
     atom   22 type  2   force =    -0.00159442    0.00086689    0.00028211
     atom   23 type  2   force =    -0.00001864   -0.00001413    0.00064423
     atom   24 type  1   force =     0.00006936   -0.02035381    0.00011946
     atom   25 type  1   force =    -0.00007940    0.01888460    0.00011821
     atom   26 type  1   force =    -0.00049850    0.00051713   -0.00038856
     atom   27 type  3   force =     0.00001907   -0.00064689    0.00001524
     atom   28 type  3   force =     0.00001685   -0.00064638    0.00001504
     atom   29 type  3   force =     0.00008046    0.00016399    0.00047814
     atom   30 type  3   force =     0.00001120    0.00015257    0.00051307

     Total force =     0.002289     Total SCF correction =     0.002439
     SCF correction compared to forces is large: reduce conv_thr to get better values

     BFGS Geometry Optimization

     bfgs converged in   1 scf cycles and   0 bfgs steps
     (criteria: energy < 0.10E-03, force < 0.10E-02)

     End of BFGS Geometry Optimization

     Final energy   =   -2143.0508221699 Ry
Begin final coordinates

ATOMIC_POSITIONS (crystal)
O0       0.000000000   0.000000000   0.370990000    0   0   1
O0       0.000000000   0.500000000   0.382010000    0   0   1
Re1      0.250000000   0.500000000   0.441280000    0   0   1
Re1      0.000000000   0.000000000   0.443730000    0   0   1
O0       0.250000000   0.780000000   0.441680000    0   0   1
O0       0.250000000   0.220000000   0.441710000    0   0   1
O0       0.000000000   0.500000000   0.497700000    0   0   1
O0       0.000000000   0.000000000   0.515470000    0   0   1
Re1      0.250000000   0.000000000   0.575490000    0   0   1
Re1      0.000000000   0.500000000   0.567930000    0   0   1
O0       0.250000000   0.720000000   0.573870000    0   0   1
O0       0.250000000   0.280000000   0.573850000    0   0   1
O0       0.000000000   0.000000000   0.627710000    0   0   1
O0       0.500000000   0.000000000   0.370990000    0   0   1
O0       0.500000000   0.500000000   0.382010000    0   0   1
Re1      0.750000000   0.500000000   0.441280000    0   0   1
Re1      0.500000000   0.000000000   0.443730000    0   0   1
O0       0.750000000   0.780000000   0.441690000    0   0   1
O0       0.750000000   0.220000000   0.441710000    0   0   1
O0       0.500000000   0.500000000   0.497700000    0   0   1
O0       0.500000000   0.000000000   0.515470000    0   0   1
Re1      0.750000000   0.000000000   0.575490000    0   0   1
Re1      0.500000000   0.500000000   0.567940000    0   0   1
O0       0.750000000   0.720000000   0.573870000    0   0   1
O0       0.750000000   0.280000000   0.573850000    0   0   1
O0       0.500000000   0.000000000   0.627710000    0   0   1
H2      -0.000380000   0.625740000   0.365330000
H2       0.499620000   0.625740000   0.365330000
H2       0.169870000   0.021820000   0.356820000
H2       0.669880000   0.021820000   0.356820000
End final coordinates

     General routines

     Parallel routines
     Hubbard U routines

   This run was terminated on:  15:52:52  15May2014

   JOB DONE.