     Program PWSCF v.5.0.2 (svn rev. 9656) starts on 27Feb2014 at 17: 2:55

     Current dimensions of program PWSCF are:
     Max number of different atomic species (ntypx) = 10
     Max number of k-points (npk) =  40000
     Max angular momentum in pseudopotentials (lmaxx) =  3
     Reading input from bare.in
Warning: card &CELL ignored
Warning: card / ignored

     Subspace diagonalization in iterative solution of the eigenvalue problem:
     a serial algorithm will be used

     bravais-lattice index     =            0
     lattice parameter (alat)  =      12.0187  a.u.
     unit-cell volume          =    7280.5819 (a.u.)^3
     number of atoms/cell      =           30
     number of atomic types    =            3
     number of electrons       =       232.00
     number of Kohn-Sham states=          336
     kinetic-energy cutoff     =      40.0000  Ry
     charge density cutoff     =     500.0000  Ry
     convergence threshold     =      1.0E-06
     mixing beta               =       0.3000
     number of iterations used =            8  plain     mixing
     Exchange-correlation      = SLA  PW   PBE  PBE ( 1 4 3 4 0)
     EXX-fraction              =        0.00
     nstep                     =           50

     celldm(1)=  12.018658  celldm(2)=   0.000000  celldm(3)=   0.000000
     celldm(4)=   0.000000  celldm(5)=   0.000000  celldm(6)=   0.000000

     crystal axes: (cart. coord. in units of alat)
               a(1) = (   1.000000   0.000000   0.000000 )
               a(2) = (   0.000000   1.009517   0.000000 )
               a(3) = (   0.000000   0.000000   4.154171 )

     reciprocal axes: (cart. coord. in units 2 pi/alat)
               b(1) = (  1.000000  0.000000  0.000000 )
               b(2) = (  0.000000  0.990572  0.000000 )
               b(3) = (  0.000000  0.000000  0.240722 )

     PseudoPot. # 1 for O  read from file:
     /home/camp/zhonxu/pseudo/o_pbe_v1.01.uspp.F.UPF
     MD5 check sum: 2bcb18d16ea4b960afae9ec6d52f22d2
     Pseudo is Ultrasoft + core correction, Zval =  6.0
     Generated by new atomic code, or converted to UPF format
     Using radial grid of  737 points,  5 beta functions with:
                l(1) =   0
                l(2) =   0
                l(3) =   1
                l(4) =   1
                l(5) =   2
     Q(r) pseudized with  8 coefficients,  rinner =    0.900   0.900   0.900
                                                       0.900   0.900

     PseudoPot. # 2 for Ir read from file:
     /home/camp/zhonxu/pseudo/ir_pbe_v1.uspp.F.UPF
     MD5 check sum: abf987a9674477536ede83817f8f8b70
     Pseudo is Ultrasoft + core correction, Zval = 15.0
     Generated by new atomic code, or converted to UPF format
     Using radial grid of  983 points,  7 beta functions with:
                l(1) =   0
                l(2) =   0
                l(3) =   1
                l(4) =   1
                l(5) =   1
                l(6) =   2
                l(7) =   2
     Q(r) pseudized with  8 coefficients,  rinner =    1.350   1.350   1.350
                                                       1.350   1.350

     PseudoPot. # 3 for H  read from file:
     /home/camp/zhonxu/pseudo/h_pbe_v1.uspp.F.UPF
     MD5 check sum: 3408e3ff4ec8b0a4e358431e7e038a48
     Pseudo is Ultrasoft, Zval =  1.0
     Generated by new atomic code, or converted to UPF format
     Using radial grid of  615 points,  2 beta functions with:
                l(1) =   0
                l(2) =   0
     Q(r) pseudized with  8 coefficients,  rinner =    0.700

     atomic species   valence    mass     pseudopotential
        O0             6.00    15.99940     O ( 1.00)
        Ir1           15.00   192.22000     Ir( 1.00)
        H2             1.00     1.00794     H ( 1.00)

     No symmetry found

   Cartesian axes

     site n.     atom                  positions (alat units)
         1           O0  tau(   1) = (   0.0000000   0.0000000   1.5730185  )
         2           O0  tau(   2) = (   0.0000000   0.5047586   1.6673182  )
         3           Ir1 tau(   3) = (   0.2500000   0.5047586   1.8780178  )
         4           Ir1 tau(   4) = (   0.0000000   0.0000000   1.8842906  )
         5           O0  tau(   5) = (   0.2500000   0.8177090   1.8825458  )
         6           O0  tau(   6) = (   0.2500000   0.1918083   1.8810503  )
         7           O0  tau(   7) = (   0.0000000   0.5047586   2.0695666  )
         8           O0  tau(   8) = (   0.0000000   0.0000000   2.1991352  )
         9           Ir1 tau(   9) = (   0.2500000   0.0000000   2.3955860  )
        10           Ir1 tau(  10) = (   0.0000000   0.5047586   2.3764768  )
        11           O0  tau(  11) = (   0.2500000   0.6965669   2.3975800  )
        12           O0  tau(  12) = (   0.2500000   0.3129503   2.3977461  )
        13           O0  tau(  13) = (   0.0000000   0.0000000   2.5806958  )
        14           O0  tau(  14) = (   0.5000000   0.0000000   1.5730185  )
        15           O0  tau(  15) = (   0.5000000   0.5047586   1.6673182  )
        16           Ir1 tau(  16) = (   0.7500000   0.5047586   1.8780178  )
        17           Ir1 tau(  17) = (   0.5000000   0.0000000   1.8842906  )
        18           O0  tau(  18) = (   0.7500000   0.8177090   1.8825458  )
        19           O0  tau(  19) = (   0.7500000   0.1918083   1.8810503  )
        20           O0  tau(  20) = (   0.5000000   0.5047586   2.0695666  )
        21           O0  tau(  21) = (   0.5000000   0.0000000   2.1991352  )
        22           Ir1 tau(  22) = (   0.7500000   0.0000000   2.3955860  )
        23           Ir1 tau(  23) = (   0.5000000   0.5047586   2.3764768  )
        24           O0  tau(  24) = (   0.7500000   0.6965669   2.3975800  )
        25           O0  tau(  25) = (   0.7500000   0.3129503   2.3977461  )
        26           O0  tau(  26) = (   0.5000000   0.0000000   2.5807374  )
        27           H2  tau(  27) = (  -0.0000500   0.6423962   1.5933324  )
        28           H2  tau(  28) = (   0.4999500   0.6423962   1.5933324  )
        29           H2  tau(  29) = (   0.1436500   0.0338188   1.5249132  )
        30           H2  tau(  30) = (   0.6436500   0.0338188   1.5249132  )

     number of k points=    10  Methfessel-Paxton smearing, width (Ry)=  0.0100
                       cart. coord. in units 2pi/alat
        k(    1) = (   0.0000000   0.0000000   0.0000000), wk =   0.1250000
        k(    2) = (   0.0000000   0.2476431   0.0000000), wk =   0.2500000
        k(    3) = (   0.0000000  -0.4952862   0.0000000), wk =   0.1250000
        k(    4) = (   0.2500000   0.0000000   0.0000000), wk =   0.2500000
        k(    5) = (   0.2500000   0.2476431   0.0000000), wk =   0.2500000
        k(    6) = (   0.2500000  -0.4952862   0.0000000), wk =   0.2500000
        k(    7) = (  -0.5000000   0.0000000   0.0000000), wk =   0.1250000
        k(    8) = (  -0.5000000   0.2476431   0.0000000), wk =   0.2500000
        k(    9) = (  -0.5000000  -0.4952862   0.0000000), wk =   0.1250000
        k(   10) = (  -0.2500000   0.2476431   0.0000000), wk =   0.2500000

     Largest allocated arrays     est. size (Mb)     dimensions
     Largest temporary arrays     est. size (Mb)     dimensions

     Check: negative/imaginary core charge=   -0.000003    0.000000

     Initial potential from superposition of free atoms
     Check: negative starting charge=   -3.334716

     starting charge  227.99968, renormalised to  232.00000

     negative rho (up, down):  0.339E+01 0.000E+00
     Starting wfc are  172 randomized atomic wfcs

     Self-consistent Calculation

     iteration #  1     ecut=    40.00 Ry     beta=0.30
     Davidson diagonalization with overlap
     ethr =  1.00E-02,  avg # of iterations = 10.4

     negative rho (up, down):  0.318E+01 0.000E+00

     total energy              =   -2059.56512684 Ry
     Harris-Foulkes estimate   =   -2079.20391962 Ry
     estimated scf accuracy    <      40.87984543 Ry

[...]

     total energy              =   -2074.00581078 Ry
     Harris-Foulkes estimate   =   -2074.00581104 Ry
     estimated scf accuracy    <       0.00000225 Ry

     iteration # 20     ecut=    40.00 Ry     beta=0.30
     Davidson diagonalization with overlap
     ethr =  9.71E-10,  avg # of iterations =  1.0

     negative rho (up, down):  0.313E+01 0.000E+00

     End of self-consistent calculation

          k = 0.0000 0.0000 0.0000 ( 31045 PWs)   bands (ev):

   -51.1511 -51.1372 -51.1302 -51.0951 -51.0872 -51.0494 -51.0024 -50.9277
   -50.9095 -50.9015 -50.8605 -50.8514 -50.8475 -50.8459 -50.8053 -50.7920
   -50.7745 -50.7657 -50.7617 -50.7471 -50.6399 -50.6253 -50.5210 -50.5063
   -21.6965 -21.2240 -21.1125 -21.0902 -20.4826 -20.4221 -20.3871 -20.3078
   -20.2054 -20.2008 -20.1111 -19.9131 -19.7512 -19.6902 -19.6122 -19.4831
   -18.5636 -18.4751 -10.2265 -10.1494  -9.8354  -8.9650  -8.7133  -8.6697
    -8.6458  -8.6420  -8.5876  -8.5173  -8.4793  -8.4572  -8.2644  -8.2371
    -8.1477  -7.9074  -7.8799  -7.8240  -7.7550  -7.4990  -7.3061  -7.0797
    -6.9824  -6.7198  -6.3667  -6.2975  -6.2880  -5.9412  -5.7144  -5.6617
    -5.5247  -5.4591  -5.4094  -5.3890  -5.2999  -5.2821  -5.1895  -5.0573
    -4.9577  -4.8445  -4.7352  -4.6861  -4.5445  -4.4356  -4.3628  -4.1744
    -4.0199  -3.9400  -3.8908  -3.8014  -3.4819  -3.3577  -3.3084  -3.1314
    -2.9799  -2.9348  -2.8913  -2.8730  -2.6563  -2.5968  -2.4702  -2.3643
    -2.3336  -2.3151  -2.2529  -2.0949  -1.8130  -1.7982  -1.5841  -1.5468
    -1.3970  -1.0961  -0.9409  -0.7660  -0.7287  -0.5436  -0.3848  -0.2983
    -0.0570   0.2094   1.1046   1.4279   1.4399   1.4477   1.6289   1.7670
     2.0242   2.3720   2.5219   3.0043   3.1785   3.1861   3.3458   3.3951
     3.7928   4.0780   4.3098   4.7888   4.9063   5.7729   5.9040   6.2312
     6.2787   6.5837   6.8908   6.9578   7.2245   7.3646   7.3993   7.5168
     7.6976   7.7532   7.8501   7.9443   7.9482   7.9640   8.0250   8.0968
     8.2232   8.2694   8.2938   8.3267   8.3662   8.4841   8.5799   8.6074
     8.7154   8.8107   8.8129   8.8289   8.9432   8.9451   8.9794   8.9967
     9.0024   9.0868   9.0880   9.1263   9.1693   9.2190   9.3198   9.4242
     9.5212   9.6108   9.7652   9.9907  10.0700  10.1140  10.1300  10.2676
    10.4625  10.4837  10.4867  10.6628  10.8180  10.9012  11.0397  11.0507
    11.0913  11.1973  11.2274  11.2595  11.2912  11.4551  11.5534  11.6902
    11.7143  11.7156  11.7370  11.8067  11.8194  11.9279  11.9755  11.9789
    12.1284  12.1676  12.2224  12.2924  12.3730  12.4114  12.4899  12.5782
    12.6565  12.6619  12.7310  12.7501  12.8880  13.0269  13.1504  13.2314
    13.2419  13.5696  13.6023  13.6586  13.7284  13.7721  13.8815  13.9126
    14.1275  14.2007  14.2670  14.3129  14.4172  14.5048  14.6254  14.6965
    14.8748  14.8917  15.0828  15.1141  15.2201  15.2517  15.3942  15.4483
    15.5123  15.6238  15.6951  15.7166  15.7981  15.7983  15.9858  16.1059
    16.1578  16.2431  16.2973  16.4911  16.5432  16.6817  16.7801  16.7928
    17.1355  17.1764  17.2174  17.2469  17.2993  17.3477  17.3595  17.4844
    17.6176  17.7975  17.8297  17.8502  17.9249  17.9388  18.1420  18.2385
    18.3209  18.4444  18.4796  18.5023  18.5334  18.6423  18.7102  18.7697
    18.8616  18.8823  18.9395  19.0476  19.1334  19.1383  19.1471  19.2125
    19.2352  19.2754  19.3094  19.3688  19.5064  19.5817  19.5984  19.6755
    19.7694  19.7832  19.8180  19.8900  19.9256  19.9939  20.0344  20.1263
    20.1360  20.3176  20.3475  20.4146  20.4412  20.5237  20.5599  20.5922
    20.6118  20.6629  20.7444  20.8025  20.9888  21.0568  21.1491  21.1948

[...]

          k = 0.2500-0.4953 0.0000 ( 31088 PWs)   bands (ev):

[...]

          k =-0.5000 0.0000 0.0000 ( 31104 PWs)   bands (ev):

[...]

          k =-0.2500 0.2476 0.0000 ( 31099 PWs)   bands (ev):

   -51.1370 -51.1359 -51.1315 -51.0948 -51.0879 -51.0633 -50.9878 -50.9234
   -50.9164 -50.9123 -50.8493 -50.8468 -50.8459 -50.8358 -50.8040 -50.7936
   -50.7770 -50.7724 -50.7669 -50.7621 -50.6378 -50.6274 -50.5192 -50.5084
   -21.5218 -21.1349 -21.0281 -20.9313 -20.6278 -20.4589 -20.4325 -20.4041
   -20.1916 -20.1745 -20.0661 -19.9049 -19.8958 -19.8266 -19.6852 -19.5141
   -18.6058 -18.5276  -9.7282  -9.5418  -9.4993  -9.1961  -8.8008  -8.7488
    -8.6395  -8.5852  -8.5178  -8.4113  -8.4082  -8.3106  -8.2765  -8.2410
    -7.9555  -7.8846  -7.7958  -7.5910  -7.4324  -7.2884  -7.2514  -7.0411
    -6.9943  -6.6448  -6.4717  -6.3548  -6.2503  -6.1607  -6.1066  -6.0699
    -5.9747  -5.9172  -5.8601  -5.7628  -5.7350  -5.6052  -5.3993  -5.3935
    -5.1438  -5.0367  -4.9131  -4.7663  -4.6826  -4.6036  -4.4942  -4.4213
    -4.1988  -4.0851  -4.0351  -3.6433  -3.5738  -3.3391  -3.2710  -3.0597
    -2.8158  -2.7664  -2.4946  -2.4273  -2.3851  -2.3585  -2.2219  -2.2208
    -2.1226  -2.0969  -2.0910  -1.9809  -1.8124  -1.6580  -1.6033  -1.4491
    -1.0583  -0.9818  -0.9811  -0.8175  -0.7761  -0.5589  -0.3726  -0.2802
    -0.1076   0.0746   0.8983   1.0967   1.4629   1.6309   1.7284   2.0742
     2.3198   2.5855   2.7734   2.8112   3.1222   3.1550   3.2789   3.3812
     3.7268   4.3143   4.7817   5.1965   5.3979   5.5466   5.6699   5.8966
     6.1476   6.2919   6.5650   6.5879   6.6534   6.8427   7.0769   7.1090
     7.2573   7.3327   7.4241   7.6073   7.6654   7.8659   7.9636   8.0439
     8.1476   8.3704   8.4134   8.4379   8.5463   8.6986   8.7904   8.8103
     8.8139   8.8148   8.9129   8.9446   8.9448   8.9940   8.9968   9.0847
     9.0852   9.0932   9.0978   9.2195   9.3126   9.4932   9.6047   9.6756
     9.7117   9.8258   9.9718  10.0805  10.1735  10.3016  10.3207  10.3809
    10.4261  10.4422  10.5605  10.7595  10.7977  10.8167  10.9070  10.9992
    11.0265  11.2112  11.3207  11.3949  11.5393  11.5611  11.6858  11.7336
    11.7921  11.9231  12.0191  12.1499  12.1739  12.2002  12.2911  12.3816
    12.5328  12.5798  12.6135  12.6345  12.7102  12.7972  12.8218  12.8963
    13.0289  13.0345  13.1143  13.1801  13.2498  13.3307  13.4127  13.5157
    13.5416  13.7208  13.8459  13.8610  13.9558  13.9596  14.0219  14.1251
    14.2414  14.3262  14.3993  14.4699  14.5412  14.7293  14.7355  14.8416
    14.8421  15.1507  15.1675  15.3393  15.3469  15.4308  15.5334  15.5741
    15.6074  15.7533  15.7617  15.8241  15.8706  15.9282  15.9685  16.0531
    16.0602  16.0979  16.1397  16.2384  16.3315  16.3484  16.4255  16.4334
    16.5514  16.6426  16.6969  16.7356  16.7905  16.8186  17.0788  17.1592
    17.1720  17.3382  17.3662  17.4416  17.4531  17.4879  17.5643  17.5859
    17.6680  17.7250  17.7260  17.8522  17.9068  17.9391  17.9729  17.9748
    18.1927  18.2189  18.3167  18.3562  18.4338  18.5034  18.5624  18.6140
    18.7529  18.8419  18.9261  18.9319  19.0528  19.0876  19.1350  19.1760
    19.2619  19.2742  19.3515  19.4162  19.5335  19.6120  19.6968  19.7159
    19.8332  19.9045  19.9279  20.0368  20.0997  20.2598  20.3410  20.3416
    20.4229  20.4901  20.5566  20.6139  20.6155  20.7552  20.7786  20.8179

     the Fermi energy is    -0.7909 ev

!    total energy              =   -2074.00581076 Ry
     Harris-Foulkes estimate   =   -2074.00581099 Ry
     estimated scf accuracy    <       0.00000040 Ry

     The total energy is the sum of the following terms:

     one-electron contribution =  -21975.26212372 Ry
     hartree contribution      =   11028.24861987 Ry
     xc contribution           =    -569.23958211 Ry
     ewald contribution        =    9442.24806282 Ry
     smearing contrib. (-TS)   =      -0.00078763 Ry

     convergence has been achieved in  20 iterations

     Forces acting on atoms (Ry/au):

     negative rho (up, down):  0.313E+01 0.000E+00
     atom    1 type  1   force =    -0.00747128   -0.01449964   -0.00000485
     atom    2 type  1   force =     0.00015222    0.00652755   -0.00012587
     atom    3 type  2   force =    -0.00006885    0.00421253    0.00018176
     atom    4 type  2   force =     0.00949444    0.00797591    0.00014262
     atom    5 type  1   force =    -0.00191349   -0.01689594    0.00006389
     atom    6 type  1   force =     0.00299048    0.01489433    0.00019435
     atom    7 type  1   force =    -0.00029102   -0.00120904    0.00034770
     atom    8 type  1   force =    -0.00319421   -0.00047676   -0.00036994
     atom    9 type  2   force =     0.00124610    0.00008345   -0.00031107
     atom   10 type  2   force =     0.00001798   -0.00165108    0.00026298
     atom   11 type  1   force =    -0.00011015    0.00289205   -0.00037063
     atom   12 type  1   force =     0.00020840   -0.00231028   -0.00029053
     atom   13 type  1   force =    -0.00094736   -0.00013500   -0.00027504
     atom   14 type  1   force =    -0.00748463   -0.01450332   -0.00003737
     atom   15 type  1   force =     0.00014843    0.00652310   -0.00012967
     atom   16 type  2   force =    -0.00006850    0.00421286    0.00018117
     atom   17 type  2   force =     0.00949235    0.00797684    0.00014350
     atom   18 type  1   force =    -0.00186644   -0.01689472    0.00006244
     atom   19 type  1   force =     0.00303661    0.01489290    0.00019428
     atom   20 type  1   force =    -0.00029640   -0.00120933    0.00034751
     atom   21 type  1   force =    -0.00320162   -0.00047735   -0.00031651
     atom   22 type  2   force =     0.00119361    0.00008446   -0.00031414
     atom   23 type  2   force =     0.00001650   -0.00165120    0.00026932
     atom   24 type  1   force =    -0.00010485    0.00288941   -0.00036939
     atom   25 type  1   force =     0.00021365   -0.00230750   -0.00028946
     atom   26 type  1   force =    -0.00095433   -0.00013507   -0.00042106
     atom   27 type  3   force =    -0.00002893    0.00032775    0.00050979
     atom   28 type  3   force =    -0.00002890    0.00032838    0.00050896
     atom   29 type  3   force =    -0.00008864    0.00026736    0.00010696
     atom   30 type  3   force =    -0.00009117    0.00026737    0.00010830

     Total force =     0.001629     Total SCF correction =     0.002426
     SCF correction compared to forces is large: reduce conv_thr to get better values

     BFGS Geometry Optimization

     bfgs converged in   1 scf cycles and   0 bfgs steps
     (criteria: energy < 0.10E-03, force < 0.10E-02)

     End of BFGS Geometry Optimization

     Final energy   =   -2074.0058107554 Ry
Begin final coordinates

ATOMIC_POSITIONS (crystal)
O0       0.000000000   0.000000000   0.378660000    0   0   1
O0       0.000000000   0.500000000   0.401360000    0   0   1
Ir1      0.250000000   0.500000000   0.452080000    0   0   1
Ir1      0.000000000   0.000000000   0.453590000    0   0   1
O0       0.250000000   0.810000000   0.453170000    0   0   1
O0       0.250000000   0.190000000   0.452810000    0   0   1
O0       0.000000000   0.500000000   0.498190000    0   0   1
O0       0.000000000   0.000000000   0.529380000    0   0   1
Ir1      0.250000000   0.000000000   0.576670000    0   0   1
Ir1      0.000000000   0.500000000   0.572070000    0   0   1
O0       0.250000000   0.690000000   0.577150000    0   0   1
O0       0.250000000   0.310000000   0.577190000    0   0   1
O0       0.000000000   0.000000000   0.621230000    0   0   1
O0       0.500000000   0.000000000   0.378660000    0   0   1
O0       0.500000000   0.500000000   0.401360000    0   0   1
Ir1      0.750000000   0.500000000   0.452080000    0   0   1
Ir1      0.500000000   0.000000000   0.453590000    0   0   1
O0       0.750000000   0.810000000   0.453170000    0   0   1
O0       0.750000000   0.190000000   0.452810000    0   0   1
O0       0.500000000   0.500000000   0.498190000    0   0   1
O0       0.500000000   0.000000000   0.529380000    0   0   1
Ir1      0.750000000   0.000000000   0.576670000    0   0   1
Ir1      0.500000000   0.500000000   0.572070000    0   0   1
O0       0.750000000   0.690000000   0.577150000    0   0   1
O0       0.750000000   0.310000000   0.577190000    0   0   1
O0       0.500000000   0.000000000   0.621240000    0   0   1
H2      -0.000050000   0.636340000   0.383550000
H2       0.499950000   0.636340000   0.383550000
H2       0.143650000   0.033500000   0.367080000
H2       0.643650000   0.033500000   0.367080000
End final coordinates

     General routines

     Parallel routines

   This run was terminated on:  18:21:34  27Feb2014

   JOB DONE.
Running PBS batch system epilogue script
Job id: 278706.audhumbla.fysik.dtu.dk
Username: zhonxu
Groupname: campgst
Jobname: IrO2/bare
Sessionid: 16637
Queuename: verylong
Accounting:
This job has allocated the following 16 nodes:
a131 a131 a131 a131 a131 a131 a131 a131 a111 a111 a111 a111 a111 a111 a111 a111
Finished epilogue job 278706.audhumbla.fysik.dtu.dk for zhonxu