     Program PWSCF v.5.0.2 (svn rev. 9656) starts on  4May2014 at 20:12:59

     Current dimensions of program PWSCF are:
     Max number of different atomic species (ntypx) = 10
     Max number of k-points (npk) =  40000
     Max angular momentum in pseudopotentials (lmaxx) =  3
     Reading input from pwscf.in
Warning: card &CELL ignored
Warning: card / ignored

     Subspace diagonalization in iterative solution of the eigenvalue problem:
     a serial algorithm will be used

     bravais-lattice index     =            0
     lattice parameter (alat)  =      10.7336  a.u.
     unit-cell volume          =    6184.1966 (a.u.)^3
     number of atoms/cell      =           32
     number of atomic types    =            3
     number of electrons       =       239.00 (up: 131.00, down: 108.00)
     number of Kohn-Sham states=          346
     kinetic-energy cutoff     =      40.0000  Ry
     charge density cutoff     =     500.0000  Ry
     convergence threshold     =      1.0E-06
     mixing beta               =       0.7000
     number of iterations used =            8  plain     mixing
     Exchange-correlation      = SLA  PW   PBE  PBE ( 1 4 3 4 0)
     EXX-fraction              =        0.00
     nstep                     =           50

     celldm(1)=  10.733644  celldm(2)=   0.000000  celldm(3)=   0.000000
     celldm(4)=   0.000000  celldm(5)=   0.000000  celldm(6)=   0.000000

     crystal axes: (cart. coord. in units of alat)
               a(1) = (   1.000000   0.000000   0.000000 )
               a(2) = (   0.000000   1.085558   0.000000 )
               a(3) = (   0.000000   0.000000   4.606685 )

     reciprocal axes: (cart. coord. in units 2 pi/alat)
               b(1) = (  1.000000  0.000000  0.000000 )
               b(2) = (  0.000000  0.921185  0.000000 )
               b(3) = (  0.000000  0.000000  0.217076 )

     PseudoPot. # 1 for O  read from file:
     /home/camp/zhonxu/pseudo/o_pbe_v1.01.uspp.F.UPF
     MD5 check sum: 2bcb18d16ea4b960afae9ec6d52f22d2
     Pseudo is Ultrasoft + core correction, Zval =  6.0
     Generated by new atomic code, or converted to UPF format
     Using radial grid of  737 points,  5 beta functions with:
                l(1) =   0
                l(2) =   0
                l(3) =   1
                l(4) =   1
                l(5) =   2
     Q(r) pseudized with  8 coefficients,  rinner =    0.900   0.900   0.900
                                                       0.900   0.900

     PseudoPot. # 2 for Mn read from file:
     /home/camp/zhonxu/pseudo/mn_pbe_v1.uspp.F.UPF
     MD5 check sum: 5fd7c7b5c956fd19902447332617373a
     Pseudo is Ultrasoft + core correction, Zval = 15.0
     Generated by new atomic code, or converted to UPF format
     Using radial grid of  859 points,  6 beta functions with:
                l(1) =   0
                l(2) =   0
                l(3) =   1
                l(4) =   1
                l(5) =   2
                l(6) =   2
     Q(r) pseudized with  6 coefficients,  rinner =    1.150   1.150   1.150
                                                       1.150   1.150

     PseudoPot. # 3 for H  read from file:
     /home/camp/zhonxu/pseudo/h_pbe_v1.uspp.F.UPF
     MD5 check sum: 3408e3ff4ec8b0a4e358431e7e038a48
     Pseudo is Ultrasoft, Zval =  1.0
     Generated by new atomic code, or converted to UPF format
     Using radial grid of  615 points,  2 beta functions with:
                l(1) =   0
                l(2) =   0
     Q(r) pseudized with  8 coefficients,  rinner =    0.700

     atomic species   valence    mass     pseudopotential
        O0             6.00    15.99940     O ( 1.00)
        Mn1           15.00    54.93800     Mn( 1.00)
        H2             1.00     1.00794     H ( 1.00)

     Starting magnetic structure
     atomic species   magnetization
        O0           0.000
        Mn1          0.600
        H2           0.000

     Simplified LDA+U calculation (l_max = 2) with parameters (eV):
     atomic species    L          U    alpha       J0     beta
        Mn1            2     6.0000   0.0000   0.0000   0.0000

     No symmetry found

   Cartesian axes

     site n.     atom                  positions (alat units)
         1           O0  tau(   1) = (   0.0000000   0.0000000   1.7414191  )
         2           O0  tau(   2) = (   0.0000000   0.5427791   1.8381134  )
         3           Mn1 tau(   3) = (   0.2500000   0.5427791   2.0740217  )
         4           Mn1 tau(   4) = (   0.0000000   0.0000000   2.0686319  )
         5           O0  tau(   5) = (   0.2500000   0.8684466   2.0678488  )
         6           O0  tau(   6) = (   0.2500000   0.2171117   2.0737453  )
         7           O0  tau(   7) = (   0.0000000   0.5427791   2.2873573  )
         8           O0  tau(   8) = (   0.0000000   0.0000000   2.4132120  )
         9           Mn1 tau(   9) = (   0.2500000   0.0000000   2.6399991  )
        10           Mn1 tau(  10) = (   0.0000000   0.5427791   2.6085815  )
        11           O0  tau(  11) = (   0.2500000   0.7598908   2.6551551  )
        12           O0  tau(  12) = (   0.2500000   0.3256675   2.6556157  )
        13           O0  tau(  13) = (   0.0000000   0.0000000   2.8417258  )
        14           O0  tau(  14) = (   0.5000000   0.0000000   1.7428932  )
        15           O0  tau(  15) = (   0.5000000   0.5427791   1.8386662  )
        16           Mn1 tau(  16) = (   0.7500000   0.5427791   2.0740678  )
        17           Mn1 tau(  17) = (   0.5000000   0.0000000   2.0707510  )
        18           O0  tau(  18) = (   0.7500000   0.8684466   2.0677106  )
        19           O0  tau(  19) = (   0.7500000   0.2171117   2.0738835  )
        20           O0  tau(  20) = (   0.5000000   0.5427791   2.2871270  )
        21           O0  tau(  21) = (   0.5000000   0.0000000   2.4132120  )
        22           Mn1 tau(  22) = (   0.7500000   0.0000000   2.6413811  )
        23           Mn1 tau(  23) = (   0.5000000   0.5427791   2.6662572  )
        24           O0  tau(  24) = (   0.7500000   0.7598908   2.6473698  )
        25           O0  tau(  25) = (   0.7500000   0.3256675   2.6477844  )
        26           O0  tau(  26) = (   0.5000000   0.0000000   2.8412191  )
        27           H2  tau(  27) = (   0.0000400   0.7014118   1.7620570  )
        28           H2  tau(  28) = (   0.5000900   0.7016832   1.7629323  )
        29           H2  tau(  29) = (   0.1613600   0.0398291   1.6869220  )
        30           H2  tau(  30) = (   0.6610200   0.0399703   1.6876591  )
        31           O0  tau(  31) = (   0.5153900   0.5432351   2.9826904  )
        32           H2  tau(  32) = (   0.3575300   0.5430397   3.0540479  )

     number of k points=    20  Methfessel-Paxton smearing, width (Ry)=  0.0100
                       cart. coord. in units 2pi/alat
        k(    1) = (   0.0000000   0.0000000   0.0000000), wk =   0.0625000
        k(    2) = (   0.0000000   0.2302962   0.0000000), wk =   0.1250000
        k(    3) = (   0.0000000  -0.4605925   0.0000000), wk =   0.0625000
        k(    4) = (   0.2500000   0.0000000   0.0000000), wk =   0.1250000
        k(    5) = (   0.2500000   0.2302962   0.0000000), wk =   0.1250000
        k(    6) = (   0.2500000  -0.4605925   0.0000000), wk =   0.1250000
        k(    7) = (  -0.5000000   0.0000000   0.0000000), wk =   0.0625000
        k(    8) = (  -0.5000000   0.2302962   0.0000000), wk =   0.1250000
        k(    9) = (  -0.5000000  -0.4605925   0.0000000), wk =   0.0625000
        k(   10) = (  -0.2500000   0.2302962   0.0000000), wk =   0.1250000
        k(   11) = (   0.0000000   0.0000000   0.0000000), wk =   0.0625000
        k(   12) = (   0.0000000   0.2302962   0.0000000), wk =   0.1250000
        k(   13) = (   0.0000000  -0.4605925   0.0000000), wk =   0.0625000
        k(   14) = (   0.2500000   0.0000000   0.0000000), wk =   0.1250000
        k(   15) = (   0.2500000   0.2302962   0.0000000), wk =   0.1250000
        k(   16) = (   0.2500000  -0.4605925   0.0000000), wk =   0.1250000
        k(   17) = (  -0.5000000   0.0000000   0.0000000), wk =   0.0625000
        k(   18) = (  -0.5000000   0.2302962   0.0000000), wk =   0.1250000
        k(   19) = (  -0.5000000  -0.4605925   0.0000000), wk =   0.0625000
        k(   20) = (  -0.2500000   0.2302962   0.0000000), wk =   0.1250000

     Largest allocated arrays     est. size (Mb)     dimensions
     Largest temporary arrays     est. size (Mb)     dimensions

     Check: negative/imaginary core charge=   -0.000022    0.000000

     Initial potential from superposition of free atoms
     Check: negative starting charge=(component1):   -0.000716
     Check: negative starting charge=(component2):   -0.000389

     starting charge  230.99986, renormalised to  239.00000

     negative rho (up, down):  0.741E-03 0.403E-03
     Number of +U iterations with fixed ns =  0
     Starting occupations:
 --- enter write_ns ---
 LDA+U parameters:
U( 2)     =  6.00000000
alpha( 2) =  0.00000000
atom    3   Tr[ns(na)] (up, down, total) =   5.00000  0.00000  5.00000
   spin  1
    eigenvalues:
  1.000  1.000  1.000  1.000  1.000
    eigenvectors:
  1.000  0.000  0.000  0.000  0.000
  0.000  1.000  0.000  0.000  0.000
  0.000  0.000  1.000  0.000  0.000
  0.000  0.000  0.000  1.000  0.000
  0.000  0.000  0.000  0.000  1.000
    occupations:
  1.000  0.000  0.000  0.000  0.000
  0.000  1.000  0.000  0.000  0.000
  0.000  0.000  1.000  0.000  0.000
  0.000  0.000  0.000  1.000  0.000
  0.000  0.000  0.000  0.000  1.000
   spin  2
    eigenvalues:
  0.000  0.000  0.000  0.000  0.000
    eigenvectors:
  1.000  0.000  0.000  0.000  0.000
  0.000  1.000  0.000  0.000  0.000
  0.000  0.000  1.000  0.000  0.000
  0.000  0.000  0.000  1.000  0.000
  0.000  0.000  0.000  0.000  1.000
    occupations:
  0.000  0.000  0.000  0.000  0.000
  0.000  0.000  0.000  0.000  0.000
  0.000  0.000  0.000  0.000  0.000
  0.000  0.000  0.000  0.000  0.000
  0.000  0.000  0.000  0.000  0.000
atomic mag. moment =     5.000000
atom    4   Tr[ns(na)] (up, down, total) =   5.00000  0.00000  5.00000
   spin  1
    eigenvalues:
  1.000  1.000  1.000  1.000  1.000
    eigenvectors:
  1.000  0.000  0.000  0.000  0.000
  0.000  1.000  0.000  0.000  0.000
  0.000  0.000  1.000  0.000  0.000
  0.000  0.000  0.000  1.000  0.000
  0.000  0.000  0.000  0.000  1.000
    occupations:
  1.000  0.000  0.000  0.000  0.000
  0.000  1.000  0.000  0.000  0.000
  0.000  0.000  1.000  0.000  0.000
  0.000  0.000  0.000  1.000  0.000
  0.000  0.000  0.000  0.000  1.000
   spin  2
    eigenvalues:
  0.000  0.000  0.000  0.000  0.000
    eigenvectors:
  1.000  0.000  0.000  0.000  0.000
  0.000  1.000  0.000  0.000  0.000
  0.000  0.000  1.000  0.000  0.000
  0.000  0.000  0.000  1.000  0.000
  0.000  0.000  0.000  0.000  1.000
    occupations:
  0.000  0.000  0.000  0.000  0.000
  0.000  0.000  0.000  0.000  0.000
  0.000  0.000  0.000  0.000  0.000
  0.000  0.000  0.000  0.000  0.000
  0.000  0.000  0.000  0.000  0.000
atomic mag. moment =     5.000000
atom    9   Tr[ns(na)] (up, down, total) =   5.00000  0.00000  5.00000
   spin  1
    eigenvalues:
  1.000  1.000  1.000  1.000  1.000
[...]
atomic mag. moment =     3.524429
atom    4   Tr[ns(na)] (up, down, total) =   4.44820  0.90392  5.35212
   spin  1
    eigenvalues:
  0.691  0.752  0.997  1.004  1.005
    eigenvectors:
  0.000  0.998  0.001  0.001  0.000
  0.000  0.001  0.000  0.882  0.116
  0.000  0.001  0.000  0.116  0.883
  0.000  0.001  0.999  0.000  0.000
  1.000  0.000  0.000  0.000  0.000
    occupations:
  0.753 -0.008 -0.006  0.006 -0.001
 -0.008  1.003 -0.001  0.000  0.002
 -0.006 -0.001  1.004  0.000 -0.000
  0.006  0.000  0.000  0.997 -0.000
 -0.001  0.002 -0.000 -0.000  0.691
   spin  2
    eigenvalues:
  0.075  0.090  0.097  0.301  0.340
    eigenvectors:
  0.005  0.002  0.000  0.993  0.000
  0.003  0.587  0.408  0.002  0.001
  0.006  0.402  0.591  0.001  0.000
  0.986  0.009  0.000  0.005  0.000
  0.000  0.001  0.000  0.000  0.999
    occupations:
  0.300  0.008  0.006 -0.016  0.000
  0.008  0.093 -0.004  0.000 -0.008
  0.006 -0.004  0.094  0.001 -0.000
 -0.016  0.000  0.001  0.076 -0.000
  0.000 -0.008 -0.000 -0.000  0.340
atomic mag. moment =     3.544274
atom    9   Tr[ns(na)] (up, down, total) =   4.42706  0.95442  5.38148
   spin  1
    eigenvalues:
  0.715  0.732  0.984  0.996  1.000
    eigenvectors:
  0.230  0.000  0.000  0.000  0.770
  0.000  1.000  0.000  0.000  0.000
  0.000  0.000  0.000  1.000  0.000
  0.770  0.000  0.000  0.000  0.229
  0.000  0.000  1.000  0.000  0.000
    occupations:
  0.935  0.001 -0.000 -0.120  0.000
  0.001  0.732  0.000 -0.000  0.000
 -0.000  0.000  0.996 -0.000  0.000
 -0.120 -0.000 -0.000  0.780  0.000
  0.000  0.000  0.000  0.000  0.984
   spin  2
    eigenvalues:
  0.083  0.096  0.102  0.332  0.341
    eigenvectors:
  0.807  0.000  0.000  0.180  0.012
  0.000  0.000  0.000  0.070  0.930
  0.000  0.001  0.999  0.000  0.000
  0.193  0.000  0.000  0.749  0.058
  0.000  0.999  0.001  0.000  0.000
    occupations:
  0.131 -0.000  0.000  0.098 -0.000
 -0.000  0.341 -0.000  0.003 -0.000
  0.000 -0.000  0.102  0.001  0.000
  0.098  0.003  0.001  0.284 -0.000
 -0.000 -0.000  0.000 -0.000  0.096
atomic mag. moment =     3.472641
atom   10   Tr[ns(na)] (up, down, total) =   4.64897  0.64121  5.29018
   spin  1
    eigenvalues:
  0.693  0.960  0.997  0.999  1.000
    eigenvectors:
  0.000  0.962  0.038  0.000  0.000
  0.000  0.001  0.026  0.973  0.000
  0.000  0.000  0.000  0.000  0.999
  0.000  0.037  0.936  0.027  0.000
  1.000  0.000  0.000  0.000  0.000
    occupations:
  0.962 -0.001  0.000  0.007  0.000
 -0.001  0.999  0.000  0.000 -0.001
  0.000  0.000  1.000 -0.000  0.006
  0.007  0.000 -0.000  0.996 -0.000
  0.000 -0.001  0.006 -0.000  0.693
   spin  2
    eigenvalues:
  0.062  0.071  0.078  0.140  0.289
    eigenvectors:
  0.031  0.000  0.000  0.969  0.000
  0.000  0.000  0.999  0.000  0.000
  0.000  1.000  0.000  0.000  0.000
  0.968  0.000  0.000  0.031  0.000
  0.000  0.000  0.000  0.000  1.000
    occupations:
  0.138  0.001 -0.000 -0.014  0.000
  0.001  0.078  0.000 -0.000  0.001
 -0.000  0.000  0.071 -0.000 -0.004
 -0.014 -0.000 -0.000  0.065 -0.000
  0.000  0.001 -0.004 -0.000  0.289
atomic mag. moment =     4.007768
atom   16   Tr[ns(na)] (up, down, total) =   4.44260  0.91711  5.35971
   spin  1
    eigenvalues:
  0.706  0.734  0.999  1.001  1.003
    eigenvectors:
  0.248  0.002  0.000  0.646  0.104
  0.027  0.970  0.001  0.002  0.000
  0.000  0.000  0.000  0.134  0.865
  0.724  0.028  0.000  0.217  0.031
  0.000  0.001  0.999  0.000  0.000
    occupations:
  0.927 -0.013 -0.002 -0.127 -0.000
 -0.013  0.734 -0.001  0.002 -0.008
 -0.002 -0.001  1.003 -0.002 -0.000
 -0.127  0.002 -0.002  0.780 -0.000
 -0.000 -0.008 -0.000 -0.000  0.999
   spin  2
    eigenvalues:
  0.073  0.091  0.104  0.311  0.338
    eigenvectors:
  0.776  0.000  0.002  0.014  0.208
  0.001  0.001  0.000  0.953  0.045
  0.003  0.029  0.968  0.000  0.000
  0.220  0.000  0.001  0.031  0.747
  0.000  0.970  0.029  0.001  0.000
    occupations:
  0.131  0.002 -0.002  0.110  0.000
  0.002  0.311  0.000 -0.008  0.009
 -0.002  0.000  0.104 -0.001 -0.002
  0.110 -0.008 -0.001  0.279 -0.001
  0.000  0.009 -0.002 -0.001  0.092
atomic mag. moment =     3.525495
atom   17   Tr[ns(na)] (up, down, total) =   4.44821  0.90340  5.35161
   spin  1
    eigenvalues:
  0.692  0.751  0.997  1.004  1.004
    eigenvectors:
  0.000  0.998  0.001  0.002  0.000
  0.000  0.001  0.000  0.700  0.299
  0.000  0.001  0.000  0.299  0.701
  0.000  0.001  0.999  0.000  0.000
  1.000  0.000  0.000  0.000  0.000
    occupations:
  0.751 -0.008 -0.006  0.006 -0.001
 -0.008  1.004 -0.000  0.000  0.002
 -0.006 -0.000  1.004  0.000 -0.001
  0.006  0.000  0.000  0.997 -0.000
 -0.001  0.002 -0.001 -0.000  0.692
   spin  2
    eigenvalues:
  0.075  0.090  0.097  0.300  0.341
    eigenvectors:
  0.005  0.002  0.000  0.993  0.000
  0.003  0.559  0.436  0.001  0.001
  0.006  0.430  0.563  0.001  0.000
  0.985  0.009  0.000  0.005  0.000
  0.000  0.000  0.001  0.000  0.999
    occupations:
  0.299  0.008  0.006 -0.016  0.000
  0.008  0.094 -0.003  0.000 -0.008
  0.006 -0.003  0.094  0.001  0.001
 -0.016  0.000  0.001  0.077 -0.000
  0.000 -0.008  0.001 -0.000  0.341
atomic mag. moment =     3.544808
atom   22   Tr[ns(na)] (up, down, total) =   4.42117  0.96229  5.38347
   spin  1
    eigenvalues:
  0.711  0.730  0.983  0.997  1.000
    eigenvectors:
  0.234  0.000  0.000  0.000  0.766
  0.001  0.999  0.000  0.000  0.000
  0.000  0.000  0.011  0.989  0.000
  0.765  0.001  0.000  0.000  0.234
  0.000  0.000  0.989  0.011  0.000
    occupations:
  0.932 -0.001 -0.000 -0.122 -0.000
 -0.001  0.730 -0.000  0.001  0.000
 -0.000 -0.000  0.997 -0.001 -0.001
 -0.122  0.001 -0.001  0.779 -0.000
 -0.000  0.000 -0.001 -0.000  0.983
   spin  2
    eigenvalues:
  0.082  0.097  0.103  0.337  0.342
    eigenvectors:
  0.804  0.000  0.000  0.133  0.063
  0.000  0.000  0.000  0.333  0.667
  0.000  0.003  0.997  0.000  0.000
  0.196  0.000  0.000  0.534  0.270
  0.000  0.997  0.003  0.000  0.000
    occupations:
  0.133  0.000  0.000  0.102 -0.000
  0.000  0.340 -0.000 -0.003 -0.000
  0.000 -0.000  0.103  0.001 -0.000
  0.102 -0.003  0.001  0.288  0.000
 -0.000 -0.000 -0.000  0.000  0.097
atomic mag. moment =     3.458878
atom   23   Tr[ns(na)] (up, down, total) =   4.48230  0.85156  5.33386
   spin  1
    eigenvalues:
  0.701  0.779  0.999  1.002  1.002
    eigenvectors:
  0.000  0.999  0.001  0.000  0.000
  0.000  0.000  0.012  0.003  0.985
  0.000  0.000  0.000  0.997  0.003
  0.000  0.001  0.987  0.000  0.012
  1.000  0.000  0.000  0.000  0.000
    occupations:
  0.779  0.003  0.002  0.005  0.000
  0.003  1.002 -0.000 -0.000 -0.001
  0.002 -0.000  1.002 -0.000 -0.005
  0.005 -0.000 -0.000  0.998  0.000
  0.000 -0.001 -0.005  0.000  0.701
   spin  2
    eigenvalues:
  0.076  0.083  0.085  0.267  0.341
    eigenvectors:
  0.006  0.000  0.000  0.994  0.000
  0.000  0.007  0.993  0.000  0.000
  0.000  0.993  0.007  0.000  0.000
  0.994  0.000  0.000  0.006  0.000
  0.000  0.000  0.000  0.000  1.000
    occupations:
  0.266 -0.002 -0.001 -0.015  0.000
 -0.002  0.085 -0.000  0.000  0.001
 -0.001 -0.000  0.083 -0.000  0.005
 -0.015  0.000 -0.000  0.077 -0.000
  0.000  0.001  0.005 -0.000  0.341
atomic mag. moment =     3.630740
N of occupied +U levels =  42.8126234
 --- exit write_ns ---

 ------ SPIN UP ------------

[...]

 ------ SPIN DOWN ----------

[...]

          k = 0.2500-0.4606 0.0000 ( 26462 PWs)   bands (ev):

[...]

          k =-0.2500 0.2303 0.0000 ( 26396 PWs)   bands (ev):

   -80.0993 -80.0915 -80.0584 -80.0504 -79.9743 -79.9690 -79.9594 -79.1129
   -48.9803 -48.9624 -48.9580 -48.9563 -48.9415 -48.9158 -48.9104 -48.8981
   -48.8854 -48.8584 -48.8500 -48.8197 -48.8117 -48.8041 -48.8023 -48.7918
   -48.7561 -48.7381 -48.6080 -48.6030 -48.5889 -48.2055 -48.1016 -47.5447
   -21.5801 -21.1969 -21.0824 -20.8300 -20.6375 -20.4366 -20.2967 -20.2786
   -20.1620 -20.0328 -19.9784 -19.9451 -19.8460 -19.7822 -19.7310 -19.6752
   -19.5537 -19.4440 -19.3854  -8.8924  -8.6432  -8.2822  -8.2092  -8.1736
    -7.9655  -7.8164  -7.6948  -7.4236  -7.3503  -7.2215  -7.0785  -7.0042
    -6.9108  -6.8550  -6.8004  -6.7443  -6.6193  -6.4840  -6.4236  -6.2866
    -6.2165  -6.1290  -6.0538  -5.9646  -5.8593  -5.7598  -5.6521  -5.6056
    -5.5368  -5.4394  -5.3685  -5.2561  -5.1865  -5.1678  -5.0054  -4.9813
    -4.8366  -4.7159  -4.6379  -4.6101  -4.5226  -4.4039  -4.3579  -4.3304
    -4.1885  -4.1005  -4.0056  -3.8773  -3.7943  -3.6214  -3.5588  -3.4875
    -3.3009  -3.1371  -3.1267  -2.8203   1.3388   1.3782   1.3913   1.4464
     1.4845   1.4906   1.5182   1.5745   1.6060   1.6386   1.7710   1.8027
     1.8497   1.8960   1.9166   1.9853   2.0387   2.1090   2.1351   2.1997
     2.2590   2.2814   2.3626   2.3917   2.4131   2.5143   2.5483   2.6038
     2.6274   2.6863   2.7943   2.8773   2.9510   2.9925   3.0518   3.1793
     3.2073   3.3443   3.4328   3.4962   3.8786   4.0766   4.4087   4.8848
     5.4152   5.7546   5.9482   6.0234   6.2915   6.4606   6.5665   6.7039
     6.7588   6.9338   7.1165   7.3750   7.5100   7.7301   7.8967   8.0063
     8.2788   8.4275   8.5058   8.6203   8.6913   8.7604   8.8733   9.0119
     9.2060   9.3196   9.4423   9.5364   9.6769   9.7660   9.9195  10.0148
    10.1197  10.2052  10.2857  10.4035  10.5328  10.7298  10.7708  10.9079
    11.0026  11.0695  11.1412  11.2458  11.3300  11.4083  11.4940  11.6599
    11.7041  11.7620  11.8128  11.8855  11.9732  12.0947  12.1853  12.2657
    12.3689  12.4557  12.5654  12.6920  12.7311  12.8485  12.8990  12.9778
    13.0367  13.1241  13.1659  13.2257  13.2880  13.3315  13.4178  13.5295
    13.5800  13.6435  13.6951  13.7360  13.8000  13.8607  13.9597  14.0107
    14.0720  14.2140  14.2533  14.2670  14.3709  14.4212  14.4740  14.5798
    14.6792  14.7594  14.8147  14.9246  14.9928  15.0359  15.1303  15.1981
    15.2960  15.3678  15.4947  15.6219  15.6850  15.8451  15.8909  15.9985
    16.0767  16.1902  16.2404  16.2915  16.3566  16.4178  16.4797  16.5710
    16.6364  16.6820  16.8223  16.8799  16.9753  17.0024  17.1209  17.1914
    17.2217  17.3026  17.4137  17.4529  17.5607  17.6086  17.6718  17.7844
    17.8615  17.8924  17.9930  18.0909  18.1176  18.2326  18.2846  18.3247
    18.4072  18.4899  18.5699  18.6081  18.6609  18.8214  18.8463  18.9258
    19.0477  19.0830  19.1226  19.2196  19.2698  19.3134  19.4126  19.4681
    19.5801  19.6904  19.8332  19.8685  19.9305  19.9896  20.0495  20.1008
    20.1402  20.2085  20.2454  20.3112  20.3819  20.4275  20.5919  20.6351
    20.7025  20.8645  20.9430  21.0279  21.0894  21.1403  21.1991  21.2353
    21.3108  21.4019  21.5253  21.5822  21.6513  21.7089  21.7446  21.8074
    21.8571  21.9885  22.0727  22.1638  22.2617  22.3485  22.3779  22.4160
    22.5217  22.6456

     the spin up/dw Fermi energies are    -2.3266   -0.3192 ev

!    total energy              =   -2319.99781852 Ry
     Harris-Foulkes estimate   =   -2319.99781853 Ry
     estimated scf accuracy    <          6.1E-09 Ry

     The total energy is the sum of the following terms:

     one-electron contribution =  -26034.99965422 Ry
     hartree contribution      =   13037.23917307 Ry
     xc contribution           =    -349.71239362 Ry
     ewald contribution        =   11025.63317604 Ry
     Hubbard energy            =       1.84136869 Ry
     smearing contrib. (-TS)   =       0.00051151 Ry

     total magnetization       =    23.00 Bohr mag/cell
     absolute magnetization    =    35.46 Bohr mag/cell

     convergence has been achieved in  17 iterations

     Forces acting on atoms (Ry/au):

     negative rho (up, down):  0.174E-02 0.139E-02
     atom    1 type  1   force =    -0.00424230   -0.01299582    0.00068437
     atom    2 type  1   force =     0.00063019    0.00640173   -0.00014969
     atom    3 type  2   force =     0.01329927    0.00251487    0.00026155
     atom    4 type  2   force =     0.00629238    0.01138873   -0.00057120
     atom    5 type  1   force =     0.00204453    0.01145891   -0.00031721
     atom    6 type  1   force =    -0.00067570   -0.01788268   -0.00032892
     atom    7 type  1   force =     0.00191149    0.00210200    0.00095217
     atom    8 type  1   force =     0.00036965   -0.00260987   -0.00017149
     atom    9 type  2   force =     0.00916572    0.00016281    0.00000373
     atom   10 type  2   force =     0.00040511   -0.00176486   -0.00064259
     atom   11 type  1   force =    -0.01568237   -0.01961722    0.00004217
     atom   12 type  1   force =    -0.01543194    0.02016472    0.00031680
     atom   13 type  1   force =    -0.00212652   -0.00065460    0.00028708
     atom   14 type  1   force =    -0.00440627   -0.01240991    0.00063052
     atom   15 type  1   force =     0.00047500    0.00515710   -0.00036064
     atom   16 type  2   force =    -0.01545871    0.00273966    0.00023980
     atom   17 type  2   force =     0.00655001    0.01126661   -0.00077505
     atom   18 type  1   force =     0.00097266    0.01133814   -0.00023329
     atom   19 type  1   force =    -0.00285198   -0.01793596   -0.00024883
     atom   20 type  1   force =    -0.00149440    0.00284895    0.00024220
     atom   21 type  1   force =    -0.00320314   -0.00257868   -0.00056981
     atom   22 type  2   force =    -0.00807148    0.00067411   -0.00036523
     atom   23 type  2   force =     0.00173697   -0.00070628   -0.00040820
     atom   24 type  1   force =     0.01464296   -0.01436703    0.00005009
     atom   25 type  1   force =     0.01530352    0.01469176    0.00022000
     atom   26 type  1   force =     0.00104619   -0.00054723    0.00041936
     atom   27 type  3   force =     0.00003684    0.00037960    0.00047767
     atom   28 type  3   force =     0.00000625    0.00053072    0.00058731
     atom   29 type  3   force =    -0.00044873   -0.00002967   -0.00032300
     atom   30 type  3   force =    -0.00041091    0.00004403   -0.00016591
     atom   31 type  1   force =    -0.00028202    0.00024198   -0.00042749
     atom   32 type  3   force =    -0.00010227   -0.00000661    0.00064372

     Total force =     0.002663     Total SCF correction =     0.000153

     bfgs converged in  21 scf cycles and  20 bfgs steps
     (criteria: energy < 0.10E-03, force < 0.10E-02)

     End of BFGS Geometry Optimization

     Final energy   =   -2319.9978185206 Ry
Begin final coordinates

ATOMIC_POSITIONS (crystal)
O0       0.000000000   0.000000000   0.372945919    0   0   1
O0       0.000000000   0.500000000   0.393921234    0   0   1
Mn1      0.250000000   0.500000000   0.447114403    0   0   1
Mn1      0.000000000   0.000000000   0.446697456    0   0   1
O0       0.250000000   0.800000000   0.445289666    0   0   1
O0       0.250000000   0.200000000   0.449144973    0   0   1
O0       0.000000000   0.500000000   0.494065519    0   0   1
O0       0.000000000   0.000000000   0.525009243    0   0   1
Mn1      0.250000000   0.000000000   0.573996775    0   0   1
Mn1      0.000000000   0.500000000   0.570467422    0   0   1
O0       0.250000000   0.700000000   0.583630932    0   0   1
O0       0.250000000   0.300000000   0.584116595    0   0   1
O0       0.000000000   0.000000000   0.623016381    0   0   1
O0       0.500000000   0.000000000   0.372926648    0   0   1
O0       0.500000000   0.500000000   0.394077607    0   0   1
Mn1      0.750000000   0.500000000   0.447165730    0   0   1
Mn1      0.500000000   0.000000000   0.446596728    0   0   1
O0       0.750000000   0.800000000   0.445095351    0   0   1
O0       0.750000000   0.200000000   0.448913901    0   0   1
O0       0.500000000   0.500000000   0.497646432    0   0   1
O0       0.500000000   0.000000000   0.525057515    0   0   1
Mn1      0.750000000   0.000000000   0.573862337    0   0   1
Mn1      0.500000000   0.500000000   0.578964852    0   0   1
O0       0.750000000   0.700000000   0.581108424    0   0   1
O0       0.750000000   0.300000000   0.581797431    0   0   1
O0       0.500000000   0.000000000   0.623683851    0   0   1
H2       0.000470404   0.647701958   0.378233745
H2       0.500590033   0.646679977   0.378058913
H2       0.161342493   0.044068488   0.362550027
H2       0.661291658   0.044429226   0.362549042
O0       0.518173882   0.502303166   0.653471595
H2       0.355619116   0.500199399   0.666703354
End final coordinates

     General routines

     Parallel routines
     Hubbard U routines

   This run was terminated on:   6:33:33   6May2014

   JOB DONE.
Running PBS batch system epilogue script
Job id: 340700.audhumbla.fysik.dtu.dk
Username: zhonxu
Groupname: campgst
Jobname: MnO2/Eads-2-layers/OH-U-6.0
Sessionid: 28668
Queuename: verylong
Accounting:
This job has allocated the following 16 nodes:
c057 c057 c057 c057 c057 c057 c057 c057 c013 c013 c013 c013 c013 c013 c013 c013
Finished epilogue job 340700.audhumbla.fysik.dtu.dk for zhonxu