     Program PWSCF v.5.0.2 (svn rev. 9656) starts on 29Apr2014 at  3:10: 7

     Current dimensions of program PWSCF are:
     Max number of different atomic species (ntypx) = 10
     Max number of k-points (npk) =  40000
     Max angular momentum in pseudopotentials (lmaxx) =  3
     Reading input from pwscf.in
Warning: card &CELL ignored
Warning: card / ignored

     Subspace diagonalization in iterative solution of the eigenvalue problem:
     a serial algorithm will be used

     bravais-lattice index     =            0
     lattice parameter (alat)  =      12.0187  a.u.
     unit-cell volume          =    7280.5819 (a.u.)^3
     number of atoms/cell      =           31
     number of atomic types    =            3
     number of electrons       =       238.00
     number of Kohn-Sham states=          357
     kinetic-energy cutoff     =      40.0000  Ry
     charge density cutoff     =     500.0000  Ry
     convergence threshold     =      1.0E-06
     mixing beta               =       0.7000
     number of iterations used =            8  plain     mixing
     Exchange-correlation      = SLA  PW   PBE  PBE ( 1 4 3 4 0)
     EXX-fraction              =        0.00
     nstep                     =           50

     celldm(1)=  12.018658  celldm(2)=   0.000000  celldm(3)=   0.000000
     celldm(4)=   0.000000  celldm(5)=   0.000000  celldm(6)=   0.000000

     crystal axes: (cart. coord. in units of alat)
               a(1) = (   1.000000   0.000000   0.000000 )
               a(2) = (   0.000000   1.009517   0.000000 )
               a(3) = (   0.000000   0.000000   4.154171 )

     reciprocal axes: (cart. coord. in units 2 pi/alat)
               b(1) = (  1.000000  0.000000  0.000000 )
               b(2) = (  0.000000  0.990572  0.000000 )
               b(3) = (  0.000000  0.000000  0.240722 )

     PseudoPot. # 1 for O  read from file:
     /home/camp/zhonxu/pseudo/o_pbe_v1.01.uspp.F.UPF
     MD5 check sum: 2bcb18d16ea4b960afae9ec6d52f22d2
     Pseudo is Ultrasoft + core correction, Zval =  6.0
     Generated by new atomic code, or converted to UPF format
     Using radial grid of  737 points,  5 beta functions with:
                l(1) =   0
                l(2) =   0
                l(3) =   1
                l(4) =   1
                l(5) =   2
     Q(r) pseudized with  8 coefficients,  rinner =    0.900   0.900   0.900
                                                       0.900   0.900

     PseudoPot. # 2 for Ir read from file:
     /home/camp/zhonxu/pseudo/ir_pbe_v1.uspp.F.UPF
     MD5 check sum: abf987a9674477536ede83817f8f8b70
     Pseudo is Ultrasoft + core correction, Zval = 15.0
     Generated by new atomic code, or converted to UPF format
     Using radial grid of  983 points,  7 beta functions with:
                l(1) =   0
                l(2) =   0
                l(3) =   1
                l(4) =   1
                l(5) =   1
                l(6) =   2
                l(7) =   2
     Q(r) pseudized with  8 coefficients,  rinner =    1.350   1.350   1.350
                                                       1.350   1.350

     PseudoPot. # 3 for H  read from file:
     /home/camp/zhonxu/pseudo/h_pbe_v1.uspp.F.UPF
     MD5 check sum: 3408e3ff4ec8b0a4e358431e7e038a48
     Pseudo is Ultrasoft, Zval =  1.0
     Generated by new atomic code, or converted to UPF format
     Using radial grid of  615 points,  2 beta functions with:
                l(1) =   0
                l(2) =   0
     Q(r) pseudized with  8 coefficients,  rinner =    0.700

     atomic species   valence    mass     pseudopotential
        O0             6.00    15.99940     O ( 1.00)
        Ir1           15.00   192.22000     Ir( 1.00)
        H2             1.00     1.00794     H ( 1.00)

     Simplified LDA+U calculation (l_max = 2) with parameters (eV):
     atomic species    L          U    alpha       J0     beta
        Ir1            2     1.5000   0.0000   0.0000   0.0000

     No symmetry found

   Cartesian axes

     site n.     atom                  positions (alat units)
         1           O0  tau(   1) = (   0.0000000   0.0000000   1.5706091  )
         2           O0  tau(   2) = (   0.0000000   0.5047586   1.6747957  )
         3           Ir1 tau(   3) = (   0.2500000   0.5047586   1.8830443  )
         4           Ir1 tau(   4) = (   0.0000000   0.0000000   1.8812580  )
         5           O0  tau(   5) = (   0.2500000   0.8177090   1.8812996  )
         6           O0  tau(   6) = (   0.2500000   0.1918083   1.8799287  )
         7           O0  tau(   7) = (   0.0000000   0.5047586   2.0722253  )
         8           O0  tau(   8) = (   0.0000000   0.0000000   2.1948149  )
         9           Ir1 tau(   9) = (   0.2500000   0.0000000   2.3898532  )
        10           Ir1 tau(  10) = (   0.0000000   0.5047586   2.3761029  )
        11           O0  tau(  11) = (   0.2500000   0.6965669   2.3876930  )
        12           O0  tau(  12) = (   0.2500000   0.3129503   2.3878177  )
        13           O0  tau(  13) = (   0.0000000   0.0000000   2.5742569  )
        14           O0  tau(  14) = (   0.5000000   0.0000000   1.5702768  )
        15           O0  tau(  15) = (   0.5000000   0.5047586   1.6724694  )
        16           Ir1 tau(  16) = (   0.7500000   0.5047586   1.8830859  )
        17           Ir1 tau(  17) = (   0.5000000   0.0000000   1.8811334  )
        18           O0  tau(  18) = (   0.7500000   0.8177090   1.8813411  )
        19           O0  tau(  19) = (   0.7500000   0.1918083   1.8799702  )
        20           O0  tau(  20) = (   0.5000000   0.5047586   2.0802013  )
        21           O0  tau(  21) = (   0.5000000   0.0000000   2.1944825  )
        22           Ir1 tau(  22) = (   0.7500000   0.0000000   2.3898532  )
        23           Ir1 tau(  23) = (   0.5000000   0.5047586   2.4038943  )
        24           O0  tau(  24) = (   0.7500000   0.6965669   2.3876515  )
        25           O0  tau(  25) = (   0.7500000   0.3129503   2.3878177  )
        26           O0  tau(  26) = (   0.5000000   0.0000000   2.5734260  )
        27           H2  tau(  27) = (  -0.0000700   0.6394282   1.5957418  )
        28           H2  tau(  28) = (   0.4999700   0.6419823   1.5977358  )
        29           H2  tau(  29) = (   0.1436200   0.0342933   1.5227115  )
        30           H2  tau(  30) = (   0.6432900   0.0353230   1.5222545  )
        31           O0  tau(  31) = (   0.5000100   0.5042640   2.6822238  )

     number of k points=    10  Methfessel-Paxton smearing, width (Ry)=  0.0100
                       cart. coord. in units 2pi/alat
        k(    1) = (   0.0000000   0.0000000   0.0000000), wk =   0.1250000
        k(    2) = (   0.0000000   0.2476431   0.0000000), wk =   0.2500000
        k(    3) = (   0.0000000  -0.4952862   0.0000000), wk =   0.1250000
        k(    4) = (   0.2500000   0.0000000   0.0000000), wk =   0.2500000
        k(    5) = (   0.2500000   0.2476431   0.0000000), wk =   0.2500000
        k(    6) = (   0.2500000  -0.4952862   0.0000000), wk =   0.2500000
        k(    7) = (  -0.5000000   0.0000000   0.0000000), wk =   0.1250000
        k(    8) = (  -0.5000000   0.2476431   0.0000000), wk =   0.2500000
        k(    9) = (  -0.5000000  -0.4952862   0.0000000), wk =   0.1250000
        k(   10) = (  -0.2500000   0.2476431   0.0000000), wk =   0.2500000

     Largest allocated arrays     est. size (Mb)     dimensions
     Largest temporary arrays     est. size (Mb)     dimensions

     Check: negative/imaginary core charge=   -0.000003    0.000000

     Initial potential from superposition of free atoms
     Check: negative starting charge=   -3.336659

     starting charge  233.99968, renormalised to  238.00000

     negative rho (up, down):  0.339E+01 0.000E+00
     Number of +U iterations with fixed ns =  0
     Starting occupations:
 --- enter write_ns ---
 LDA+U parameters:
U( 2)     =  1.50000000
alpha( 2) =  0.00000000
atom    3   Tr[ns(na)] =   7.00000
    eigenvalues:
  0.700  0.700  0.700  0.700  0.700
    eigenvectors:
  1.000  0.000  0.000  0.000  0.000
  0.000  1.000  0.000  0.000  0.000
  0.000  0.000  1.000  0.000  0.000
  0.000  0.000  0.000  1.000  0.000
  0.000  0.000  0.000  0.000  1.000
    occupations:
  0.700  0.000  0.000  0.000  0.000
  0.000  0.700  0.000  0.000  0.000
  0.000  0.000  0.700  0.000  0.000
  0.000  0.000  0.000  0.700  0.000
  0.000  0.000  0.000  0.000  0.700
atom    4   Tr[ns(na)] =   7.00000
    eigenvalues:
  0.700  0.700  0.700  0.700  0.700
    eigenvectors:
  1.000  0.000  0.000  0.000  0.000
  0.000  1.000  0.000  0.000  0.000
  0.000  0.000  1.000  0.000  0.000
  0.000  0.000  0.000  1.000  0.000
  0.000  0.000  0.000  0.000  1.000
    occupations:
  0.700  0.000  0.000  0.000  0.000
  0.000  0.700  0.000  0.000  0.000
  0.000  0.000  0.700  0.000  0.000
  0.000  0.000  0.000  0.700  0.000
  0.000  0.000  0.000  0.000  0.700
atom    9   Tr[ns(na)] =   7.00000
    eigenvalues:
  0.700  0.700  0.700  0.700  0.700
    eigenvectors:
  1.000  0.000  0.000  0.000  0.000
  0.000  1.000  0.000  0.000  0.000
  0.000  0.000  1.000  0.000  0.000
  0.000  0.000  0.000  1.000  0.000
  0.000  0.000  0.000  0.000  1.000
    occupations:
  0.700  0.000  0.000  0.000  0.000
  0.000  0.700  0.000  0.000  0.000
  0.000  0.000  0.700  0.000  0.000
  0.000  0.000  0.000  0.700  0.000
  0.000  0.000  0.000  0.000  0.700
atom   10   Tr[ns(na)] =   7.00000
    eigenvalues:
  0.700  0.700  0.700  0.700  0.700
    eigenvectors:
  1.000  0.000  0.000  0.000  0.000
  0.000  1.000  0.000  0.000  0.000
  0.000  0.000  1.000  0.000  0.000
  0.000  0.000  0.000  1.000  0.000
  0.000  0.000  0.000  0.000  1.000
    occupations:
  0.700  0.000  0.000  0.000  0.000
  0.000  0.700  0.000  0.000  0.000
  0.000  0.000  0.700  0.000  0.000
  0.000  0.000  0.000  0.700  0.000
  0.000  0.000  0.000  0.000  0.700
atom   16   Tr[ns(na)] =   7.00000
    eigenvalues:
  0.700  0.700  0.700  0.700  0.700
    eigenvectors:
  1.000  0.000  0.000  0.000  0.000
  0.000  1.000  0.000  0.000  0.000
  0.000  0.000  1.000  0.000  0.000
  0.000  0.000  0.000  1.000  0.000
  0.000  0.000  0.000  0.000  1.000
    occupations:
  0.700  0.000  0.000  0.000  0.000
  0.000  0.700  0.000  0.000  0.000
  0.000  0.000  0.700  0.000  0.000
  0.000  0.000  0.000  0.700  0.000
  0.000  0.000  0.000  0.000  0.700
atom   17   Tr[ns(na)] =   7.00000
    eigenvalues:
  0.700  0.700  0.700  0.700  0.700
    eigenvectors:
  1.000  0.000  0.000  0.000  0.000
  0.000  1.000  0.000  0.000  0.000
  0.000  0.000  1.000  0.000  0.000
  0.000  0.000  0.000  1.000  0.000
  0.000  0.000  0.000  0.000  1.000
    occupations:
  0.700  0.000  0.000  0.000  0.000
  0.000  0.700  0.000  0.000  0.000
  0.000  0.000  0.700  0.000  0.000
  0.000  0.000  0.000  0.700  0.000
  0.000  0.000  0.000  0.000  0.700
atom   22   Tr[ns(na)] =   7.00000
    eigenvalues:
  0.700  0.700  0.700  0.700  0.700
    eigenvectors:
  1.000  0.000  0.000  0.000  0.000
  0.000  1.000  0.000  0.000  0.000
  0.000  0.000  1.000  0.000  0.000
  0.000  0.000  0.000  1.000  0.000
  0.000  0.000  0.000  0.000  1.000
    occupations:
  0.700  0.000  0.000  0.000  0.000
[...]
  0.000  0.000  0.973  0.027  0.000
  0.001  0.858  0.000  0.000  0.141
  0.000  0.000  0.027  0.973  0.000
    occupations:
  0.933  0.001 -0.000 -0.109 -0.001
  0.001  0.650  0.000  0.000 -0.000
 -0.000  0.000  0.846 -0.000 -0.007
 -0.109  0.000 -0.000  0.709  0.001
 -0.001 -0.000 -0.007  0.001  0.886
atom   10   Tr[ns(na)] =   8.04920
    eigenvalues:
  0.587  0.606  0.926  0.927  0.979
    eigenvectors:
  0.992  0.000  0.000  0.000  0.008
  0.000  0.000  0.240  0.760  0.000
  0.000  0.000  0.760  0.240  0.000
  0.008  0.000  0.000  0.000  0.992
  0.000  1.000  0.000  0.000  0.000
    occupations:
  0.590  0.000  0.001  0.035 -0.000
  0.000  0.927 -0.000  0.000 -0.000
  0.001 -0.000  0.926  0.000  0.000
  0.035  0.000  0.000  0.975 -0.000
 -0.000 -0.000  0.000 -0.000  0.606
atom   16   Tr[ns(na)] =   8.08855
    eigenvalues:
  0.604  0.631  0.878  0.957  0.975
    eigenvectors:
  0.002  0.184  0.003  0.001  0.810
  0.992  0.007  0.000  0.000  0.000
  0.000  0.000  0.986  0.011  0.003
  0.005  0.808  0.000  0.000  0.186
  0.000  0.000  0.010  0.988  0.001
    occupations:
  0.910  0.005  0.004 -0.134  0.001
  0.005  0.605  0.000  0.000 -0.005
  0.004  0.000  0.879 -0.004 -0.008
 -0.134  0.000 -0.004  0.695 -0.000
  0.001 -0.005 -0.008 -0.000  0.956
atom   17   Tr[ns(na)] =   8.06542
    eigenvalues:
  0.618  0.665  0.861  0.909  0.981
    eigenvectors:
  0.000  0.990  0.000  0.000  0.010
  0.000  0.000  0.060  0.940  0.000
  0.000  0.000  0.940  0.060  0.000
  0.000  0.010  0.000  0.000  0.990
  1.000  0.000  0.000  0.000  0.000
    occupations:
  0.668 -0.003 -0.001  0.031  0.001
 -0.003  0.906  0.011  0.000 -0.001
 -0.001  0.011  0.863 -0.000  0.000
  0.031  0.000 -0.000  0.977  0.000
  0.001 -0.001  0.000  0.000  0.618
atom   22   Tr[ns(na)] =   8.04772
    eigenvalues:
  0.650  0.665  0.845  0.887  0.977
    eigenvectors:
  0.000  0.141  0.000  0.000  0.859
  1.000  0.000  0.000  0.000  0.000
  0.000  0.000  0.976  0.024  0.000
  0.000  0.859  0.000  0.000  0.141
  0.000  0.000  0.024  0.976  0.000
    occupations:
  0.933  0.000 -0.000 -0.109 -0.000
  0.000  0.650  0.000  0.000 -0.000
 -0.000  0.000  0.846 -0.000  0.006
 -0.109  0.000 -0.000  0.709  0.000
 -0.000 -0.000  0.006  0.000  0.886
atom   23   Tr[ns(na)] =   8.02446
    eigenvalues:
  0.647  0.712  0.808  0.862  0.983
    eigenvectors:
  0.000  0.991  0.000  0.000  0.009
  0.000  0.000  0.000  1.000  0.000
  0.000  0.000  1.000  0.000  0.000
  0.000  0.009  0.000  0.000  0.991
  1.000  0.000  0.000  0.000  0.000
    occupations:
  0.714  0.000 -0.000  0.026 -0.000
  0.000  0.862 -0.000  0.000 -0.000
 -0.000 -0.000  0.808  0.000  0.000
  0.026  0.000  0.000  0.981  0.000
 -0.000 -0.000  0.000  0.000  0.647
N of occupied +U levels =  64.4794770
 --- exit write_ns ---

     Threshold (ethr) on eigenvalues was too large:
     Diagonalizing with lowered threshold

     Davidson diagonalization with overlap
     ethr =  6.66E-09,  avg # of iterations =  2.0

[...]

     total energy              =   -2105.55939425 Ry
     Harris-Foulkes estimate   =   -2105.55939426 Ry
     estimated scf accuracy    <       0.00000004 Ry

     iteration # 15     ecut=    40.00 Ry     beta=0.70
     Davidson diagonalization with overlap
     ethr =  1.04E-11,  avg # of iterations =  1.0

     negative rho (up, down):  0.313E+01 0.000E+00

     End of self-consistent calculation
 --- enter write_ns ---
 LDA+U parameters:
U( 2)     =  1.50000000
alpha( 2) =  0.00000000
atom    3   Tr[ns(na)] =   8.08844
    eigenvalues:
  0.604  0.631  0.878  0.957  0.974
    eigenvectors:
  0.002  0.184  0.003  0.001  0.810
  0.992  0.008  0.000  0.000  0.000
  0.000  0.000  0.983  0.014  0.003
  0.006  0.808  0.000  0.000  0.186
  0.000  0.000  0.014  0.985  0.001
    occupations:
  0.910 -0.005  0.004 -0.134 -0.001
 -0.005  0.605 -0.001 -0.000 -0.005
  0.004 -0.001  0.880 -0.004  0.009
 -0.134 -0.000 -0.004  0.695 -0.000
 -0.001 -0.005  0.009 -0.000  0.956
atom    4   Tr[ns(na)] =   8.06728
    eigenvalues:
  0.619  0.665  0.856  0.914  0.980
    eigenvectors:
  0.000  0.989  0.000  0.000  0.010
  0.000  0.000  0.037  0.963  0.000
  0.000  0.000  0.963  0.037  0.000
  0.000  0.010  0.000  0.000  0.990
  1.000  0.000  0.000  0.000  0.000
    occupations:
  0.668 -0.003 -0.001  0.032  0.001
 -0.003  0.912  0.011  0.000 -0.001
 -0.001  0.011  0.858 -0.000  0.000
  0.032  0.000 -0.000  0.977  0.000
  0.001 -0.001  0.000  0.000  0.619
atom    9   Tr[ns(na)] =   8.04844
    eigenvalues:
  0.650  0.665  0.845  0.887  0.977
    eigenvectors:
  0.000  0.140  0.000  0.000  0.859
  0.999  0.001  0.000  0.000  0.000
  0.000  0.000  0.973  0.027  0.000
  0.001  0.858  0.000  0.000  0.141
  0.000  0.000  0.027  0.973  0.000
    occupations:
  0.933  0.001 -0.000 -0.109 -0.001
  0.001  0.650  0.000  0.000 -0.000
 -0.000  0.000  0.846 -0.000 -0.007
 -0.109  0.000 -0.000  0.709  0.001
 -0.001 -0.000 -0.007  0.001  0.886
atom   10   Tr[ns(na)] =   8.04888
    eigenvalues:
  0.587  0.606  0.926  0.927  0.979
    eigenvectors:
  0.992  0.000  0.000  0.000  0.008
  0.000  0.000  0.146  0.854  0.000
  0.000  0.000  0.854  0.146  0.000
  0.008  0.000  0.000  0.000  0.992
  0.000  1.000  0.000  0.000  0.000
    occupations:
  0.590  0.000  0.001  0.035 -0.000
  0.000  0.927 -0.000  0.000 -0.000
  0.001 -0.000  0.926  0.000  0.000
  0.035  0.000  0.000  0.975 -0.000
 -0.000 -0.000  0.000 -0.000  0.606
atom   16   Tr[ns(na)] =   8.08832
    eigenvalues:
  0.604  0.631  0.878  0.956  0.975
    eigenvectors:
  0.002  0.184  0.003  0.001  0.810
  0.992  0.008  0.000  0.000  0.000
  0.000  0.000  0.986  0.011  0.003
  0.005  0.808  0.000  0.000  0.186
  0.000  0.000  0.010  0.988  0.001
    occupations:
  0.910  0.005  0.004 -0.134  0.001
  0.005  0.605  0.000  0.000 -0.005
  0.004  0.000  0.879 -0.004 -0.008
 -0.134  0.000 -0.004  0.695 -0.000
  0.001 -0.005 -0.008 -0.000  0.956
atom   17   Tr[ns(na)] =   8.06498
    eigenvalues:
  0.618  0.665  0.860  0.909  0.981
    eigenvectors:
  0.000  0.990  0.000  0.000  0.010
  0.000  0.000  0.060  0.940  0.000
  0.000  0.000  0.940  0.060  0.000
  0.000  0.010  0.000  0.000  0.990
  1.000  0.000  0.000  0.000  0.000
    occupations:
  0.668 -0.003 -0.001  0.031  0.001
 -0.003  0.906  0.011  0.000 -0.001
 -0.001  0.011  0.863 -0.000  0.000
  0.031  0.000 -0.000  0.977  0.000
  0.001 -0.001  0.000  0.000  0.618
atom   22   Tr[ns(na)] =   8.04838
    eigenvalues:
  0.651  0.665  0.845  0.887  0.977
    eigenvectors:
  0.000  0.141  0.000  0.000  0.859
  1.000  0.000  0.000  0.000  0.000
  0.000  0.000  0.976  0.024  0.000
  0.000  0.859  0.000  0.000  0.141
  0.000  0.000  0.024  0.975  0.000
    occupations:
  0.933  0.000 -0.000 -0.109 -0.000
  0.000  0.651  0.000  0.000 -0.000
 -0.000  0.000  0.846 -0.000  0.006
 -0.109  0.000 -0.000  0.709  0.000
 -0.000 -0.000  0.006  0.000  0.886
atom   23   Tr[ns(na)] =   8.02430
    eigenvalues:
  0.647  0.712  0.808  0.862  0.983
    eigenvectors:
  0.000  0.991  0.000  0.000  0.009
  0.000  0.000  0.000  1.000  0.000
  0.000  0.000  1.000  0.000  0.000
  0.000  0.009  0.000  0.000  0.991
  1.000  0.000  0.000  0.000  0.000
    occupations:
  0.714  0.000 -0.000  0.026 -0.000
  0.000  0.862 -0.000  0.000 -0.000
 -0.000 -0.000  0.808  0.000  0.000
  0.026  0.000  0.000  0.981  0.000
 -0.000 -0.000  0.000  0.000  0.647
N of occupied +U levels =  64.4790142
 --- exit write_ns ---

[...]

          k = 0.2500-0.4953 0.0000 ( 31088 PWs)   bands (ev):

[...]

          k =-0.2500 0.2476 0.0000 ( 31099 PWs)   bands (ev):

   -52.3508 -52.0521 -51.9346 -51.2814 -51.2767 -51.1766 -51.1400 -51.1319
   -51.1223 -51.1009 -51.0642 -50.9832 -50.9757 -50.9660 -50.9446 -50.8933
   -50.8900 -50.8625 -50.7950 -50.7741 -50.7665 -50.7634 -50.7553 -50.6271
   -21.7257 -21.3823 -21.3326 -21.2331 -20.9039 -20.7916 -20.7265 -20.6318
   -20.4696 -20.4423 -20.3402 -20.2927 -20.1802 -20.1435 -19.9769 -19.8007
   -19.0553 -18.9777 -18.8826 -10.1422 -10.1120  -9.9215  -9.5768  -9.3220
    -9.1658  -9.1099  -9.0063  -8.9645  -8.9266  -8.8809  -8.7588  -8.6538
    -8.5483  -8.3839  -8.2667  -8.2221  -8.0318  -7.8813  -7.6871  -7.6101
    -7.4310  -7.3830  -7.2178  -7.0217  -6.8498  -6.7034  -6.6447  -6.5701
    -6.4634  -6.4057  -6.3263  -6.2551  -6.1968  -6.1444  -5.9737  -5.9083
    -5.7417  -5.6787  -5.5433  -5.3607  -5.3001  -5.1408  -5.0255  -4.9577
    -4.8495  -4.6679  -4.5960  -4.4823  -4.3920  -4.3548  -4.2278  -3.9371
    -3.7079  -3.6019  -3.5149  -3.4567  -3.3512  -3.0062  -2.9980  -2.9589
    -2.9177  -2.7591  -2.7372  -2.6578  -2.6333  -2.5440  -2.4803  -2.3347
    -2.2370  -1.9061  -1.8080  -1.6546  -1.5040  -1.3249  -1.1348  -1.0529
    -0.9848  -0.8335  -0.7537  -0.5309  -0.2278   0.4660   0.7016   1.0574
     1.3864   1.5022   1.8569   1.9938   2.3294   2.4734   2.5265   2.6939
     2.8365   3.0616   3.0920   3.5478   3.6351   4.5243   4.8591   5.3332
     5.3857   5.5269   5.5844   6.1698   6.4473   6.5166   6.6841   6.7775
     6.8829   6.9604   7.1865   7.2900   7.3283   7.3604   7.5381   7.8058
     7.8185   7.8895   7.9612   8.0407   8.1653   8.2577   8.3787   8.4574
     8.5465   8.7225   8.7861   8.7879   8.8098   8.8109   8.8273   8.9205
     8.9402   8.9678   8.9829   8.9872   9.0383   9.1141   9.2652   9.4103
     9.4812   9.6015   9.6602   9.7393   9.8091   9.9026  10.0104  10.1338
    10.1719  10.2774  10.4016  10.4527  10.5013  10.5613  10.6571  10.8615
    10.9115  10.9474  11.0591  11.0884  11.1598  11.3068  11.4264  11.5562
    11.6169  11.6587  11.7486  11.8045  11.8425  12.0353  12.0793  12.1754
    12.2369  12.2597  12.3874  12.5170  12.5312  12.6479  12.6879  12.7285
    12.7944  12.8655  12.9191  12.9687  13.0525  13.0725  13.1698  13.2292
    13.2697  13.4132  13.4374  13.5130  13.6284  13.8106  13.8919  13.9080
    14.0002  14.0646  14.1801  14.2170  14.2770  14.4072  14.4407  14.5898
    14.6664  14.7524  14.7946  14.9300  15.0354  15.0885  15.2000  15.2914
    15.3647  15.4217  15.5452  15.5963  15.6583  15.7404  15.8098  15.8306
    15.9410  15.9932  16.0286  16.1288  16.1354  16.2181  16.3062  16.3372
    16.4000  16.4148  16.5259  16.5630  16.6223  16.6899  16.7330  16.7748
    16.8383  16.9907  17.1474  17.1861  17.2378  17.3045  17.3479  17.4665
    17.4940  17.5387  17.5819  17.6681  17.7214  17.7870  17.8682  17.9141
    17.9690  18.0104  18.0734  18.1861  18.1912  18.2481  18.3686  18.4564
    18.5166  18.5930  18.6235  18.7192  18.7698  18.8956  18.9855  19.0252
    19.0555  19.1070  19.1730  19.2289  19.2624  19.3410  19.3834  19.4918
    19.5957  19.6272  19.6669  19.7294  19.8572  19.9206  19.9750  20.0605
    20.1801  20.2749  20.3022  20.3666  20.4443  20.4934  20.5840  20.6955
    20.7197  20.7716  20.8050  20.8367  20.8507  20.9390  21.0574  21.1408
    21.2243  21.2842  21.3634  21.4061  21.4700  21.5294  21.5618  21.6666
    21.7482  21.8038  21.8506  21.8795  21.9218

     the Fermi energy is    -1.1699 ev

!    total energy              =   -2105.55939425 Ry
     Harris-Foulkes estimate   =   -2105.55939426 Ry
     estimated scf accuracy    <          4.9E-09 Ry

     The total energy is the sum of the following terms:

     one-electron contribution =  -22692.41335127 Ry
     hartree contribution      =   11387.13361277 Ry
     xc contribution           =    -576.28631720 Ry
     ewald contribution        =    9775.40896874 Ry
     Hubbard energy            =       0.59777527 Ry
     smearing contrib. (-TS)   =      -0.00008256 Ry

     convergence has been achieved in  15 iterations

     Forces acting on atoms (Ry/au):

     negative rho (up, down):  0.313E+01 0.000E+00
     atom    1 type  1   force =    -0.00770227   -0.01359926   -0.00052286
     atom    2 type  1   force =     0.00004654    0.00429732    0.00008712
     atom    3 type  2   force =     0.03797055    0.00710398   -0.00039787
     atom    4 type  2   force =     0.00980623    0.00860022   -0.00002733
     atom    5 type  1   force =    -0.00265322   -0.01702433    0.00015821
     atom    6 type  1   force =     0.00479941    0.01474154    0.00023419
     atom    7 type  1   force =    -0.00030477   -0.00189135    0.00029856
     atom    8 type  1   force =    -0.00349583   -0.00077297    0.00007601
     atom    9 type  2   force =     0.00685199    0.00066464   -0.00011678
     atom   10 type  2   force =     0.00000583   -0.00098250   -0.00053376
     atom   11 type  1   force =     0.00331043    0.00579064    0.00002021
     atom   12 type  1   force =     0.00287470   -0.00628195    0.00001166
     atom   13 type  1   force =    -0.00095203    0.00000757    0.00025479
     atom   14 type  1   force =    -0.00792729   -0.01403908   -0.00032011
     atom   15 type  1   force =     0.00013053    0.00510983   -0.00008026
     atom   16 type  2   force =    -0.03814004    0.00607951   -0.00043263
     atom   17 type  2   force =     0.00969539    0.00876885   -0.00014246
     atom   18 type  1   force =    -0.00319049   -0.01651286    0.00016045
     atom   19 type  1   force =     0.00338673    0.01527208    0.00023151
     atom   20 type  1   force =    -0.00019963   -0.00504912   -0.00026994
     atom   21 type  1   force =    -0.00334357   -0.00051662   -0.00008495
     atom   22 type  2   force =    -0.00426713    0.00049944   -0.00010442
     atom   23 type  2   force =    -0.00006284    0.00025552    0.00026130
     atom   24 type  1   force =    -0.00330871    0.00577009    0.00001111
     atom   25 type  1   force =    -0.00262079   -0.00631839    0.00001773
     atom   26 type  1   force =    -0.00089236   -0.00013872   -0.00026172
     atom   27 type  3   force =    -0.00000236   -0.00008217    0.00050407
     atom   28 type  3   force =     0.00001203   -0.00001613    0.00054372
     atom   29 type  3   force =     0.00018456    0.00005737    0.00005920
     atom   30 type  3   force =    -0.00000354    0.00021604    0.00006019
     atom   31 type  1   force =    -0.00000807   -0.00000918    0.00030508

     Total force =     0.001531     Total SCF correction =     0.000157
     SCF correction compared to forces is large: reduce conv_thr to get better values

     bfgs converged in   7 scf cycles and   6 bfgs steps
     (criteria: energy < 0.10E-03, force < 0.10E-02)

     End of BFGS Geometry Optimization

     Final energy   =   -2105.5593942523 Ry
Begin final coordinates

ATOMIC_POSITIONS (crystal)
O0       0.000000000   0.000000000   0.378222608    0   0   1
O0       0.000000000   0.500000000   0.403355702    0   0   1
Ir1      0.250000000   0.500000000   0.453372718    0   0   1
Ir1      0.000000000   0.000000000   0.452871778    0   0   1
O0       0.250000000   0.810000000   0.452929755    0   0   1
O0       0.250000000   0.190000000   0.452551808    0   0   1
O0       0.000000000   0.500000000   0.499078357    0   0   1
O0       0.000000000   0.000000000   0.528291533    0   0   1
Ir1      0.250000000   0.000000000   0.575150357    0   0   1
Ir1      0.000000000   0.500000000   0.571970577    0   0   1
O0       0.250000000   0.690000000   0.574596636    0   0   1
O0       0.250000000   0.310000000   0.574626604    0   0   1
O0       0.000000000   0.000000000   0.619524058    0   0   1
O0       0.500000000   0.000000000   0.378095199    0   0   1
O0       0.500000000   0.500000000   0.402798661    0   0   1
Ir1      0.750000000   0.500000000   0.453377615    0   0   1
Ir1      0.500000000   0.000000000   0.452820751    0   0   1
O0       0.750000000   0.810000000   0.452945052    0   0   1
O0       0.750000000   0.190000000   0.452558998    0   0   1
O0       0.500000000   0.500000000   0.500980551    0   0   1
O0       0.500000000   0.000000000   0.528254806    0   0   1
Ir1      0.750000000   0.000000000   0.575152333    0   0   1
Ir1      0.500000000   0.500000000   0.578394020    0   0   1
O0       0.750000000   0.690000000   0.574595111    0   0   1
O0       0.750000000   0.310000000   0.574624626    0   0   1
O0       0.500000000   0.000000000   0.619449284    0   0   1
H2      -0.000104488   0.633333294   0.384336772
H2       0.499947910   0.635972684   0.384883430
H2       0.143350451   0.033990293   0.366504697
H2       0.642973155   0.035352218   0.366378261
O0       0.500015631   0.499509982   0.645367340
End final coordinates

     General routines

     Parallel routines
     Hubbard U routines

   This run was terminated on:  10:16:20  29Apr2014

   JOB DONE.
Running PBS batch system epilogue script
Job id: 340402.audhumbla.fysik.dtu.dk
Username: zhonxu
Groupname: campgst
Jobname: IrO2/Eads-2-layers/O-U-1.5
Sessionid: 6489
Queuename: verylong
Accounting:
This job has allocated the following 16 nodes:
a112 a112 a112 a112 a112 a112 a112 a112 a058 a058 a058 a058 a058 a058 a058 a058
Finished epilogue job 340402.audhumbla.fysik.dtu.dk for zhonxu