     Program PWSCF v.5.0.2 (svn rev. 9656) starts on 24Jan2014 at 15:19:21

     Current dimensions of program PWSCF are:
     Max number of different atomic species (ntypx) = 10
     Max number of k-points (npk) =  40000
     Max angular momentum in pseudopotentials (lmaxx) =  3
     Reading input from PtO2-v-1.05.in

     Subspace diagonalization in iterative solution of the eigenvalue problem:
     a serial algorithm will be used

     bravais-lattice index     =            0
     lattice parameter (alat)  =       9.0788  a.u.
     unit-cell volume          =     482.2491 (a.u.)^3
     number of atoms/cell      =            6
     number of atomic types    =            2
     number of electrons       =        56.00
     number of Kohn-Sham states=           84
     kinetic-energy cutoff     =      40.0000  Ry
     charge density cutoff     =     500.0000  Ry
     convergence threshold     =      1.0E-06
     mixing beta               =       0.3000
     number of iterations used =            8  plain     mixing
     Exchange-correlation      = SLA  PW   PBE  PBE ( 1 4 3 4 0)
     EXX-fraction              =        0.00
     nstep                     =           50

     celldm(1)=   9.078804  celldm(2)=   0.000000  celldm(3)=   0.000000
     celldm(4)=   0.000000  celldm(5)=   0.000000  celldm(6)=   0.000000

     crystal axes: (cart. coord. in units of alat)
               a(1) = (   1.000000   0.000000   0.000000 )
               a(2) = (   0.000000   1.000000   0.000000 )
               a(3) = (   0.000000   0.000000   0.644444 )

     reciprocal axes: (cart. coord. in units 2 pi/alat)
               b(1) = (  1.000000  0.000000  0.000000 )
               b(2) = (  0.000000  1.000000  0.000000 )
               b(3) = (  0.000000  0.000000  1.551724 )

     PseudoPot. # 1 for Pt read from file:
     /home/camp/zhonxu/pseudo/pt_pbe_v1.uspp.F.UPF
     MD5 check sum: 4c71d6ad5ef119f1eb26a4d0b7884226
     Pseudo is Ultrasoft + core correction, Zval = 16.0
     Generated by new atomic code, or converted to UPF format
     Using radial grid of  985 points,  6 beta functions with:
                l(1) =   0
                l(2) =   0
                l(3) =   1
                l(4) =   1
                l(5) =   2
                l(6) =   2
     Q(r) pseudized with  8 coefficients,  rinner =    1.300   1.300   1.300
                                                       1.300   1.300

     PseudoPot. # 2 for O  read from file:
     /home/camp/zhonxu/pseudo/o_pbe_v1.01.uspp.F.UPF
     MD5 check sum: 2bcb18d16ea4b960afae9ec6d52f22d2
     Pseudo is Ultrasoft + core correction, Zval =  6.0
     Generated by new atomic code, or converted to UPF format
     Using radial grid of  737 points,  5 beta functions with:
                l(1) =   0
                l(2) =   0
                l(3) =   1
                l(4) =   1
                l(5) =   2
     Q(r) pseudized with  8 coefficients,  rinner =    0.900   0.900   0.900
                                                       0.900   0.900

     atomic species   valence    mass     pseudopotential
        Pt0           16.00   195.08000     Pt( 1.00)
        O1             6.00    15.99940     O ( 1.00)

     Starting magnetic structure
     atomic species   magnetization
        Pt0          0.600
        O1           0.000

      8 Sym. Ops., with inversion, found
          (note:  8 additional sym.ops. were found but ignored
           their fractional translations are incommensurate with FFT grid)

   Cartesian axes

     site n.     atom                  positions (alat units)
         1           Pt0 tau(   1) = (   0.0000000   0.0000000   0.0000000  )
         2           Pt0 tau(   2) = (   0.5000000   0.5000000   0.3222222  )
         3           O1  tau(   3) = (   0.3050000   0.3050000   0.0000000  )
         4           O1  tau(   4) = (  -0.3050000  -0.3050000   0.0000000  )
         5           O1  tau(   5) = (   0.8050000   0.1950000   0.3222222  )
         6           O1  tau(   6) = (   0.1950000   0.8050000   0.3222222  )

     number of k points=    54  Methfessel-Paxton smearing, width (Ry)=  0.0100
                       cart. coord. in units 2pi/alat
        k(    1) = (   0.0000000   0.0000000   0.0000000), wk =   0.0080000
        k(    2) = (   0.0000000   0.0000000   0.3103448), wk =   0.0160000
        k(    3) = (   0.0000000   0.0000000   0.6206897), wk =   0.0160000
        k(    4) = (   0.0000000   0.2000000   0.0000000), wk =   0.0320000
        k(    5) = (   0.0000000   0.2000000   0.3103448), wk =   0.0640000
        k(    6) = (   0.0000000   0.2000000   0.6206897), wk =   0.0640000
        k(    7) = (   0.0000000   0.4000000   0.0000000), wk =   0.0320000
        k(    8) = (   0.0000000   0.4000000   0.3103448), wk =   0.0640000
        k(    9) = (   0.0000000   0.4000000   0.6206897), wk =   0.0640000
        k(   10) = (   0.2000000   0.2000000   0.0000000), wk =   0.0160000
        k(   11) = (   0.2000000   0.2000000   0.3103448), wk =   0.0320000
        k(   12) = (   0.2000000   0.2000000   0.6206897), wk =   0.0320000
        k(   13) = (   0.2000000   0.4000000   0.0000000), wk =   0.0320000
        k(   14) = (   0.2000000   0.4000000   0.3103448), wk =   0.0640000
        k(   15) = (   0.2000000   0.4000000   0.6206897), wk =   0.0640000
        k(   16) = (   0.4000000   0.4000000   0.0000000), wk =   0.0160000
        k(   17) = (   0.4000000   0.4000000   0.3103448), wk =   0.0320000
        k(   18) = (   0.4000000   0.4000000   0.6206897), wk =   0.0320000
        k(   19) = (  -0.2000000   0.2000000   0.0000000), wk =   0.0160000
        k(   20) = (  -0.2000000   0.2000000  -0.3103448), wk =   0.0320000
        k(   21) = (  -0.2000000   0.2000000  -0.6206897), wk =   0.0320000
        k(   22) = (  -0.2000000   0.4000000   0.0000000), wk =   0.0320000
        k(   23) = (  -0.2000000   0.4000000  -0.3103448), wk =   0.0640000
        k(   24) = (  -0.2000000   0.4000000  -0.6206897), wk =   0.0640000
        k(   25) = (  -0.4000000   0.4000000   0.0000000), wk =   0.0160000
        k(   26) = (  -0.4000000   0.4000000  -0.3103448), wk =   0.0320000
        k(   27) = (  -0.4000000   0.4000000  -0.6206897), wk =   0.0320000
        k(   28) = (   0.0000000   0.0000000   0.0000000), wk =   0.0080000
        k(   29) = (   0.0000000   0.0000000   0.3103448), wk =   0.0160000
        k(   30) = (   0.0000000   0.0000000   0.6206897), wk =   0.0160000
        k(   31) = (   0.0000000   0.2000000   0.0000000), wk =   0.0320000
        k(   32) = (   0.0000000   0.2000000   0.3103448), wk =   0.0640000
        k(   33) = (   0.0000000   0.2000000   0.6206897), wk =   0.0640000
        k(   34) = (   0.0000000   0.4000000   0.0000000), wk =   0.0320000
        k(   35) = (   0.0000000   0.4000000   0.3103448), wk =   0.0640000
        k(   36) = (   0.0000000   0.4000000   0.6206897), wk =   0.0640000
        k(   37) = (   0.2000000   0.2000000   0.0000000), wk =   0.0160000
        k(   38) = (   0.2000000   0.2000000   0.3103448), wk =   0.0320000
        k(   39) = (   0.2000000   0.2000000   0.6206897), wk =   0.0320000
        k(   40) = (   0.2000000   0.4000000   0.0000000), wk =   0.0320000
        k(   41) = (   0.2000000   0.4000000   0.3103448), wk =   0.0640000
        k(   42) = (   0.2000000   0.4000000   0.6206897), wk =   0.0640000
        k(   43) = (   0.4000000   0.4000000   0.0000000), wk =   0.0160000
        k(   44) = (   0.4000000   0.4000000   0.3103448), wk =   0.0320000
        k(   45) = (   0.4000000   0.4000000   0.6206897), wk =   0.0320000
        k(   46) = (  -0.2000000   0.2000000   0.0000000), wk =   0.0160000
        k(   47) = (  -0.2000000   0.2000000  -0.3103448), wk =   0.0320000
        k(   48) = (  -0.2000000   0.2000000  -0.6206897), wk =   0.0320000
        k(   49) = (  -0.2000000   0.4000000   0.0000000), wk =   0.0320000
        k(   50) = (  -0.2000000   0.4000000  -0.3103448), wk =   0.0640000
        k(   51) = (  -0.2000000   0.4000000  -0.6206897), wk =   0.0640000
        k(   52) = (  -0.4000000   0.4000000   0.0000000), wk =   0.0160000
        k(   53) = (  -0.4000000   0.4000000  -0.3103448), wk =   0.0320000
        k(   54) = (  -0.4000000   0.4000000  -0.6206897), wk =   0.0320000

     Largest allocated arrays     est. size (Mb)     dimensions
     Largest temporary arrays     est. size (Mb)     dimensions

     Check: negative/imaginary core charge=   -0.000005    0.000000

     Initial potential from superposition of free atoms
     Check: negative starting charge=(component1):   -0.307900
     Check: negative starting charge=(component2):   -0.076533

     starting charge   54.99997, renormalised to   56.00000

     negative rho (up, down):  0.313E+00 0.779E-01
     Starting wfc are   40 randomized atomic wfcs

     Self-consistent Calculation

     iteration #  1     ecut=    40.00 Ry     beta=0.30
     Davidson diagonalization with overlap
     ethr =  1.00E-02,  avg # of iterations =  6.3

     negative rho (up, down):  0.279E+00 0.110E+00

     total energy              =    -542.58930471 Ry
     Harris-Foulkes estimate   =    -545.16093253 Ry
     estimated scf accuracy    <       7.14778458 Ry

     total magnetization       =     8.08 Bohr mag/cell
     absolute magnetization    =     8.10 Bohr mag/cell

[...]

     End of self-consistent calculation

 ------ SPIN UP ------------

          k = 0.0000 0.0000 0.0000 (  2031 PWs)   bands (ev):

   -42.6914 -42.6867 -42.6046 -42.6044 -42.5856 -42.5854  -8.3977  -7.3520
    -6.6579  -6.6575   2.6126   2.8551   4.3026   4.3030   4.7429   7.1605
     7.1606   7.5312   7.9202   8.2451   8.2945   8.4347   8.4351   8.7111
     9.3442   9.3444  10.2486  10.5597  11.8445  14.2816  14.2819  14.7529
    15.5899  20.2649  20.2650  21.7046  23.5369  24.1758  26.2944  26.6533
    26.6533  27.8565  28.6456  29.4546  29.4703  30.6400  31.9274  31.9274
    33.0795  33.0795  34.6560  36.2294  36.2612  36.4614  36.4616  37.3520
    37.7745  39.0654  39.3423  40.2686  40.6955  40.6957  40.7934  40.7935
    41.6583  41.6583  42.5858  44.4142  45.0495  46.6502  46.6502  47.3337
    48.4270  48.4270  48.6014  48.9898  49.3367  49.3368  49.5383  49.7900
    49.8389  50.4728  50.8940  55.0889

[...]

          k =-0.2000 0.2000 0.0000 (  2051 PWs)   bands (ev):

[...]

 ------ SPIN DOWN ----------

[...]

     the Fermi energy is    11.4139 ev

!    total energy              =    -544.91749553 Ry
     Harris-Foulkes estimate   =    -544.91749482 Ry
     estimated scf accuracy    <       0.00000048 Ry

     The total energy is the sum of the following terms:

     one-electron contribution =    -151.24203675 Ry
     hartree contribution      =     110.74649204 Ry
     xc contribution           =    -137.01021930 Ry
     ewald contribution        =    -367.41130630 Ry
     smearing contrib. (-TS)   =      -0.00042522 Ry

[...]

     convergence has been achieved in  17 iterations

     Forces acting on atoms (Ry/au):

     negative rho (up, down):  0.197E+00 0.197E+00
     atom    1 type  1   force =     0.00000000    0.00000000    0.00000000
[...]
        k(   17) = (   0.4108007   0.4108007   0.2942359), wk =   0.0320000
        k(   18) = (   0.4108007   0.4108007   0.5884717), wk =   0.0320000
        k(   19) = (  -0.2054034   0.2054034   0.0000000), wk =   0.0160000
        k(   20) = (  -0.2054034   0.2054034  -0.2942359), wk =   0.0320000
        k(   21) = (  -0.2054034   0.2054034  -0.5884717), wk =   0.0320000
        k(   22) = (  -0.2054050   0.4108053   0.0000000), wk =   0.0320000
        k(   23) = (  -0.2054050   0.4108053  -0.2942359), wk =   0.0640000
        k(   24) = (  -0.2054050   0.4108053  -0.5884717), wk =   0.0640000
        k(   25) = (  -0.4108069   0.4108069   0.0000000), wk =   0.0160000
        k(   26) = (  -0.4108069   0.4108069  -0.2942359), wk =   0.0320000
        k(   27) = (  -0.4108069   0.4108069  -0.5884717), wk =   0.0320000
        k(   28) = (   0.0000000   0.0000000   0.0000000), wk =   0.0080000
        k(   29) = (   0.0000000   0.0000000   0.2942359), wk =   0.0160000
        k(   30) = (   0.0000000   0.0000000   0.5884717), wk =   0.0160000
        k(   31) = (  -0.0000015   0.2054019   0.0000000), wk =   0.0320000
        k(   32) = (  -0.0000015   0.2054019   0.2942359), wk =   0.0640000
        k(   33) = (  -0.0000015   0.2054019   0.5884717), wk =   0.0640000
        k(   34) = (  -0.0000031   0.4108038   0.0000000), wk =   0.0320000
        k(   35) = (  -0.0000031   0.4108038   0.2942359), wk =   0.0640000
        k(   36) = (  -0.0000031   0.4108038   0.5884717), wk =   0.0640000
        k(   37) = (   0.2054004   0.2054004   0.0000000), wk =   0.0160000
        k(   38) = (   0.2054004   0.2054004   0.2942359), wk =   0.0320000
        k(   39) = (   0.2054004   0.2054004   0.5884717), wk =   0.0320000
        k(   40) = (   0.2053988   0.4108022   0.0000000), wk =   0.0320000
        k(   41) = (   0.2053988   0.4108022   0.2942359), wk =   0.0640000
        k(   42) = (   0.2053988   0.4108022   0.5884717), wk =   0.0640000
        k(   43) = (   0.4108007   0.4108007   0.0000000), wk =   0.0160000
        k(   44) = (   0.4108007   0.4108007   0.2942359), wk =   0.0320000
        k(   45) = (   0.4108007   0.4108007   0.5884717), wk =   0.0320000
        k(   46) = (  -0.2054034   0.2054034   0.0000000), wk =   0.0160000
        k(   47) = (  -0.2054034   0.2054034  -0.2942359), wk =   0.0320000
        k(   48) = (  -0.2054034   0.2054034  -0.5884717), wk =   0.0320000
        k(   49) = (  -0.2054050   0.4108053   0.0000000), wk =   0.0320000
        k(   50) = (  -0.2054050   0.4108053  -0.2942359), wk =   0.0640000
        k(   51) = (  -0.2054050   0.4108053  -0.5884717), wk =   0.0640000
        k(   52) = (  -0.4108069   0.4108069   0.0000000), wk =   0.0160000
        k(   53) = (  -0.4108069   0.4108069  -0.2942359), wk =   0.0320000
        k(   54) = (  -0.4108069   0.4108069  -0.5884717), wk =   0.0320000

     Check: negative/imaginary core charge=   -0.000005    0.000000
     Check: negative starting charge=(component1):   -0.385568

[...]

     Threshold (ethr) on eigenvalues was too large:
     Diagonalizing with lowered threshold

     Davidson diagonalization with overlap
     ethr =  8.68E-10,  avg # of iterations =  2.0

[...]

     Total force =     0.000032     Total SCF correction =     0.000051
     SCF correction compared to forces is large: reduce conv_thr to get better values

[...]

     Volume is kept fixed: isostatic pressure set to zero

     bfgs converged in   7 scf cycles and   6 bfgs steps
     (criteria: energy < 0.10E-03, force < 0.10E-02, cell < 0.50E+00)

     End of BFGS Geometry Optimization

     Final enthalpy =    -544.9308527990 Ry
Begin final coordinates
     new unit-cell volume =    482.24915 a.u.^3 (    71.46195 Ang^3 )

CELL_PARAMETERS (alat=  9.07880445)
   0.973700864   0.000007293   0.000000000
   0.000007293   0.973700864   0.000000000
   0.000000000   0.000000000   0.679726768

ATOMIC_POSITIONS (crystal)
Pt0      0.000000000   0.000000000   0.000000000    0   0   0
Pt0      0.500000000   0.500000000   0.500000000    0   0   0
O1       0.308543530   0.308543530   0.000000000    1   1   0
O1      -0.308543530  -0.308543530   0.000000000    1   1   0
O1       0.808546500   0.191453500   0.500000000    1   1   0
O1       0.191453500   0.808546500   0.500000000    1   1   0
End final coordinates

     A final scf calculation at the relaxed structure.
     The G-vectors are recalculated for the final unit cell
     Results may differ from those at the preceding step.

     bravais-lattice index     =            0
     lattice parameter (alat)  =       9.0788  a.u.
     unit-cell volume          =     482.2491 (a.u.)^3
     number of atoms/cell      =            6
     number of atomic types    =            2
     number of electrons       =        56.00
     number of Kohn-Sham states=           84
     kinetic-energy cutoff     =      40.0000  Ry
     charge density cutoff     =     500.0000  Ry
     convergence threshold     =      1.0E-08
     mixing beta               =       0.3000
     number of iterations used =            8  plain     mixing
     Exchange-correlation      = SLA  PW   PBE  PBE ( 1 4 3 4 0)
     EXX-fraction              =        0.00

     celldm(1)=   9.078804  celldm(2)=   0.000000  celldm(3)=   0.000000
     celldm(4)=   0.000000  celldm(5)=   0.000000  celldm(6)=   0.000000

     crystal axes: (cart. coord. in units of alat)
               a(1) = (   0.973701   0.000007   0.000000 )
               a(2) = (   0.000007   0.973701   0.000000 )
               a(3) = (   0.000000   0.000000   0.679727 )

     reciprocal axes: (cart. coord. in units 2 pi/alat)
               b(1) = (  1.027009 -0.000008  0.000000 )
               b(2) = ( -0.000008  1.027009  0.000000 )
               b(3) = (  0.000000  0.000000  1.471179 )

     PseudoPot. # 1 for Pt read from file:
     /home/camp/zhonxu/pseudo/pt_pbe_v1.uspp.F.UPF
     MD5 check sum: 4c71d6ad5ef119f1eb26a4d0b7884226
     Pseudo is Ultrasoft + core correction, Zval = 16.0
     Generated by new atomic code, or converted to UPF format
     Using radial grid of  985 points,  6 beta functions with:
                l(1) =   0
                l(2) =   0
                l(3) =   1
                l(4) =   1
                l(5) =   2
                l(6) =   2
     Q(r) pseudized with  8 coefficients,  rinner =    1.300   1.300   1.300
                                                       1.300   1.300

     PseudoPot. # 2 for O  read from file:
     /home/camp/zhonxu/pseudo/o_pbe_v1.01.uspp.F.UPF
     MD5 check sum: 2bcb18d16ea4b960afae9ec6d52f22d2
     Pseudo is Ultrasoft + core correction, Zval =  6.0
     Generated by new atomic code, or converted to UPF format
     Using radial grid of  737 points,  5 beta functions with:
                l(1) =   0
                l(2) =   0
                l(3) =   1
                l(4) =   1
                l(5) =   2
     Q(r) pseudized with  8 coefficients,  rinner =    0.900   0.900   0.900
                                                       0.900   0.900

     atomic species   valence    mass     pseudopotential
        Pt0           16.00   195.08000     Pt( 1.00)
        O1             6.00    15.99940     O ( 1.00)

     Starting magnetic structure
     atomic species   magnetization
        Pt0          0.600
        O1           0.000

      8 Sym. Ops., with inversion, found
          (note:  8 additional sym.ops. were found but ignored
           their fractional translations are incommensurate with FFT grid)

   Cartesian axes

     site n.     atom                  positions (alat units)
         1           Pt0 tau(   1) = (   0.0000000   0.0000000   0.0000000  )
         2           Pt0 tau(   2) = (   0.4868541   0.4868541   0.3398634  )
         3           O1  tau(   3) = (   0.3004314   0.3004314   0.0000000  )
         4           O1  tau(   4) = (  -0.3004314  -0.3004314   0.0000000  )
         5           O1  tau(   5) = (   0.7872838   0.1864243   0.3398634  )
         6           O1  tau(   6) = (   0.1864243   0.7872838   0.3398634  )

     number of k points=    54  Methfessel-Paxton smearing, width (Ry)=  0.0100
                       cart. coord. in units 2pi/alat
        k(    1) = (   0.0000000   0.0000000   0.0000000), wk =   0.0080000
        k(    2) = (   0.0000000   0.0000000   0.2942359), wk =   0.0160000
        k(    3) = (   0.0000000   0.0000000   0.5884717), wk =   0.0160000
        k(    4) = (  -0.0000015   0.2054019   0.0000000), wk =   0.0320000
        k(    5) = (  -0.0000015   0.2054019   0.2942359), wk =   0.0640000
        k(    6) = (  -0.0000015   0.2054019   0.5884717), wk =   0.0640000
        k(    7) = (  -0.0000031   0.4108038   0.0000000), wk =   0.0320000
        k(    8) = (  -0.0000031   0.4108038   0.2942359), wk =   0.0640000
        k(    9) = (  -0.0000031   0.4108038   0.5884717), wk =   0.0640000
        k(   10) = (   0.2054004   0.2054004   0.0000000), wk =   0.0160000
        k(   11) = (   0.2054004   0.2054004   0.2942359), wk =   0.0320000
        k(   12) = (   0.2054004   0.2054004   0.5884717), wk =   0.0320000
        k(   13) = (   0.2053988   0.4108022   0.0000000), wk =   0.0320000
        k(   14) = (   0.2053988   0.4108022   0.2942359), wk =   0.0640000
        k(   15) = (   0.2053988   0.4108022   0.5884717), wk =   0.0640000
        k(   16) = (   0.4108007   0.4108007   0.0000000), wk =   0.0160000
        k(   17) = (   0.4108007   0.4108007   0.2942359), wk =   0.0320000
        k(   18) = (   0.4108007   0.4108007   0.5884717), wk =   0.0320000
        k(   19) = (  -0.2054034   0.2054034   0.0000000), wk =   0.0160000
        k(   20) = (  -0.2054034   0.2054034  -0.2942359), wk =   0.0320000
        k(   21) = (  -0.2054034   0.2054034  -0.5884717), wk =   0.0320000
        k(   22) = (  -0.2054050   0.4108053   0.0000000), wk =   0.0320000
        k(   23) = (  -0.2054050   0.4108053  -0.2942359), wk =   0.0640000
        k(   24) = (  -0.2054050   0.4108053  -0.5884717), wk =   0.0640000
        k(   25) = (  -0.4108069   0.4108069   0.0000000), wk =   0.0160000
        k(   26) = (  -0.4108069   0.4108069  -0.2942359), wk =   0.0320000
        k(   27) = (  -0.4108069   0.4108069  -0.5884717), wk =   0.0320000
        k(   28) = (   0.0000000   0.0000000   0.0000000), wk =   0.0080000
        k(   29) = (   0.0000000   0.0000000   0.2942359), wk =   0.0160000
        k(   30) = (   0.0000000   0.0000000   0.5884717), wk =   0.0160000
        k(   31) = (  -0.0000015   0.2054019   0.0000000), wk =   0.0320000
        k(   32) = (  -0.0000015   0.2054019   0.2942359), wk =   0.0640000
        k(   33) = (  -0.0000015   0.2054019   0.5884717), wk =   0.0640000
        k(   34) = (  -0.0000031   0.4108038   0.0000000), wk =   0.0320000
        k(   35) = (  -0.0000031   0.4108038   0.2942359), wk =   0.0640000
        k(   36) = (  -0.0000031   0.4108038   0.5884717), wk =   0.0640000
        k(   37) = (   0.2054004   0.2054004   0.0000000), wk =   0.0160000
        k(   38) = (   0.2054004   0.2054004   0.2942359), wk =   0.0320000
        k(   39) = (   0.2054004   0.2054004   0.5884717), wk =   0.0320000
        k(   40) = (   0.2053988   0.4108022   0.0000000), wk =   0.0320000
        k(   41) = (   0.2053988   0.4108022   0.2942359), wk =   0.0640000
        k(   42) = (   0.2053988   0.4108022   0.5884717), wk =   0.0640000
        k(   43) = (   0.4108007   0.4108007   0.0000000), wk =   0.0160000
        k(   44) = (   0.4108007   0.4108007   0.2942359), wk =   0.0320000
        k(   45) = (   0.4108007   0.4108007   0.5884717), wk =   0.0320000
        k(   46) = (  -0.2054034   0.2054034   0.0000000), wk =   0.0160000
        k(   47) = (  -0.2054034   0.2054034  -0.2942359), wk =   0.0320000
        k(   48) = (  -0.2054034   0.2054034  -0.5884717), wk =   0.0320000
        k(   49) = (  -0.2054050   0.4108053   0.0000000), wk =   0.0320000
        k(   50) = (  -0.2054050   0.4108053  -0.2942359), wk =   0.0640000
        k(   51) = (  -0.2054050   0.4108053  -0.5884717), wk =   0.0640000
        k(   52) = (  -0.4108069   0.4108069   0.0000000), wk =   0.0160000
        k(   53) = (  -0.4108069   0.4108069  -0.2942359), wk =   0.0320000
        k(   54) = (  -0.4108069   0.4108069  -0.5884717), wk =   0.0320000

     Largest allocated arrays     est. size (Mb)     dimensions
     Largest temporary arrays     est. size (Mb)     dimensions

     Check: negative/imaginary core charge=   -0.000005    0.000000

     Initial potential from superposition of free atoms
     Check: negative starting charge=(component1):   -0.307311
     Check: negative starting charge=(component2):   -0.076424

     starting charge   54.99997, renormalised to   56.00000

     negative rho (up, down):  0.313E+00 0.778E-01
     Starting wfc are   40 randomized atomic wfcs

     Self-consistent Calculation

     iteration #  1     ecut=    40.00 Ry     beta=0.30
     Davidson diagonalization with overlap
     c_bands:  1 eigenvalues not converged
     ethr =  1.00E-06,  avg # of iterations = 11.3

[...]

     total energy              =    -544.93141511 Ry
     Harris-Foulkes estimate   =    -544.93141532 Ry
     estimated scf accuracy    <       0.00000002 Ry

[...]

     iteration # 22     ecut=    40.00 Ry     beta=0.30
     Davidson diagonalization with overlap
     ethr =  2.80E-11,  avg # of iterations =  2.0

     negative rho (up, down):  0.197E+00 0.197E+00

     End of self-consistent calculation

 ------ SPIN UP ------------

[...]

 ------ SPIN DOWN ----------

[...]

          k = 0.4108 0.4108 0.5885 (  2067 PWs)   bands (ev):

[...]

          k =-0.4108 0.4108-0.5885 (  2067 PWs)   bands (ev):

   -42.6874 -42.6871 -42.5731 -42.5730 -42.4077 -42.4076  -7.2146  -7.1718
    -6.9513  -6.9438   3.9905   4.0344   4.5328   4.6974   4.9785   5.3589
     6.3587   6.4922   7.3644   7.5249   8.3509   8.7643   8.8047   8.9230
     9.7691  10.4155  10.4914  11.0048  11.9361  12.5673  13.3278  13.9220
    19.7079  19.9633  21.2726  21.4307  22.7700  23.2761  24.1036  24.6493
    27.7714  27.8882  29.4951  29.5099  29.6478  30.1620  30.8042  32.1149
    32.2976  32.4682  32.7917  33.9006  36.0301  36.5283  37.2030  37.2767
    38.5894  39.2045  40.2204  41.5187  41.5855  41.9441  42.4779  42.8439
    43.3554  43.6545  44.2236  44.9172  45.3976  45.9346  46.4362  46.8843
    47.4289  47.7652  48.0668  48.5901  49.0686  49.8616  50.1655  50.6383
    51.8913  52.1084  52.4161  53.0970

     the Fermi energy is    11.3854 ev

!    total energy              =    -544.93141542 Ry
     Harris-Foulkes estimate   =    -544.93141539 Ry
     estimated scf accuracy    <          5.0E-09 Ry

     The total energy is the sum of the following terms:

     one-electron contribution =    -146.08551898 Ry
     hartree contribution      =     108.23333811 Ry
     xc contribution           =    -136.93873580 Ry
     ewald contribution        =    -370.14020883 Ry
     smearing contrib. (-TS)   =      -0.00028991 Ry

     total magnetization       =     0.01 Bohr mag/cell
     absolute magnetization    =     0.01 Bohr mag/cell

     convergence has been achieved in  22 iterations

     Forces acting on atoms (Ry/au):

     negative rho (up, down):  0.197E+00 0.197E+00
     atom    1 type  1   force =     0.00000000    0.00000000    0.00000000
     atom    2 type  1   force =     0.00000000    0.00000000    0.00000000
     atom    3 type  2   force =     0.00006355    0.00006355    0.00000000
     atom    4 type  2   force =    -0.00006355   -0.00006355    0.00000000
     atom    5 type  2   force =     0.00004895   -0.00004895    0.00000000
     atom    6 type  2   force =    -0.00004895    0.00004895    0.00000000

     Total force =     0.000160     Total SCF correction =     0.000088
     SCF correction compared to forces is large: reduce conv_thr to get better values

     entering subroutine stress ...

     negative rho (up, down):  0.197E+00 0.197E+00
          total   stress  (Ry/bohr**3)                   (kbar)     P= -112.49
  -0.00077615  -0.00000012   0.00000000       -114.17     -0.02      0.00
  -0.00000012  -0.00077615   0.00000000         -0.02   -114.17      0.00
   0.00000000   0.00000000  -0.00074178          0.00      0.00   -109.12

     General routines

     Parallel routines

   This run was terminated on:  16:26:17  24Jan2014

   JOB DONE.
Running PBS batch system epilogue script
Job id: 251906.audhumbla.fysik.dtu.dk
Username: zhonxu
Groupname: campgst
Jobname: PtO2/fine-EOS/ferro/PtO2-v-1.05
Sessionid: 398
Queuename: verylong
Accounting:
This job has allocated the following 4 nodes:
q100 q100 q100 q100
Finished epilogue job 251906.audhumbla.fysik.dtu.dk for zhonxu