     Program PWSCF v.5.0.2 (svn rev. 9656) starts on 30Apr2014 at 20:38: 6

     Current dimensions of program PWSCF are:
     Max number of different atomic species (ntypx) = 10
     Max number of k-points (npk) =  40000
     Max angular momentum in pseudopotentials (lmaxx) =  3
     Reading input from pwscf.in
Warning: card &CELL ignored
Warning: card / ignored

     Subspace diagonalization in iterative solution of the eigenvalue problem:
     a serial algorithm will be used

     bravais-lattice index     =            0
     lattice parameter (alat)  =      11.7541  a.u.
     unit-cell volume          =    7139.8207 (a.u.)^3
     number of atoms/cell      =           32
     number of atomic types    =            3
     number of electrons       =       239.00
     number of Kohn-Sham states=          358
     kinetic-energy cutoff     =      40.0000  Ry
     charge density cutoff     =     500.0000  Ry
     convergence threshold     =      1.0E-06
     mixing beta               =       0.7000
     number of iterations used =            8  plain     mixing
     Exchange-correlation      = SLA  PW   PBE  PBE ( 1 4 3 4 0)
     EXX-fraction              =        0.00
     nstep                     =           50

     celldm(1)=  11.754097  celldm(2)=   0.000000  celldm(3)=   0.000000
     celldm(4)=   0.000000  celldm(5)=   0.000000  celldm(6)=   0.000000

     crystal axes: (cart. coord. in units of alat)
               a(1) = (   1.000000   0.000000   0.000000 )
               a(2) = (   0.000000   1.034513   0.000000 )
               a(3) = (   0.000000   0.000000   4.249947 )

     reciprocal axes: (cart. coord. in units 2 pi/alat)
               b(1) = (  1.000000  0.000000  0.000000 )
               b(2) = (  0.000000  0.966638  0.000000 )
               b(3) = (  0.000000  0.000000  0.235297 )

     PseudoPot. # 1 for O  read from file:
     /home/camp/zhonxu/pseudo/o_pbe_v1.01.uspp.F.UPF
     MD5 check sum: 2bcb18d16ea4b960afae9ec6d52f22d2
     Pseudo is Ultrasoft + core correction, Zval =  6.0
     Generated by new atomic code, or converted to UPF format
     Using radial grid of  737 points,  5 beta functions with:
                l(1) =   0
                l(2) =   0
                l(3) =   1
                l(4) =   1
                l(5) =   2
     Q(r) pseudized with  8 coefficients,  rinner =    0.900   0.900   0.900
                                                       0.900   0.900

     PseudoPot. # 2 for Rh read from file:
     /home/camp/zhonxu/pseudo/rh_pbe_v1.uspp.F.UPF
     MD5 check sum: 37b626987ad0dd8ec6bf4cc9ef289918
     Pseudo is Ultrasoft + core correction, Zval = 15.0
     Generated by new atomic code, or converted to UPF format
     Using radial grid of  969 points,  7 beta functions with:
                l(1) =   0
                l(2) =   0
                l(3) =   1
                l(4) =   1
                l(5) =   2
                l(6) =   2
                l(7) =   2
     Q(r) pseudized with  6 coefficients,  rinner =    1.050   1.050   1.050
                                                       1.050   1.050

     PseudoPot. # 3 for H  read from file:
     /home/camp/zhonxu/pseudo/h_pbe_v1.uspp.F.UPF
     MD5 check sum: 3408e3ff4ec8b0a4e358431e7e038a48
     Pseudo is Ultrasoft, Zval =  1.0
     Generated by new atomic code, or converted to UPF format
     Using radial grid of  615 points,  2 beta functions with:
                l(1) =   0
                l(2) =   0
     Q(r) pseudized with  8 coefficients,  rinner =    0.700

     atomic species   valence    mass     pseudopotential
        O0             6.00    15.99940     O ( 1.00)
        Rh1           15.00   102.90550     Rh( 1.00)
        H2             1.00     1.00794     H ( 1.00)

     Simplified LDA+U calculation (l_max = 2) with parameters (eV):
     atomic species    L          U    alpha       J0     beta
        Rh1            2     5.5000   0.0000   0.0000   0.0000

     No symmetry found

   Cartesian axes

     site n.     atom                  positions (alat units)
         1           O0  tau(   1) = (   0.0000000   0.0000000   1.6077125  )
         2           O0  tau(   2) = (   0.0000000   0.5172566   1.7060138  )
         3           Rh1 tau(   3) = (   0.2500000   0.5172566   1.9233561  )
         4           Rh1 tau(   4) = (   0.0000000   0.0000000   1.9242061  )
         5           O0  tau(   5) = (   0.2500000   0.8379556   1.9221236  )
         6           O0  tau(   6) = (   0.2500000   0.1965575   1.9218261  )
         7           O0  tau(   7) = (   0.0000000   0.5172566   2.1180887  )
         8           O0  tau(   8) = (   0.0000000   0.0000000   2.2452046  )
         9           Rh1 tau(   9) = (   0.2500000   0.0000000   2.4467796  )
        10           Rh1 tau(  10) = (   0.0000000   0.5172566   2.4248074  )
        11           O0  tau(  11) = (   0.2500000   0.7138141   2.4490746  )
        12           O0  tau(  12) = (   0.2500000   0.3206991   2.4494996  )
        13           O0  tau(  13) = (   0.0000000   0.0000000   2.6392597  )
        14           O0  tau(  14) = (   0.5000000   0.0000000   1.6071175  )
        15           O0  tau(  15) = (   0.5000000   0.5172566   1.7046963  )
        16           Rh1 tau(  16) = (   0.7500000   0.5172566   1.9233561  )
        17           Rh1 tau(  17) = (   0.5000000   0.0000000   1.9236961  )
        18           O0  tau(  18) = (   0.7500000   0.8379556   1.9222086  )
        19           O0  tau(  19) = (   0.7500000   0.1965575   1.9219111  )
        20           O0  tau(  20) = (   0.5000000   0.5172566   2.1234861  )
        21           O0  tau(  21) = (   0.5000000   0.0000000   2.2446521  )
        22           Rh1 tau(  22) = (   0.7500000   0.0000000   2.4466946  )
        23           Rh1 tau(  23) = (   0.5000000   0.5172566   2.4467371  )
        24           O0  tau(  24) = (   0.7500000   0.7138141   2.4449521  )
        25           O0  tau(  25) = (   0.7500000   0.3206991   2.4452921  )
        26           O0  tau(  26) = (   0.5000000   0.0000000   2.6379847  )
        27           H2  tau(  27) = (  -0.0000100   0.6596573   1.6332972  )
        28           H2  tau(  28) = (   0.4999400   0.6612505   1.6349547  )
        29           H2  tau(  29) = (   0.1484100   0.0351631   1.5627056  )
        30           H2  tau(  30) = (   0.6482100   0.0356700   1.5619406  )
        31           O0  tau(  31) = (   0.5154200   0.5168841   2.7565583  )
        32           H2  tau(  32) = (   0.3686900   0.5167083   2.8162275  )

     number of k points=    10  Methfessel-Paxton smearing, width (Ry)=  0.0100
                       cart. coord. in units 2pi/alat
        k(    1) = (   0.0000000   0.0000000   0.0000000), wk =   0.1250000
        k(    2) = (   0.0000000   0.2416596   0.0000000), wk =   0.2500000
        k(    3) = (   0.0000000  -0.4833191   0.0000000), wk =   0.1250000
        k(    4) = (   0.2500000   0.0000000   0.0000000), wk =   0.2500000
        k(    5) = (   0.2500000   0.2416596   0.0000000), wk =   0.2500000
        k(    6) = (   0.2500000  -0.4833191   0.0000000), wk =   0.2500000
        k(    7) = (  -0.5000000   0.0000000   0.0000000), wk =   0.1250000
        k(    8) = (  -0.5000000   0.2416596   0.0000000), wk =   0.2500000
        k(    9) = (  -0.5000000  -0.4833191   0.0000000), wk =   0.1250000
        k(   10) = (  -0.2500000   0.2416596   0.0000000), wk =   0.2500000

     Largest allocated arrays     est. size (Mb)     dimensions
     Largest temporary arrays     est. size (Mb)     dimensions

     Check: negative/imaginary core charge=   -0.000003    0.000000

     Initial potential from superposition of free atoms
     Check: negative starting charge=   -0.644969

     starting charge  234.99914, renormalised to  239.00000

     negative rho (up, down):  0.656E+00 0.000E+00
     Number of +U iterations with fixed ns =  0
     Starting occupations:
 --- enter write_ns ---
 LDA+U parameters:
U( 2)     =  5.50000000
alpha( 2) =  0.00000000
atom    3   Tr[ns(na)] =   7.00000
    eigenvalues:
  0.700  0.700  0.700  0.700  0.700
    eigenvectors:
  1.000  0.000  0.000  0.000  0.000
  0.000  1.000  0.000  0.000  0.000
  0.000  0.000  1.000  0.000  0.000
  0.000  0.000  0.000  1.000  0.000
  0.000  0.000  0.000  0.000  1.000
    occupations:
  0.700  0.000  0.000  0.000  0.000
  0.000  0.700  0.000  0.000  0.000
  0.000  0.000  0.700  0.000  0.000
  0.000  0.000  0.000  0.700  0.000
  0.000  0.000  0.000  0.000  0.700
atom    4   Tr[ns(na)] =   7.00000
    eigenvalues:
  0.700  0.700  0.700  0.700  0.700
    eigenvectors:
  1.000  0.000  0.000  0.000  0.000
  0.000  1.000  0.000  0.000  0.000
  0.000  0.000  1.000  0.000  0.000
  0.000  0.000  0.000  1.000  0.000
  0.000  0.000  0.000  0.000  1.000
    occupations:
  0.700  0.000  0.000  0.000  0.000
  0.000  0.700  0.000  0.000  0.000
  0.000  0.000  0.700  0.000  0.000
  0.000  0.000  0.000  0.700  0.000
  0.000  0.000  0.000  0.000  0.700
atom    9   Tr[ns(na)] =   7.00000
    eigenvalues:
  0.700  0.700  0.700  0.700  0.700
    eigenvectors:
  1.000  0.000  0.000  0.000  0.000
  0.000  1.000  0.000  0.000  0.000
  0.000  0.000  1.000  0.000  0.000
  0.000  0.000  0.000  1.000  0.000
  0.000  0.000  0.000  0.000  1.000
    occupations:
  0.700  0.000  0.000  0.000  0.000
  0.000  0.700  0.000  0.000  0.000
  0.000  0.000  0.700  0.000  0.000
  0.000  0.000  0.000  0.700  0.000
  0.000  0.000  0.000  0.000  0.700
atom   10   Tr[ns(na)] =   7.00000
    eigenvalues:
  0.700  0.700  0.700  0.700  0.700
    eigenvectors:
  1.000  0.000  0.000  0.000  0.000
  0.000  1.000  0.000  0.000  0.000
  0.000  0.000  1.000  0.000  0.000
  0.000  0.000  0.000  1.000  0.000
  0.000  0.000  0.000  0.000  1.000
    occupations:
  0.700  0.000  0.000  0.000  0.000
  0.000  0.700  0.000  0.000  0.000
  0.000  0.000  0.700  0.000  0.000
  0.000  0.000  0.000  0.700  0.000
  0.000  0.000  0.000  0.000  0.700
atom   16   Tr[ns(na)] =   7.00000
    eigenvalues:
  0.700  0.700  0.700  0.700  0.700
    eigenvectors:
  1.000  0.000  0.000  0.000  0.000
  0.000  1.000  0.000  0.000  0.000
  0.000  0.000  1.000  0.000  0.000
  0.000  0.000  0.000  1.000  0.000
  0.000  0.000  0.000  0.000  1.000
    occupations:
  0.700  0.000  0.000  0.000  0.000
  0.000  0.700  0.000  0.000  0.000
  0.000  0.000  0.700  0.000  0.000
  0.000  0.000  0.000  0.700  0.000
  0.000  0.000  0.000  0.000  0.700
atom   17   Tr[ns(na)] =   7.00000
    eigenvalues:
  0.700  0.700  0.700  0.700  0.700
    eigenvectors:
  1.000  0.000  0.000  0.000  0.000
  0.000  1.000  0.000  0.000  0.000
  0.000  0.000  1.000  0.000  0.000
  0.000  0.000  0.000  1.000  0.000
  0.000  0.000  0.000  0.000  1.000
    occupations:
  0.700  0.000  0.000  0.000  0.000
  0.000  0.700  0.000  0.000  0.000
  0.000  0.000  0.700  0.000  0.000
  0.000  0.000  0.000  0.700  0.000
  0.000  0.000  0.000  0.000  0.700
atom   22   Tr[ns(na)] =   7.00000
    eigenvalues:
  0.700  0.700  0.700  0.700  0.700
    eigenvectors:
  1.000  0.000  0.000  0.000  0.000
  0.000  1.000  0.000  0.000  0.000
  0.000  0.000  1.000  0.000  0.000
  0.000  0.000  0.000  1.000  0.000
[...]
  0.929  0.001 -0.000 -0.122 -0.000
  0.001  0.635  0.001  0.001 -0.000
 -0.000  0.001  0.875 -0.000 -0.003
 -0.122  0.001 -0.000  0.694  0.001
 -0.000 -0.000 -0.003  0.001  0.909
atom   10   Tr[ns(na)] =   8.06954
    eigenvalues:
  0.593  0.593  0.932  0.936  0.981
    eigenvectors:
  0.008  0.984  0.000  0.000  0.008
  0.000  0.000  1.000  0.000  0.000
  0.000  0.000  0.000  1.000  0.000
  0.000  0.008  0.000  0.000  0.992
  0.992  0.008  0.000  0.000  0.000
    occupations:
  0.596 -0.003  0.001  0.035 -0.000
 -0.003  0.932  0.000  0.000 -0.000
  0.001  0.000  0.936  0.000  0.003
  0.035  0.000  0.000  0.977  0.000
 -0.000 -0.000  0.003  0.000  0.593
atom   16   Tr[ns(na)] =   8.07907
    eigenvalues:
  0.580  0.602  0.912  0.966  0.979
    eigenvectors:
  0.007  0.193  0.003  0.001  0.796
  0.972  0.028  0.000  0.000  0.000
  0.000  0.000  0.971  0.027  0.002
  0.021  0.779  0.000  0.000  0.200
  0.000  0.000  0.026  0.972  0.001
    occupations:
  0.903  0.006  0.002 -0.151  0.001
  0.006  0.581  0.001  0.001 -0.006
  0.002  0.001  0.913 -0.004 -0.009
 -0.151  0.001 -0.004  0.677  0.000
  0.001 -0.006 -0.009  0.000  0.965
atom   17   Tr[ns(na)] =   8.08506
    eigenvalues:
  0.597  0.648  0.887  0.931  0.980
    eigenvectors:
  0.001  0.991  0.000  0.000  0.008
  0.000  0.000  0.088  0.912  0.000
  0.000  0.000  0.912  0.088  0.000
  0.000  0.008  0.000  0.000  0.992
  0.999  0.001  0.000  0.000  0.000
    occupations:
  0.651 -0.004 -0.001  0.029  0.002
 -0.004  0.927  0.012  0.001 -0.001
 -0.001  0.012  0.891 -0.000  0.001
  0.029  0.001 -0.000  0.977  0.000
  0.002 -0.001  0.001  0.000  0.597
atom   22   Tr[ns(na)] =   8.08125
    eigenvalues:
  0.636  0.644  0.868  0.912  0.981
    eigenvectors:
  0.000  0.151  0.000  0.000  0.849
  0.999  0.001  0.000  0.000  0.000
  0.000  0.000  0.995  0.005  0.000
  0.001  0.848  0.000  0.000  0.151
  0.000  0.000  0.005  0.995  0.000
    occupations:
  0.930  0.000 -0.000 -0.121 -0.000
  0.000  0.636  0.001 -0.001 -0.000
 -0.000  0.001  0.868 -0.000  0.003
 -0.121 -0.001 -0.000  0.695  0.001
 -0.000 -0.000  0.003  0.001  0.912
atom   23   Tr[ns(na)] =   8.07482
    eigenvalues:
  0.603  0.652  0.864  0.938  0.980
    eigenvectors:
  0.000  0.991  0.000  0.000  0.009
  0.000  0.000  0.000  0.999  0.000
  0.000  0.000  1.000  0.000  0.000
  0.000  0.009  0.000  0.000  0.991
  1.000  0.000  0.000  0.000  0.000
    occupations:
  0.655  0.006 -0.000  0.030 -0.000
  0.006  0.938 -0.000 -0.000 -0.000
 -0.000 -0.000  0.864  0.000 -0.002
  0.030 -0.000  0.000  0.977  0.000
 -0.000 -0.000 -0.002  0.000  0.603
N of occupied +U levels =  64.6383114
 --- exit write_ns ---

     Threshold (ethr) on eigenvalues was too large:
     Diagonalizing with lowered threshold

     Davidson diagonalization with overlap
     ethr =  2.03E-08,  avg # of iterations =  3.0

[...]

     total energy              =   -1979.44421867 Ry
     Harris-Foulkes estimate   =   -1979.44421870 Ry
     estimated scf accuracy    <       0.00000041 Ry

     iteration # 15     ecut=    40.00 Ry     beta=0.70
     Davidson diagonalization with overlap
     ethr =  3.23E-11,  avg # of iterations =  1.0

     negative rho (up, down):  0.691E+00 0.000E+00

     End of self-consistent calculation
 --- enter write_ns ---
 LDA+U parameters:
U( 2)     =  5.50000000
alpha( 2) =  0.00000000
atom    3   Tr[ns(na)] =   8.07852
    eigenvalues:
  0.580  0.602  0.912  0.967  0.980
    eigenvectors:
  0.007  0.194  0.003  0.001  0.796
  0.975  0.025  0.000  0.000  0.000
  0.000  0.000  0.965  0.032  0.002
  0.018  0.781  0.000  0.000  0.200
  0.000  0.000  0.032  0.967  0.001
    occupations:
  0.903 -0.006  0.002 -0.151 -0.001
 -0.006  0.580 -0.002 -0.001 -0.006
  0.002 -0.002  0.914 -0.004  0.010
 -0.151 -0.001 -0.004  0.677 -0.001
 -0.001 -0.006  0.010 -0.001  0.965
atom    4   Tr[ns(na)] =   8.08436
    eigenvalues:
  0.598  0.649  0.884  0.931  0.980
    eigenvectors:
  0.001  0.991  0.000  0.000  0.008
  0.000  0.000  0.059  0.941  0.000
  0.000  0.000  0.941  0.059  0.000
  0.000  0.008  0.000  0.000  0.992
  0.999  0.001  0.000  0.000  0.000
    occupations:
  0.652 -0.004 -0.001  0.029  0.001
 -0.004  0.929  0.011  0.001 -0.001
 -0.001  0.011  0.886 -0.000  0.001
  0.029  0.001 -0.000  0.977  0.000
  0.001 -0.001  0.001  0.000  0.598
atom    9   Tr[ns(na)] =   8.08474
    eigenvalues:
  0.635  0.642  0.875  0.909  0.981
    eigenvectors:
  0.004  0.149  0.000  0.000  0.847
  0.977  0.023  0.000  0.000  0.000
  0.000  0.000  0.993  0.007  0.000
  0.020  0.828  0.000  0.000  0.153
  0.000  0.000  0.007  0.993  0.000
    occupations:
  0.929  0.000 -0.000 -0.122 -0.000
  0.000  0.635  0.001  0.001 -0.000
 -0.000  0.001  0.876 -0.000 -0.003
 -0.122  0.001 -0.000  0.694  0.001
 -0.000 -0.000 -0.003  0.001  0.909
atom   10   Tr[ns(na)] =   8.07005
    eigenvalues:
  0.593  0.593  0.932  0.936  0.981
    eigenvectors:
  0.005  0.987  0.000  0.000  0.008
  0.000  0.000  1.000  0.000  0.000
  0.000  0.000  0.000  1.000  0.000
  0.000  0.008  0.000  0.000  0.992
  0.995  0.005  0.000  0.000  0.000
    occupations:
  0.596 -0.003  0.001  0.035 -0.000
 -0.003  0.932  0.000  0.000 -0.000
  0.001  0.000  0.936  0.000  0.003
  0.035  0.000  0.000  0.977  0.000
 -0.000 -0.000  0.003  0.000  0.593
atom   16   Tr[ns(na)] =   8.07847
    eigenvalues:
  0.580  0.602  0.912  0.966  0.979
    eigenvectors:
  0.007  0.193  0.003  0.001  0.796
  0.972  0.028  0.000  0.000  0.000
  0.000  0.000  0.971  0.026  0.002
  0.021  0.779  0.000  0.000  0.200
  0.000  0.000  0.026  0.973  0.001
    occupations:
  0.903  0.006  0.002 -0.151  0.001
  0.006  0.581  0.001  0.001 -0.006
  0.002  0.001  0.913 -0.004 -0.009
 -0.151  0.001 -0.004  0.677  0.000
  0.001 -0.006 -0.009  0.000  0.965
atom   17   Tr[ns(na)] =   8.08448
    eigenvalues:
  0.597  0.648  0.887  0.930  0.980
    eigenvectors:
  0.001  0.991  0.000  0.000  0.008
  0.000  0.000  0.087  0.912  0.000
  0.000  0.000  0.913  0.087  0.000
  0.000  0.008  0.000  0.000  0.992
  0.999  0.001  0.000  0.000  0.000
    occupations:
  0.651 -0.004 -0.001  0.029  0.002
 -0.004  0.927  0.012  0.001 -0.001
 -0.001  0.012  0.890 -0.000  0.001
  0.029  0.001 -0.000  0.977  0.000
  0.002 -0.001  0.001  0.000  0.597
atom   22   Tr[ns(na)] =   8.08145
    eigenvalues:
  0.636  0.644  0.868  0.912  0.981
    eigenvectors:
  0.000  0.151  0.000  0.000  0.849
  0.999  0.001  0.000  0.000  0.000
  0.000  0.000  0.995  0.005  0.000
  0.001  0.848  0.000  0.000  0.151
  0.000  0.000  0.005  0.995  0.000
    occupations:
  0.930  0.000 -0.000 -0.121 -0.000
  0.000  0.636  0.001 -0.001 -0.000
 -0.000  0.001  0.868 -0.000  0.003
 -0.121 -0.001 -0.000  0.695  0.001
 -0.000 -0.000  0.003  0.001  0.912
atom   23   Tr[ns(na)] =   8.07623
    eigenvalues:
  0.603  0.652  0.865  0.938  0.980
    eigenvectors:
  0.000  0.991  0.000  0.000  0.009
  0.000  0.000  0.000  0.999  0.000
  0.000  0.000  1.000  0.000  0.000
  0.000  0.009  0.000  0.000  0.991
  1.000  0.000  0.000  0.000  0.000
    occupations:
  0.655  0.006 -0.000  0.030 -0.000
  0.006  0.938 -0.000 -0.000 -0.000
 -0.000 -0.000  0.865  0.000 -0.002
  0.030 -0.000  0.000  0.977  0.000
 -0.000 -0.000 -0.002  0.000  0.603
N of occupied +U levels =  64.6382903
 --- exit write_ns ---

[...]

          k = 0.2500-0.4833 0.0000 ( 30510 PWs)   bands (ev):

[...]

          k =-0.2500 0.2417 0.0000 ( 30481 PWs)   bands (ev):

   -48.7232 -48.6851 -48.6276 -48.6169 -48.6107 -48.6078 -48.5921 -48.5821
   -48.5416 -48.5270 -48.5150 -48.5056 -48.4244 -48.4224 -48.3949 -48.2937
   -48.2872 -48.2846 -48.2828 -48.2298 -48.2105 -48.1930 -48.1895 -48.1754
   -21.2945 -21.0144 -20.9479 -20.8342 -20.5347 -20.4445 -20.4141 -20.3649
   -20.3204 -20.2016 -20.1017 -20.0820 -20.0371 -20.0258 -19.8488 -19.8108
   -19.8072 -19.0974 -18.9562 -10.1360 -10.0776  -9.9097  -9.7058  -9.5170
    -9.3888  -9.3313  -9.2973  -8.9658  -8.7718  -8.7398  -8.6410  -8.5850
    -8.5373  -8.3959  -8.2355  -8.1083  -8.0987  -7.8617  -7.7077  -7.5482
    -7.5050  -7.4008  -7.3064  -7.1893  -7.0967  -7.0267  -6.9200  -6.7347
    -6.6736  -6.6202  -6.5862  -6.4824  -6.4404  -6.3859  -6.2270  -6.1689
    -6.1292  -6.0480  -5.9886  -5.9223  -5.7869  -5.5319  -5.3716  -5.1710
    -5.0873  -5.0012  -4.8611  -4.7637  -4.7275  -4.5745  -4.4311  -4.3768
    -4.3118  -4.2500  -4.1233  -4.0430  -3.8985  -3.8142  -3.6649  -3.6461
    -3.5764  -3.4810  -3.4215  -3.3914  -3.3370  -3.3132  -3.2040  -3.1259
    -3.0921  -2.9759  -2.6548  -2.4571  -2.3722  -2.1907  -2.0586  -2.0202
    -1.9969  -1.8120  -1.7110  -1.6166  -0.7705  -0.2128  -0.1290   0.1605
     0.4339   0.6972   0.9617   1.1798   1.4490   1.5173   1.6778   1.7267
     1.8359   1.9255   2.0105   2.3554   3.6940   3.8760   4.5652   4.9553
     5.3526   5.5135   5.5614   5.8594   6.1237   6.3338   6.4513   6.4720
     6.5263   6.7649   6.8622   7.0676   7.2590   7.4415   7.5531   7.7060
     7.8778   7.9891   8.0770   8.1773   8.2701   8.3213   8.4517   8.5575
     8.7246   8.8573   8.9460   9.0031   9.1063   9.2431   9.4542   9.5872
     9.6483   9.7391   9.8247   9.9094   9.9592  10.0099  10.1898  10.2241
    10.3415  10.3658  10.4472  10.5987  10.6974  10.7382  10.8460  10.9597
    11.0553  11.1066  11.2210  11.2563  11.3626  11.4385  11.5048  11.5469
    11.5987  11.6990  11.7982  11.8582  11.9091  12.0289  12.1731  12.2009
    12.2517  12.2968  12.3981  12.4710  12.5043  12.5424  12.6462  12.7022
    12.7850  12.8356  12.9282  13.0051  13.1454  13.1914  13.2653  13.2957
    13.4134  13.4882  13.5485  13.5905  13.7575  13.7988  13.8750  13.9528
    14.0550  14.0810  14.1834  14.2619  14.3006  14.3421  14.4217  14.4808
    14.6068  14.6948  14.7286  14.8273  14.9960  15.0740  15.2193  15.3409
    15.3725  15.4099  15.4967  15.5428  15.5919  15.6133  15.7011  15.7841
    15.8174  15.8630  15.9109  16.0334  16.0925  16.1490  16.1856  16.3189
    16.3835  16.4277  16.4809  16.5089  16.5499  16.5897  16.6462  16.7389
    16.8047  16.8943  16.9552  17.0385  17.0910  17.1972  17.2310  17.2547
    17.3571  17.3995  17.4620  17.5229  17.5887  17.6566  17.7411  17.8284
    17.8877  17.9558  18.0232  18.0748  18.0985  18.2255  18.2932  18.3285
    18.4478  18.5253  18.5979  18.6643  18.7418  18.8223  18.8719  18.9302
    18.9774  19.0396  19.1407  19.1643  19.2633  19.2883  19.3618  19.4721
    19.5347  19.6320  19.6673  19.7712  19.8013  19.9158  19.9617  20.0540
    20.1761  20.2245  20.3260  20.3954  20.4961  20.5429  20.6191  20.6648
    20.7453  20.7923  20.8584  20.9254  20.9659  21.0831  21.1639  21.1904
    21.2397  21.2827  21.3415  21.4000  21.4639  21.4962  21.5619  21.6640
    21.7170  21.7836  21.8184  21.8603  21.9591  21.9914  22.0784  22.1293
    22.2360  22.2773  22.3768  22.4111  22.5054  22.5856

     the Fermi energy is    -2.0549 ev

!    total energy              =   -1979.44421868 Ry
     Harris-Foulkes estimate   =   -1979.44421869 Ry
     estimated scf accuracy    <          5.3E-09 Ry

     The total energy is the sum of the following terms:

     one-electron contribution =  -23370.58330014 Ry
     hartree contribution      =   11735.91378325 Ry
     xc contribution           =    -373.05395683 Ry
     ewald contribution        =   10026.18965682 Ry
     Hubbard energy            =       2.09134965 Ry
     smearing contrib. (-TS)   =      -0.00175143 Ry

     convergence has been achieved in  15 iterations

     Forces acting on atoms (Ry/au):

     negative rho (up, down):  0.691E+00 0.000E+00
     atom    1 type  1   force =    -0.00675023   -0.01210313    0.00013989
     atom    2 type  1   force =     0.00029777    0.00289434   -0.00048668
     atom    3 type  2   force =     0.02970101    0.00829243    0.00030872
     atom    4 type  2   force =     0.00812397    0.00872455   -0.00000256
     atom    5 type  1   force =    -0.00385184   -0.02787797   -0.00009373
     atom    6 type  1   force =     0.00316749    0.02429420    0.00001526
     atom    7 type  1   force =     0.00198824   -0.00189877   -0.00018930
     atom    8 type  1   force =    -0.00161950   -0.00093987   -0.00030173
     atom    9 type  2   force =     0.00352376   -0.00011566   -0.00004882
     atom   10 type  2   force =    -0.00619258   -0.00141112    0.00002891
     atom   11 type  1   force =    -0.00829104    0.01517736    0.00015943
     atom   12 type  1   force =    -0.00852255   -0.01509017    0.00012655
     atom   13 type  1   force =    -0.00121200   -0.00003891   -0.00014268
     atom   14 type  1   force =    -0.00668191   -0.01235685    0.00014141
     atom   15 type  1   force =     0.00025760    0.00310475   -0.00037268
     atom   16 type  2   force =    -0.03068428    0.00676754    0.00030609
     atom   17 type  2   force =     0.00818200    0.00884429    0.00014203
     atom   18 type  1   force =    -0.00173758   -0.02761350   -0.00007539
     atom   19 type  1   force =     0.00483472    0.02520380    0.00001514
     atom   20 type  1   force =    -0.00169750   -0.00522651    0.00040505
     atom   21 type  1   force =    -0.00392867   -0.00057878   -0.00030005
     atom   22 type  2   force =    -0.00041135    0.00065202   -0.00010443
     atom   23 type  2   force =     0.00261558    0.00052729    0.00027084
     atom   24 type  1   force =     0.00892131    0.02025975   -0.00008753
     atom   25 type  1   force =     0.01001511   -0.02057462   -0.00011281
     atom   26 type  1   force =    -0.00067969   -0.00017573    0.00012816
     atom   27 type  3   force =    -0.00000043    0.00051164    0.00010015
     atom   28 type  3   force =     0.00001380    0.00053211    0.00027040
     atom   29 type  3   force =    -0.00007563    0.00013690    0.00005528
     atom   30 type  3   force =    -0.00014209    0.00028591   -0.00006916
     atom   31 type  1   force =     0.00071895   -0.00011992   -0.00025518
     atom   32 type  3   force =     0.00011759   -0.00008737    0.00002940

     Total force =     0.001609     Total SCF correction =     0.000167
     SCF correction compared to forces is large: reduce conv_thr to get better values

     bfgs converged in  10 scf cycles and   9 bfgs steps
     (criteria: energy < 0.10E-03, force < 0.10E-02)

     End of BFGS Geometry Optimization

     Final energy   =   -1979.4442186803 Ry
Begin final coordinates

ATOMIC_POSITIONS (crystal)
O0       0.000000000   0.000000000   0.378510234    0   0   1
O0       0.000000000   0.500000000   0.402157320    0   0   1
Rh1      0.250000000   0.500000000   0.452779279    0   0   1
Rh1      0.000000000   0.000000000   0.452758273    0   0   1
O0       0.250000000   0.810000000   0.452462626    0   0   1
O0       0.250000000   0.190000000   0.452239581    0   0   1
O0       0.000000000   0.500000000   0.499296586    0   0   1
O0       0.000000000   0.000000000   0.528122367    0   0   1
Rh1      0.250000000   0.000000000   0.575404933    0   0   1
Rh1      0.000000000   0.500000000   0.570829170    0   0   1
O0       0.250000000   0.690000000   0.575782962    0   0   1
O0       0.250000000   0.310000000   0.575849080    0   0   1
O0       0.000000000   0.000000000   0.620805891    0   0   1
O0       0.500000000   0.000000000   0.378219316    0   0   1
O0       0.500000000   0.500000000   0.401693829    0   0   1
Rh1      0.750000000   0.500000000   0.452774601    0   0   1
Rh1      0.500000000   0.000000000   0.452444299    0   0   1
O0       0.750000000   0.810000000   0.452465664    0   0   1
O0       0.750000000   0.190000000   0.452248579    0   0   1
O0       0.500000000   0.500000000   0.500176614    0   0   1
O0       0.500000000   0.000000000   0.528012056    0   0   1
Rh1      0.750000000   0.000000000   0.575340072    0   0   1
Rh1      0.500000000   0.500000000   0.575186526    0   0   1
O0       0.750000000   0.690000000   0.574763944    0   0   1
O0       0.750000000   0.310000000   0.574826028    0   0   1
O0       0.500000000   0.000000000   0.620645085    0   0   1
H2      -0.000190527   0.636049421   0.384540201
H2       0.499796996   0.638130985   0.385014323
H2       0.148185204   0.034473955   0.367802802
H2       0.648012008   0.035379281   0.367564519
O0       0.516647197   0.499260349   0.647991350
H2       0.370576815   0.499310642   0.662411892
End final coordinates

     General routines

     Parallel routines
     Hubbard U routines

   This run was terminated on:   9:16: 5   1May2014

   JOB DONE.
Running PBS batch system epilogue script
Job id: 340563.audhumbla.fysik.dtu.dk
Username: zhonxu
Groupname: campgst
Jobname: RhO2/Eads-2-layers/OH-U-5.5
Sessionid: 8479
Queuename: verylong
Accounting:
This job has allocated the following 16 nodes:
a059 a059 a059 a059 a059 a059 a059 a059 a051 a051 a051 a051 a051 a051 a051 a051
Finished epilogue job 340563.audhumbla.fysik.dtu.dk for zhonxu