     Program PWSCF v.5.0.2 (svn rev. 9656) starts on  1May2014 at  6:30:56

     Current dimensions of program PWSCF are:
     Max number of different atomic species (ntypx) = 10
     Max number of k-points (npk) =  40000
     Max angular momentum in pseudopotentials (lmaxx) =  3
     Reading input from pwscf.in
Warning: card &CELL ignored
Warning: card / ignored

     Subspace diagonalization in iterative solution of the eigenvalue problem:
     a serial algorithm will be used

     bravais-lattice index     =            0
     lattice parameter (alat)  =      10.9604  a.u.
     unit-cell volume          =    6350.6732 (a.u.)^3
     number of atoms/cell      =           33
     number of atomic types    =            3
     number of electrons       =       237.00 (up: 126.00, down: 111.00)
     number of Kohn-Sham states=          343
     kinetic-energy cutoff     =      40.0000  Ry
     charge density cutoff     =     500.0000  Ry
     convergence threshold     =      1.0E-06
     mixing beta               =       0.3000
     number of iterations used =            8  plain     mixing
     Exchange-correlation      = SLA  PW   PBE  PBE ( 1 4 3 4 0)
     EXX-fraction              =        0.00
     nstep                     =           50

     celldm(1)=  10.960412  celldm(2)=   0.000000  celldm(3)=   0.000000
     celldm(4)=   0.000000  celldm(5)=   0.000000  celldm(6)=   0.000000

     crystal axes: (cart. coord. in units of alat)
               a(1) = (   1.000000   0.000000   0.000000 )
               a(2) = (   0.000000   1.067975   0.000000 )
               a(3) = (   0.000000   0.000000   4.516251 )

     reciprocal axes: (cart. coord. in units 2 pi/alat)
               b(1) = (  1.000000  0.000000  0.000000 )
               b(2) = (  0.000000  0.936351  0.000000 )
               b(3) = (  0.000000  0.000000  0.221423 )

     PseudoPot. # 1 for O  read from file:
     /home/camp/zhonxu/pseudo/o_pbe_v1.01.uspp.F.UPF
     MD5 check sum: 2bcb18d16ea4b960afae9ec6d52f22d2
     Pseudo is Ultrasoft + core correction, Zval =  6.0
     Generated by new atomic code, or converted to UPF format
     Using radial grid of  737 points,  5 beta functions with:
                l(1) =   0
                l(2) =   0
                l(3) =   1
                l(4) =   1
                l(5) =   2
     Q(r) pseudized with  8 coefficients,  rinner =    0.900   0.900   0.900
                                                       0.900   0.900

     PseudoPot. # 2 for Cr read from file:
     /home/camp/zhonxu/pseudo/cr_pbe_v1.uspp.F.UPF
     MD5 check sum: 68b6f918d1762dccfb11451fe85b0e0e
     Pseudo is Ultrasoft + core correction, Zval = 14.0
     Generated by new atomic code, or converted to UPF format
     Using radial grid of  857 points,  6 beta functions with:
                l(1) =   0
                l(2) =   0
                l(3) =   1
                l(4) =   1
                l(5) =   2
                l(6) =   2
     Q(r) pseudized with  6 coefficients,  rinner =    1.000   1.000   1.000
                                                       1.000   1.000

     PseudoPot. # 3 for H  read from file:
     /home/camp/zhonxu/pseudo/h_pbe_v1.uspp.F.UPF
     MD5 check sum: 3408e3ff4ec8b0a4e358431e7e038a48
     Pseudo is Ultrasoft, Zval =  1.0
     Generated by new atomic code, or converted to UPF format
     Using radial grid of  615 points,  2 beta functions with:
                l(1) =   0
                l(2) =   0
     Q(r) pseudized with  8 coefficients,  rinner =    0.700

     atomic species   valence    mass     pseudopotential
        O0             6.00    15.99940     O ( 1.00)
        Cr1           14.00    51.99600     Cr( 1.00)
        H2             1.00     1.00794     H ( 1.00)

     Starting magnetic structure
     atomic species   magnetization
        O0           0.000
        Cr1          0.600
        H2           0.000

     No symmetry found

   Cartesian axes

     site n.     atom                  positions (alat units)
         1           O0  tau(   1) = (   0.0000000   0.0000000   1.7181625  )
         2           O0  tau(   2) = (   0.0000000   0.5339875   1.8008551  )
         3           Cr1 tau(   3) = (   0.2500000   0.5339875   2.0300096  )
         4           Cr1 tau(   4) = (   0.0000000   0.0000000   2.0413454  )
         5           O0  tau(   5) = (   0.2500000   0.8543801   2.0369195  )
         6           O0  tau(   6) = (   0.2500000   0.2135950   2.0378227  )
         7           O0  tau(   7) = (   0.0000000   0.5339875   2.2471058  )
         8           O0  tau(   8) = (   0.0000000   0.0000000   2.3700833  )
         9           Cr1 tau(   9) = (   0.2500000   0.0000000   2.6079543  )
        10           Cr1 tau(  10) = (   0.0000000   0.5339875   2.5535334  )
        11           O0  tau(  11) = (   0.2500000   0.7475825   2.5983798  )
        12           O0  tau(  12) = (   0.2500000   0.3203925   2.5982895  )
        13           O0  tau(  13) = (   0.0000000   0.0000000   2.7910882  )
        14           O0  tau(  14) = (   0.5000000   0.0000000   1.7181625  )
        15           O0  tau(  15) = (   0.5000000   0.5339875   1.8008551  )
        16           Cr1 tau(  16) = (   0.7500000   0.5339875   2.0300096  )
        17           Cr1 tau(  17) = (   0.5000000   0.0000000   2.0413454  )
        18           O0  tau(  18) = (   0.7500000   0.8543801   2.0369195  )
        19           O0  tau(  19) = (   0.7500000   0.2135950   2.0378227  )
        20           O0  tau(  20) = (   0.5000000   0.5339875   2.2471058  )
        21           O0  tau(  21) = (   0.5000000   0.0000000   2.3700833  )
        22           Cr1 tau(  22) = (   0.7500000   0.0000000   2.6079543  )
        23           Cr1 tau(  23) = (   0.5000000   0.5339875   2.5535334  )
        24           O0  tau(  24) = (   0.7500000   0.7475825   2.5983798  )
        25           O0  tau(  25) = (   0.7500000   0.3203925   2.5982895  )
        26           O0  tau(  26) = (   0.5000000   0.0000000   2.7910882  )
        27           H2  tau(  27) = (  -0.0006900   0.6851274   1.7196980  )
        28           H2  tau(  28) = (   0.4993100   0.6851274   1.7196980  )
        29           H2  tau(  29) = (   0.1573400   0.0316548   1.6594512  )
        30           H2  tau(  30) = (   0.6573500   0.0316548   1.6594512  )
        31           O0  tau(  31) = (   0.5000000   0.5339875   2.8983492  )
        32           O0  tau(  32) = (   0.5000000   0.3331228   3.0166298  )
        33           H2  tau(  33) = (   0.5000000   0.3841720   3.1798923  )

     number of k points=    20  Methfessel-Paxton smearing, width (Ry)=  0.0100
                       cart. coord. in units 2pi/alat
        k(    1) = (   0.0000000   0.0000000   0.0000000), wk =   0.0625000
        k(    2) = (   0.0000000   0.2340879   0.0000000), wk =   0.1250000
        k(    3) = (   0.0000000  -0.4681757   0.0000000), wk =   0.0625000
        k(    4) = (   0.2500000   0.0000000   0.0000000), wk =   0.1250000
        k(    5) = (   0.2500000   0.2340879   0.0000000), wk =   0.1250000
        k(    6) = (   0.2500000  -0.4681757   0.0000000), wk =   0.1250000
        k(    7) = (  -0.5000000   0.0000000   0.0000000), wk =   0.0625000
        k(    8) = (  -0.5000000   0.2340879   0.0000000), wk =   0.1250000
        k(    9) = (  -0.5000000  -0.4681757   0.0000000), wk =   0.0625000
        k(   10) = (  -0.2500000   0.2340879   0.0000000), wk =   0.1250000
        k(   11) = (   0.0000000   0.0000000   0.0000000), wk =   0.0625000
        k(   12) = (   0.0000000   0.2340879   0.0000000), wk =   0.1250000
        k(   13) = (   0.0000000  -0.4681757   0.0000000), wk =   0.0625000
        k(   14) = (   0.2500000   0.0000000   0.0000000), wk =   0.1250000
        k(   15) = (   0.2500000   0.2340879   0.0000000), wk =   0.1250000
        k(   16) = (   0.2500000  -0.4681757   0.0000000), wk =   0.1250000
        k(   17) = (  -0.5000000   0.0000000   0.0000000), wk =   0.0625000
        k(   18) = (  -0.5000000   0.2340879   0.0000000), wk =   0.1250000
        k(   19) = (  -0.5000000  -0.4681757   0.0000000), wk =   0.0625000
        k(   20) = (  -0.2500000   0.2340879   0.0000000), wk =   0.1250000

     Largest allocated arrays     est. size (Mb)     dimensions
     Largest temporary arrays     est. size (Mb)     dimensions

     Check: negative/imaginary core charge=   -0.000012    0.000000

     Initial potential from superposition of free atoms
     Check: negative starting charge=(component1):   -0.001323
     Check: negative starting charge=(component2):   -0.000458

     starting charge  228.99983, renormalised to  237.00000

     negative rho (up, down):  0.137E-02 0.474E-03
     Starting wfc are  165 randomized atomic wfcs

     Self-consistent Calculation

     iteration #  1     ecut=    40.00 Ry     beta=0.30
     Davidson diagonalization with overlap
     ethr =  1.00E-02,  avg # of iterations =  5.4

     negative rho (up, down):  0.167E-02 0.626E-03

     total energy              =   -2053.25223486 Ry
     Harris-Foulkes estimate   =   -2055.96347620 Ry
     estimated scf accuracy    <      16.28828247 Ry

     total magnetization       =    15.00 Bohr mag/cell
     absolute magnetization    =    30.43 Bohr mag/cell

[...]

     iteration # 13     ecut=    40.00 Ry     beta=0.30
     Davidson diagonalization with overlap
     c_bands:  1 eigenvalues not converged
     ethr =  5.14E-06,  avg # of iterations =  4.7

[...]

     End of self-consistent calculation

 ------ SPIN UP ------------

          k = 0.0000 0.0000 0.0000 ( 27003 PWs)   bands (ev):

   -74.5436 -74.5369 -74.5280 -74.4816 -74.3700 -74.3558 -74.3280 -74.3134
   -45.9541 -45.9402 -45.9248 -45.8993 -45.8847 -45.8650 -45.8233 -45.7938
   -45.7682 -45.7545 -45.7481 -45.7270 -45.7217 -45.7086 -45.7052 -45.7047
   -45.6779 -45.6501 -45.6277 -45.6136 -45.6120 -45.5907 -45.5854 -45.5481
   -25.0306 -20.8637 -20.2867 -20.2067 -19.9153 -19.6740 -19.5769 -19.2656
   -19.1835 -19.1511 -19.0677 -18.9622 -18.9075 -18.8797 -18.8199 -18.6881
   -18.6551 -18.3688 -18.2481 -16.8904  -9.4747  -8.7124  -8.3771  -8.2845
    -8.1426  -8.0098  -7.9723  -7.5364  -7.2841  -7.2750  -7.2202  -7.0969
    -7.0771  -6.9937  -6.8579  -6.6453  -6.5369  -6.4289  -6.3635  -6.3428
    -6.2703  -6.2451  -6.1974  -6.1832  -6.1773  -5.8157  -5.5977  -5.4185
    -5.3250  -5.1700  -5.1222  -4.8765  -4.7497  -4.5925  -4.5790  -4.5349
    -4.4474  -4.4312  -4.2450  -4.1725  -4.1346  -4.0858  -3.9123  -3.8108
    -3.7134  -3.6136  -3.4508  -3.3962  -3.3435  -3.2691  -3.1059  -3.0891
    -2.9584  -2.7607  -2.6218  -2.5453  -2.5065  -2.3944  -2.3298  -2.0673
    -2.0166  -2.0004  -1.9363  -1.6027  -1.5568  -1.5247  -1.4525  -1.4493
    -1.3879  -1.3493  -1.0852  -1.0161  -0.9679  -0.8910  -0.8649  -0.7808
    -0.7027  -0.4102  -0.3921  -0.3470   0.0362   0.0714   0.2150   0.2377
     0.9103   1.2236   1.5515   1.8254   1.9523   2.0295   2.1083   2.1521
     2.3268   2.4376   2.4818   2.8202   2.8965   2.8991   2.9823   3.3465
     3.5772   3.7486   4.3094   4.9319   5.0997   5.7104   5.9411   6.4878
[...]
     atom   21 type  1   force =     0.00064850   -0.00029677   -0.00095967
     atom   22 type  2   force =    -0.00325195    0.00014775    0.00196468
     atom   23 type  2   force =    -0.00002326   -0.01519708    0.10171195
     atom   24 type  1   force =     0.01695391   -0.04392276   -0.01734459
     atom   25 type  1   force =     0.02009286    0.04316629   -0.02220047
     atom   26 type  1   force =    -0.00049488   -0.02847452   -0.02497349
     atom   27 type  3   force =     0.00009273   -0.00061658    0.00063351
     atom   28 type  3   force =     0.00010093   -0.00078569    0.00027140
     atom   29 type  3   force =    -0.00026888    0.00035176    0.00041651
     atom   30 type  3   force =    -0.00033733    0.00033016    0.00041941
     atom   31 type  1   force =    -0.00002738    0.06999221   -0.01258663
     atom   32 type  1   force =     0.00003406   -0.03055373    0.03950238
     atom   33 type  3   force =    -0.00002311    0.00433594   -0.00271428

     Total force =     0.041548     Total SCF correction =     0.000069

     BFGS Geometry Optimization

     number of scf cycles    =   1
     number of bfgs steps    =   0

     energy   new            =   -2059.0661051360 Ry

     new trust radius        =       0.0395023899 bohr
     new conv_thr            =       0.0000010000 Ry

ATOMIC_POSITIONS (crystal)
O0       0.000000000   0.000000000   0.380440000    0   0   0
O0       0.000000000   0.500000000   0.398750000    0   0   0
Cr1      0.250000000   0.500000000   0.449490000    0   0   0
Cr1      0.000000000   0.000000000   0.452000000    0   0   0
O0       0.250000000   0.800000000   0.451020000    0   0   0
O0       0.250000000   0.200000000   0.451220000    0   0   0
O0       0.000000000   0.500000000   0.497560000    0   0   0
O0       0.000000000   0.000000000   0.524790000    0   0   0
Cr1      0.250000000   0.000000000   0.577460000    0   0   0
Cr1      0.000000000   0.500000000   0.565410000    0   0   0
O0       0.250000000   0.700000000   0.575340000    0   0   0
O0       0.250000000   0.300000000   0.575320000    0   0   0
O0       0.000000000   0.000000000   0.618010000    0   0   0
O0       0.500000000   0.000000000   0.380440000    0   0   0
O0       0.500000000   0.500000000   0.398750000    0   0   0
Cr1      0.750000000   0.500000000   0.449490000    0   0   0
Cr1      0.500000000   0.000000000   0.452000000    0   0   0
O0       0.750000000   0.800000000   0.451020000    0   0   0
O0       0.750000000   0.200000000   0.451220000    0   0   0
O0       0.500000000   0.500000000   0.497560000    0   0   0
O0       0.500000000   0.000000000   0.524790000    0   0   0
Cr1      0.750000000   0.000000000   0.577460000    0   0   0
Cr1      0.500000000   0.500000000   0.565410000    0   0   0
O0       0.750000000   0.700000000   0.575340000    0   0   0
O0       0.750000000   0.300000000   0.575320000    0   0   0
O0       0.500000000   0.000000000   0.618010000    0   0   0
H2      -0.000690000   0.641520000   0.380780000    0   0   0
H2       0.499310000   0.641520000   0.380780000    0   0   0
H2       0.157340000   0.029640000   0.367440000    0   0   0
H2       0.657350000   0.029640000   0.367440000    0   0   0
O0       0.499997502   0.500000000   0.641505724    1   0   1
O0       0.500003107   0.311920000   0.668748028    1   0   1
H2       0.499997891   0.359720000   0.704045166    1   0   1

     Check: negative starting charge=(component1):   -0.001699
     NEW-OLD atomic charge density approx. for the potential

     Check: negative/imaginary core charge=   -0.000012    0.000000
     Check: negative starting charge=(component1):   -0.001699

[...]

     energy   old            =   -2059.0661051360 Ry
     energy   new            =   -2059.0666931731 Ry

     CASE: energy  _new < energy  _old

[...]

     number of scf cycles    =   8
     number of bfgs steps    =   7

     energy   old            =   -2059.0697206296 Ry
     energy   new            =   -2059.0700543900 Ry

     CASE: energy  _new < energy  _old

     new trust radius        =       0.0189030336 bohr
     new conv_thr            =       0.0000000334 Ry

ATOMIC_POSITIONS (crystal)
O0       0.000000000   0.000000000   0.380440000    0   0   0
O0       0.000000000   0.500000000   0.398750000    0   0   0
Cr1      0.250000000   0.500000000   0.449490000    0   0   0
Cr1      0.000000000   0.000000000   0.452000000    0   0   0
O0       0.250000000   0.800000000   0.451020000    0   0   0
O0       0.250000000   0.200000000   0.451220000    0   0   0
O0       0.000000000   0.500000000   0.497560000    0   0   0
O0       0.000000000   0.000000000   0.524790000    0   0   0
Cr1      0.250000000   0.000000000   0.577460000    0   0   0
Cr1      0.000000000   0.500000000   0.565410000    0   0   0
O0       0.250000000   0.700000000   0.575340000    0   0   0
O0       0.250000000   0.300000000   0.575320000    0   0   0
O0       0.000000000   0.000000000   0.618010000    0   0   0
O0       0.500000000   0.000000000   0.380440000    0   0   0
O0       0.500000000   0.500000000   0.398750000    0   0   0
Cr1      0.750000000   0.500000000   0.449490000    0   0   0
Cr1      0.500000000   0.000000000   0.452000000    0   0   0
O0       0.750000000   0.800000000   0.451020000    0   0   0
O0       0.750000000   0.200000000   0.451220000    0   0   0
O0       0.500000000   0.500000000   0.497560000    0   0   0
O0       0.500000000   0.000000000   0.524790000    0   0   0
Cr1      0.750000000   0.000000000   0.577460000    0   0   0
Cr1      0.500000000   0.500000000   0.565410000    0   0   0
O0       0.750000000   0.700000000   0.575340000    0   0   0
O0       0.750000000   0.300000000   0.575320000    0   0   0
O0       0.500000000   0.000000000   0.618010000    0   0   0
H2      -0.000690000   0.641520000   0.380780000    0   0   0
H2       0.499310000   0.641520000   0.380780000    0   0   0
H2       0.157340000   0.029640000   0.367440000    0   0   0
H2       0.657350000   0.029640000   0.367440000    0   0   0
O0       0.499855000   0.500000000   0.646224989    1   0   1
O0       0.500215915   0.311920000   0.674245623    1   0   1
H2       0.499892418   0.359720000   0.710262418    1   0   1

     Check: negative starting charge=(component1):   -0.001671
     NEW-OLD atomic charge density approx. for the potential

     Check: negative/imaginary core charge=   -0.000012    0.000000
     Check: negative starting charge=(component1):   -0.001671

[...]

     Self-consistent Calculation

[...]

     Threshold (ethr) on eigenvalues was too large:
     Diagonalizing with lowered threshold

     Davidson diagonalization with overlap
     ethr =  5.72E-08,  avg # of iterations =  1.0

[...]

     total energy              =   -2059.07009456 Ry
     Harris-Foulkes estimate   =   -2059.07009423 Ry
     estimated scf accuracy    <       0.00000008 Ry

[...]

     iteration # 18     ecut=    40.00 Ry     beta=0.30
     Davidson diagonalization with overlap
     ethr =  1.73E-11,  avg # of iterations =  1.0

     negative rho (up, down):  0.427E-02 0.167E-02

     End of self-consistent calculation

 ------ SPIN UP ------------

[...]

 ------ SPIN DOWN ----------

[...]

          k = 0.2500-0.4682 0.0000 ( 27150 PWs)   bands (ev):

[...]

          k =-0.2500 0.2341 0.0000 ( 27132 PWs)   bands (ev):

   -72.6845 -72.6727 -72.1619 -72.1593 -72.1489 -72.0047 -71.8899 -71.8790
   -44.0979 -44.0851 -44.0748 -44.0117 -43.9871 -43.9448 -43.7934 -43.7825
   -43.7709 -43.6526 -43.4900 -43.4661 -43.4412 -43.4352 -43.4210 -43.3877
   -43.3412 -43.2842 -43.2704 -43.2593 -43.2101 -43.2087 -43.1217 -42.9876
   -24.8421 -20.7095 -20.2527 -20.1481 -19.8416 -19.8129 -19.7554 -19.4041
   -19.3034 -19.2931 -19.1353 -19.0837 -19.0255 -18.8854 -18.8692 -18.8482
   -18.8156 -18.5783 -18.4690 -17.3044  -9.3875  -8.3281  -8.0336  -7.7721
    -7.5606  -7.4884  -7.4305  -7.1191  -6.9940  -6.9453  -6.9410  -6.8829
    -6.7603  -6.7320  -6.5518  -6.4868  -6.3878  -6.3137  -6.2048  -6.1452
    -6.0116  -5.9948  -5.9341  -5.8282  -5.6696  -5.6308  -5.3497  -5.2622
    -5.1511  -4.9184  -4.8211  -4.7618  -4.7353  -4.6840  -4.6261  -4.5380
    -4.4687  -4.3419  -4.3272  -4.2140  -4.0585  -3.9644  -3.9116  -3.8111
    -3.6705  -3.5970  -3.5093  -3.4370  -3.3501  -3.2627  -3.0881  -3.0464
    -2.8941  -2.8572  -2.5946  -2.4712  -2.3781  -2.1478  -1.9346  -0.0268
     0.0781   0.2649   0.2748   0.3421   0.4390   0.4725   0.5671   0.6081
     0.6694   0.7236   0.8565   0.9020   0.9819   1.0329   1.0826   1.1151
     1.2030   1.2106   1.3274   1.3940   1.4956   1.6020   1.6553   1.8987
     2.2784   2.3484   2.4711   2.6043   2.9063   3.0165   3.0515   3.1339
     3.2778   3.3959   3.4934   3.6286   3.6745   3.9626   4.0945   4.1056
     4.2127   4.3409   4.5940   4.8813   5.3582   5.5270   5.7974   6.0776
     6.2297   6.2763   6.3600   6.5349   6.8237   6.9144   7.1412   7.4808
     7.5839   7.6853   7.9228   8.0933   8.3125   8.3627   8.4719   8.6499
     8.7724   8.9304   9.1073   9.2393   9.4033   9.4929   9.6264   9.7503
     9.9142   9.9863  10.0370  10.1038  10.1755  10.3595  10.4901  10.5352
    10.6106  10.7029  10.8371  10.9151  11.0360  11.1037  11.3030  11.3320
    11.4244  11.5651  11.6324  11.7706  11.8228  11.9336  12.0459  12.1074
    12.1500  12.2764  12.3761  12.4221  12.4415  12.5930  12.6921  12.7051
    12.8337  12.8891  13.0044  13.0958  13.1850  13.3158  13.4054  13.4556
    13.4894  13.5795  13.6361  13.6679  13.7937  13.9031  13.9489  14.0172
    14.1745  14.2118  14.3006  14.3407  14.3895  14.4627  14.5568  14.6457
    14.7875  14.8463  14.8927  15.0051  15.1039  15.2078  15.2760  15.3833
    15.4698  15.5545  15.6080  15.6887  15.7889  15.8659  15.9286  15.9828
    16.0566  16.0907  16.1563  16.1888  16.2043  16.2584  16.3502  16.4356
    16.4850  16.5350  16.6298  16.6671  16.7252  16.7794  16.9028  16.9364
    17.0786  17.1242  17.1750  17.2444  17.2997  17.3583  17.4625  17.4751
    17.5265  17.5974  17.7136  17.7814  17.8090  17.8314  17.9449  18.0204
    18.0760  18.1547  18.2309  18.2975  18.4144  18.4834  18.5282  18.5512
    18.6198  18.6896  18.7958  18.8661  18.9076  18.9935  19.0294  19.1386
    19.1731  19.2677  19.3672  19.4212  19.4460  19.4927  19.5953  19.6251
    19.7491  19.7976  19.8653  19.9223  20.0196  20.0853  20.2585  20.3580
    20.4175  20.4757  20.5507  20.6054  20.6776  20.8113  20.8556  20.9634
    21.0166  21.0764  21.1672  21.2880  21.3023  21.4050  21.4682  21.5064
    21.6094  21.7075  21.8442  21.8951  21.9602  22.0013  22.1085

     the spin up/dw Fermi energies are    -0.8014   -1.8175 ev

!    total energy              =   -2059.07009512 Ry
     Harris-Foulkes estimate   =   -2059.07009456 Ry
     estimated scf accuracy    <       0.00000002 Ry

     The total energy is the sum of the following terms:

     one-electron contribution =  -24780.90540578 Ry
     hartree contribution      =   12416.71032677 Ry
     xc contribution           =    -329.70397804 Ry
     ewald contribution        =   10634.82960165 Ry
     smearing contrib. (-TS)   =      -0.00063973 Ry

     total magnetization       =    15.00 Bohr mag/cell
     absolute magnetization    =    18.68 Bohr mag/cell

     convergence has been achieved in  18 iterations

     Forces acting on atoms (Ry/au):

     negative rho (up, down):  0.427E-02 0.167E-02
     atom    1 type  1   force =    -0.00354031   -0.01479431   -0.00181330
     atom    2 type  1   force =    -0.00008093    0.01425660    0.00107450
     atom    3 type  2   force =     0.00582119   -0.00660194   -0.00102495
     atom    4 type  2   force =     0.00070852    0.00776236    0.00130447
     atom    5 type  1   force =     0.00326352    0.00654748   -0.00001078
     atom    6 type  1   force =    -0.00118089   -0.00551125   -0.00009549
     atom    7 type  1   force =    -0.00006262   -0.00062936   -0.00177862
     atom    8 type  1   force =     0.00055338   -0.00176084   -0.00141264
     atom    9 type  2   force =     0.00408499    0.00162973    0.00421242
     atom   10 type  2   force =     0.00000780   -0.00085347   -0.00140279
     atom   11 type  1   force =    -0.01313970   -0.04730906   -0.01361969
     atom   12 type  1   force =    -0.01731655    0.04573796   -0.01913079
     atom   13 type  1   force =    -0.00070338    0.00018620   -0.00022638
     atom   14 type  1   force =    -0.00350100   -0.01475817   -0.00169179
     atom   15 type  1   force =    -0.00008349    0.01400007   -0.00128108
     atom   16 type  2   force =    -0.00630056   -0.00657445   -0.00098265
     atom   17 type  2   force =     0.00079654    0.00762741    0.00177715
     atom   18 type  1   force =     0.00365709    0.00650358    0.00000099
     atom   19 type  1   force =    -0.00027862   -0.00552510   -0.00010459
     atom   20 type  1   force =     0.00000499    0.00053900   -0.01278054
     atom   21 type  1   force =     0.00063690   -0.00051237   -0.00107342
     atom   22 type  2   force =    -0.00320280    0.00156543    0.00437639
     atom   23 type  2   force =     0.00002194   -0.01563457    0.09920495
     atom   24 type  1   force =     0.01305328   -0.04729707   -0.01371663
     atom   25 type  1   force =     0.01769717    0.04583472   -0.01913879
     atom   26 type  1   force =    -0.00050212   -0.01943148   -0.02222674
     atom   27 type  3   force =     0.00009522   -0.00070760    0.00057137
     atom   28 type  3   force =     0.00009903   -0.00081752    0.00028363
     atom   29 type  3   force =    -0.00030991    0.00033630    0.00041498
     atom   30 type  3   force =    -0.00030178    0.00030740    0.00041954
     atom   31 type  1   force =    -0.00012956    0.03654711    0.00058756
     atom   32 type  1   force =     0.00021467   -0.01603496    0.00011512
     atom   33 type  3   force =    -0.00008201    0.01537215   -0.00083140

     Total force =     0.001058     Total SCF correction =     0.000086

     bfgs converged in   9 scf cycles and   8 bfgs steps
     (criteria: energy < 0.10E-03, force < 0.10E-02)

     End of BFGS Geometry Optimization

     Final energy   =   -2059.0700951237 Ry
Begin final coordinates

ATOMIC_POSITIONS (crystal)
O0       0.000000000   0.000000000   0.380440000    0   0   0
O0       0.000000000   0.500000000   0.398750000    0   0   0
Cr1      0.250000000   0.500000000   0.449490000    0   0   0
Cr1      0.000000000   0.000000000   0.452000000    0   0   0
O0       0.250000000   0.800000000   0.451020000    0   0   0
O0       0.250000000   0.200000000   0.451220000    0   0   0
O0       0.000000000   0.500000000   0.497560000    0   0   0
O0       0.000000000   0.000000000   0.524790000    0   0   0
Cr1      0.250000000   0.000000000   0.577460000    0   0   0
Cr1      0.000000000   0.500000000   0.565410000    0   0   0
O0       0.250000000   0.700000000   0.575340000    0   0   0
O0       0.250000000   0.300000000   0.575320000    0   0   0
O0       0.000000000   0.000000000   0.618010000    0   0   0
O0       0.500000000   0.000000000   0.380440000    0   0   0
O0       0.500000000   0.500000000   0.398750000    0   0   0
Cr1      0.750000000   0.500000000   0.449490000    0   0   0
Cr1      0.500000000   0.000000000   0.452000000    0   0   0
O0       0.750000000   0.800000000   0.451020000    0   0   0
O0       0.750000000   0.200000000   0.451220000    0   0   0
O0       0.500000000   0.500000000   0.497560000    0   0   0
O0       0.500000000   0.000000000   0.524790000    0   0   0
Cr1      0.750000000   0.000000000   0.577460000    0   0   0
Cr1      0.500000000   0.500000000   0.565410000    0   0   0
O0       0.750000000   0.700000000   0.575340000    0   0   0
O0       0.750000000   0.300000000   0.575320000    0   0   0
O0       0.500000000   0.000000000   0.618010000    0   0   0
H2      -0.000690000   0.641520000   0.380780000    0   0   0
H2       0.499310000   0.641520000   0.380780000    0   0   0
H2       0.157340000   0.029640000   0.367440000    0   0   0
H2       0.657350000   0.029640000   0.367440000    0   0   0
O0       0.499855000   0.500000000   0.646224989    1   0   1
O0       0.500215915   0.311920000   0.674245623    1   0   1
H2       0.499892418   0.359720000   0.710262418    1   0   1
End final coordinates

     General routines

     Parallel routines

   This run was terminated on:  20:55:20   1May2014

   JOB DONE.
Running PBS batch system epilogue script
Job id: 344759.audhumbla.fysik.dtu.dk
Username: zhonxu
Groupname: campgst
Jobname: CrO2/Eads-2-layers/OOH
Sessionid: 15685
Queuename: verylong
Accounting:
This job has allocated the following 16 nodes:
a129 a129 a129 a129 a129 a129 a129 a129 a117 a117 a117 a117 a117 a117 a117 a117
Finished epilogue job 344759.audhumbla.fysik.dtu.dk for zhonxu