     Program PWSCF v.5.0.2 (svn rev. 9656) starts on 31Jan2014 at 17:49: 1

     Current dimensions of program PWSCF are:
     Max number of different atomic species (ntypx) = 10
     Max number of k-points (npk) =  40000
     Max angular momentum in pseudopotentials (lmaxx) =  3
     Waiting for input...
     Reading input from standard input

     Subspace diagonalization in iterative solution of the eigenvalue problem:
     a serial algorithm will be used

     bravais-lattice index     =            0
     lattice parameter (alat)  =       8.2734  a.u.
     unit-cell volume          =     364.9567 (a.u.)^3
     number of atoms/cell      =            6
     number of atomic types    =            2
     number of electrons       =        54.00
     number of Kohn-Sham states=           78
     kinetic-energy cutoff     =      40.0000  Ry
     charge density cutoff     =     500.0000  Ry
     convergence threshold     =      1.0E-06
     mixing beta               =       0.3000
     number of iterations used =            8  plain     mixing
     Exchange-correlation      = SLA  PW   PBE  PBE ( 1 4 3 4 0)
     EXX-fraction              =        0.00
     nstep                     =           50

     celldm(1)=   8.273424  celldm(2)=   0.000000  celldm(3)=   0.000000
     celldm(4)=   0.000000  celldm(5)=   0.000000  celldm(6)=   0.000000

     crystal axes: (cart. coord. in units of alat)
               a(1) = (   1.000000   0.000000   0.000000 )
               a(2) = (   0.000000   1.000000   0.000000 )
               a(3) = (   0.000000   0.000000   0.644444 )

     reciprocal axes: (cart. coord. in units 2 pi/alat)
               b(1) = (  1.000000  0.000000  0.000000 )
               b(2) = (  0.000000  1.000000  0.000000 )
               b(3) = (  0.000000  0.000000  1.551724 )

     PseudoPot. # 1 for Mn read from file:
     /home/camp/zhonxu/pseudo/mn_pbe_v1.uspp.F.UPF
     MD5 check sum: 5fd7c7b5c956fd19902447332617373a
     Pseudo is Ultrasoft + core correction, Zval = 15.0
     Generated by new atomic code, or converted to UPF format
     Using radial grid of  859 points,  6 beta functions with:
                l(1) =   0
                l(2) =   0
                l(3) =   1
                l(4) =   1
                l(5) =   2
                l(6) =   2
     Q(r) pseudized with  6 coefficients,  rinner =    1.150   1.150   1.150
                                                       1.150   1.150

     PseudoPot. # 2 for O  read from file:
     /home/camp/zhonxu/pseudo/o_pbe_v1.01.uspp.F.UPF
     MD5 check sum: 2bcb18d16ea4b960afae9ec6d52f22d2
     Pseudo is Ultrasoft + core correction, Zval =  6.0
     Generated by new atomic code, or converted to UPF format
     Using radial grid of  737 points,  5 beta functions with:
                l(1) =   0
                l(2) =   0
                l(3) =   1
                l(4) =   1
                l(5) =   2
     Q(r) pseudized with  8 coefficients,  rinner =    0.900   0.900   0.900
                                                       0.900   0.900

     atomic species   valence    mass     pseudopotential
        Mn0           15.00    54.93800     Mn( 1.00)
        O1             6.00    15.99940     O ( 1.00)

     Starting magnetic structure
     atomic species   magnetization
        Mn0          0.600
        O1           0.000

     16 Sym. Ops., with inversion, found ( 8 have fractional translation)

   Cartesian axes

     site n.     atom                  positions (alat units)
         1           Mn0 tau(   1) = (   0.0000000   0.0000000   0.0000000  )
         2           Mn0 tau(   2) = (   0.5000000   0.5000000   0.3222222  )
         3           O1  tau(   3) = (   0.3050000   0.3050000   0.0000000  )
         4           O1  tau(   4) = (  -0.3050000  -0.3050000   0.0000000  )
         5           O1  tau(   5) = (   0.8050000   0.1950000   0.3222222  )
         6           O1  tau(   6) = (   0.1950000   0.8050000   0.3222222  )

     number of k points=    36  Methfessel-Paxton smearing, width (Ry)=  0.0100
                       cart. coord. in units 2pi/alat
        k(    1) = (   0.0000000   0.0000000   0.0000000), wk =   0.0080000
        k(    2) = (   0.0000000   0.0000000   0.3103448), wk =   0.0160000
        k(    3) = (   0.0000000   0.0000000   0.6206897), wk =   0.0160000
        k(    4) = (   0.0000000   0.2000000   0.0000000), wk =   0.0320000
        k(    5) = (   0.0000000   0.2000000   0.3103448), wk =   0.0640000
        k(    6) = (   0.0000000   0.2000000   0.6206897), wk =   0.0640000
        k(    7) = (   0.0000000   0.4000000   0.0000000), wk =   0.0320000
        k(    8) = (   0.0000000   0.4000000   0.3103448), wk =   0.0640000
        k(    9) = (   0.0000000   0.4000000   0.6206897), wk =   0.0640000
        k(   10) = (   0.2000000   0.2000000   0.0000000), wk =   0.0320000
        k(   11) = (   0.2000000   0.2000000   0.3103448), wk =   0.0640000
        k(   12) = (   0.2000000   0.2000000   0.6206897), wk =   0.0640000
        k(   13) = (   0.2000000   0.4000000   0.0000000), wk =   0.0640000
        k(   14) = (   0.2000000   0.4000000   0.3103448), wk =   0.1280000
        k(   15) = (   0.2000000   0.4000000   0.6206897), wk =   0.1280000
        k(   16) = (   0.4000000   0.4000000   0.0000000), wk =   0.0320000
        k(   17) = (   0.4000000   0.4000000   0.3103448), wk =   0.0640000
        k(   18) = (   0.4000000   0.4000000   0.6206897), wk =   0.0640000
        k(   19) = (   0.0000000   0.0000000   0.0000000), wk =   0.0080000
        k(   20) = (   0.0000000   0.0000000   0.3103448), wk =   0.0160000
        k(   21) = (   0.0000000   0.0000000   0.6206897), wk =   0.0160000
        k(   22) = (   0.0000000   0.2000000   0.0000000), wk =   0.0320000
        k(   23) = (   0.0000000   0.2000000   0.3103448), wk =   0.0640000
        k(   24) = (   0.0000000   0.2000000   0.6206897), wk =   0.0640000
        k(   25) = (   0.0000000   0.4000000   0.0000000), wk =   0.0320000
        k(   26) = (   0.0000000   0.4000000   0.3103448), wk =   0.0640000
        k(   27) = (   0.0000000   0.4000000   0.6206897), wk =   0.0640000
        k(   28) = (   0.2000000   0.2000000   0.0000000), wk =   0.0320000
        k(   29) = (   0.2000000   0.2000000   0.3103448), wk =   0.0640000
        k(   30) = (   0.2000000   0.2000000   0.6206897), wk =   0.0640000
        k(   31) = (   0.2000000   0.4000000   0.0000000), wk =   0.0640000
        k(   32) = (   0.2000000   0.4000000   0.3103448), wk =   0.1280000
        k(   33) = (   0.2000000   0.4000000   0.6206897), wk =   0.1280000
        k(   34) = (   0.4000000   0.4000000   0.0000000), wk =   0.0320000
        k(   35) = (   0.4000000   0.4000000   0.3103448), wk =   0.0640000
        k(   36) = (   0.4000000   0.4000000   0.6206897), wk =   0.0640000

     Largest allocated arrays     est. size (Mb)     dimensions
     Largest temporary arrays     est. size (Mb)     dimensions

     Check: negative/imaginary core charge=   -0.000063    0.000000

     Initial potential from superposition of free atoms

     starting charge   51.99998, renormalised to   54.00000
     Starting wfc are   42 randomized atomic wfcs

     Self-consistent Calculation

     iteration #  1     ecut=    40.00 Ry     beta=0.30
     Davidson diagonalization with overlap
     ethr =  1.00E-02,  avg # of iterations =  5.0

     total energy              =    -553.81609399 Ry
     Harris-Foulkes estimate   =    -554.29345122 Ry
     estimated scf accuracy    <       3.98255714 Ry

     total magnetization       =     6.00 Bohr mag/cell
     absolute magnetization    =     7.24 Bohr mag/cell

[...]

     End of self-consistent calculation

 ------ SPIN UP ------------

          k = 0.0000 0.0000 0.0000 (  1559 PWs)   bands (ev):

   -70.7902 -70.7871 -39.5063 -39.4968 -39.4589 -39.4589 -39.3762 -39.3762
    -9.0150  -7.0946  -6.6477  -6.6477   2.9682   3.6191   4.2593   5.1885
     5.1885   6.9871   6.9871   7.7145   8.4425   8.5746   8.7656   8.7656
     8.9118   9.5488   9.9646   9.9646  10.5916  11.1494  11.2514  14.1807
    14.1807  14.9096  19.1828  22.5016  22.5016  25.1342  26.1662  26.5545
    29.1684  30.1491  30.1491  30.5934  31.5328  35.1695  35.7517  36.0770
    36.0770  37.0954  37.0954  37.4188  38.2492  38.2492  38.5580  39.7259
    41.2581  42.1101  45.3095  45.3095  45.5085  45.5549  45.5549  47.2847
    48.7683  50.2671  50.2671  50.9797  52.3780  52.4841  52.4841  53.0964
    54.5743  55.2945  56.3896  56.3896  57.6963  57.6969

[...]

 ------ SPIN DOWN ----------

[...]

     the Fermi energy is    11.3204 ev

!    total energy              =    -554.95946443 Ry
     Harris-Foulkes estimate   =    -554.95945942 Ry
     estimated scf accuracy    <       0.00000009 Ry

     The total energy is the sum of the following terms:

     one-electron contribution =    -267.29113099 Ry
     hartree contribution      =     162.20663911 Ry
     xc contribution           =     -81.18675786 Ry
     ewald contribution        =    -368.68848541 Ry
     smearing contrib. (-TS)   =       0.00027072 Ry

[...]

     convergence has been achieved in  12 iterations

     Forces acting on atoms (Ry/au):

     atom    1 type  1   force =     0.00000000    0.00000000    0.00000000
     atom    2 type  1   force =     0.00000000    0.00000000   -0.00000000
     atom    3 type  2   force =    -0.00658758   -0.00658758    0.00000000
     atom    4 type  2   force =     0.00658758    0.00658758    0.00000000
     atom    5 type  2   force =    -0.00658758    0.00658758   -0.00000000
     atom    6 type  2   force =     0.00658758   -0.00658758    0.00000000

     Total force =     0.018632     Total SCF correction =     0.000514

     entering subroutine stress ...

          total   stress  (Ry/bohr**3)                   (kbar)     P=  122.83
   0.00073853   0.00000000   0.00000000        108.64      0.00      0.00
   0.00000000   0.00073853   0.00000000          0.00    108.64      0.00
   0.00000000   0.00000000   0.00102780          0.00      0.00    151.19

     Volume is kept fixed: isostatic pressure set to zero

     BFGS Geometry Optimization

     number of scf cycles    =   1
     number of bfgs steps    =   0

     enthalpy new            =    -554.9594644294 Ry

     new trust radius        =       0.0184203360 bohr
     new conv_thr            =       0.0000010000 Ry

     new unit-cell volume =    364.95668 a.u.^3 (    54.08100 Ang^3 )

CELL_PARAMETERS (alat=  8.27342394)
   0.997595233   0.000000000   0.000000000
   0.000000000   0.997595233   0.000000000
   0.000000000   0.000000000   0.647555138

ATOMIC_POSITIONS (crystal)
Mn0      0.000000000   0.000000000   0.000000000    0   0   0
Mn0      0.500000000   0.500000000   0.500000000    0   0   0
O1       0.304203767   0.304203767   0.000000000    1   1   0
O1      -0.304203767  -0.304203767   0.000000000    1   1   0
O1       0.804203767   0.195796233   0.500000000    1   1   0
O1       0.195796233   0.804203767   0.500000000    1   1   0

     NEW-OLD atomic charge density approx. for the potential
     NEW k-points:
[...]
        k(   22) = (   0.0000000   0.2004821   0.0000000), wk =   0.0320000
        k(   23) = (   0.0000000   0.2004821   0.3088540), wk =   0.0640000
        k(   24) = (   0.0000000   0.2004821   0.6177080), wk =   0.0640000
        k(   25) = (   0.0000000   0.4009642   0.0000000), wk =   0.0320000
        k(   26) = (   0.0000000   0.4009642   0.3088540), wk =   0.0640000
        k(   27) = (   0.0000000   0.4009642   0.6177080), wk =   0.0640000
        k(   28) = (   0.2004821   0.2004821   0.0000000), wk =   0.0320000
        k(   29) = (   0.2004821   0.2004821   0.3088540), wk =   0.0640000
        k(   30) = (   0.2004821   0.2004821   0.6177080), wk =   0.0640000
        k(   31) = (   0.2004821   0.4009642   0.0000000), wk =   0.0640000
        k(   32) = (   0.2004821   0.4009642   0.3088540), wk =   0.1280000
        k(   33) = (   0.2004821   0.4009642   0.6177080), wk =   0.1280000
        k(   34) = (   0.4009642   0.4009642   0.0000000), wk =   0.0320000
        k(   35) = (   0.4009642   0.4009642   0.3088540), wk =   0.0640000
        k(   36) = (   0.4009642   0.4009642   0.6177080), wk =   0.0640000

[...]

     enthalpy old            =    -554.9594644294 Ry
     enthalpy new            =    -554.9600021037 Ry

     CASE: enthalpy_new < enthalpy_old

[...]

     Threshold (ethr) on eigenvalues was too large:
     Diagonalizing with lowered threshold

     Davidson diagonalization with overlap
     ethr =  2.91E-08,  avg # of iterations =  1.1

[...]

     Total force =     0.000806     Total SCF correction =     0.000058

[...]

     number of scf cycles    =   4
     number of bfgs steps    =   3

     enthalpy old            =    -554.9600471653 Ry
     enthalpy new            =    -554.9600490685 Ry

     CASE: enthalpy_new < enthalpy_old

     new trust radius        =       0.0011831670 bohr
     new conv_thr            =       0.0000000100 Ry

     new unit-cell volume =    364.95668 a.u.^3 (    54.08100 Ang^3 )

[...]

ATOMIC_POSITIONS (crystal)
Mn0      0.000000000   0.000000000   0.000000000    0   0   0
Mn0      0.500000000   0.500000000   0.500000000    0   0   0
O1       0.304108208   0.304108208   0.000000000    1   1   0
O1      -0.304108208  -0.304108208   0.000000000    1   1   0
O1       0.804108208   0.195891792   0.500000000    1   1   0
O1       0.195891792   0.804108208   0.500000000    1   1   0

     NEW-OLD atomic charge density approx. for the potential
     NEW k-points:
        k(    1) = (   0.0000000   0.0000000   0.0000000), wk =   0.0080000
        k(    2) = (   0.0000000   0.0000000   0.3080266), wk =   0.0160000
        k(    3) = (   0.0000000   0.0000000   0.6160533), wk =   0.0160000
        k(    4) = (   0.0000000   0.2007512   0.0000000), wk =   0.0320000
        k(    5) = (   0.0000000   0.2007512   0.3080266), wk =   0.0640000
        k(    6) = (   0.0000000   0.2007512   0.6160533), wk =   0.0640000
        k(    7) = (   0.0000000   0.4015024   0.0000000), wk =   0.0320000
        k(    8) = (   0.0000000   0.4015024   0.3080266), wk =   0.0640000
        k(    9) = (   0.0000000   0.4015024   0.6160533), wk =   0.0640000
        k(   10) = (   0.2007512   0.2007512   0.0000000), wk =   0.0320000
        k(   11) = (   0.2007512   0.2007512   0.3080266), wk =   0.0640000
        k(   12) = (   0.2007512   0.2007512   0.6160533), wk =   0.0640000
        k(   13) = (   0.2007512   0.4015024   0.0000000), wk =   0.0640000
        k(   14) = (   0.2007512   0.4015024   0.3080266), wk =   0.1280000
        k(   15) = (   0.2007512   0.4015024   0.6160533), wk =   0.1280000
        k(   16) = (   0.4015024   0.4015024   0.0000000), wk =   0.0320000
        k(   17) = (   0.4015024   0.4015024   0.3080266), wk =   0.0640000
        k(   18) = (   0.4015024   0.4015024   0.6160533), wk =   0.0640000
        k(   19) = (   0.0000000   0.0000000   0.0000000), wk =   0.0080000
        k(   20) = (   0.0000000   0.0000000   0.3080266), wk =   0.0160000
        k(   21) = (   0.0000000   0.0000000   0.6160533), wk =   0.0160000
        k(   22) = (   0.0000000   0.2007512   0.0000000), wk =   0.0320000
        k(   23) = (   0.0000000   0.2007512   0.3080266), wk =   0.0640000
        k(   24) = (   0.0000000   0.2007512   0.6160533), wk =   0.0640000
        k(   25) = (   0.0000000   0.4015024   0.0000000), wk =   0.0320000
        k(   26) = (   0.0000000   0.4015024   0.3080266), wk =   0.0640000
        k(   27) = (   0.0000000   0.4015024   0.6160533), wk =   0.0640000
        k(   28) = (   0.2007512   0.2007512   0.0000000), wk =   0.0320000
        k(   29) = (   0.2007512   0.2007512   0.3080266), wk =   0.0640000
        k(   30) = (   0.2007512   0.2007512   0.6160533), wk =   0.0640000
        k(   31) = (   0.2007512   0.4015024   0.0000000), wk =   0.0640000
        k(   32) = (   0.2007512   0.4015024   0.3080266), wk =   0.1280000
        k(   33) = (   0.2007512   0.4015024   0.6160533), wk =   0.1280000
        k(   34) = (   0.4015024   0.4015024   0.0000000), wk =   0.0320000
        k(   35) = (   0.4015024   0.4015024   0.3080266), wk =   0.0640000
        k(   36) = (   0.4015024   0.4015024   0.6160533), wk =   0.0640000

[...]

     Threshold (ethr) on eigenvalues was too large:
     Diagonalizing with lowered threshold

     Davidson diagonalization with overlap
     ethr =  4.53E-10,  avg # of iterations =  2.0

[...]

     Total force =     0.000037     Total SCF correction =     0.000090
     SCF correction compared to forces is large: reduce conv_thr to get better values

[...]

     Volume is kept fixed: isostatic pressure set to zero

     bfgs converged in   5 scf cycles and   4 bfgs steps
     (criteria: energy < 0.10E-03, force < 0.10E-02, cell < 0.50E+00)

     End of BFGS Geometry Optimization

     Final enthalpy =    -554.9600499953 Ry
Begin final coordinates
     new unit-cell volume =    364.95668 a.u.^3 (    54.08100 Ang^3 )

CELL_PARAMETERS (alat=  8.27342394)
   0.996258135   0.000000000   0.000000000
   0.000000000   0.996258135   0.000000000
   0.000000000   0.000000000   0.649294498

ATOMIC_POSITIONS (crystal)
Mn0      0.000000000   0.000000000   0.000000000    0   0   0
Mn0      0.500000000   0.500000000   0.500000000    0   0   0
O1       0.304108208   0.304108208   0.000000000    1   1   0
O1      -0.304108208  -0.304108208   0.000000000    1   1   0
O1       0.804108208   0.195891792   0.500000000    1   1   0
O1       0.195891792   0.804108208   0.500000000    1   1   0
End final coordinates

     A final scf calculation at the relaxed structure.
     The G-vectors are recalculated for the final unit cell
     Results may differ from those at the preceding step.

     bravais-lattice index     =            0
     lattice parameter (alat)  =       8.2734  a.u.
     unit-cell volume          =     364.9567 (a.u.)^3
     number of atoms/cell      =            6
     number of atomic types    =            2
     number of electrons       =        54.00
     number of Kohn-Sham states=           78
     kinetic-energy cutoff     =      40.0000  Ry
     charge density cutoff     =     500.0000  Ry
     convergence threshold     =      1.0E-08
     mixing beta               =       0.3000
     number of iterations used =            8  plain     mixing
     Exchange-correlation      = SLA  PW   PBE  PBE ( 1 4 3 4 0)
     EXX-fraction              =        0.00

     celldm(1)=   8.273424  celldm(2)=   0.000000  celldm(3)=   0.000000
     celldm(4)=   0.000000  celldm(5)=   0.000000  celldm(6)=   0.000000

     crystal axes: (cart. coord. in units of alat)
               a(1) = (   0.996258   0.000000   0.000000 )
               a(2) = (   0.000000   0.996258   0.000000 )
               a(3) = (   0.000000   0.000000   0.649294 )

     reciprocal axes: (cart. coord. in units 2 pi/alat)
               b(1) = (  1.003756  0.000000  0.000000 )
               b(2) = (  0.000000  1.003756  0.000000 )
               b(3) = (  0.000000  0.000000  1.540133 )

     PseudoPot. # 1 for Mn read from file:
     /home/camp/zhonxu/pseudo/mn_pbe_v1.uspp.F.UPF
     MD5 check sum: 5fd7c7b5c956fd19902447332617373a
     Pseudo is Ultrasoft + core correction, Zval = 15.0
     Generated by new atomic code, or converted to UPF format
     Using radial grid of  859 points,  6 beta functions with:
                l(1) =   0
                l(2) =   0
                l(3) =   1
                l(4) =   1
                l(5) =   2
                l(6) =   2
     Q(r) pseudized with  6 coefficients,  rinner =    1.150   1.150   1.150
                                                       1.150   1.150

     PseudoPot. # 2 for O  read from file:
     /home/camp/zhonxu/pseudo/o_pbe_v1.01.uspp.F.UPF
     MD5 check sum: 2bcb18d16ea4b960afae9ec6d52f22d2
     Pseudo is Ultrasoft + core correction, Zval =  6.0
     Generated by new atomic code, or converted to UPF format
     Using radial grid of  737 points,  5 beta functions with:
                l(1) =   0
                l(2) =   0
                l(3) =   1
                l(4) =   1
                l(5) =   2
     Q(r) pseudized with  8 coefficients,  rinner =    0.900   0.900   0.900
                                                       0.900   0.900

     atomic species   valence    mass     pseudopotential
        Mn0           15.00    54.93800     Mn( 1.00)
        O1             6.00    15.99940     O ( 1.00)

     Starting magnetic structure
     atomic species   magnetization
        Mn0          0.600
        O1           0.000

     16 Sym. Ops., with inversion, found ( 8 have fractional translation)

   Cartesian axes

     site n.     atom                  positions (alat units)
         1           Mn0 tau(   1) = (   0.0000000   0.0000000   0.0000000  )
         2           Mn0 tau(   2) = (   0.4981291   0.4981291   0.3246472  )
         3           O1  tau(   3) = (   0.3029703   0.3029703   0.0000000  )
         4           O1  tau(   4) = (  -0.3029703  -0.3029703   0.0000000  )
         5           O1  tau(   5) = (   0.8010993   0.1951588   0.3246472  )
         6           O1  tau(   6) = (   0.1951588   0.8010993   0.3246472  )

     number of k points=    36  Methfessel-Paxton smearing, width (Ry)=  0.0100
                       cart. coord. in units 2pi/alat
        k(    1) = (   0.0000000   0.0000000   0.0000000), wk =   0.0080000
        k(    2) = (   0.0000000   0.0000000   0.3080266), wk =   0.0160000
        k(    3) = (   0.0000000   0.0000000   0.6160533), wk =   0.0160000
        k(    4) = (   0.0000000   0.2007512   0.0000000), wk =   0.0320000
        k(    5) = (   0.0000000   0.2007512   0.3080266), wk =   0.0640000
        k(    6) = (   0.0000000   0.2007512   0.6160533), wk =   0.0640000
        k(    7) = (   0.0000000   0.4015024   0.0000000), wk =   0.0320000
        k(    8) = (   0.0000000   0.4015024   0.3080266), wk =   0.0640000
        k(    9) = (   0.0000000   0.4015024   0.6160533), wk =   0.0640000
        k(   10) = (   0.2007512   0.2007512   0.0000000), wk =   0.0320000
        k(   11) = (   0.2007512   0.2007512   0.3080266), wk =   0.0640000
        k(   12) = (   0.2007512   0.2007512   0.6160533), wk =   0.0640000
        k(   13) = (   0.2007512   0.4015024   0.0000000), wk =   0.0640000
        k(   14) = (   0.2007512   0.4015024   0.3080266), wk =   0.1280000
        k(   15) = (   0.2007512   0.4015024   0.6160533), wk =   0.1280000
        k(   16) = (   0.4015024   0.4015024   0.0000000), wk =   0.0320000
        k(   17) = (   0.4015024   0.4015024   0.3080266), wk =   0.0640000
        k(   18) = (   0.4015024   0.4015024   0.6160533), wk =   0.0640000
        k(   19) = (   0.0000000   0.0000000   0.0000000), wk =   0.0080000
        k(   20) = (   0.0000000   0.0000000   0.3080266), wk =   0.0160000
        k(   21) = (   0.0000000   0.0000000   0.6160533), wk =   0.0160000
        k(   22) = (   0.0000000   0.2007512   0.0000000), wk =   0.0320000
        k(   23) = (   0.0000000   0.2007512   0.3080266), wk =   0.0640000
        k(   24) = (   0.0000000   0.2007512   0.6160533), wk =   0.0640000
        k(   25) = (   0.0000000   0.4015024   0.0000000), wk =   0.0320000
        k(   26) = (   0.0000000   0.4015024   0.3080266), wk =   0.0640000
        k(   27) = (   0.0000000   0.4015024   0.6160533), wk =   0.0640000
        k(   28) = (   0.2007512   0.2007512   0.0000000), wk =   0.0320000
        k(   29) = (   0.2007512   0.2007512   0.3080266), wk =   0.0640000
        k(   30) = (   0.2007512   0.2007512   0.6160533), wk =   0.0640000
        k(   31) = (   0.2007512   0.4015024   0.0000000), wk =   0.0640000
        k(   32) = (   0.2007512   0.4015024   0.3080266), wk =   0.1280000
        k(   33) = (   0.2007512   0.4015024   0.6160533), wk =   0.1280000
        k(   34) = (   0.4015024   0.4015024   0.0000000), wk =   0.0320000
        k(   35) = (   0.4015024   0.4015024   0.3080266), wk =   0.0640000
        k(   36) = (   0.4015024   0.4015024   0.6160533), wk =   0.0640000

     Largest allocated arrays     est. size (Mb)     dimensions
     Largest temporary arrays     est. size (Mb)     dimensions

     Check: negative/imaginary core charge=   -0.000063    0.000000

     Initial potential from superposition of free atoms

     starting charge   51.99998, renormalised to   54.00000
     Starting wfc are   42 randomized atomic wfcs

     Self-consistent Calculation

[...]

     total energy              =    -554.96003590 Ry
     Harris-Foulkes estimate   =    -554.96003529 Ry
     estimated scf accuracy    <       0.00000003 Ry

[...]

     iteration # 15     ecut=    40.00 Ry     beta=0.30
     Davidson diagonalization with overlap
     ethr =  6.09E-11,  avg # of iterations =  1.0

     End of self-consistent calculation

 ------ SPIN UP ------------

[...]

 ------ SPIN DOWN ----------

[...]

          k = 0.4015 0.4015 0.6161 (  1550 PWs)   bands (ev):

   -67.4772 -67.4771 -36.4542 -36.4539 -36.2403 -36.2400 -36.1663 -36.1661
    -7.0094  -6.9110  -6.7299  -6.7267   4.5943   4.7730   5.0194   5.0272
     6.2749   6.4694   7.2524   7.3086   8.9292   9.1021   9.4851   9.8047
    12.1165  12.4557  12.5013  12.6212  12.8343  13.2563  14.2349  14.8003
    15.0592  15.6128  23.3322  23.6861  25.2824  25.7705  26.8752  27.1923
    28.1570  28.3510  29.4991  29.7406  30.9663  31.3758  34.3699  36.2231
    36.3043  36.8599  37.4590  38.1518  42.1061  42.2297  42.3877  43.2338
    45.1640  45.6175  46.0908  46.9973  47.7235  47.8638  48.5993  49.1533
    49.4132  50.5243  52.1752  52.8733  52.9555  53.4952  54.3216  54.8558
    55.2077  55.5645  55.6256  56.5402  57.5863  58.5063

     the Fermi energy is    11.3196 ev

!    total energy              =    -554.96003650 Ry
     Harris-Foulkes estimate   =    -554.96003590 Ry
     estimated scf accuracy    <          3.1E-09 Ry

     The total energy is the sum of the following terms:

     one-electron contribution =    -266.13407731 Ry
     hartree contribution      =     161.63328396 Ry
     xc contribution           =     -81.17624167 Ry
     ewald contribution        =    -369.28327220 Ry
     smearing contrib. (-TS)   =       0.00027073 Ry

     total magnetization       =     6.00 Bohr mag/cell
     absolute magnetization    =     6.19 Bohr mag/cell

     convergence has been achieved in  15 iterations

     Forces acting on atoms (Ry/au):

     atom    1 type  1   force =     0.00000000    0.00000000    0.00000000
     atom    2 type  1   force =     0.00000000    0.00000000   -0.00000000
     atom    3 type  2   force =     0.00000299    0.00000299    0.00000000
     atom    4 type  2   force =    -0.00000299   -0.00000299    0.00000000
     atom    5 type  2   force =     0.00000299   -0.00000299    0.00000000
     atom    6 type  2   force =    -0.00000299    0.00000299    0.00000000

     Total force =     0.000008     Total SCF correction =     0.000030
     SCF correction compared to forces is large: reduce conv_thr to get better values

     entering subroutine stress ...

          total   stress  (Ry/bohr**3)                   (kbar)     P=  113.02
   0.00076576   0.00000000   0.00000000        112.65      0.00      0.00
   0.00000000   0.00076576   0.00000000          0.00    112.65      0.00
   0.00000000   0.00000000   0.00077343          0.00      0.00    113.78

     General routines

     Parallel routines

   This run was terminated on:  18:45:28  31Jan2014

   JOB DONE.
Running PBS batch system epilogue script
Job id: 259319.audhumbla.fysik.dtu.dk
Username: zhonxu
Groupname: campgst
Jobname: MnO2/ground
Sessionid: 12712
Queuename: verylong
Accounting:
This job has allocated the following 1 nodes:
q012
Finished epilogue job 259319.audhumbla.fysik.dtu.dk for zhonxu