     Program PWSCF v.5.0.2 (svn rev. 9656) starts on  1Jun2014 at 23: 7:20

     Current dimensions of program PWSCF are:
     Max number of different atomic species (ntypx) = 10
     Max number of k-points (npk) =  40000
     Max angular momentum in pseudopotentials (lmaxx) =  3
     Reading input from pwscf.in
Warning: card &CELL ignored
Warning: card / ignored

     Subspace diagonalization in iterative solution of the eigenvalue problem:
     a serial algorithm will be used

     bravais-lattice index     =            0
     lattice parameter (alat)  =      10.9604  a.u.
     unit-cell volume          =    6350.6732 (a.u.)^3
     number of atoms/cell      =           33
     number of atomic types    =            3
     number of electrons       =       237.00 (up: 126.00, down: 111.00)
     number of Kohn-Sham states=          343
     kinetic-energy cutoff     =      40.0000  Ry
     charge density cutoff     =     500.0000  Ry
     convergence threshold     =      1.0E-06
     mixing beta               =       0.7000
     number of iterations used =            8  plain     mixing
     Exchange-correlation      = SLA  PW   PBE  PBE ( 1 4 3 4 0)
     EXX-fraction              =        0.00
     nstep                     =           50

     celldm(1)=  10.960412  celldm(2)=   0.000000  celldm(3)=   0.000000
     celldm(4)=   0.000000  celldm(5)=   0.000000  celldm(6)=   0.000000

     crystal axes: (cart. coord. in units of alat)
               a(1) = (   1.000000   0.000000   0.000000 )
               a(2) = (   0.000000   1.067975   0.000000 )
               a(3) = (   0.000000   0.000000   4.516251 )

     reciprocal axes: (cart. coord. in units 2 pi/alat)
               b(1) = (  1.000000  0.000000  0.000000 )
               b(2) = (  0.000000  0.936351  0.000000 )
               b(3) = (  0.000000  0.000000  0.221423 )

     PseudoPot. # 1 for O  read from file:
     /home/camp/zhonxu/pseudo/o_pbe_v1.01.uspp.F.UPF
     MD5 check sum: 2bcb18d16ea4b960afae9ec6d52f22d2
     Pseudo is Ultrasoft + core correction, Zval =  6.0
     Generated by new atomic code, or converted to UPF format
     Using radial grid of  737 points,  5 beta functions with:
                l(1) =   0
                l(2) =   0
                l(3) =   1
                l(4) =   1
                l(5) =   2
     Q(r) pseudized with  8 coefficients,  rinner =    0.900   0.900   0.900
                                                       0.900   0.900

     PseudoPot. # 2 for Cr read from file:
     /home/camp/zhonxu/pseudo/cr_pbe_v1.uspp.F.UPF
     MD5 check sum: 68b6f918d1762dccfb11451fe85b0e0e
     Pseudo is Ultrasoft + core correction, Zval = 14.0
     Generated by new atomic code, or converted to UPF format
     Using radial grid of  857 points,  6 beta functions with:
                l(1) =   0
                l(2) =   0
                l(3) =   1
                l(4) =   1
                l(5) =   2
                l(6) =   2
     Q(r) pseudized with  6 coefficients,  rinner =    1.000   1.000   1.000
                                                       1.000   1.000

     PseudoPot. # 3 for H  read from file:
     /home/camp/zhonxu/pseudo/h_pbe_v1.uspp.F.UPF
     MD5 check sum: 3408e3ff4ec8b0a4e358431e7e038a48
     Pseudo is Ultrasoft, Zval =  1.0
     Generated by new atomic code, or converted to UPF format
     Using radial grid of  615 points,  2 beta functions with:
                l(1) =   0
                l(2) =   0
     Q(r) pseudized with  8 coefficients,  rinner =    0.700

     atomic species   valence    mass     pseudopotential
        O0             6.00    15.99940     O ( 1.00)
        Cr1           14.00    51.99600     Cr( 1.00)
        H2             1.00     1.00794     H ( 1.00)

     Starting magnetic structure
     atomic species   magnetization
        O0           0.000
        Cr1          0.600
        H2           0.000

     Simplified LDA+U calculation (l_max = 2) with parameters (eV):
     atomic species    L          U    alpha       J0     beta
        Cr1            2     0.5000   0.0000   0.0000   0.0000

     No symmetry found

   Cartesian axes

     site n.     atom                  positions (alat units)
         1           O0  tau(   1) = (   0.0000000   0.0000000   1.7057880  )
         2           O0  tau(   2) = (   0.0000000   0.5339875   1.8101134  )
         3           Cr1 tau(   3) = (   0.2500000   0.5339875   2.0412099  )
         4           Cr1 tau(   4) = (   0.0000000   0.0000000   2.0263515  )
         5           O0  tau(   5) = (   0.2500000   0.8543801   2.0311839  )
         6           O0  tau(   6) = (   0.2500000   0.2135950   2.0319065  )
         7           O0  tau(   7) = (   0.0000000   0.5339875   2.2504478  )
         8           O0  tau(   8) = (   0.0000000   0.0000000   2.3617283  )
         9           Cr1 tau(   9) = (   0.2500000   0.0000000   2.5571464  )
        10           Cr1 tau(  10) = (   0.0000000   0.5339875   2.5545270  )
        11           O0  tau(  11) = (   0.2500000   0.7475825   2.5883086  )
        12           O0  tau(  12) = (   0.2500000   0.3203925   2.5986508  )
        13           O0  tau(  13) = (   0.0000000   0.0000000   2.7891463  )
        14           O0  tau(  14) = (   0.5000000   0.0000000   1.7052460  )
        15           O0  tau(  15) = (   0.5000000   0.5339875   1.8091650  )
        16           Cr1 tau(  16) = (   0.7500000   0.5339875   2.0419325  )
        17           Cr1 tau(  17) = (   0.5000000   0.0000000   2.0263063  )
        18           O0  tau(  18) = (   0.7500000   0.8543801   2.0310484  )
        19           O0  tau(  19) = (   0.7500000   0.2135950   2.0321774  )
        20           O0  tau(  20) = (   0.5000000   0.5339875   2.2541963  )
        21           O0  tau(  21) = (   0.5000000   0.0000000   2.3617283  )
        22           Cr1 tau(  22) = (   0.7500000   0.0000000   2.6331549  )
        23           Cr1 tau(  23) = (   0.5000000   0.5339875   2.6097156  )
        24           O0  tau(  24) = (   0.7500000   0.7475825   2.5944507  )
        25           O0  tau(  25) = (   0.7500000   0.3203925   2.6044767  )
        26           O0  tau(  26) = (   0.5000000   0.0000000   2.7840880  )
        27           H2  tau(  27) = (  -0.0006600   0.6808768   1.7228142  )
        28           H2  tau(  28) = (   0.4998000   0.6828846   1.7250724  )
        29           H2  tau(  29) = (   0.1568300   0.0328936   1.6463090  )
        30           H2  tau(  30) = (   0.6565800   0.0331499   1.6456315  )
        31           O0  tau(  31) = (   0.4998600   0.5715162   2.9254467  )
        32           O0  tau(  32) = (   0.5002200   0.3713883   3.0709603  )
        33           H2  tau(  33) = (   0.4998900   0.4494573   3.2222096  )

     number of k points=    20  Methfessel-Paxton smearing, width (Ry)=  0.0100
                       cart. coord. in units 2pi/alat
        k(    1) = (   0.0000000   0.0000000   0.0000000), wk =   0.0625000
        k(    2) = (   0.0000000   0.2340879   0.0000000), wk =   0.1250000
        k(    3) = (   0.0000000  -0.4681757   0.0000000), wk =   0.0625000
        k(    4) = (   0.2500000   0.0000000   0.0000000), wk =   0.1250000
        k(    5) = (   0.2500000   0.2340879   0.0000000), wk =   0.1250000
        k(    6) = (   0.2500000  -0.4681757   0.0000000), wk =   0.1250000
        k(    7) = (  -0.5000000   0.0000000   0.0000000), wk =   0.0625000
        k(    8) = (  -0.5000000   0.2340879   0.0000000), wk =   0.1250000
        k(    9) = (  -0.5000000  -0.4681757   0.0000000), wk =   0.0625000
        k(   10) = (  -0.2500000   0.2340879   0.0000000), wk =   0.1250000
        k(   11) = (   0.0000000   0.0000000   0.0000000), wk =   0.0625000
        k(   12) = (   0.0000000   0.2340879   0.0000000), wk =   0.1250000
        k(   13) = (   0.0000000  -0.4681757   0.0000000), wk =   0.0625000
        k(   14) = (   0.2500000   0.0000000   0.0000000), wk =   0.1250000
        k(   15) = (   0.2500000   0.2340879   0.0000000), wk =   0.1250000
        k(   16) = (   0.2500000  -0.4681757   0.0000000), wk =   0.1250000
        k(   17) = (  -0.5000000   0.0000000   0.0000000), wk =   0.0625000
        k(   18) = (  -0.5000000   0.2340879   0.0000000), wk =   0.1250000
        k(   19) = (  -0.5000000  -0.4681757   0.0000000), wk =   0.0625000
        k(   20) = (  -0.2500000   0.2340879   0.0000000), wk =   0.1250000

     Largest allocated arrays     est. size (Mb)     dimensions
     Largest temporary arrays     est. size (Mb)     dimensions

     Check: negative/imaginary core charge=   -0.000012    0.000000

     Initial potential from superposition of free atoms
     Check: negative starting charge=(component1):   -0.001299
     Check: negative starting charge=(component2):   -0.000449

     starting charge  228.99983, renormalised to  237.00000

     negative rho (up, down):  0.134E-02 0.465E-03
     Number of +U iterations with fixed ns =  0
     Starting occupations:
 --- enter write_ns ---
 LDA+U parameters:
U( 2)     =  0.50000000
alpha( 2) =  0.00000000
atom    3   Tr[ns(na)] (up, down, total) =   5.00000  0.00000  5.00000
   spin  1
    eigenvalues:
  1.000  1.000  1.000  1.000  1.000
    eigenvectors:
  1.000  0.000  0.000  0.000  0.000
  0.000  1.000  0.000  0.000  0.000
  0.000  0.000  1.000  0.000  0.000
  0.000  0.000  0.000  1.000  0.000
  0.000  0.000  0.000  0.000  1.000
    occupations:
  1.000  0.000  0.000  0.000  0.000
  0.000  1.000  0.000  0.000  0.000
  0.000  0.000  1.000  0.000  0.000
  0.000  0.000  0.000  1.000  0.000
  0.000  0.000  0.000  0.000  1.000
   spin  2
    eigenvalues:
  0.000  0.000  0.000  0.000  0.000
    eigenvectors:
  1.000  0.000  0.000  0.000  0.000
  0.000  1.000  0.000  0.000  0.000
  0.000  0.000  1.000  0.000  0.000
  0.000  0.000  0.000  1.000  0.000
  0.000  0.000  0.000  0.000  1.000
    occupations:
  0.000  0.000  0.000  0.000  0.000
  0.000  0.000  0.000  0.000  0.000
  0.000  0.000  0.000  0.000  0.000
  0.000  0.000  0.000  0.000  0.000
  0.000  0.000  0.000  0.000  0.000
atomic mag. moment =     5.000000
atom    4   Tr[ns(na)] (up, down, total) =   5.00000  0.00000  5.00000
   spin  1
    eigenvalues:
  1.000  1.000  1.000  1.000  1.000
    eigenvectors:
  1.000  0.000  0.000  0.000  0.000
  0.000  1.000  0.000  0.000  0.000
  0.000  0.000  1.000  0.000  0.000
  0.000  0.000  0.000  1.000  0.000
  0.000  0.000  0.000  0.000  1.000
    occupations:
  1.000  0.000  0.000  0.000  0.000
  0.000  1.000  0.000  0.000  0.000
  0.000  0.000  1.000  0.000  0.000
  0.000  0.000  0.000  1.000  0.000
  0.000  0.000  0.000  0.000  1.000
   spin  2
    eigenvalues:
  0.000  0.000  0.000  0.000  0.000
    eigenvectors:
  1.000  0.000  0.000  0.000  0.000
  0.000  1.000  0.000  0.000  0.000
  0.000  0.000  1.000  0.000  0.000
  0.000  0.000  0.000  1.000  0.000
  0.000  0.000  0.000  0.000  1.000
    occupations:
  0.000  0.000  0.000  0.000  0.000
  0.000  0.000  0.000  0.000  0.000
  0.000  0.000  0.000  0.000  0.000
  0.000  0.000  0.000  0.000  0.000
  0.000  0.000  0.000  0.000  0.000
atomic mag. moment =     5.000000
[...]
  0.028  0.003  0.001  0.973 -0.000
  0.001  0.000 -0.001 -0.000  0.480
   spin  2
    eigenvalues:
  0.128  0.170  0.223  0.386  0.409
    eigenvectors:
  0.002  0.004  0.000  0.001  0.993
  0.001  0.957  0.038  0.000  0.004
  0.000  0.038  0.962  0.000  0.000
  0.996  0.002  0.000  0.000  0.002
  0.000  0.000  0.000  0.999  0.001
    occupations:
  0.407  0.015  0.003 -0.013  0.001
  0.015  0.173 -0.010  0.001 -0.000
  0.003 -0.010  0.221  0.001 -0.000
 -0.013  0.001  0.001  0.129  0.000
  0.001 -0.000 -0.000  0.000  0.386
atomic mag. moment =     2.068126
atom    9   Tr[ns(na)] (up, down, total) =   3.39105  1.35134  4.74239
   spin  1
    eigenvalues:
  0.494  0.506  0.623  0.796  0.971
    eigenvectors:
  0.004  0.164  0.000  0.000  0.832
  0.979  0.021  0.000  0.000  0.000
  0.000  0.001  0.989  0.010  0.000
  0.017  0.814  0.001  0.000  0.168
  0.000  0.000  0.010  0.990  0.000
    occupations:
  0.893  0.001 -0.001 -0.174 -0.001
  0.001  0.495  0.002  0.001  0.000
 -0.001  0.002  0.624 -0.004 -0.017
 -0.174  0.001 -0.004  0.584  0.003
 -0.001  0.000 -0.017  0.003  0.795
   spin  2
    eigenvalues:
  0.152  0.191  0.211  0.397  0.400
    eigenvectors:
  0.822  0.000  0.000  0.177  0.001
  0.000  0.000  0.000  0.008  0.992
  0.000  0.018  0.981  0.000  0.000
  0.178  0.000  0.000  0.815  0.007
  0.000  0.982  0.018  0.000  0.000
    occupations:
  0.196  0.001  0.001  0.094 -0.000
  0.001  0.400 -0.000 -0.001  0.000
  0.001 -0.000  0.210  0.003  0.003
  0.094 -0.001  0.003  0.353 -0.000
 -0.000  0.000  0.003 -0.000  0.192
atomic mag. moment =     2.039709
atom   10   Tr[ns(na)] (up, down, total) =   3.51241  1.17533  4.68774
   spin  1
    eigenvalues:
  0.470  0.500  0.702  0.867  0.973
    eigenvectors:
  0.000  0.996  0.000  0.000  0.004
  0.000  0.000  0.000  0.967  0.033
  0.000  0.000  1.000  0.000  0.000
  0.000  0.004  0.000  0.033  0.964
  0.999  0.000  0.000  0.000  0.000
    occupations:
  0.502 -0.003  0.001  0.028  0.000
 -0.003  0.871 -0.001 -0.019 -0.009
  0.001 -0.001  0.702  0.001  0.004
  0.028 -0.019  0.001  0.968  0.000
  0.000 -0.009  0.004  0.000  0.471
   spin  2
    eigenvalues:
  0.119  0.177  0.192  0.317  0.370
    eigenvectors:
  0.005  0.000  0.000  0.995  0.000
  0.001  0.997  0.001  0.000  0.000
  0.000  0.001  0.998  0.000  0.000
  0.994  0.001  0.000  0.004  0.000
  0.000  0.000  0.000  0.000  0.999
    occupations:
  0.316 -0.000 -0.001 -0.013  0.000
 -0.000  0.177 -0.000  0.002  0.004
 -0.001 -0.000  0.192 -0.001  0.003
 -0.013  0.002 -0.001  0.120 -0.000
  0.000  0.004  0.003 -0.000  0.370
atomic mag. moment =     2.337084
atom   16   Tr[ns(na)] (up, down, total) =   3.46099  1.23618  4.69717
   spin  1
    eigenvalues:
  0.461  0.507  0.668  0.857  0.968
    eigenvectors:
  0.005  0.222  0.002  0.000  0.772
  0.985  0.014  0.000  0.000  0.000
  0.000  0.000  0.966  0.031  0.002
  0.009  0.764  0.001  0.000  0.226
  0.000  0.000  0.031  0.969  0.000
    occupations:
  0.863  0.010  0.013 -0.193  0.003
  0.010  0.461  0.002  0.001 -0.006
  0.013  0.002  0.675 -0.006 -0.033
 -0.193  0.001 -0.006  0.611 -0.001
  0.003 -0.006 -0.033 -0.001  0.851
   spin  2
    eigenvalues:
  0.126  0.156  0.193  0.369  0.391
    eigenvectors:
  0.766  0.000  0.012  0.022  0.200
  0.000  0.003  0.000  0.906  0.091
  0.013  0.039  0.947  0.000  0.000
  0.221  0.000  0.001  0.069  0.709
  0.000  0.958  0.040  0.003  0.000
    occupations:
  0.185  0.001 -0.004  0.109 -0.001
  0.001  0.371 -0.001  0.006  0.011
 -0.004 -0.001  0.191  0.007  0.007
  0.109  0.006  0.007  0.331  0.000
 -0.001  0.011  0.007  0.000  0.158
atomic mag. moment =     2.224809
atom   17   Tr[ns(na)] (up, down, total) =   3.39018  1.30933  4.69952
   spin  1
    eigenvalues:
  0.479  0.522  0.606  0.809  0.976
    eigenvectors:
  0.001  0.994  0.001  0.001  0.003
  0.000  0.001  0.014  0.984  0.000
  0.001  0.001  0.984  0.014  0.000
  0.000  0.003  0.000  0.000  0.997
  0.999  0.001  0.001  0.000  0.000
    occupations:
  0.523 -0.010 -0.003  0.024  0.001
 -0.010  0.805  0.024  0.001 -0.000
 -0.003  0.024  0.608  0.001  0.003
  0.024  0.001  0.001  0.974 -0.000
  0.001 -0.000  0.003 -0.000  0.479
   spin  2
    eigenvalues:
  0.128  0.169  0.221  0.383  0.408
    eigenvectors:
  0.002  0.005  0.000  0.001  0.992
  0.001  0.953  0.040  0.000  0.005
  0.000  0.040  0.960  0.000  0.000
  0.996  0.002  0.000  0.000  0.002
  0.000  0.000  0.000  0.999  0.001
    occupations:
  0.406  0.017  0.004 -0.013  0.001
  0.017  0.172 -0.010  0.001 -0.000
  0.004 -0.010  0.219  0.001 -0.000
 -0.013  0.001  0.001  0.128  0.000
  0.001 -0.000 -0.000  0.000  0.383
atomic mag. moment =     2.080846
atom   22   Tr[ns(na)] (up, down, total) =   2.91902  1.94322  4.86225
   spin  1
    eigenvalues:
  0.506  0.531  0.546  0.620  0.716
    eigenvectors:
  0.976  0.001  0.023  0.000  0.000
  0.001  0.999  0.000  0.000  0.000
  0.000  0.000  0.000  0.025  0.974
  0.023  0.000  0.977  0.000  0.000
  0.000  0.000  0.000  0.975  0.025
    occupations:
  0.507 -0.001  0.002  0.006  0.000
 -0.001  0.531  0.001  0.000 -0.000
  0.002  0.001  0.714 -0.002  0.015
  0.006  0.000 -0.002  0.545 -0.000
  0.000 -0.000  0.015 -0.000  0.622
   spin  2
    eigenvalues:
  0.285  0.346  0.360  0.473  0.478
    eigenvectors:
  0.000  0.002  0.996  0.001  0.000
  0.000  0.000  0.000  0.004  0.996
  0.996  0.004  0.000  0.000  0.000
  0.000  0.000  0.001  0.995  0.004
  0.004  0.994  0.002  0.000  0.000
    occupations:
  0.360 -0.002 -0.000  0.004 -0.001
 -0.002  0.478  0.000 -0.000  0.001
 -0.000  0.000  0.286  0.002 -0.004
  0.004 -0.000  0.002  0.473  0.001
 -0.001  0.001 -0.004  0.001  0.346
atomic mag. moment =     0.975801
atom   23   Tr[ns(na)] (up, down, total) =   3.45215  1.23998  4.69213
   spin  1
    eigenvalues:
  0.471  0.496  0.658  0.873  0.954
    eigenvectors:
  0.000  0.996  0.003  0.000  0.000
  0.001  0.003  0.992  0.000  0.004
  0.000  0.000  0.000  0.999  0.000
  0.000  0.000  0.004  0.000  0.996
  0.999  0.000  0.001  0.000  0.000
    occupations:
  0.497  0.009  0.007 -0.004 -0.001
  0.009  0.658  0.000  0.018 -0.005
  0.007  0.000  0.873 -0.001 -0.005
 -0.004  0.018 -0.001  0.953 -0.001
 -0.001 -0.005 -0.005 -0.001  0.472
   spin  2
    eigenvalues:
  0.124  0.141  0.222  0.372  0.381
    eigenvectors:
  0.002  0.000  0.000  0.996  0.002
  0.001  0.000  0.999  0.000  0.000
  0.007  0.992  0.000  0.000  0.000
  0.989  0.007  0.001  0.002  0.000
  0.000  0.000  0.000  0.002  0.998
    occupations:
  0.372  0.001 -0.001 -0.012 -0.000
  0.001  0.222 -0.000 -0.003  0.002
 -0.001 -0.000  0.141  0.002 -0.004
 -0.012 -0.003  0.002  0.124  0.000
 -0.000  0.002 -0.004  0.000  0.381
atomic mag. moment =     2.212176
N of occupied +U levels =  37.7807814
 --- exit write_ns ---

 ------ SPIN UP ------------

[...]

 ------ SPIN DOWN ----------

[...]

          k = 0.2500-0.4682 0.0000 ( 27150 PWs)   bands (ev):

[...]

          k =-0.2500 0.2341 0.0000 ( 27132 PWs)   bands (ev):

   -73.8132 -72.1665 -72.1508 -72.1205 -72.0810 -72.0554 -71.9963 -71.9644
   -45.4688 -45.1066 -44.8938 -43.8675 -43.7613 -43.7390 -43.7281 -43.6531
   -43.6108 -43.5787 -43.5562 -43.5150 -43.4582 -43.4030 -43.3727 -43.3595
   -43.3324 -43.3223 -43.2985 -43.2073 -43.1809 -43.1655 -43.1286 -43.0449
   -24.0893 -20.6820 -20.2101 -20.1375 -20.0201 -19.8757 -19.5504 -19.4712
   -19.4021 -19.3346 -19.2137 -19.1575 -19.0065 -18.9942 -18.9767 -18.8971
   -18.7973 -18.7508 -18.6508 -17.4690  -9.0726  -8.2719  -7.9985  -7.6600
    -7.6364  -7.5815  -7.4402  -7.1335  -7.0652  -7.0332  -6.9387  -6.8739
    -6.8224  -6.6686  -6.5947  -6.4750  -6.3557  -6.3298  -6.2292  -6.1736
    -6.0069  -5.9064  -5.8450  -5.7720  -5.7175  -5.4585  -5.3340  -5.2526
    -5.1635  -5.0454  -4.8894  -4.8205  -4.7800  -4.7240  -4.6990  -4.6238
    -4.4972  -4.4583  -4.3262  -4.2972  -4.1459  -4.0175  -3.8798  -3.8126
    -3.7028  -3.5908  -3.5569  -3.4659  -3.4198  -3.3559  -3.2979  -3.1584
    -3.0256  -2.9803  -2.8577  -2.6975  -2.5750  -2.3289  -1.9980  -0.2098
     0.0217   0.0341   0.3705   0.3875   0.4964   0.5700   0.6585   0.7037
     0.7752   0.8659   0.8865   0.9941   1.0474   1.1467   1.2043   1.2379
     1.3055   1.3477   1.4056   1.4389   1.5463   1.6758   1.7236   1.9262
     1.9754   2.3291   2.4253   2.6011   2.8971   3.0552   3.1144   3.1719
     3.2795   3.3558   3.4698   3.5466   3.6030   3.8347   3.9667   4.0651
     4.1542   4.2572   4.3888   4.8853   5.3557   5.5235   5.8201   6.0572
     6.2292   6.2859   6.3593   6.5389   6.8123   6.9333   7.1496   7.4903
     7.5719   7.7036   7.9190   8.0805   8.3292   8.3764   8.4863   8.6246
     8.7741   8.9243   9.1549   9.2455   9.4384   9.5137   9.5851   9.7740
     9.9153   9.9671  10.0570  10.1243  10.1701  10.3874  10.4723  10.4962
    10.6198  10.6943  10.8245  10.9346  11.0565  11.1592  11.2720  11.3304
    11.3928  11.5355  11.6556  11.7610  11.8345  11.9155  12.0525  12.0991
    12.1765  12.3328  12.3619  12.4049  12.4811  12.5644  12.7016  12.7299
    12.8608  12.8700  13.0180  13.0773  13.1902  13.2799  13.3474  13.4246
    13.4938  13.5431  13.6063  13.6943  13.7822  13.8457  13.9429  14.0142
    14.1308  14.1651  14.2460  14.3003  14.3461  14.4562  14.4772  14.5728
    14.7537  14.8262  14.8822  14.9733  15.0889  15.1494  15.2299  15.2777
    15.4007  15.4578  15.5778  15.6514  15.6962  15.7742  15.8593  15.9302
    15.9653  16.0032  16.0587  16.1471  16.2057  16.2390  16.3267  16.3804
    16.4612  16.5162  16.6058  16.7172  16.7839  16.8316  16.9116  16.9960
    17.0492  17.1233  17.1895  17.2442  17.3259  17.3649  17.4598  17.4779
    17.5422  17.5901  17.7295  17.7708  17.8102  17.8870  17.9468  18.0100
    18.0662  18.1707  18.2275  18.2950  18.3975  18.4702  18.5161  18.5762
    18.5984  18.6914  18.7727  18.8572  18.9147  18.9954  19.0178  19.0797
    19.1579  19.2902  19.3804  19.4212  19.4427  19.5169  19.5669  19.6675
    19.7069  19.7989  19.8529  19.9358  19.9969  20.1482  20.2034  20.2947
    20.3256  20.4028  20.5173  20.5790  20.6897  20.8241  20.8703  20.9480
    21.0323  21.1100  21.1655  21.2305  21.2860  21.3562  21.4127  21.5055
    21.5948  21.6859  21.8098  21.8494  21.9310  21.9724  22.0346

     the spin up/dw Fermi energies are    -0.9490   -1.8790 ev

!    total energy              =   -2058.84081708 Ry
     Harris-Foulkes estimate   =   -2058.84081709 Ry
     estimated scf accuracy    <          8.2E-09 Ry

     The total energy is the sum of the following terms:

     one-electron contribution =  -24597.59780300 Ry
     hartree contribution      =   12324.54165677 Ry
     xc contribution           =    -329.67373417 Ry
     ewald contribution        =   10543.61731830 Ry
     Hubbard energy            =       0.27136426 Ry
     smearing contrib. (-TS)   =       0.00038075 Ry

     total magnetization       =    15.00 Bohr mag/cell
     absolute magnetization    =    18.40 Bohr mag/cell

     convergence has been achieved in  17 iterations

     Forces acting on atoms (Ry/au):

     negative rho (up, down):  0.448E-02 0.165E-02
     atom    1 type  1   force =    -0.00307433   -0.01229495    0.00047812
     atom    2 type  1   force =    -0.00054753    0.00745194   -0.00015624
     atom    3 type  2   force =     0.04725121   -0.00401063    0.00000069
     atom    4 type  2   force =    -0.00288504    0.00843240   -0.00015063
     atom    5 type  1   force =    -0.00037759    0.01031638   -0.00013181
     atom    6 type  1   force =    -0.00255831   -0.00762910   -0.00011303
     atom    7 type  1   force =    -0.00003893   -0.00460622   -0.00030658
     atom    8 type  1   force =    -0.01003232    0.00255972    0.00024981
     atom    9 type  2   force =     0.00674985   -0.00213489    0.00004288
     atom   10 type  2   force =     0.00637141    0.00289474   -0.00008824
     atom   11 type  1   force =    -0.02755352   -0.02715038    0.00004417
     atom   12 type  1   force =    -0.01958365    0.03367801   -0.00018857
     atom   13 type  1   force =    -0.04875798   -0.00322276    0.00003197
     atom   14 type  1   force =    -0.00487539   -0.01255249    0.00027229
     atom   15 type  1   force =     0.00036492    0.00743386    0.00002629
     atom   16 type  2   force =    -0.04956002   -0.00328916    0.00000299
     atom   17 type  2   force =     0.00515637    0.00802146   -0.00028301
     atom   18 type  1   force =     0.00540481    0.00929014   -0.00013222
     atom   19 type  1   force =     0.00312575   -0.00774367   -0.00015625
     atom   20 type  1   force =     0.00195280   -0.00362067   -0.00056935
     atom   21 type  1   force =     0.00543357    0.00376600    0.00070110
     atom   22 type  2   force =     0.01710617   -0.00539420    0.00022034
     atom   23 type  2   force =    -0.00510932   -0.00458585    0.00041645
     atom   24 type  1   force =     0.02227322   -0.01916447    0.00036333
     atom   25 type  1   force =     0.01474047    0.03166371    0.00017277
     atom   26 type  1   force =     0.03954896   -0.00847972   -0.00031659
     atom   27 type  3   force =     0.00001670    0.00031856   -0.00030399
     atom   28 type  3   force =    -0.00001412    0.00006326   -0.00012036
     atom   29 type  3   force =     0.00004895   -0.00016097    0.00030495
     atom   30 type  3   force =     0.00008820   -0.00008715    0.00022106
     atom   31 type  1   force =    -0.00067089    0.00005975   -0.00045034
     atom   32 type  1   force =    -0.00021670    0.00089245   -0.00010354
     atom   33 type  3   force =     0.00022226   -0.00071508    0.00002155

     Total force =     0.002116     Total SCF correction =     0.000191

     entering subroutine stress ...

     negative rho (up, down):  0.448E-02 0.165E-02
          total   stress  (Ry/bohr**3)                   (kbar)     P=    3.91
   0.00000952  -0.00000050   0.00000419          1.40     -0.07      0.62
  -0.00000050   0.00010373   0.00000323         -0.07     15.26      0.48
   0.00000419   0.00000323  -0.00003344          0.62      0.48     -4.92

     bfgs converged in   5 scf cycles and   4 bfgs steps
     (criteria: energy < 0.10E-03, force < 0.10E-02)

     End of BFGS Geometry Optimization

     Final energy   =   -2058.8408170812 Ry
Begin final coordinates

ATOMIC_POSITIONS (crystal)
O0       0.000000000   0.000000000   0.377633396    0   0   1
O0       0.000000000   0.500000000   0.400629521    0   0   1
Cr1      0.250000000   0.500000000   0.451870469    0   0   1
Cr1      0.000000000   0.000000000   0.448730958    0   0   1
O0       0.250000000   0.800000000   0.449715602    0   0   1
O0       0.250000000   0.200000000   0.449878357    0   0   1
O0       0.000000000   0.500000000   0.498312816    0   0   1
O0       0.000000000   0.000000000   0.522948417    0   0   1
Cr1      0.250000000   0.000000000   0.566464283    0   0   1
Cr1      0.000000000   0.500000000   0.565656046    0   0   1
O0       0.250000000   0.700000000   0.573114224    0   0   1
O0       0.250000000   0.300000000   0.575330196    0   0   1
O0       0.000000000   0.000000000   0.617567101    0   0   1
O0       0.500000000   0.000000000   0.377498057    0   0   1
O0       0.500000000   0.500000000   0.400533838    0   0   1
Cr1      0.750000000   0.500000000   0.451987494    0   0   1
Cr1      0.500000000   0.000000000   0.448680492    0   0   1
O0       0.750000000   0.800000000   0.449686897    0   0   1
O0       0.750000000   0.200000000   0.449941607    0   0   1
O0       0.500000000   0.500000000   0.499406632    0   0   1
O0       0.500000000   0.000000000   0.522849309    0   0   1
Cr1      0.750000000   0.000000000   0.582972565    0   0   1
Cr1      0.500000000   0.500000000   0.577594271    0   0   1
O0       0.750000000   0.700000000   0.574606548    0   0   1
O0       0.750000000   0.300000000   0.576742873    0   0   1
O0       0.500000000   0.000000000   0.616571459    0   0   1
H2      -0.000658437   0.637749449   0.381415898
H2       0.499799019   0.639466049   0.381955953
H2       0.157101556   0.030726442   0.364587647
H2       0.656830945   0.031028910   0.364432132
O0       0.499439151   0.535631986   0.647982863
O0       0.500036340   0.348245036   0.679928443
H2       0.500060758   0.420359700   0.713553639
End final coordinates

     General routines

     Parallel routines
     Hubbard U routines

   This run was terminated on:  12:35:41   2Jun2014

   JOB DONE.
Running PBS batch system epilogue script
Job id: 373410.audhumbla.fysik.dtu.dk
Username: zhonxu
Groupname: campgst
Jobname: CrO2/Eads-2-layers/OOH-U-0.5
Sessionid: 29690
Queuename: verylong
Accounting:
This job has allocated the following 16 nodes:
a081 a081 a081 a081 a081 a081 a081 a081 a062 a062 a062 a062 a062 a062 a062 a062
Finished epilogue job 373410.audhumbla.fysik.dtu.dk for zhonxu