     Program PWSCF v.5.0.2 (svn rev. 9656) starts on  8May2014 at 23:57:29

     Current dimensions of program PWSCF are:
     Max number of different atomic species (ntypx) = 10
     Max number of k-points (npk) =  40000
     Max angular momentum in pseudopotentials (lmaxx) =  3
     Reading input from pwscf.in
Warning: card &CELL ignored
Warning: card / ignored

     Subspace diagonalization in iterative solution of the eigenvalue problem:
     a serial algorithm will be used

     bravais-lattice index     =            0
     lattice parameter (alat)  =      11.1872  a.u.
     unit-cell volume          =    7531.8600 (a.u.)^3
     number of atoms/cell      =           30
     number of atomic types    =            3
     number of electrons       =       216.00
     number of Kohn-Sham states=          324
     kinetic-energy cutoff     =      40.0000  Ry
     charge density cutoff     =     500.0000  Ry
     convergence threshold     =      1.0E-06
     mixing beta               =       0.7000
     number of iterations used =            8  plain     mixing
     Exchange-correlation      = SLA  PW   PBE  PBE ( 1 4 3 4 0)
     EXX-fraction              =        0.00
     nstep                     =           50

     celldm(1)=  11.187179  celldm(2)=   0.000000  celldm(3)=   0.000000
     celldm(4)=   0.000000  celldm(5)=   0.000000  celldm(6)=   0.000000

     crystal axes: (cart. coord. in units of alat)
               a(1) = (   1.000000   0.000000   0.000000 )
               a(2) = (   0.000000   1.180104   0.000000 )
               a(3) = (   0.000000   0.000000   4.558482 )

     reciprocal axes: (cart. coord. in units 2 pi/alat)
               b(1) = (  1.000000  0.000000  0.000000 )
               b(2) = (  0.000000  0.847383  0.000000 )
               b(3) = (  0.000000  0.000000  0.219371 )

     PseudoPot. # 1 for O  read from file:
     /home/camp/zhonxu/pseudo/o_pbe_v1.01.uspp.F.UPF
     MD5 check sum: 2bcb18d16ea4b960afae9ec6d52f22d2
     Pseudo is Ultrasoft + core correction, Zval =  6.0
     Generated by new atomic code, or converted to UPF format
     Using radial grid of  737 points,  5 beta functions with:
                l(1) =   0
                l(2) =   0
                l(3) =   1
                l(4) =   1
                l(5) =   2
     Q(r) pseudized with  8 coefficients,  rinner =    0.900   0.900   0.900
                                                       0.900   0.900

     PseudoPot. # 2 for Nb read from file:
     /home/camp/zhonxu/pseudo/nb_pbe_v1.uspp.F.UPF
     MD5 check sum: 573aab8a2fa660278ed4a62cd769473f
     Pseudo is Ultrasoft + core correction, Zval = 13.0
     Generated by new atomic code, or converted to UPF format
     Using radial grid of  887 points,  6 beta functions with:
                l(1) =   0
                l(2) =   0
                l(3) =   1
                l(4) =   1
                l(5) =   2
                l(6) =   2
     Q(r) pseudized with  6 coefficients,  rinner =    1.000   1.000   1.000
                                                       1.000   1.000

     PseudoPot. # 3 for H  read from file:
     /home/camp/zhonxu/pseudo/h_pbe_v1.uspp.F.UPF
     MD5 check sum: 3408e3ff4ec8b0a4e358431e7e038a48
     Pseudo is Ultrasoft, Zval =  1.0
     Generated by new atomic code, or converted to UPF format
     Using radial grid of  615 points,  2 beta functions with:
                l(1) =   0
                l(2) =   0
     Q(r) pseudized with  8 coefficients,  rinner =    0.700

     atomic species   valence    mass     pseudopotential
        O0             6.00    15.99940     O ( 1.00)
        Nb1           13.00    92.90640     Nb( 1.00)
        H2             1.00     1.00794     H ( 1.00)

     Simplified LDA+U calculation (l_max = 2) with parameters (eV):
     atomic species    L          U    alpha       J0     beta
        Nb1            2     7.5000   0.0000   0.0000   0.0000

     No symmetry found

   Cartesian axes

     site n.     atom                  positions (alat units)
         1           O0  tau(   1) = (   0.0000000   0.0000000   1.7080633  )
         2           O0  tau(   2) = (   0.0000000   0.5900519   1.7583889  )
         3           Nb1 tau(   3) = (   0.2500000   0.5900519   2.0066439  )
         4           Nb1 tau(   4) = (   0.0000000   0.0000000   2.0401487  )
         5           O0  tau(   5) = (   0.2500000   0.9322821   2.0429294  )
         6           O0  tau(   6) = (   0.2500000   0.2478218   2.0431118  )
         7           O0  tau(   7) = (   0.0000000   0.5900519   2.2709903  )
         8           O0  tau(   8) = (   0.0000000   0.0000000   2.3999042  )
         9           Nb1 tau(   9) = (   0.2500000   0.0000000   2.6489340  )
        10           Nb1 tau(  10) = (   0.0000000   0.5900519   2.5868019  )
        11           O0  tau(  11) = (   0.2500000   0.8378738   2.6444667  )
        12           O0  tau(  12) = (   0.2500000   0.3422301   2.6445123  )
        13           O0  tau(  13) = (   0.0000000   0.0000000   2.8518777  )
        14           O0  tau(  14) = (   0.5000000   0.0000000   1.7080633  )
        15           O0  tau(  15) = (   0.5000000   0.5900519   1.7583889  )
        16           Nb1 tau(  16) = (   0.7500000   0.5900519   2.0066439  )
        17           Nb1 tau(  17) = (   0.5000000   0.0000000   2.0401487  )
        18           O0  tau(  18) = (   0.7500000   0.9322821   2.0429294  )
        19           O0  tau(  19) = (   0.7500000   0.2478218   2.0431118  )
        20           O0  tau(  20) = (   0.5000000   0.5900519   2.2709903  )
        21           O0  tau(  21) = (   0.5000000   0.0000000   2.3999497  )
        22           Nb1 tau(  22) = (   0.7500000   0.0000000   2.6489340  )
        23           Nb1 tau(  23) = (   0.5000000   0.5900519   2.5867563  )
        24           O0  tau(  24) = (   0.7500000   0.8378738   2.6444667  )
        25           O0  tau(  25) = (   0.7500000   0.3422301   2.6445123  )
        26           O0  tau(  26) = (   0.5000000   0.0000000   2.8518777  )
        27           H2  tau(  27) = (  -0.0004200   0.5934860   1.5928705  )
        28           H2  tau(  28) = (   0.4995800   0.5932146   1.5928249  )
        29           H2  tau(  29) = (   0.1513000  -0.0014397   1.6372701  )
        30           H2  tau(  30) = (   0.6512900  -0.0014397   1.6372701  )

     number of k points=    10  Methfessel-Paxton smearing, width (Ry)=  0.0100
                       cart. coord. in units 2pi/alat
        k(    1) = (   0.0000000   0.0000000   0.0000000), wk =   0.1250000
        k(    2) = (   0.0000000   0.2118458   0.0000000), wk =   0.2500000
        k(    3) = (   0.0000000  -0.4236915   0.0000000), wk =   0.1250000
        k(    4) = (   0.2500000   0.0000000   0.0000000), wk =   0.2500000
        k(    5) = (   0.2500000   0.2118458   0.0000000), wk =   0.2500000
        k(    6) = (   0.2500000  -0.4236915   0.0000000), wk =   0.2500000
        k(    7) = (  -0.5000000   0.0000000   0.0000000), wk =   0.1250000
        k(    8) = (  -0.5000000   0.2118458   0.0000000), wk =   0.2500000
        k(    9) = (  -0.5000000  -0.4236915   0.0000000), wk =   0.1250000
        k(   10) = (  -0.2500000   0.2118458   0.0000000), wk =   0.2500000

     Largest allocated arrays     est. size (Mb)     dimensions
     Largest temporary arrays     est. size (Mb)     dimensions

     Check: negative/imaginary core charge=   -0.000003    0.000000

     Initial potential from superposition of free atoms
     Check: negative starting charge=   -0.003843

     starting charge  215.97807, renormalised to  216.00000

     negative rho (up, down):  0.384E-02 0.000E+00
     Number of +U iterations with fixed ns =  0
     Starting occupations:
 --- enter write_ns ---
 LDA+U parameters:
U( 2)     =  7.50000000
alpha( 2) =  0.00000000
atom    3   Tr[ns(na)] =   3.00000
    eigenvalues:
  0.300  0.300  0.300  0.300  0.300
    eigenvectors:
  1.000  0.000  0.000  0.000  0.000
  0.000  1.000  0.000  0.000  0.000
  0.000  0.000  1.000  0.000  0.000
  0.000  0.000  0.000  1.000  0.000
  0.000  0.000  0.000  0.000  1.000
    occupations:
  0.300  0.000  0.000  0.000  0.000
  0.000  0.300  0.000  0.000  0.000
  0.000  0.000  0.300  0.000  0.000
  0.000  0.000  0.000  0.300  0.000
  0.000  0.000  0.000  0.000  0.300
atom    4   Tr[ns(na)] =   3.00000
    eigenvalues:
  0.300  0.300  0.300  0.300  0.300
    eigenvectors:
  1.000  0.000  0.000  0.000  0.000
  0.000  1.000  0.000  0.000  0.000
  0.000  0.000  1.000  0.000  0.000
  0.000  0.000  0.000  1.000  0.000
  0.000  0.000  0.000  0.000  1.000
    occupations:
  0.300  0.000  0.000  0.000  0.000
  0.000  0.300  0.000  0.000  0.000
  0.000  0.000  0.300  0.000  0.000
  0.000  0.000  0.000  0.300  0.000
  0.000  0.000  0.000  0.000  0.300
atom    9   Tr[ns(na)] =   3.00000
    eigenvalues:
  0.300  0.300  0.300  0.300  0.300
    eigenvectors:
  1.000  0.000  0.000  0.000  0.000
  0.000  1.000  0.000  0.000  0.000
  0.000  0.000  1.000  0.000  0.000
  0.000  0.000  0.000  1.000  0.000
  0.000  0.000  0.000  0.000  1.000
    occupations:
  0.300  0.000  0.000  0.000  0.000
  0.000  0.300  0.000  0.000  0.000
  0.000  0.000  0.300  0.000  0.000
  0.000  0.000  0.000  0.300  0.000
  0.000  0.000  0.000  0.000  0.300
atom   10   Tr[ns(na)] =   3.00000
    eigenvalues:
  0.300  0.300  0.300  0.300  0.300
    eigenvectors:
  1.000  0.000  0.000  0.000  0.000
  0.000  1.000  0.000  0.000  0.000
  0.000  0.000  1.000  0.000  0.000
  0.000  0.000  0.000  1.000  0.000
  0.000  0.000  0.000  0.000  1.000
    occupations:
  0.300  0.000  0.000  0.000  0.000
  0.000  0.300  0.000  0.000  0.000
  0.000  0.000  0.300  0.000  0.000
  0.000  0.000  0.000  0.300  0.000
  0.000  0.000  0.000  0.000  0.300
atom   16   Tr[ns(na)] =   3.00000
    eigenvalues:
  0.300  0.300  0.300  0.300  0.300
    eigenvectors:
  1.000  0.000  0.000  0.000  0.000
  0.000  1.000  0.000  0.000  0.000
  0.000  0.000  1.000  0.000  0.000
  0.000  0.000  0.000  1.000  0.000
  0.000  0.000  0.000  0.000  1.000
    occupations:
  0.300  0.000  0.000  0.000  0.000
  0.000  0.300  0.000  0.000  0.000
  0.000  0.000  0.300  0.000  0.000
  0.000  0.000  0.000  0.300  0.000
  0.000  0.000  0.000  0.000  0.300
atom   17   Tr[ns(na)] =   3.00000
    eigenvalues:
  0.300  0.300  0.300  0.300  0.300
    eigenvectors:
  1.000  0.000  0.000  0.000  0.000
  0.000  1.000  0.000  0.000  0.000
  0.000  0.000  1.000  0.000  0.000
  0.000  0.000  0.000  1.000  0.000
  0.000  0.000  0.000  0.000  1.000
    occupations:
  0.300  0.000  0.000  0.000  0.000
  0.000  0.300  0.000  0.000  0.000
  0.000  0.000  0.300  0.000  0.000
  0.000  0.000  0.000  0.300  0.000
  0.000  0.000  0.000  0.000  0.300
atom   22   Tr[ns(na)] =   3.00000
    eigenvalues:
  0.300  0.300  0.300  0.300  0.300
    eigenvectors:
  1.000  0.000  0.000  0.000  0.000
  0.000  1.000  0.000  0.000  0.000
  0.000  0.000  1.000  0.000  0.000
  0.000  0.000  0.000  1.000  0.000
  0.000  0.000  0.000  0.000  1.000
    occupations:
  0.300  0.000  0.000  0.000  0.000
  0.000  0.300  0.000  0.000  0.000
  0.000  0.000  0.300  0.000  0.000
  0.000  0.000  0.000  0.300  0.000
[...]
  0.732  0.000  0.001 -0.095 -0.000
  0.000  0.502 -0.000 -0.000  0.000
  0.001 -0.000  0.319 -0.000 -0.000
 -0.095 -0.000 -0.000  0.666  0.000
 -0.000  0.000 -0.000  0.000  0.302
atom    4   Tr[ns(na)] =   5.08240
    eigenvalues:
  0.292  0.320  0.556  0.581  0.792
    eigenvectors:
  0.003  0.000  0.000  0.997  0.000
  0.996  0.000  0.000  0.003  0.001
  0.000  1.000  0.000  0.000  0.000
  0.001  0.000  0.000  0.000  0.999
  0.000  0.000  1.000  0.000  0.000
    occupations:
  0.580  0.015 -0.000  0.001  0.000
  0.015  0.294  0.000 -0.016  0.000
 -0.000  0.000  0.320 -0.000  0.002
  0.001 -0.016 -0.000  0.792  0.000
  0.000  0.000  0.002  0.000  0.556
atom    9   Tr[ns(na)] =   5.24316
    eigenvalues:
  0.438  0.447  0.466  0.633  0.638
    eigenvectors:
  0.000  0.877  0.000  0.123  0.000
  0.000  0.000  0.000  0.000  1.000
  1.000  0.000  0.000  0.000  0.000
  0.000  0.123  0.000  0.877  0.000
  0.000  0.000  1.000  0.000  0.000
    occupations:
  0.469  0.000  0.000  0.061  0.000
  0.000  0.638  0.000  0.000 -0.000
  0.000  0.000  0.438 -0.000  0.000
  0.061  0.000 -0.000  0.610 -0.000
  0.000 -0.000  0.000 -0.000  0.466
atom   10   Tr[ns(na)] =   5.04075
    eigenvalues:
  0.319  0.412  0.490  0.512  0.789
    eigenvectors:
  0.000  0.000  0.999  0.000  0.001
  0.000  1.000  0.000  0.000  0.000
  1.000  0.000  0.000  0.000  0.000
  0.000  0.000  0.001  0.000  0.999
  0.000  0.000  0.000  1.000  0.000
    occupations:
  0.490 -0.000 -0.000 -0.011  0.000
 -0.000  0.412  0.000  0.000  0.000
 -0.000  0.000  0.319 -0.000 -0.000
 -0.011  0.000 -0.000  0.789  0.000
  0.000  0.000 -0.000  0.000  0.512
atom   16   Tr[ns(na)] =   5.04146
    eigenvalues:
  0.302  0.319  0.502  0.599  0.799
    eigenvectors:
  0.000  0.000  0.000  0.336  0.664
  0.000  0.000  1.000  0.000  0.000
  0.000  1.000  0.000  0.000  0.000
  0.000  0.000  0.000  0.664  0.336
  1.000  0.000  0.000  0.000  0.000
    occupations:
  0.732  0.000  0.001 -0.095  0.000
  0.000  0.502  0.000 -0.000  0.000
  0.001  0.000  0.319 -0.000 -0.000
 -0.095 -0.000 -0.000  0.666 -0.000
  0.000  0.000 -0.000 -0.000  0.302
atom   17   Tr[ns(na)] =   5.08241
    eigenvalues:
  0.292  0.320  0.556  0.581  0.792
    eigenvectors:
  0.003  0.000  0.000  0.997  0.000
  0.996  0.000  0.000  0.003  0.001
  0.000  1.000  0.000  0.000  0.000
  0.001  0.000  0.000  0.000  0.999
  0.000  0.000  1.000  0.000  0.000
    occupations:
  0.580  0.015 -0.000  0.001  0.000
  0.015  0.294  0.000 -0.016  0.000
 -0.000  0.000  0.320 -0.000  0.002
  0.001 -0.016 -0.000  0.792  0.000
  0.000  0.000  0.002  0.000  0.556
atom   22   Tr[ns(na)] =   5.24316
    eigenvalues:
  0.438  0.447  0.466  0.633  0.638
    eigenvectors:
  0.000  0.877  0.000  0.123  0.000
  0.000  0.000  0.000  0.000  1.000
  1.000  0.000  0.000  0.000  0.000
  0.000  0.123  0.000  0.877  0.000
  0.000  0.000  1.000  0.000  0.000
    occupations:
  0.469  0.000  0.000  0.061  0.000
  0.000  0.638  0.000  0.000 -0.000
  0.000  0.000  0.438 -0.000  0.000
  0.061  0.000 -0.000  0.610 -0.000
  0.000 -0.000  0.000 -0.000  0.466
atom   23   Tr[ns(na)] =   5.04075
    eigenvalues:
  0.319  0.412  0.490  0.512  0.789
    eigenvectors:
  0.000  0.000  0.999  0.000  0.001
  0.000  1.000  0.000  0.000  0.000
  1.000  0.000  0.000  0.000  0.000
  0.000  0.000  0.001  0.000  0.999
  0.000  0.000  0.000  1.000  0.000
    occupations:
  0.490 -0.000 -0.000 -0.011  0.000
 -0.000  0.412  0.000  0.000  0.000
 -0.000  0.000  0.319 -0.000 -0.000
 -0.011  0.000 -0.000  0.789  0.000
  0.000  0.000 -0.000  0.000  0.512
N of occupied +U levels =  40.8155420
 --- exit write_ns ---

     Threshold (ethr) on eigenvalues was too large:
     Diagonalizing with lowered threshold

     Davidson diagonalization with overlap
     ethr =  3.53E-09,  avg # of iterations =  3.0

[...]

     total energy              =   -1525.01099722 Ry
     Harris-Foulkes estimate   =   -1525.01099722 Ry
     estimated scf accuracy    <       0.00000002 Ry

     iteration # 10     ecut=    40.00 Ry     beta=0.70
     Davidson diagonalization with overlap
     ethr =  1.14E-11,  avg # of iterations =  1.0

     negative rho (up, down):  0.367E-02 0.000E+00

     End of self-consistent calculation
 --- enter write_ns ---
 LDA+U parameters:
U( 2)     =  7.50000000
alpha( 2) =  0.00000000
atom    3   Tr[ns(na)] =   5.04064
    eigenvalues:
  0.302  0.318  0.502  0.599  0.800
    eigenvectors:
  0.000  0.000  0.000  0.336  0.664
  0.000  0.000  1.000  0.000  0.000
  0.000  1.000  0.000  0.000  0.000
  0.000  0.000  0.000  0.664  0.336
  1.000  0.000  0.000  0.000  0.000
    occupations:
  0.732  0.000  0.001 -0.095 -0.000
  0.000  0.502 -0.000 -0.000  0.000
  0.001 -0.000  0.318 -0.000 -0.000
 -0.095 -0.000 -0.000  0.666  0.000
 -0.000  0.000 -0.000  0.000  0.302
atom    4   Tr[ns(na)] =   5.08263
    eigenvalues:
  0.292  0.320  0.556  0.581  0.792
    eigenvectors:
  0.003  0.000  0.000  0.997  0.000
  0.996  0.000  0.000  0.003  0.001
  0.000  1.000  0.000  0.000  0.000
  0.001  0.000  0.000  0.000  0.999
  0.000  0.000  1.000  0.000  0.000
    occupations:
  0.580  0.015 -0.000  0.001  0.000
  0.015  0.294  0.000 -0.016  0.000
 -0.000  0.000  0.320 -0.000  0.002
  0.001 -0.016 -0.000  0.792  0.000
  0.000  0.000  0.002  0.000  0.556
atom    9   Tr[ns(na)] =   5.24348
    eigenvalues:
  0.437  0.447  0.466  0.633  0.638
    eigenvectors:
  0.000  0.877  0.000  0.123  0.000
  0.000  0.000  0.000  0.000  1.000
  1.000  0.000  0.000  0.000  0.000
  0.000  0.123  0.000  0.877  0.000
  0.000  0.000  1.000  0.000  0.000
    occupations:
  0.470  0.000  0.000  0.061  0.000
  0.000  0.638  0.000  0.000 -0.000
  0.000  0.000  0.437 -0.000  0.000
  0.061  0.000 -0.000  0.610 -0.000
  0.000 -0.000  0.000 -0.000  0.466
atom   10   Tr[ns(na)] =   5.04047
    eigenvalues:
  0.319  0.411  0.490  0.511  0.789
    eigenvectors:
  0.000  0.000  0.999  0.000  0.001
  0.000  1.000  0.000  0.000  0.000
  1.000  0.000  0.000  0.000  0.000
  0.000  0.000  0.001  0.000  0.999
  0.000  0.000  0.000  1.000  0.000
    occupations:
  0.490 -0.000 -0.000 -0.011  0.000
 -0.000  0.411  0.000  0.000  0.000
 -0.000  0.000  0.319 -0.000 -0.000
 -0.011  0.000 -0.000  0.789  0.000
  0.000  0.000 -0.000  0.000  0.511
atom   16   Tr[ns(na)] =   5.04064
    eigenvalues:
  0.302  0.318  0.502  0.599  0.800
    eigenvectors:
  0.000  0.000  0.000  0.336  0.664
  0.000  0.000  1.000  0.000  0.000
  0.000  1.000  0.000  0.000  0.000
  0.000  0.000  0.000  0.664  0.336
  1.000  0.000  0.000  0.000  0.000
    occupations:
  0.732  0.000  0.001 -0.095  0.000
  0.000  0.502  0.000 -0.000  0.000
  0.001  0.000  0.318 -0.000 -0.000
 -0.095 -0.000 -0.000  0.666 -0.000
  0.000  0.000 -0.000 -0.000  0.302
atom   17   Tr[ns(na)] =   5.08264
    eigenvalues:
  0.292  0.320  0.556  0.581  0.792
    eigenvectors:
  0.003  0.000  0.000  0.997  0.000
  0.996  0.000  0.000  0.003  0.001
  0.000  1.000  0.000  0.000  0.000
  0.001  0.000  0.000  0.000  0.999
  0.000  0.000  1.000  0.000  0.000
    occupations:
  0.580  0.015 -0.000  0.001  0.000
  0.015  0.294  0.000 -0.016  0.000
 -0.000  0.000  0.320 -0.000  0.002
  0.001 -0.016 -0.000  0.792  0.000
  0.000  0.000  0.002  0.000  0.556
atom   22   Tr[ns(na)] =   5.24348
    eigenvalues:
  0.437  0.447  0.466  0.633  0.638
    eigenvectors:
  0.000  0.877  0.000  0.123  0.000
  0.000  0.000  0.000  0.000  1.000
  1.000  0.000  0.000  0.000  0.000
  0.000  0.123  0.000  0.877  0.000
  0.000  0.000  1.000  0.000  0.000
    occupations:
  0.470  0.000  0.000  0.061  0.000
  0.000  0.638  0.000  0.000 -0.000
  0.000  0.000  0.437 -0.000  0.000
  0.061  0.000 -0.000  0.610 -0.000
  0.000 -0.000  0.000 -0.000  0.466
atom   23   Tr[ns(na)] =   5.04047
    eigenvalues:
  0.319  0.411  0.490  0.511  0.789
    eigenvectors:
  0.000  0.000  0.999  0.000  0.001
  0.000  1.000  0.000  0.000  0.000
  1.000  0.000  0.000  0.000  0.000
  0.000  0.000  0.001  0.000  0.999
  0.000  0.000  0.000  1.000  0.000
    occupations:
  0.490 -0.000 -0.000 -0.011  0.000
 -0.000  0.411  0.000  0.000  0.000
 -0.000  0.000  0.319 -0.000 -0.000
 -0.011  0.000 -0.000  0.789  0.000
  0.000  0.000 -0.000  0.000  0.511
N of occupied +U levels =  40.8144552
 --- exit write_ns ---

[...]

          k = 0.2500-0.4237 0.0000 ( 32188 PWs)   bands (ev):

[...]

          k =-0.2500 0.2118 0.0000 ( 32165 PWs)   bands (ev):

   -56.5573 -56.4867 -56.0786 -56.0179 -55.7527 -55.6915 -55.6048 -55.5426
   -33.2783 -32.7738 -32.6451 -32.5846 -32.5786 -32.5360 -32.5120 -32.4813
   -32.4593 -32.4395 -32.3179 -32.1211 -32.0721 -31.9373 -31.9186 -31.8964
   -31.8055 -31.7775 -31.6189 -31.4911 -31.4420 -31.3279 -31.3256 -31.2895
   -20.4179 -20.2480 -19.3886 -19.2691 -19.0084 -18.9000 -18.7924 -18.7831
   -18.7745 -18.7286 -18.6549 -18.5720 -18.0697 -18.0312 -17.9877 -17.8895
   -17.8327 -17.7977  -9.2332  -8.6073  -7.3618  -7.3443  -7.2130  -6.9124
    -6.6261  -6.5963  -6.5238  -6.3498  -6.2933  -6.2276  -6.2233  -5.9545
    -5.8612  -5.7913  -5.4777  -5.4590  -5.4126  -5.1818  -5.0763  -4.9246
    -4.7776  -4.7645  -4.5979  -4.5001  -4.3933  -4.2502  -4.2033  -4.1171
    -4.0673  -4.0608  -3.9293  -3.8740  -3.8704  -3.7807  -3.6358  -3.6183
    -3.4726  -3.4560  -3.4239  -3.2678  -3.2601  -3.1493  -3.1245  -3.1003
    -3.0371  -2.9787  -2.7787  -2.6962  -2.6021  -2.4948  -2.2708  -2.1017
    -1.7770  -0.7626  -0.3457   1.0429   1.3260   1.5940   1.7135   1.7169
     1.7736   2.0420   2.1344   2.2743   2.2879   2.5192   2.5689   2.6236
     2.6828   2.7615   2.9871   3.0499   3.0984   3.2192   3.2406   3.2601
     3.4169   3.5404   3.9199   4.2658   4.4275   4.4938   4.6184   4.6689
     4.7294   4.8377   4.8908   5.0756   5.1155   5.1752   5.2738   5.5385
     5.7080   5.8324   5.8931   5.9654   6.1125   6.2414   6.3163   6.3404
     6.4382   6.4580   6.6060   6.7170   6.8722   6.8880   7.1574   7.2236
     7.2409   7.6173   7.6825   7.8033   7.8883   7.9831   8.1355   8.1497
     8.2214   8.3615   8.4482   8.6765   8.7390   8.8893   9.0144   9.0813
     9.0992   9.2123   9.3415   9.4368   9.5879   9.5913   9.7130   9.7392
     9.8883   9.9928  10.0078  10.2052  10.2410  10.3652  10.4514  10.6125
    10.6874  10.7746  10.9662  10.9767  11.0247  11.0812  11.1740  11.2069
    11.2598  11.4069  11.4563  11.4622  11.5594  11.5797  11.7365  11.9094
    11.9344  12.0385  12.1352  12.1799  12.2547  12.2636  12.4398  12.4946
    12.6306  12.6681  12.7452  12.7492  12.8651  12.8751  12.9281  12.9893
    13.0217  13.0957  13.2248  13.2398  13.3265  13.4475  13.5056  13.5110
    13.5588  13.7166  13.7614  13.8666  13.9323  13.9453  13.9963  14.0953
    14.1196  14.3064  14.3504  14.3900  14.4399  14.5645  14.6153  14.8605
    14.9085  14.9252  15.0136  15.1303  15.2051  15.2501  15.2854  15.3693
    15.3921  15.4163  15.5048  15.5402  15.6276  15.7274  15.7978  15.8202
    15.8606  15.9032  16.0280  16.0308  16.0551  16.2733  16.2818  16.3879
    16.4783  16.5863  16.6136  16.6393  16.7310  16.7736  16.7949  16.9068
    17.0034  17.0093  17.0711  17.2700  17.2879  17.3027  17.3895  17.4436
    17.5265  17.5517  17.6244  17.7083  17.7395  17.8436  17.8691  17.9978
    18.0204  18.0374  18.1078  18.2617  18.3593  18.4452  18.5148  18.6151
    18.6702  18.7496  18.7651  18.8261  18.8592  18.9320  18.9365  19.0523
    19.1083  19.2012  19.2840  19.2855  19.3588  19.3891  19.4275  19.5194
    19.5238  19.5943  19.6424  19.7197

     the Fermi energy is     1.0152 ev

!    total energy              =   -1525.01099722 Ry
     Harris-Foulkes estimate   =   -1525.01099722 Ry
     estimated scf accuracy    <          7.5E-09 Ry

     The total energy is the sum of the following terms:

     one-electron contribution =  -18141.76539432 Ry
     hartree contribution      =    9097.64886813 Ry
     xc contribution           =    -279.79761108 Ry
     ewald contribution        =    7793.95555476 Ry
     Hubbard energy            =       4.94835803 Ry
     smearing contrib. (-TS)   =      -0.00077274 Ry

     convergence has been achieved in  10 iterations

     Forces acting on atoms (Ry/au):

     negative rho (up, down):  0.367E-02 0.000E+00
     atom    1 type  1   force =    -0.00039538   -0.00033511   -0.00032571
     atom    2 type  1   force =    -0.00005681    0.00026358    0.00022343
     atom    3 type  2   force =     0.00021979   -0.00008944    0.00073652
     atom    4 type  2   force =     0.00009230    0.00010357   -0.00019405
     atom    5 type  1   force =     0.00018223   -0.04799910   -0.00007394
     atom    6 type  1   force =     0.00019031    0.04796954   -0.00006002
     atom    7 type  1   force =    -0.00014771   -0.00000954   -0.00047352
     atom    8 type  1   force =     0.00016524    0.00000652   -0.00043933
     atom    9 type  2   force =     0.00006710   -0.00000665   -0.00026648
     atom   10 type  2   force =     0.00001139   -0.00001034    0.00016386
     atom   11 type  1   force =    -0.00000234   -0.02265580    0.00011073
     atom   12 type  1   force =    -0.00000197    0.02266206    0.00011432
     atom   13 type  1   force =     0.00002888    0.00000278    0.00044407
     atom   14 type  1   force =    -0.00039762   -0.00031870   -0.00032177
     atom   15 type  1   force =    -0.00005514    0.00024029    0.00098608
     atom   16 type  2   force =     0.00016517   -0.00009137    0.00073647
     atom   17 type  2   force =     0.00009204    0.00009981   -0.00019668
     atom   18 type  1   force =     0.00018841   -0.04799925   -0.00007408
     atom   19 type  1   force =     0.00018132    0.04796933   -0.00005942
     atom   20 type  1   force =    -0.00014758   -0.00002441   -0.00046396
     atom   21 type  1   force =     0.00016533    0.00000642   -0.00043694
     atom   22 type  2   force =     0.00006499   -0.00000654   -0.00026646
     atom   23 type  2   force =     0.00001137   -0.00001190    0.00016146
     atom   24 type  1   force =    -0.00000235   -0.02265578    0.00011071
     atom   25 type  1   force =    -0.00000224    0.02266209    0.00011433
     atom   26 type  1   force =     0.00002891    0.00000259    0.00044215
     atom   27 type  3   force =     0.00000342   -0.00008185    0.00056965
     atom   28 type  3   force =     0.00000177   -0.00008503   -0.00012439
     atom   29 type  3   force =    -0.00032598    0.00019742   -0.00056790
     atom   30 type  3   force =    -0.00032484    0.00019484   -0.00056915

     Total force =     0.002272     Total SCF correction =     0.000291
     SCF correction compared to forces is large: reduce conv_thr to get better values

     bfgs converged in  14 scf cycles and  13 bfgs steps
     (criteria: energy < 0.10E-03, force < 0.10E-02)

     End of BFGS Geometry Optimization

     Final energy   =   -1525.0109972179 Ry
Begin final coordinates

ATOMIC_POSITIONS (crystal)
O0       0.000000000   0.000000000   0.372255261    0   0   1
O0       0.000000000   0.500000000   0.384274021    0   0   1
Nb1      0.250000000   0.500000000   0.439700064    0   0   1
Nb1      0.000000000   0.000000000   0.445609522    0   0   1
O0       0.250000000   0.790000000   0.448034900    0   0   1
O0       0.250000000   0.210000000   0.448022726    0   0   1
O0       0.000000000   0.500000000   0.498038894    0   0   1
O0       0.000000000   0.000000000   0.528460414    0   0   1
Nb1      0.250000000   0.000000000   0.581425879    0   0   1
Nb1      0.000000000   0.500000000   0.567697745    0   0   1
O0       0.250000000   0.710000000   0.583135615    0   0   1
O0       0.250000000   0.290000000   0.583135302    0   0   1
O0       0.000000000   0.000000000   0.626094446    0   0   1
O0       0.500000000   0.000000000   0.372255124    0   0   1
O0       0.500000000   0.500000000   0.384267848    0   0   1
Nb1      0.750000000   0.500000000   0.439700055    0   0   1
Nb1      0.500000000   0.000000000   0.445609411    0   0   1
O0       0.750000000   0.790000000   0.448034550    0   0   1
O0       0.750000000   0.210000000   0.448022893    0   0   1
O0       0.500000000   0.500000000   0.498038523    0   0   1
O0       0.500000000   0.000000000   0.528460303    0   0   1
Nb1      0.750000000   0.000000000   0.581425875    0   0   1
Nb1      0.500000000   0.500000000   0.567697425    0   0   1
O0       0.750000000   0.710000000   0.583135607    0   0   1
O0       0.750000000   0.290000000   0.583135307    0   0   1
O0       0.500000000   0.000000000   0.626094517    0   0   1
H2      -0.000388752   0.502656185   0.348133523
H2       0.499611356   0.502376011   0.348138868
H2       0.153947815  -0.000337183   0.358227681
H2       0.653947865  -0.000348276   0.358227699
End final coordinates

     General routines

     Parallel routines
     Hubbard U routines

   This run was terminated on:   9: 6:24   9May2014

   JOB DONE.