     Program PWSCF v.5.0.2 (svn rev. 9656) starts on 24Jan2014 at 15:47:26

     Current dimensions of program PWSCF are:
     Max number of different atomic species (ntypx) = 10
     Max number of k-points (npk) =  40000
     Max angular momentum in pseudopotentials (lmaxx) =  3
     Reading input from RhO2-v-0.90.in

     Subspace diagonalization in iterative solution of the eigenvalue problem:
     a serial algorithm will be used

     bravais-lattice index     =            0
     lattice parameter (alat)  =       8.4669  a.u.
     unit-cell volume          =     391.1638 (a.u.)^3
     number of atoms/cell      =            6
     number of atomic types    =            2
     number of electrons       =        54.00
     number of Kohn-Sham states=           81
     kinetic-energy cutoff     =      40.0000  Ry
     charge density cutoff     =     500.0000  Ry
     convergence threshold     =      1.0E-06
     mixing beta               =       0.3000
     number of iterations used =            8  plain     mixing
     Exchange-correlation      = SLA  PW   PBE  PBE ( 1 4 3 4 0)
     EXX-fraction              =        0.00
     nstep                     =           50

     celldm(1)=   8.466900  celldm(2)=   0.000000  celldm(3)=   0.000000
     celldm(4)=   0.000000  celldm(5)=   0.000000  celldm(6)=   0.000000

     crystal axes: (cart. coord. in units of alat)
               a(1) = (   1.000000   0.000000   0.000000 )
               a(2) = (   0.000000   1.000000   0.000000 )
               a(3) = (   0.000000   0.000000   0.644444 )

     reciprocal axes: (cart. coord. in units 2 pi/alat)
               b(1) = (  1.000000  0.000000  0.000000 )
               b(2) = (  0.000000  1.000000  0.000000 )
               b(3) = (  0.000000  0.000000  1.551724 )

     PseudoPot. # 1 for Rh read from file:
     /home/camp/zhonxu/pseudo/rh_pbe_v1.uspp.F.UPF
     MD5 check sum: 37b626987ad0dd8ec6bf4cc9ef289918
     Pseudo is Ultrasoft + core correction, Zval = 15.0
     Generated by new atomic code, or converted to UPF format
     Using radial grid of  969 points,  7 beta functions with:
                l(1) =   0
                l(2) =   0
                l(3) =   1
                l(4) =   1
                l(5) =   2
                l(6) =   2
                l(7) =   2
     Q(r) pseudized with  6 coefficients,  rinner =    1.050   1.050   1.050
                                                       1.050   1.050

     PseudoPot. # 2 for O  read from file:
     /home/camp/zhonxu/pseudo/o_pbe_v1.01.uspp.F.UPF
     MD5 check sum: 2bcb18d16ea4b960afae9ec6d52f22d2
     Pseudo is Ultrasoft + core correction, Zval =  6.0
     Generated by new atomic code, or converted to UPF format
     Using radial grid of  737 points,  5 beta functions with:
                l(1) =   0
                l(2) =   0
                l(3) =   1
                l(4) =   1
                l(5) =   2
     Q(r) pseudized with  8 coefficients,  rinner =    0.900   0.900   0.900
                                                       0.900   0.900

     atomic species   valence    mass     pseudopotential
        Rh0           15.00   102.90550     Rh( 1.00)
        O1             6.00    15.99940     O ( 1.00)

     Starting magnetic structure
     atomic species   magnetization
        Rh0          0.600
        O1           0.000

     16 Sym. Ops., with inversion, found ( 8 have fractional translation)

   Cartesian axes

     site n.     atom                  positions (alat units)
         1           Rh0 tau(   1) = (   0.0000000   0.0000000   0.0000000  )
         2           Rh0 tau(   2) = (   0.5000000   0.5000000   0.3222222  )
         3           O1  tau(   3) = (   0.3050000   0.3050000   0.0000000  )
         4           O1  tau(   4) = (  -0.3050000  -0.3050000   0.0000000  )
         5           O1  tau(   5) = (   0.8050000   0.1950000   0.3222222  )
         6           O1  tau(   6) = (   0.1950000   0.8050000   0.3222222  )

     number of k points=    36  Methfessel-Paxton smearing, width (Ry)=  0.0100
                       cart. coord. in units 2pi/alat
        k(    1) = (   0.0000000   0.0000000   0.0000000), wk =   0.0080000
        k(    2) = (   0.0000000   0.0000000   0.3103448), wk =   0.0160000
        k(    3) = (   0.0000000   0.0000000   0.6206897), wk =   0.0160000
        k(    4) = (   0.0000000   0.2000000   0.0000000), wk =   0.0320000
        k(    5) = (   0.0000000   0.2000000   0.3103448), wk =   0.0640000
        k(    6) = (   0.0000000   0.2000000   0.6206897), wk =   0.0640000
        k(    7) = (   0.0000000   0.4000000   0.0000000), wk =   0.0320000
        k(    8) = (   0.0000000   0.4000000   0.3103448), wk =   0.0640000
        k(    9) = (   0.0000000   0.4000000   0.6206897), wk =   0.0640000
        k(   10) = (   0.2000000   0.2000000   0.0000000), wk =   0.0320000
        k(   11) = (   0.2000000   0.2000000   0.3103448), wk =   0.0640000
        k(   12) = (   0.2000000   0.2000000   0.6206897), wk =   0.0640000
        k(   13) = (   0.2000000   0.4000000   0.0000000), wk =   0.0640000
        k(   14) = (   0.2000000   0.4000000   0.3103448), wk =   0.1280000
        k(   15) = (   0.2000000   0.4000000   0.6206897), wk =   0.1280000
        k(   16) = (   0.4000000   0.4000000   0.0000000), wk =   0.0320000
        k(   17) = (   0.4000000   0.4000000   0.3103448), wk =   0.0640000
        k(   18) = (   0.4000000   0.4000000   0.6206897), wk =   0.0640000
        k(   19) = (   0.0000000   0.0000000   0.0000000), wk =   0.0080000
        k(   20) = (   0.0000000   0.0000000   0.3103448), wk =   0.0160000
        k(   21) = (   0.0000000   0.0000000   0.6206897), wk =   0.0160000
        k(   22) = (   0.0000000   0.2000000   0.0000000), wk =   0.0320000
        k(   23) = (   0.0000000   0.2000000   0.3103448), wk =   0.0640000
        k(   24) = (   0.0000000   0.2000000   0.6206897), wk =   0.0640000
        k(   25) = (   0.0000000   0.4000000   0.0000000), wk =   0.0320000
        k(   26) = (   0.0000000   0.4000000   0.3103448), wk =   0.0640000
        k(   27) = (   0.0000000   0.4000000   0.6206897), wk =   0.0640000
        k(   28) = (   0.2000000   0.2000000   0.0000000), wk =   0.0320000
        k(   29) = (   0.2000000   0.2000000   0.3103448), wk =   0.0640000
        k(   30) = (   0.2000000   0.2000000   0.6206897), wk =   0.0640000
        k(   31) = (   0.2000000   0.4000000   0.0000000), wk =   0.0640000
        k(   32) = (   0.2000000   0.4000000   0.3103448), wk =   0.1280000
        k(   33) = (   0.2000000   0.4000000   0.6206897), wk =   0.1280000
        k(   34) = (   0.4000000   0.4000000   0.0000000), wk =   0.0320000
        k(   35) = (   0.4000000   0.4000000   0.3103448), wk =   0.0640000
        k(   36) = (   0.4000000   0.4000000   0.6206897), wk =   0.0640000

     Largest allocated arrays     est. size (Mb)     dimensions
     Largest temporary arrays     est. size (Mb)     dimensions

     Check: negative/imaginary core charge=   -0.000004    0.000000

     Initial potential from superposition of free atoms
     Check: negative starting charge=(component1):   -0.131448
     Check: negative starting charge=(component2):   -0.032415

     starting charge   52.99980, renormalised to   54.00000

     negative rho (up, down):  0.134E+00 0.330E-01
     Starting wfc are   40 randomized atomic wfcs

     Self-consistent Calculation

     iteration #  1     ecut=    40.00 Ry     beta=0.30
     Davidson diagonalization with overlap
     ethr =  1.00E-02,  avg # of iterations =  6.6

     negative rho (up, down):  0.119E+00 0.512E-01

     total energy              =    -467.91312797 Ry
     Harris-Foulkes estimate   =    -469.32496422 Ry
     estimated scf accuracy    <       4.55063854 Ry

     total magnetization       =     7.50 Bohr mag/cell
     absolute magnetization    =     7.51 Bohr mag/cell

[...]

     End of self-consistent calculation

 ------ SPIN UP ------------

          k = 0.0000 0.0000 0.0000 (  1667 PWs)   bands (ev):

   -34.2832 -34.2832 -34.1443 -34.1443 -34.0733 -34.0535  -6.9892  -5.7615
    -4.7342  -4.7342   4.4113   4.6078   5.8426   6.1509   6.1509   9.0716
     9.0716   9.6553  10.7767  10.8910  11.0677  11.3566  11.3566  11.4252
    11.4252  11.5822  12.4140  14.2588  14.8219  17.9065  17.9065  19.1708
    20.3991  24.1499  24.1499  27.6509  28.6674  28.7674  30.5300  32.1246
    32.1246  32.1505  33.6972  36.0164  36.7717  36.7717  38.3611  38.3611
    38.9263  40.5270  40.9196  40.9196  41.9240  42.0205  42.0610  44.0440
    44.5456  45.1411  45.9065  46.4012  46.4608  46.4608  47.4569  47.4569
    49.7118  49.7780  49.7780  50.2922  54.1857  55.4817  55.5502  55.5502
    56.1237  56.1404  56.1404  56.6952  56.6952  56.8532  57.2932  57.4247
    57.5941

[...]

 ------ SPIN DOWN ----------

[...]

     the Fermi energy is    13.8291 ev

!    total energy              =    -469.75748300 Ry
     Harris-Foulkes estimate   =    -469.75748173 Ry
     estimated scf accuracy    <       0.00000075 Ry

     The total energy is the sum of the following terms:

     one-electron contribution =    -123.12641617 Ry
     hartree contribution      =     101.26091037 Ry
     xc contribution           =     -87.62782145 Ry
     ewald contribution        =    -360.26365222 Ry
     smearing contrib. (-TS)   =      -0.00050353 Ry

[...]

     convergence has been achieved in  13 iterations

     Forces acting on atoms (Ry/au):

     negative rho (up, down):  0.894E-01 0.895E-01
     atom    1 type  1   force =     0.00000000    0.00000000    0.00000000
     atom    2 type  1   force =     0.00000000    0.00000000   -0.00000000
     atom    3 type  2   force =    -0.02841139   -0.02841139    0.00000000
     atom    4 type  2   force =     0.02841139    0.02841139    0.00000000
     atom    5 type  2   force =    -0.02841139    0.02841139    0.00000000
     atom    6 type  2   force =     0.02841139   -0.02841139    0.00000000

     Total force =     0.080360     Total SCF correction =     0.000270

     entering subroutine stress ...

     negative rho (up, down):  0.894E-01 0.895E-01
          total   stress  (Ry/bohr**3)                   (kbar)     P=  319.65
   0.00139817   0.00000000   0.00000000        205.68      0.00      0.00
   0.00000000   0.00139817   0.00000000          0.00    205.68      0.00
   0.00000000   0.00000000   0.00372249          0.00      0.00    547.60

     Volume is kept fixed: isostatic pressure set to zero

     BFGS Geometry Optimization

     number of scf cycles    =   1
     number of bfgs steps    =   0

     enthalpy new            =    -469.7574830002 Ry

     new trust radius        =       0.1532339455 bohr
     new conv_thr            =       0.0000010000 Ry

     new unit-cell volume =    391.16384 a.u.^3 (    57.96450 Ang^3 )

CELL_PARAMETERS (alat=  8.46689951)
   0.980994048   0.000000000   0.000000000
   0.000000000   0.980994048   0.000000000
   0.000000000   0.000000000   0.669657504

ATOMIC_POSITIONS (crystal)
Rh0      0.000000000   0.000000000   0.000000000    0   0   0
Rh0      0.500000000   0.500000000   0.500000000    0   0   0
[...]
        k(   25) = (   0.0000000   0.4077497   0.0000000), wk =   0.0320000
        k(   26) = (   0.0000000   0.4077497   0.2986601), wk =   0.0640000
        k(   27) = (   0.0000000   0.4077497   0.5973203), wk =   0.0640000
        k(   28) = (   0.2038748   0.2038748   0.0000000), wk =   0.0320000
        k(   29) = (   0.2038748   0.2038748   0.2986601), wk =   0.0640000
        k(   30) = (   0.2038748   0.2038748   0.5973203), wk =   0.0640000
        k(   31) = (   0.2038748   0.4077497   0.0000000), wk =   0.0640000
        k(   32) = (   0.2038748   0.4077497   0.2986601), wk =   0.1280000
        k(   33) = (   0.2038748   0.4077497   0.5973203), wk =   0.1280000
        k(   34) = (   0.4077497   0.4077497   0.0000000), wk =   0.0320000
        k(   35) = (   0.4077497   0.4077497   0.2986601), wk =   0.0640000
        k(   36) = (   0.4077497   0.4077497   0.5973203), wk =   0.0640000

     Check: negative/imaginary core charge=   -0.000004    0.000000
     Check: negative starting charge=(component1):   -0.163188

[...]

     enthalpy old            =    -469.7574830002 Ry
     enthalpy new            =    -469.7758520197 Ry

     CASE: enthalpy_new < enthalpy_old

[...]

     number of scf cycles    =   4
     number of bfgs steps    =   3

     enthalpy old            =    -469.7789713165 Ry
     enthalpy new            =    -469.7809542009 Ry

     CASE: enthalpy_new < enthalpy_old

     new trust radius        =       0.0117958580 bohr
     new conv_thr            =       0.0000000170 Ry

     new unit-cell volume =    391.16384 a.u.^3 (    57.96450 Ang^3 )

[...]

ATOMIC_POSITIONS (crystal)
Rh0      0.000000000   0.000000000   0.000000000    0   0   0
Rh0      0.500000000   0.500000000   0.500000000    0   0   0
O1       0.307616057   0.307616057   0.000000000    1   1   0
O1      -0.307616057  -0.307616057   0.000000000    1   1   0
O1       0.807616057   0.192383943   0.500000000    1   1   0
O1       0.192383943   0.807616057   0.500000000    1   1   0

     Check: negative starting charge=(component1):   -0.162740
     NEW-OLD atomic charge density approx. for the potential
     NEW k-points:
        k(    1) = (   0.0000000   0.0000000   0.0000000), wk =   0.0080000
        k(    2) = (   0.0000000   0.0000000   0.2934927), wk =   0.0160000
        k(    3) = (   0.0000000   0.0000000   0.5869854), wk =   0.0160000
        k(    4) = (   0.0000000   0.2056618   0.0000000), wk =   0.0320000
        k(    5) = (   0.0000000   0.2056618   0.2934927), wk =   0.0640000
        k(    6) = (   0.0000000   0.2056618   0.5869854), wk =   0.0640000
        k(    7) = (   0.0000000   0.4113236   0.0000000), wk =   0.0320000
        k(    8) = (   0.0000000   0.4113236   0.2934927), wk =   0.0640000
        k(    9) = (   0.0000000   0.4113236   0.5869854), wk =   0.0640000
        k(   10) = (   0.2056618   0.2056618   0.0000000), wk =   0.0320000
        k(   11) = (   0.2056618   0.2056618   0.2934927), wk =   0.0640000
        k(   12) = (   0.2056618   0.2056618   0.5869854), wk =   0.0640000
        k(   13) = (   0.2056618   0.4113236   0.0000000), wk =   0.0640000
        k(   14) = (   0.2056618   0.4113236   0.2934927), wk =   0.1280000
        k(   15) = (   0.2056618   0.4113236   0.5869854), wk =   0.1280000
        k(   16) = (   0.4113236   0.4113236   0.0000000), wk =   0.0320000
        k(   17) = (   0.4113236   0.4113236   0.2934927), wk =   0.0640000
        k(   18) = (   0.4113236   0.4113236   0.5869854), wk =   0.0640000
        k(   19) = (   0.0000000   0.0000000   0.0000000), wk =   0.0080000
        k(   20) = (   0.0000000   0.0000000   0.2934927), wk =   0.0160000
        k(   21) = (   0.0000000   0.0000000   0.5869854), wk =   0.0160000
        k(   22) = (   0.0000000   0.2056618   0.0000000), wk =   0.0320000
        k(   23) = (   0.0000000   0.2056618   0.2934927), wk =   0.0640000
        k(   24) = (   0.0000000   0.2056618   0.5869854), wk =   0.0640000
        k(   25) = (   0.0000000   0.4113236   0.0000000), wk =   0.0320000
        k(   26) = (   0.0000000   0.4113236   0.2934927), wk =   0.0640000
        k(   27) = (   0.0000000   0.4113236   0.5869854), wk =   0.0640000
        k(   28) = (   0.2056618   0.2056618   0.0000000), wk =   0.0320000
        k(   29) = (   0.2056618   0.2056618   0.2934927), wk =   0.0640000
        k(   30) = (   0.2056618   0.2056618   0.5869854), wk =   0.0640000
        k(   31) = (   0.2056618   0.4113236   0.0000000), wk =   0.0640000
        k(   32) = (   0.2056618   0.4113236   0.2934927), wk =   0.1280000
        k(   33) = (   0.2056618   0.4113236   0.5869854), wk =   0.1280000
        k(   34) = (   0.4113236   0.4113236   0.0000000), wk =   0.0320000
        k(   35) = (   0.4113236   0.4113236   0.2934927), wk =   0.0640000
        k(   36) = (   0.4113236   0.4113236   0.5869854), wk =   0.0640000

     Check: negative/imaginary core charge=   -0.000004    0.000000
     Check: negative starting charge=(component1):   -0.162634

[...]

     Threshold (ethr) on eigenvalues was too large:
     Diagonalizing with lowered threshold

     Davidson diagonalization with overlap
     ethr =  4.19E-08,  avg # of iterations =  1.0

[...]

     Volume is kept fixed: isostatic pressure set to zero

     bfgs converged in   5 scf cycles and   4 bfgs steps
     (criteria: energy < 0.10E-03, force < 0.10E-02, cell < 0.50E+00)

     End of BFGS Geometry Optimization

     Final enthalpy =    -469.7810285523 Ry
Begin final coordinates
     new unit-cell volume =    391.16384 a.u.^3 (    57.96450 Ang^3 )

CELL_PARAMETERS (alat=  8.46689951)
   0.972470439   0.000000000   0.000000000
   0.000000000   0.972470439   0.000000000
   0.000000000   0.000000000   0.681447915

ATOMIC_POSITIONS (crystal)
Rh0      0.000000000   0.000000000   0.000000000    0   0   0
Rh0      0.500000000   0.500000000   0.500000000    0   0   0
O1       0.307616057   0.307616057   0.000000000    1   1   0
O1      -0.307616057  -0.307616057   0.000000000    1   1   0
O1       0.807616057   0.192383943   0.500000000    1   1   0
O1       0.192383943   0.807616057   0.500000000    1   1   0
End final coordinates

     A final scf calculation at the relaxed structure.
     The G-vectors are recalculated for the final unit cell
     Results may differ from those at the preceding step.

     bravais-lattice index     =            0
     lattice parameter (alat)  =       8.4669  a.u.
     unit-cell volume          =     391.1638 (a.u.)^3
     number of atoms/cell      =            6
     number of atomic types    =            2
     number of electrons       =        54.00
     number of Kohn-Sham states=           81
     kinetic-energy cutoff     =      40.0000  Ry
     charge density cutoff     =     500.0000  Ry
     convergence threshold     =      1.7E-08
     mixing beta               =       0.3000
     number of iterations used =            8  plain     mixing
     Exchange-correlation      = SLA  PW   PBE  PBE ( 1 4 3 4 0)
     EXX-fraction              =        0.00

     celldm(1)=   8.466900  celldm(2)=   0.000000  celldm(3)=   0.000000
     celldm(4)=   0.000000  celldm(5)=   0.000000  celldm(6)=   0.000000

     crystal axes: (cart. coord. in units of alat)
               a(1) = (   0.972470   0.000000   0.000000 )
               a(2) = (   0.000000   0.972470   0.000000 )
               a(3) = (   0.000000   0.000000   0.681448 )

     reciprocal axes: (cart. coord. in units 2 pi/alat)
               b(1) = (  1.028309  0.000000  0.000000 )
               b(2) = (  0.000000  1.028309  0.000000 )
               b(3) = (  0.000000  0.000000  1.467464 )

     PseudoPot. # 1 for Rh read from file:
     /home/camp/zhonxu/pseudo/rh_pbe_v1.uspp.F.UPF
     MD5 check sum: 37b626987ad0dd8ec6bf4cc9ef289918
     Pseudo is Ultrasoft + core correction, Zval = 15.0
     Generated by new atomic code, or converted to UPF format
     Using radial grid of  969 points,  7 beta functions with:
                l(1) =   0
                l(2) =   0
                l(3) =   1
                l(4) =   1
                l(5) =   2
                l(6) =   2
                l(7) =   2
     Q(r) pseudized with  6 coefficients,  rinner =    1.050   1.050   1.050
                                                       1.050   1.050

     PseudoPot. # 2 for O  read from file:
     /home/camp/zhonxu/pseudo/o_pbe_v1.01.uspp.F.UPF
     MD5 check sum: 2bcb18d16ea4b960afae9ec6d52f22d2
     Pseudo is Ultrasoft + core correction, Zval =  6.0
     Generated by new atomic code, or converted to UPF format
     Using radial grid of  737 points,  5 beta functions with:
                l(1) =   0
                l(2) =   0
                l(3) =   1
                l(4) =   1
                l(5) =   2
     Q(r) pseudized with  8 coefficients,  rinner =    0.900   0.900   0.900
                                                       0.900   0.900

     atomic species   valence    mass     pseudopotential
        Rh0           15.00   102.90550     Rh( 1.00)
        O1             6.00    15.99940     O ( 1.00)

     Starting magnetic structure
     atomic species   magnetization
        Rh0          0.600
        O1           0.000

     16 Sym. Ops., with inversion, found ( 8 have fractional translation)

   Cartesian axes

     site n.     atom                  positions (alat units)
         1           Rh0 tau(   1) = (   0.0000000   0.0000000   0.0000000  )
         2           Rh0 tau(   2) = (   0.4862352   0.4862352   0.3407240  )
         3           O1  tau(   3) = (   0.2991475   0.2991475   0.0000000  )
         4           O1  tau(   4) = (  -0.2991475  -0.2991475   0.0000000  )
         5           O1  tau(   5) = (   0.7853827   0.1870877   0.3407240  )
         6           O1  tau(   6) = (   0.1870877   0.7853827   0.3407240  )

     number of k points=    36  Methfessel-Paxton smearing, width (Ry)=  0.0100
                       cart. coord. in units 2pi/alat
        k(    1) = (   0.0000000   0.0000000   0.0000000), wk =   0.0080000
        k(    2) = (   0.0000000   0.0000000   0.2934927), wk =   0.0160000
        k(    3) = (   0.0000000   0.0000000   0.5869854), wk =   0.0160000
        k(    4) = (   0.0000000   0.2056618   0.0000000), wk =   0.0320000
        k(    5) = (   0.0000000   0.2056618   0.2934927), wk =   0.0640000
        k(    6) = (   0.0000000   0.2056618   0.5869854), wk =   0.0640000
        k(    7) = (   0.0000000   0.4113236   0.0000000), wk =   0.0320000
        k(    8) = (   0.0000000   0.4113236   0.2934927), wk =   0.0640000
        k(    9) = (   0.0000000   0.4113236   0.5869854), wk =   0.0640000
        k(   10) = (   0.2056618   0.2056618   0.0000000), wk =   0.0320000
        k(   11) = (   0.2056618   0.2056618   0.2934927), wk =   0.0640000
        k(   12) = (   0.2056618   0.2056618   0.5869854), wk =   0.0640000
        k(   13) = (   0.2056618   0.4113236   0.0000000), wk =   0.0640000
        k(   14) = (   0.2056618   0.4113236   0.2934927), wk =   0.1280000
        k(   15) = (   0.2056618   0.4113236   0.5869854), wk =   0.1280000
        k(   16) = (   0.4113236   0.4113236   0.0000000), wk =   0.0320000
        k(   17) = (   0.4113236   0.4113236   0.2934927), wk =   0.0640000
        k(   18) = (   0.4113236   0.4113236   0.5869854), wk =   0.0640000
        k(   19) = (   0.0000000   0.0000000   0.0000000), wk =   0.0080000
        k(   20) = (   0.0000000   0.0000000   0.2934927), wk =   0.0160000
        k(   21) = (   0.0000000   0.0000000   0.5869854), wk =   0.0160000
        k(   22) = (   0.0000000   0.2056618   0.0000000), wk =   0.0320000
        k(   23) = (   0.0000000   0.2056618   0.2934927), wk =   0.0640000
        k(   24) = (   0.0000000   0.2056618   0.5869854), wk =   0.0640000
        k(   25) = (   0.0000000   0.4113236   0.0000000), wk =   0.0320000
        k(   26) = (   0.0000000   0.4113236   0.2934927), wk =   0.0640000
        k(   27) = (   0.0000000   0.4113236   0.5869854), wk =   0.0640000
        k(   28) = (   0.2056618   0.2056618   0.0000000), wk =   0.0320000
        k(   29) = (   0.2056618   0.2056618   0.2934927), wk =   0.0640000
        k(   30) = (   0.2056618   0.2056618   0.5869854), wk =   0.0640000
        k(   31) = (   0.2056618   0.4113236   0.0000000), wk =   0.0640000
        k(   32) = (   0.2056618   0.4113236   0.2934927), wk =   0.1280000
        k(   33) = (   0.2056618   0.4113236   0.5869854), wk =   0.1280000
        k(   34) = (   0.4113236   0.4113236   0.0000000), wk =   0.0320000
        k(   35) = (   0.4113236   0.4113236   0.2934927), wk =   0.0640000
        k(   36) = (   0.4113236   0.4113236   0.5869854), wk =   0.0640000

     Largest allocated arrays     est. size (Mb)     dimensions
     Largest temporary arrays     est. size (Mb)     dimensions

     Check: negative/imaginary core charge=   -0.000004    0.000000

     Initial potential from superposition of free atoms
     Check: negative starting charge=(component1):   -0.129302
     Check: negative starting charge=(component2):   -0.031921

     starting charge   52.99980, renormalised to   54.00000

     negative rho (up, down):  0.132E+00 0.325E-01
     Starting wfc are   40 randomized atomic wfcs

     Self-consistent Calculation

[...]

     total energy              =    -469.78176062 Ry
     Harris-Foulkes estimate   =    -469.78176055 Ry
     estimated scf accuracy    <       0.00000002 Ry

[...]

     iteration # 15     ecut=    40.00 Ry     beta=0.30
     Davidson diagonalization with overlap
     ethr =  4.57E-11,  avg # of iterations =  2.0

     negative rho (up, down):  0.877E-01 0.879E-01

     End of self-consistent calculation

 ------ SPIN UP ------------

[...]

 ------ SPIN DOWN ----------

[...]

          k = 0.4113 0.4113 0.5870 (  1669 PWs)   bands (ev):

   -34.2625 -34.2517 -34.2465 -34.2351 -33.9760 -33.9758  -5.5074  -5.4264
    -5.2268  -5.1614   5.8472   6.0065   6.1201   6.2566   7.1125   7.4540
     8.6401   8.7416   9.4297   9.6829  10.8162  11.1702  11.8895  11.9803
    12.2045  12.9912  13.1811  13.8063  15.5651  16.1684  17.0064  17.5655
    24.3643  24.7022  26.3116  27.2809  27.2968  28.0094  28.8612  29.3156
    31.7785  31.9679  33.6775  34.1885  36.4899  37.4201  37.9728  38.2769
    38.6309  39.7021  41.9505  41.9529  42.8817  42.9886  42.9997  43.5858
    44.9326  45.2819  46.6225  47.4897  48.2090  48.6665  49.3699  49.6815
    49.9933  50.4157  51.8467  52.6225  53.0957  53.1207  53.3894  54.3400
    54.7099  55.8157  55.8521  56.5985  56.7269  57.6317  57.7235  58.4758
    59.8937

     the Fermi energy is    13.8189 ev

!    total energy              =    -469.78176082 Ry
     Harris-Foulkes estimate   =    -469.78176072 Ry
     estimated scf accuracy    <          3.1E-09 Ry

     The total energy is the sum of the following terms:

     one-electron contribution =    -117.67415797 Ry
     hartree contribution      =      98.55686128 Ry
     xc contribution           =     -87.54232448 Ry
     ewald contribution        =    -363.12152242 Ry
     smearing contrib. (-TS)   =      -0.00061723 Ry

     total magnetization       =     0.18 Bohr mag/cell
     absolute magnetization    =     0.18 Bohr mag/cell

     convergence has been achieved in  15 iterations

     Forces acting on atoms (Ry/au):

     negative rho (up, down):  0.877E-01 0.879E-01
     atom    1 type  1   force =     0.00000000    0.00000000   -0.00000000
     atom    2 type  1   force =     0.00000000    0.00000000    0.00000000
     atom    3 type  2   force =    -0.00032529   -0.00032529    0.00000000
     atom    4 type  2   force =     0.00032529    0.00032529   -0.00000000
     atom    5 type  2   force =    -0.00032529    0.00032529   -0.00000000
     atom    6 type  2   force =     0.00032529   -0.00032529    0.00000000

     Total force =     0.000920     Total SCF correction =     0.000010

     entering subroutine stress ...

     negative rho (up, down):  0.877E-01 0.879E-01
          total   stress  (Ry/bohr**3)                   (kbar)     P=  262.17
   0.00176342   0.00000000   0.00000000        259.41      0.00      0.00
   0.00000000   0.00176342   0.00000000          0.00    259.41      0.00
   0.00000000   0.00000000   0.00181970          0.00      0.00    267.69

     General routines

     Parallel routines

   This run was terminated on:  16:10:28  24Jan2014

   JOB DONE.
Running PBS batch system epilogue script
Job id: 251918.audhumbla.fysik.dtu.dk
Username: zhonxu
Groupname: campgst
Jobname: RhO2/fine-EOS/ferro/RhO2-v-0.90
Sessionid: 7235
Queuename: verylong
Accounting:
This job has allocated the following 4 nodes:
q125 q125 q125 q125
Finished epilogue job 251918.audhumbla.fysik.dtu.dk for zhonxu