     Program PWSCF v.5.0.2 (svn rev. 9656) starts on 29Apr2014 at  3:45:58

     Current dimensions of program PWSCF are:
     Max number of different atomic species (ntypx) = 10
     Max number of k-points (npk) =  40000
     Max angular momentum in pseudopotentials (lmaxx) =  3
     Reading input from pwscf.in
Warning: card &CELL ignored
Warning: card / ignored

     Subspace diagonalization in iterative solution of the eigenvalue problem:
     a serial algorithm will be used

     bravais-lattice index     =            0
     lattice parameter (alat)  =      12.0187  a.u.
     unit-cell volume          =    7280.5819 (a.u.)^3
     number of atoms/cell      =           31
     number of atomic types    =            3
     number of electrons       =       238.00
     number of Kohn-Sham states=          357
     kinetic-energy cutoff     =      40.0000  Ry
     charge density cutoff     =     500.0000  Ry
     convergence threshold     =      1.0E-06
     mixing beta               =       0.7000
     number of iterations used =            8  plain     mixing
     Exchange-correlation      = SLA  PW   PBE  PBE ( 1 4 3 4 0)
     EXX-fraction              =        0.00
     nstep                     =           50

     celldm(1)=  12.018658  celldm(2)=   0.000000  celldm(3)=   0.000000
     celldm(4)=   0.000000  celldm(5)=   0.000000  celldm(6)=   0.000000

     crystal axes: (cart. coord. in units of alat)
               a(1) = (   1.000000   0.000000   0.000000 )
               a(2) = (   0.000000   1.009517   0.000000 )
               a(3) = (   0.000000   0.000000   4.154171 )

     reciprocal axes: (cart. coord. in units 2 pi/alat)
               b(1) = (  1.000000  0.000000  0.000000 )
               b(2) = (  0.000000  0.990572  0.000000 )
               b(3) = (  0.000000  0.000000  0.240722 )

     PseudoPot. # 1 for O  read from file:
     /home/camp/zhonxu/pseudo/o_pbe_v1.01.uspp.F.UPF
     MD5 check sum: 2bcb18d16ea4b960afae9ec6d52f22d2
     Pseudo is Ultrasoft + core correction, Zval =  6.0
     Generated by new atomic code, or converted to UPF format
     Using radial grid of  737 points,  5 beta functions with:
                l(1) =   0
                l(2) =   0
                l(3) =   1
                l(4) =   1
                l(5) =   2
     Q(r) pseudized with  8 coefficients,  rinner =    0.900   0.900   0.900
                                                       0.900   0.900

     PseudoPot. # 2 for Ir read from file:
     /home/camp/zhonxu/pseudo/ir_pbe_v1.uspp.F.UPF
     MD5 check sum: abf987a9674477536ede83817f8f8b70
     Pseudo is Ultrasoft + core correction, Zval = 15.0
     Generated by new atomic code, or converted to UPF format
     Using radial grid of  983 points,  7 beta functions with:
                l(1) =   0
                l(2) =   0
                l(3) =   1
                l(4) =   1
                l(5) =   1
                l(6) =   2
                l(7) =   2
     Q(r) pseudized with  8 coefficients,  rinner =    1.350   1.350   1.350
                                                       1.350   1.350

     PseudoPot. # 3 for H  read from file:
     /home/camp/zhonxu/pseudo/h_pbe_v1.uspp.F.UPF
     MD5 check sum: 3408e3ff4ec8b0a4e358431e7e038a48
     Pseudo is Ultrasoft, Zval =  1.0
     Generated by new atomic code, or converted to UPF format
     Using radial grid of  615 points,  2 beta functions with:
                l(1) =   0
                l(2) =   0
     Q(r) pseudized with  8 coefficients,  rinner =    0.700

     atomic species   valence    mass     pseudopotential
        O0             6.00    15.99940     O ( 1.00)
        Ir1           15.00   192.22000     Ir( 1.00)
        H2             1.00     1.00794     H ( 1.00)

     Simplified LDA+U calculation (l_max = 2) with parameters (eV):
     atomic species    L          U    alpha       J0     beta
        Ir1            2     5.0000   0.0000   0.0000   0.0000

     No symmetry found

   Cartesian axes

     site n.     atom                  positions (alat units)
         1           O0  tau(   1) = (   0.0000000   0.0000000   1.5706091  )
         2           O0  tau(   2) = (   0.0000000   0.5047586   1.6747957  )
         3           Ir1 tau(   3) = (   0.2500000   0.5047586   1.8830443  )
         4           Ir1 tau(   4) = (   0.0000000   0.0000000   1.8812580  )
         5           O0  tau(   5) = (   0.2500000   0.8177090   1.8812996  )
         6           O0  tau(   6) = (   0.2500000   0.1918083   1.8799287  )
         7           O0  tau(   7) = (   0.0000000   0.5047586   2.0722253  )
         8           O0  tau(   8) = (   0.0000000   0.0000000   2.1948149  )
         9           Ir1 tau(   9) = (   0.2500000   0.0000000   2.3898532  )
        10           Ir1 tau(  10) = (   0.0000000   0.5047586   2.3761029  )
        11           O0  tau(  11) = (   0.2500000   0.6965669   2.3876930  )
        12           O0  tau(  12) = (   0.2500000   0.3129503   2.3878177  )
        13           O0  tau(  13) = (   0.0000000   0.0000000   2.5742569  )
        14           O0  tau(  14) = (   0.5000000   0.0000000   1.5702768  )
        15           O0  tau(  15) = (   0.5000000   0.5047586   1.6724694  )
        16           Ir1 tau(  16) = (   0.7500000   0.5047586   1.8830859  )
        17           Ir1 tau(  17) = (   0.5000000   0.0000000   1.8811334  )
        18           O0  tau(  18) = (   0.7500000   0.8177090   1.8813411  )
        19           O0  tau(  19) = (   0.7500000   0.1918083   1.8799702  )
        20           O0  tau(  20) = (   0.5000000   0.5047586   2.0802013  )
        21           O0  tau(  21) = (   0.5000000   0.0000000   2.1944825  )
        22           Ir1 tau(  22) = (   0.7500000   0.0000000   2.3898532  )
        23           Ir1 tau(  23) = (   0.5000000   0.5047586   2.4038943  )
        24           O0  tau(  24) = (   0.7500000   0.6965669   2.3876515  )
        25           O0  tau(  25) = (   0.7500000   0.3129503   2.3878177  )
        26           O0  tau(  26) = (   0.5000000   0.0000000   2.5734260  )
        27           H2  tau(  27) = (  -0.0000700   0.6394282   1.5957418  )
        28           H2  tau(  28) = (   0.4999700   0.6419823   1.5977358  )
        29           H2  tau(  29) = (   0.1436200   0.0342933   1.5227115  )
        30           H2  tau(  30) = (   0.6432900   0.0353230   1.5222545  )
        31           O0  tau(  31) = (   0.5000100   0.5042640   2.6822238  )

     number of k points=    10  Methfessel-Paxton smearing, width (Ry)=  0.0100
                       cart. coord. in units 2pi/alat
        k(    1) = (   0.0000000   0.0000000   0.0000000), wk =   0.1250000
        k(    2) = (   0.0000000   0.2476431   0.0000000), wk =   0.2500000
        k(    3) = (   0.0000000  -0.4952862   0.0000000), wk =   0.1250000
        k(    4) = (   0.2500000   0.0000000   0.0000000), wk =   0.2500000
        k(    5) = (   0.2500000   0.2476431   0.0000000), wk =   0.2500000
        k(    6) = (   0.2500000  -0.4952862   0.0000000), wk =   0.2500000
        k(    7) = (  -0.5000000   0.0000000   0.0000000), wk =   0.1250000
        k(    8) = (  -0.5000000   0.2476431   0.0000000), wk =   0.2500000
        k(    9) = (  -0.5000000  -0.4952862   0.0000000), wk =   0.1250000
        k(   10) = (  -0.2500000   0.2476431   0.0000000), wk =   0.2500000

     Largest allocated arrays     est. size (Mb)     dimensions
     Largest temporary arrays     est. size (Mb)     dimensions

     Check: negative/imaginary core charge=   -0.000003    0.000000

     Initial potential from superposition of free atoms
     Check: negative starting charge=   -3.336659

     starting charge  233.99968, renormalised to  238.00000

     negative rho (up, down):  0.339E+01 0.000E+00
     Number of +U iterations with fixed ns =  0
     Starting occupations:
 --- enter write_ns ---
 LDA+U parameters:
U( 2)     =  5.00000000
alpha( 2) =  0.00000000
atom    3   Tr[ns(na)] =   7.00000
    eigenvalues:
  0.700  0.700  0.700  0.700  0.700
    eigenvectors:
  1.000  0.000  0.000  0.000  0.000
  0.000  1.000  0.000  0.000  0.000
  0.000  0.000  1.000  0.000  0.000
  0.000  0.000  0.000  1.000  0.000
  0.000  0.000  0.000  0.000  1.000
    occupations:
  0.700  0.000  0.000  0.000  0.000
  0.000  0.700  0.000  0.000  0.000
  0.000  0.000  0.700  0.000  0.000
  0.000  0.000  0.000  0.700  0.000
  0.000  0.000  0.000  0.000  0.700
atom    4   Tr[ns(na)] =   7.00000
    eigenvalues:
  0.700  0.700  0.700  0.700  0.700
    eigenvectors:
  1.000  0.000  0.000  0.000  0.000
  0.000  1.000  0.000  0.000  0.000
  0.000  0.000  1.000  0.000  0.000
  0.000  0.000  0.000  1.000  0.000
  0.000  0.000  0.000  0.000  1.000
    occupations:
  0.700  0.000  0.000  0.000  0.000
  0.000  0.700  0.000  0.000  0.000
  0.000  0.000  0.700  0.000  0.000
  0.000  0.000  0.000  0.700  0.000
  0.000  0.000  0.000  0.000  0.700
atom    9   Tr[ns(na)] =   7.00000
    eigenvalues:
  0.700  0.700  0.700  0.700  0.700
    eigenvectors:
  1.000  0.000  0.000  0.000  0.000
  0.000  1.000  0.000  0.000  0.000
  0.000  0.000  1.000  0.000  0.000
  0.000  0.000  0.000  1.000  0.000
  0.000  0.000  0.000  0.000  1.000
    occupations:
  0.700  0.000  0.000  0.000  0.000
  0.000  0.700  0.000  0.000  0.000
  0.000  0.000  0.700  0.000  0.000
  0.000  0.000  0.000  0.700  0.000
  0.000  0.000  0.000  0.000  0.700
atom   10   Tr[ns(na)] =   7.00000
    eigenvalues:
  0.700  0.700  0.700  0.700  0.700
    eigenvectors:
  1.000  0.000  0.000  0.000  0.000
  0.000  1.000  0.000  0.000  0.000
  0.000  0.000  1.000  0.000  0.000
  0.000  0.000  0.000  1.000  0.000
  0.000  0.000  0.000  0.000  1.000
    occupations:
  0.700  0.000  0.000  0.000  0.000
  0.000  0.700  0.000  0.000  0.000
  0.000  0.000  0.700  0.000  0.000
  0.000  0.000  0.000  0.700  0.000
  0.000  0.000  0.000  0.000  0.700
atom   16   Tr[ns(na)] =   7.00000
    eigenvalues:
  0.700  0.700  0.700  0.700  0.700
    eigenvectors:
  1.000  0.000  0.000  0.000  0.000
  0.000  1.000  0.000  0.000  0.000
  0.000  0.000  1.000  0.000  0.000
  0.000  0.000  0.000  1.000  0.000
  0.000  0.000  0.000  0.000  1.000
    occupations:
  0.700  0.000  0.000  0.000  0.000
  0.000  0.700  0.000  0.000  0.000
  0.000  0.000  0.700  0.000  0.000
  0.000  0.000  0.000  0.700  0.000
  0.000  0.000  0.000  0.000  0.700
atom   17   Tr[ns(na)] =   7.00000
    eigenvalues:
  0.700  0.700  0.700  0.700  0.700
    eigenvectors:
  1.000  0.000  0.000  0.000  0.000
  0.000  1.000  0.000  0.000  0.000
  0.000  0.000  1.000  0.000  0.000
  0.000  0.000  0.000  1.000  0.000
  0.000  0.000  0.000  0.000  1.000
    occupations:
  0.700  0.000  0.000  0.000  0.000
  0.000  0.700  0.000  0.000  0.000
  0.000  0.000  0.700  0.000  0.000
  0.000  0.000  0.000  0.700  0.000
  0.000  0.000  0.000  0.000  0.700
atom   22   Tr[ns(na)] =   7.00000
    eigenvalues:
  0.700  0.700  0.700  0.700  0.700
    eigenvectors:
  1.000  0.000  0.000  0.000  0.000
  0.000  1.000  0.000  0.000  0.000
  0.000  0.000  1.000  0.000  0.000
  0.000  0.000  0.000  1.000  0.000
  0.000  0.000  0.000  0.000  1.000
    occupations:
  0.700  0.000  0.000  0.000  0.000
[...]
    eigenvectors:
  0.000  0.139  0.000  0.000  0.861
  0.999  0.001  0.000  0.000  0.000
  0.000  0.000  0.965  0.035  0.000
  0.001  0.860  0.000  0.000  0.139
  0.000  0.000  0.035  0.965  0.000
    occupations:
  0.940  0.001 -0.000 -0.110 -0.000
  0.001  0.653  0.001  0.000 -0.000
 -0.000  0.001  0.872 -0.000 -0.007
 -0.110  0.000 -0.000  0.711  0.001
 -0.000 -0.000 -0.007  0.001  0.907
atom   10   Tr[ns(na)] =   8.13271
    eigenvalues:
  0.574  0.607  0.947  0.954  0.984
    eigenvectors:
  0.991  0.000  0.000  0.000  0.009
  0.000  0.000  1.000  0.000  0.000
  0.000  0.000  0.000  1.000  0.000
  0.009  0.000  0.000  0.000  0.991
  0.000  1.000  0.000  0.000  0.000
    occupations:
  0.578  0.000  0.001  0.039 -0.000
  0.000  0.947 -0.000  0.000 -0.000
  0.001 -0.000  0.954  0.000  0.000
  0.039  0.000  0.000  0.980 -0.000
 -0.000 -0.000  0.000 -0.000  0.607
atom   16   Tr[ns(na)] =   8.18260
    eigenvalues:
  0.603  0.631  0.905  0.970  0.983
    eigenvectors:
  0.001  0.184  0.003  0.001  0.812
  0.998  0.002  0.000  0.000  0.000
  0.000  0.000  0.989  0.007  0.003
  0.001  0.814  0.000  0.000  0.184
  0.000  0.000  0.007  0.992  0.001
    occupations:
  0.918  0.003  0.003 -0.137  0.001
  0.003  0.603  0.000 -0.000 -0.005
  0.003  0.000  0.906 -0.004 -0.005
 -0.137 -0.000 -0.004  0.696 -0.000
  0.001 -0.005 -0.005 -0.000  0.969
atom   17   Tr[ns(na)] =   8.17321
    eigenvalues:
  0.620  0.669  0.884  0.929  0.985
    eigenvectors:
  0.000  0.989  0.000  0.000  0.010
  0.000  0.000  0.088  0.912  0.000
  0.000  0.000  0.912  0.088  0.000
  0.000  0.010  0.000  0.000  0.990
  0.999  0.000  0.000  0.000  0.000
    occupations:
  0.673 -0.003 -0.001  0.032  0.001
 -0.003  0.925  0.013  0.000 -0.002
 -0.001  0.013  0.888 -0.000  0.000
  0.032  0.000 -0.000  0.982  0.000
  0.001 -0.002  0.000  0.000  0.620
atom   22   Tr[ns(na)] =   8.16514
    eigenvalues:
  0.653  0.667  0.871  0.908  0.984
    eigenvectors:
  0.000  0.139  0.000  0.000  0.861
  1.000  0.000  0.000  0.000  0.000
  0.000  0.000  0.967  0.033  0.000
  0.000  0.861  0.000  0.000  0.139
  0.000  0.000  0.033  0.967  0.000
    occupations:
  0.939 -0.000 -0.000 -0.110 -0.000
 -0.000  0.653  0.000  0.000 -0.000
 -0.000  0.000  0.872 -0.000  0.007
 -0.110  0.000 -0.000  0.711  0.000
 -0.000 -0.000  0.007  0.000  0.907
atom   23   Tr[ns(na)] =   8.13850
    eigenvalues:
  0.655  0.721  0.827  0.879  0.987
    eigenvectors:
  0.000  0.990  0.000  0.000  0.010
  0.000  0.000  0.000  1.000  0.000
  0.000  0.000  1.000  0.000  0.000
  0.000  0.010  0.000  0.000  0.990
  1.000  0.000  0.000  0.000  0.000
    occupations:
  0.724  0.000 -0.000  0.026 -0.000
  0.000  0.879  0.000  0.000 -0.000
 -0.000  0.000  0.827  0.000  0.000
  0.026  0.000  0.000  0.984  0.000
 -0.000 -0.000  0.000  0.000  0.655
N of occupied +U levels =  65.3143113
 --- exit write_ns ---

     Threshold (ethr) on eigenvalues was too large:
     Diagonalizing with lowered threshold

     Davidson diagonalization with overlap
     ethr =  1.29E-08,  avg # of iterations =  2.0

[...]

     total energy              =   -2104.20787384 Ry
     Harris-Foulkes estimate   =   -2104.20787385 Ry
     estimated scf accuracy    <       0.00000001 Ry

     iteration # 15     ecut=    40.00 Ry     beta=0.70
     Davidson diagonalization with overlap
     ethr =  5.57E-12,  avg # of iterations =  1.0

     negative rho (up, down):  0.313E+01 0.000E+00

     End of self-consistent calculation
 --- enter write_ns ---
 LDA+U parameters:
U( 2)     =  5.00000000
alpha( 2) =  0.00000000
atom    3   Tr[ns(na)] =   8.18227
    eigenvalues:
  0.603  0.631  0.905  0.970  0.983
    eigenvectors:
  0.001  0.184  0.003  0.000  0.812
  0.997  0.002  0.000  0.000  0.000
  0.000  0.000  0.987  0.010  0.003
  0.002  0.814  0.000  0.000  0.184
  0.000  0.000  0.010  0.989  0.001
    occupations:
  0.918 -0.004  0.003 -0.137 -0.001
 -0.004  0.603 -0.001  0.000 -0.005
  0.003 -0.001  0.906 -0.004  0.006
 -0.137  0.000 -0.004  0.696 -0.000
 -0.001 -0.005  0.006 -0.000  0.969
atom    4   Tr[ns(na)] =   8.17376
    eigenvalues:
  0.620  0.670  0.878  0.934  0.985
    eigenvectors:
  0.000  0.989  0.000  0.000  0.011
  0.000  0.000  0.048  0.952  0.000
  0.000  0.000  0.952  0.048  0.000
  0.000  0.011  0.000  0.000  0.989
  1.000  0.000  0.000  0.000  0.000
    occupations:
  0.673 -0.003 -0.000  0.033  0.001
 -0.003  0.931  0.012  0.000 -0.002
 -0.000  0.012  0.881 -0.000  0.000
  0.033  0.000 -0.000  0.982  0.000
  0.001 -0.002  0.000  0.000  0.620
atom    9   Tr[ns(na)] =   8.16570
    eigenvalues:
  0.653  0.667  0.871  0.909  0.984
    eigenvectors:
  0.000  0.139  0.000  0.000  0.861
  0.999  0.001  0.000  0.000  0.000
  0.000  0.000  0.965  0.035  0.000
  0.001  0.860  0.000  0.000  0.139
  0.000  0.000  0.035  0.965  0.000
    occupations:
  0.940  0.001 -0.000 -0.110 -0.000
  0.001  0.653  0.001  0.000 -0.000
 -0.000  0.001  0.872 -0.000 -0.007
 -0.110  0.000 -0.000  0.711  0.001
 -0.000 -0.000 -0.007  0.001  0.907
atom   10   Tr[ns(na)] =   8.13327
    eigenvalues:
  0.574  0.607  0.947  0.954  0.984
    eigenvectors:
  0.991  0.000  0.000  0.000  0.009
  0.000  0.000  1.000  0.000  0.000
  0.000  0.000  0.000  1.000  0.000
  0.009  0.000  0.000  0.000  0.991
  0.000  1.000  0.000  0.000  0.000
    occupations:
  0.578  0.000  0.001  0.039 -0.000
  0.000  0.947 -0.000  0.000 -0.000
  0.001 -0.000  0.954  0.000  0.000
  0.039  0.000  0.000  0.980 -0.000
 -0.000 -0.000  0.000 -0.000  0.607
atom   16   Tr[ns(na)] =   8.18220
    eigenvalues:
  0.603  0.631  0.905  0.970  0.983
    eigenvectors:
  0.001  0.184  0.003  0.001  0.812
  0.998  0.002  0.000  0.000  0.000
  0.000  0.000  0.989  0.007  0.003
  0.001  0.814  0.000  0.000  0.184
  0.000  0.000  0.007  0.992  0.001
    occupations:
  0.918  0.003  0.003 -0.137  0.001
  0.003  0.603  0.000 -0.000 -0.005
  0.003  0.000  0.905 -0.004 -0.005
 -0.137 -0.000 -0.004  0.696 -0.000
  0.001 -0.005 -0.005 -0.000  0.969
atom   17   Tr[ns(na)] =   8.17290
    eigenvalues:
  0.620  0.669  0.884  0.929  0.985
    eigenvectors:
  0.000  0.989  0.000  0.000  0.010
  0.000  0.000  0.088  0.912  0.000
  0.000  0.000  0.912  0.088  0.000
  0.000  0.010  0.000  0.000  0.990
  0.999  0.000  0.000  0.000  0.000
    occupations:
  0.673 -0.003 -0.001  0.032  0.001
 -0.003  0.925  0.013  0.000 -0.002
 -0.001  0.013  0.887 -0.000  0.000
  0.032  0.000 -0.000  0.982  0.000
  0.001 -0.002  0.000  0.000  0.620
atom   22   Tr[ns(na)] =   8.16563
    eigenvalues:
  0.653  0.667  0.871  0.908  0.984
    eigenvectors:
  0.000  0.139  0.000  0.000  0.861
  1.000  0.000  0.000  0.000  0.000
  0.000  0.000  0.967  0.033  0.000
  0.000  0.861  0.000  0.000  0.139
  0.000  0.000  0.033  0.967  0.000
    occupations:
  0.939 -0.000 -0.000 -0.110 -0.000
 -0.000  0.653  0.000  0.000 -0.000
 -0.000  0.000  0.872 -0.000  0.007
 -0.110  0.000 -0.000  0.711  0.000
 -0.000 -0.000  0.007  0.000  0.907
atom   23   Tr[ns(na)] =   8.13856
    eigenvalues:
  0.655  0.721  0.827  0.879  0.987
    eigenvectors:
  0.000  0.990  0.000  0.000  0.010
  0.000  0.000  0.000  1.000  0.000
  0.000  0.000  1.000  0.000  0.000
  0.000  0.010  0.000  0.000  0.990
  1.000  0.000  0.000  0.000  0.000
    occupations:
  0.724  0.000 -0.000  0.026 -0.000
  0.000  0.879  0.000  0.000 -0.000
 -0.000  0.000  0.827  0.000  0.000
  0.026  0.000  0.000  0.984  0.000
 -0.000 -0.000  0.000  0.000  0.655
N of occupied +U levels =  65.3142871
 --- exit write_ns ---

[...]

          k = 0.2500-0.4953 0.0000 ( 31088 PWs)   bands (ev):

[...]

          k =-0.2500 0.2476 0.0000 ( 31099 PWs)   bands (ev):

   -51.9734 -51.6726 -51.5533 -50.7664 -50.7615 -50.7215 -50.6670 -50.6533
   -50.6413 -50.6362 -50.6004 -50.5890 -50.5769 -50.4995 -50.4703 -50.3747
   -50.3700 -50.3684 -50.3005 -50.2859 -50.2748 -50.2479 -50.2367 -50.2162
   -21.6653 -21.4626 -21.3220 -21.2659 -20.9872 -20.8745 -20.8454 -20.6837
   -20.5882 -20.5725 -20.4805 -20.3869 -20.2488 -20.1677 -20.0798 -19.8920
   -19.3043 -19.1453 -19.0089 -10.7759 -10.6361 -10.3548 -10.1706  -9.9052
    -9.8127  -9.7194  -9.6456  -9.3687  -9.2194  -9.1353  -9.0706  -9.0463
    -8.7894  -8.6799  -8.5910  -8.3876  -8.3555  -8.1125  -7.9948  -7.7446
    -7.7028  -7.5967  -7.5152  -7.4403  -7.3325  -7.1522  -7.0109  -6.9509
    -6.8208  -6.7061  -6.6258  -6.5095  -6.4472  -6.3485  -6.3263  -6.2373
    -6.0957  -5.9371  -5.8689  -5.7401  -5.6266  -5.5136  -5.2984  -5.2044
    -5.1240  -4.9308  -4.8342  -4.6857  -4.6334  -4.5141  -4.3457  -4.1268
    -4.0474  -3.9182  -3.8536  -3.7413  -3.6480  -3.5948  -3.5037  -3.3865
    -3.3043  -3.2502  -3.1951  -3.1600  -3.0405  -2.9368  -2.8522  -2.7579
    -2.6267  -2.2053  -2.0917  -1.9334  -1.8267  -1.6036  -1.3990  -1.2848
    -1.2353  -1.0595  -0.9738  -0.7342  -0.1430   0.4864   0.8035   1.1682
     1.4313   1.6020   1.9269   2.1347   2.4087   2.5672   2.6186   2.7939
     2.9234   3.1335   3.1730   3.5963   3.7168   4.5653   4.8320   5.3096
     5.4196   5.5318   5.5737   6.1790   6.4400   6.5248   6.6661   6.7605
     6.8442   6.9457   7.1547   7.2966   7.3467   7.4029   7.5575   7.8200
     7.9112   7.9979   8.0688   8.1581   8.2125   8.3057   8.4263   8.4852
     8.5471   8.7731   8.8478   8.9274   9.0262   9.0772   9.1771   9.2723
     9.2759   9.3201   9.3221   9.3227   9.3490   9.4515   9.5036   9.5078
     9.5354   9.6267   9.7018   9.7732   9.8794   9.9718  10.0358  10.1613
    10.2258  10.3305  10.4089  10.4498  10.5017  10.5405  10.6715  10.8469
    10.9038  11.0379  11.0518  11.1151  11.1619  11.3196  11.4386  11.5537
    11.6141  11.6720  11.7739  11.8011  11.8478  12.0362  12.1426  12.1976
    12.2504  12.2940  12.3973  12.5058  12.6031  12.6406  12.6956  12.7271
    12.8137  12.8823  12.9387  13.0041  13.0828  13.1220  13.1867  13.2515
    13.3191  13.4314  13.4713  13.5859  13.6818  13.8582  13.9071  13.9222
    14.0345  14.0803  14.1924  14.2609  14.3090  14.4263  14.4494  14.5935
    14.6993  14.7864  14.8327  14.9458  15.0720  15.1430  15.2244  15.3550
    15.4005  15.4781  15.5691  15.5924  15.6708  15.7647  15.7974  15.8634
    15.9468  16.0116  16.0372  16.1230  16.1715  16.2231  16.3295  16.3573
    16.4048  16.4252  16.5144  16.5589  16.6242  16.7072  16.7414  16.7837
    16.8237  16.9766  17.1559  17.1801  17.2286  17.3189  17.3494  17.4610
    17.4979  17.5419  17.5750  17.6726  17.7401  17.7720  17.8628  17.9216
    17.9711  17.9994  18.0432  18.1809  18.2144  18.2606  18.3545  18.4957
    18.5528  18.5975  18.6341  18.7155  18.7931  18.8911  18.9765  19.0165
    19.0651  19.1280  19.1765  19.2652  19.2778  19.3472  19.3952  19.5588
    19.6159  19.6541  19.6842  19.7699  19.8870  19.9490  20.0101  20.0674
    20.2027  20.2735  20.3416  20.3990  20.4778  20.5435  20.6137  20.7008
    20.7397  20.7901  20.8523  20.8805  20.8992  20.9682  21.0692  21.1725
    21.2687  21.3138  21.3627  21.4115  21.4748  21.5349  21.5600  21.6741
    21.7620  21.8242  21.8608  21.8880  21.9354

     the Fermi energy is    -1.4248 ev

!    total energy              =   -2104.20787384 Ry
     Harris-Foulkes estimate   =   -2104.20787385 Ry
     estimated scf accuracy    <          3.4E-09 Ry

     The total energy is the sum of the following terms:

     one-electron contribution =  -22739.59663127 Ry
     hartree contribution      =   11412.48595075 Ry
     xc contribution           =    -576.37139055 Ry
     ewald contribution        =    9797.40266657 Ry
     Hubbard energy            =       1.87163346 Ry
     smearing contrib. (-TS)   =      -0.00010280 Ry

     convergence has been achieved in  15 iterations

     Forces acting on atoms (Ry/au):

     negative rho (up, down):  0.313E+01 0.000E+00
     atom    1 type  1   force =    -0.00743964   -0.01263040   -0.00031388
     atom    2 type  1   force =    -0.00001269    0.00265644    0.00028550
     atom    3 type  2   force =     0.03383299    0.00818562   -0.00042874
     atom    4 type  2   force =     0.00937347    0.00816676   -0.00002158
     atom    5 type  1   force =    -0.00407000   -0.01516544    0.00003094
     atom    6 type  1   force =     0.00731351    0.01289174    0.00019559
     atom    7 type  1   force =    -0.00038726   -0.00228625   -0.00066479
     atom    8 type  1   force =    -0.00352341   -0.00074355    0.00009870
     atom    9 type  2   force =     0.00650630    0.00063281   -0.00010710
     atom   10 type  2   force =    -0.00000484   -0.00092149   -0.00091532
     atom   11 type  1   force =     0.01015833    0.00868174   -0.00007943
     atom   12 type  1   force =     0.00955492   -0.00925406   -0.00010862
     atom   13 type  1   force =    -0.00087857   -0.00003061    0.00031425
     atom   14 type  1   force =    -0.00798491   -0.01330946   -0.00036799
     atom   15 type  1   force =     0.00009099    0.00304724   -0.00034172
     atom   16 type  2   force =    -0.03384388    0.00688215   -0.00045163
     atom   17 type  2   force =     0.00933569    0.00837569   -0.00022614
     atom   18 type  1   force =    -0.00540322   -0.01443992    0.00005224
     atom   19 type  1   force =     0.00505752    0.01366568    0.00018041
     atom   20 type  1   force =    -0.00023070   -0.00531938    0.00088838
     atom   21 type  1   force =    -0.00329934   -0.00049278   -0.00021475
     atom   22 type  2   force =    -0.00403934    0.00051746   -0.00009384
     atom   23 type  2   force =    -0.00006479    0.00042923    0.00030596
     atom   24 type  1   force =    -0.01008726    0.00870124   -0.00008801
     atom   25 type  1   force =    -0.00939117   -0.00923585   -0.00010942
     atom   26 type  1   force =    -0.00077495   -0.00013203   -0.00014898
     atom   27 type  3   force =    -0.00000316    0.00001656    0.00080220
     atom   28 type  3   force =     0.00001766    0.00042004    0.00076394
     atom   29 type  3   force =     0.00017111    0.00017371    0.00013356
     atom   30 type  3   force =     0.00003493    0.00056503    0.00017576
     atom   31 type  1   force =    -0.00000828   -0.00004792    0.00045451

     Total force =     0.002321     Total SCF correction =     0.000113

     bfgs converged in   8 scf cycles and   7 bfgs steps
     (criteria: energy < 0.10E-03, force < 0.10E-02)

     End of BFGS Geometry Optimization

     Final energy   =   -2104.2078738426 Ry
Begin final coordinates

ATOMIC_POSITIONS (crystal)
O0       0.000000000   0.000000000   0.378437113    0   0   1
O0       0.000000000   0.500000000   0.403694038    0   0   1
Ir1      0.250000000   0.500000000   0.453516869    0   0   1
Ir1      0.000000000   0.000000000   0.452879960    0   0   1
O0       0.250000000   0.810000000   0.453104031    0   0   1
O0       0.250000000   0.190000000   0.452630774    0   0   1
O0       0.000000000   0.500000000   0.499499131    0   0   1
O0       0.000000000   0.000000000   0.528095357    0   0   1
Ir1      0.250000000   0.000000000   0.574780393    0   0   1
Ir1      0.000000000   0.500000000   0.572135617    0   0   1
O0       0.250000000   0.690000000   0.574327096    0   0   1
O0       0.250000000   0.310000000   0.574348396    0   0   1
O0       0.000000000   0.000000000   0.619158864    0   0   1
O0       0.500000000   0.000000000   0.378330680    0   0   1
O0       0.500000000   0.500000000   0.403147604    0   0   1
Ir1      0.750000000   0.500000000   0.453522563    0   0   1
Ir1      0.500000000   0.000000000   0.452859930    0   0   1
O0       0.750000000   0.810000000   0.453122767    0   0   1
O0       0.750000000   0.190000000   0.452636215    0   0   1
O0       0.500000000   0.500000000   0.501482294    0   0   1
O0       0.500000000   0.000000000   0.528145185    0   0   1
Ir1      0.750000000   0.000000000   0.574785111    0   0   1
Ir1      0.500000000   0.500000000   0.577797696    0   0   1
O0       0.750000000   0.690000000   0.574326982    0   0   1
O0       0.750000000   0.310000000   0.574351482    0   0   1
O0       0.500000000   0.000000000   0.619209162    0   0   1
H2      -0.000181487   0.632770656   0.384550538
H2       0.499871546   0.635468262   0.385157193
H2       0.143326657   0.034267470   0.366728433
H2       0.642773715   0.035992438   0.366590061
O0       0.500008450   0.499402431   0.644708462
End final coordinates

     General routines

     Parallel routines
     Hubbard U routines

   This run was terminated on:  12:39:43  29Apr2014

   JOB DONE.
Running PBS batch system epilogue script
Job id: 340409.audhumbla.fysik.dtu.dk
Username: zhonxu
Groupname: campgst
Jobname: IrO2/Eads-2-layers/O-U-5.0
Sessionid: 15090
Queuename: verylong
Accounting:
This job has allocated the following 16 nodes:
d061 d061 d061 d061 d061 d061 d061 d061 d019 d019 d019 d019 d019 d019 d019 d019
Finished epilogue job 340409.audhumbla.fysik.dtu.dk for zhonxu