     Program PWSCF v.5.0.2 (svn rev. 9656) starts on 24Jan2014 at 14:39: 4

     Current dimensions of program PWSCF are:
     Max number of different atomic species (ntypx) = 10
     Max number of k-points (npk) =  40000
     Max angular momentum in pseudopotentials (lmaxx) =  3
     Reading input from RuO2-v-0.95.in

     Subspace diagonalization in iterative solution of the eigenvalue problem:
     a serial algorithm will be used

     bravais-lattice index     =            0
     lattice parameter (alat)  =       8.6082  a.u.
     unit-cell volume          =     411.0809 (a.u.)^3
     number of atoms/cell      =            6
     number of atomic types    =            2
     number of electrons       =        56.00
     number of Kohn-Sham states=           81
     kinetic-energy cutoff     =      40.0000  Ry
     charge density cutoff     =     500.0000  Ry
     convergence threshold     =      1.0E-06
     mixing beta               =       0.3000
     number of iterations used =            8  plain     mixing
     Exchange-correlation      = SLA  PW   PBE  PBE ( 1 4 3 4 0)
     EXX-fraction              =        0.00
     nstep                     =           50

     celldm(1)=   8.608231  celldm(2)=   0.000000  celldm(3)=   0.000000
     celldm(4)=   0.000000  celldm(5)=   0.000000  celldm(6)=   0.000000

     crystal axes: (cart. coord. in units of alat)
               a(1) = (   1.000000   0.000000   0.000000 )
               a(2) = (   0.000000   1.000000   0.000000 )
               a(3) = (   0.000000   0.000000   0.644444 )

     reciprocal axes: (cart. coord. in units 2 pi/alat)
               b(1) = (  1.000000  0.000000  0.000000 )
               b(2) = (  0.000000  1.000000  0.000000 )
               b(3) = (  0.000000  0.000000  1.551724 )

     PseudoPot. # 1 for Ru read from file:
     /home/camp/zhonxu/pseudo/ru_pbe_v1.uspp.F.UPF
     MD5 check sum: df00be1c11b23341d9806d8f1dfa10cf
     Pseudo is Ultrasoft + core correction, Zval = 16.0
     Generated by new atomic code, or converted to UPF format
     Using radial grid of  967 points,  6 beta functions with:
                l(1) =   0
                l(2) =   0
                l(3) =   1
                l(4) =   1
                l(5) =   2
                l(6) =   2
     Q(r) pseudized with  8 coefficients,  rinner =    1.300   1.300   1.300
                                                       1.300   1.300

     PseudoPot. # 2 for O  read from file:
     /home/camp/zhonxu/pseudo/o_pbe_v1.01.uspp.F.UPF
     MD5 check sum: 2bcb18d16ea4b960afae9ec6d52f22d2
     Pseudo is Ultrasoft + core correction, Zval =  6.0
     Generated by new atomic code, or converted to UPF format
     Using radial grid of  737 points,  5 beta functions with:
                l(1) =   0
                l(2) =   0
                l(3) =   1
                l(4) =   1
                l(5) =   2
     Q(r) pseudized with  8 coefficients,  rinner =    0.900   0.900   0.900
                                                       0.900   0.900

     atomic species   valence    mass     pseudopotential
        Ru0           16.00   101.07000     Ru( 1.00)
        O1             6.00    15.99940     O ( 1.00)

     Starting magnetic structure
     atomic species   magnetization
        Ru0          0.000
        O1           0.000

     16 Sym. Ops., with inversion, found ( 8 have fractional translation)

   Cartesian axes

     site n.     atom                  positions (alat units)
         1           Ru0 tau(   1) = (   0.0000000   0.0000000   0.0000000  )
         2           Ru0 tau(   2) = (   0.5000000   0.5000000   0.3222222  )
         3           O1  tau(   3) = (   0.3050000   0.3050000   0.0000000  )
         4           O1  tau(   4) = (  -0.3050000  -0.3050000   0.0000000  )
         5           O1  tau(   5) = (   0.8050000   0.1950000   0.3222222  )
         6           O1  tau(   6) = (   0.1950000   0.8050000   0.3222222  )

     number of k points=    36  Methfessel-Paxton smearing, width (Ry)=  0.0100
                       cart. coord. in units 2pi/alat
        k(    1) = (   0.0000000   0.0000000   0.0000000), wk =   0.0080000
        k(    2) = (   0.0000000   0.0000000   0.3103448), wk =   0.0160000
        k(    3) = (   0.0000000   0.0000000   0.6206897), wk =   0.0160000
        k(    4) = (   0.0000000   0.2000000   0.0000000), wk =   0.0320000
        k(    5) = (   0.0000000   0.2000000   0.3103448), wk =   0.0640000
        k(    6) = (   0.0000000   0.2000000   0.6206897), wk =   0.0640000
        k(    7) = (   0.0000000   0.4000000   0.0000000), wk =   0.0320000
        k(    8) = (   0.0000000   0.4000000   0.3103448), wk =   0.0640000
        k(    9) = (   0.0000000   0.4000000   0.6206897), wk =   0.0640000
        k(   10) = (   0.2000000   0.2000000   0.0000000), wk =   0.0320000
        k(   11) = (   0.2000000   0.2000000   0.3103448), wk =   0.0640000
        k(   12) = (   0.2000000   0.2000000   0.6206897), wk =   0.0640000
        k(   13) = (   0.2000000   0.4000000   0.0000000), wk =   0.0640000
        k(   14) = (   0.2000000   0.4000000   0.3103448), wk =   0.1280000
        k(   15) = (   0.2000000   0.4000000   0.6206897), wk =   0.1280000
        k(   16) = (   0.4000000   0.4000000   0.0000000), wk =   0.0320000
        k(   17) = (   0.4000000   0.4000000   0.3103448), wk =   0.0640000
        k(   18) = (   0.4000000   0.4000000   0.6206897), wk =   0.0640000
        k(   19) = (   0.0000000   0.0000000   0.0000000), wk =   0.0080000
        k(   20) = (   0.0000000   0.0000000   0.3103448), wk =   0.0160000
        k(   21) = (   0.0000000   0.0000000   0.6206897), wk =   0.0160000
        k(   22) = (   0.0000000   0.2000000   0.0000000), wk =   0.0320000
        k(   23) = (   0.0000000   0.2000000   0.3103448), wk =   0.0640000
        k(   24) = (   0.0000000   0.2000000   0.6206897), wk =   0.0640000
        k(   25) = (   0.0000000   0.4000000   0.0000000), wk =   0.0320000
        k(   26) = (   0.0000000   0.4000000   0.3103448), wk =   0.0640000
        k(   27) = (   0.0000000   0.4000000   0.6206897), wk =   0.0640000
        k(   28) = (   0.2000000   0.2000000   0.0000000), wk =   0.0320000
        k(   29) = (   0.2000000   0.2000000   0.3103448), wk =   0.0640000
        k(   30) = (   0.2000000   0.2000000   0.6206897), wk =   0.0640000
        k(   31) = (   0.2000000   0.4000000   0.0000000), wk =   0.0640000
        k(   32) = (   0.2000000   0.4000000   0.3103448), wk =   0.1280000
        k(   33) = (   0.2000000   0.4000000   0.6206897), wk =   0.1280000
        k(   34) = (   0.4000000   0.4000000   0.0000000), wk =   0.0320000
        k(   35) = (   0.4000000   0.4000000   0.3103448), wk =   0.0640000
        k(   36) = (   0.4000000   0.4000000   0.6206897), wk =   0.0640000

     Largest allocated arrays     est. size (Mb)     dimensions
     Largest temporary arrays     est. size (Mb)     dimensions

     Check: negative/imaginary core charge=   -0.000008    0.000000

     Initial potential from superposition of free atoms
     Check: negative starting charge=(component1):   -0.064051
     Check: negative starting charge=(component2):   -0.064051

     starting charge   53.99996, renormalised to   56.00000

     negative rho (up, down):  0.664E-01 0.664E-01
     Starting wfc are   42 randomized atomic wfcs

     Self-consistent Calculation

     iteration #  1     ecut=    40.00 Ry     beta=0.30
     Davidson diagonalization with overlap
     ethr =  1.00E-02,  avg # of iterations =  5.3

     negative rho (up, down):  0.713E-01 0.713E-01

     total energy              =    -514.87017997 Ry
     Harris-Foulkes estimate   =    -516.40470983 Ry
     estimated scf accuracy    <       3.29102336 Ry

     total magnetization       =     0.00 Bohr mag/cell
     absolute magnetization    =     0.00 Bohr mag/cell

[...]

     End of self-consistent calculation

 ------ SPIN UP ------------

          k = 0.0000 0.0000 0.0000 (  1787 PWs)   bands (ev):

   -59.8225 -59.8158 -30.0093 -30.0093 -29.7677 -29.7677 -29.6197 -29.5955
    -6.7606  -5.7008  -4.7147  -4.7147   4.9407   5.0718   6.1524   6.6906
     6.6906   9.1133   9.1133   9.6904  10.9236  11.1677  11.1677  11.4787
    11.8943  12.5215  12.5215  12.5353  12.6305  15.2588  15.6304  18.6468
    18.6468  19.7213  20.0593  23.7073  23.7073  27.0754  28.5982  28.7140
    30.0332  31.2073  31.5016  31.5016  33.4260  34.9119  35.6207  35.6207
    36.7950  36.7950  38.0603  40.1783  40.4586  40.4586  41.5815  42.9801
    43.6392  44.2013  44.8090  45.3450  45.3504  45.3504  46.1630  46.1630
    46.6624  47.1840  47.1840  49.0670  50.6991  52.5902  52.5902  52.6308
    52.7579  53.5765  53.5765  54.2579  54.5547  54.5547  54.5880  54.6624
    55.9585

[...]

 ------ SPIN DOWN ----------

[...]

     the Fermi energy is    13.8567 ev

!    total energy              =    -515.56308096 Ry
     Harris-Foulkes estimate   =    -515.56307530 Ry
     estimated scf accuracy    <       0.00000090 Ry

     The total energy is the sum of the following terms:

     one-electron contribution =    -165.24608308 Ry
     hartree contribution      =     115.92003102 Ry
     xc contribution           =     -78.73997304 Ry
     ewald contribution        =    -387.49602269 Ry
     smearing contrib. (-TS)   =      -0.00103316 Ry

[...]

     convergence has been achieved in   8 iterations

     Forces acting on atoms (Ry/au):

     negative rho (up, down):  0.722E-01 0.722E-01
     atom    1 type  1   force =     0.00000000    0.00000000    0.00000000
     atom    2 type  1   force =     0.00000000    0.00000000    0.00000000
     atom    3 type  2   force =    -0.02564431   -0.02564431   -0.00000000
     atom    4 type  2   force =     0.02564431    0.02564431    0.00000000
     atom    5 type  2   force =    -0.02564431    0.02564431   -0.00000000
     atom    6 type  2   force =     0.02564431   -0.02564431   -0.00000000

     Total force =     0.072533     Total SCF correction =     0.001059

     entering subroutine stress ...

     negative rho (up, down):  0.722E-01 0.722E-01
          total   stress  (Ry/bohr**3)                   (kbar)     P=  172.41
   0.00059370   0.00000000   0.00000000         87.34      0.00      0.00
   0.00000000   0.00059370   0.00000000          0.00     87.34      0.00
   0.00000000   0.00000000   0.00232858          0.00      0.00    342.55

     Volume is kept fixed: isostatic pressure set to zero

     BFGS Geometry Optimization

     number of scf cycles    =   1
     number of bfgs steps    =   0

     enthalpy new            =    -515.5630809580 Ry

     new trust radius        =       0.1172499277 bohr
     new conv_thr            =       0.0000010000 Ry

     new unit-cell volume =    411.08087 a.u.^3 (    60.91590 Ang^3 )

CELL_PARAMETERS (alat=  8.60823133)
   0.985746734   0.000000000   0.000000000
   0.000000000   0.985746734   0.000000000
   0.000000000   0.000000000   0.663215688

ATOMIC_POSITIONS (crystal)
Ru0      0.000000000   0.000000000   0.000000000    0   0   0
Ru0      0.500000000   0.500000000   0.500000000    0   0   0
O1       0.302020955   0.302020955   0.000000000    1   1   0
[...]
        k(   30) = (   0.2028919   0.2028919   0.6031220), wk =   0.0640000
        k(   31) = (   0.2028919   0.4057837   0.0000000), wk =   0.0640000
        k(   32) = (   0.2028919   0.4057837   0.3015610), wk =   0.1280000
        k(   33) = (   0.2028919   0.4057837   0.6031220), wk =   0.1280000
        k(   34) = (   0.4057837   0.4057837   0.0000000), wk =   0.0320000
        k(   35) = (   0.4057837   0.4057837   0.3015610), wk =   0.0640000
        k(   36) = (   0.4057837   0.4057837   0.6031220), wk =   0.0640000

     Check: negative/imaginary core charge=   -0.000008    0.000000
     Check: negative starting charge=(component1):   -0.128785

[...]

     enthalpy old            =    -515.5630809580 Ry
     enthalpy new            =    -515.5789982035 Ry

     CASE: enthalpy_new < enthalpy_old

[...]

     Total force =     0.002589     Total SCF correction =     0.000545
     SCF correction compared to forces is large: reduce conv_thr to get better values

[...]

     Threshold (ethr) on eigenvalues was too large:
     Diagonalizing with lowered threshold

     Davidson diagonalization with overlap
     ethr =  4.80E-09,  avg # of iterations =  2.9

[...]

     number of scf cycles    =   6
     number of bfgs steps    =   5

     enthalpy old            =    -515.5826030518 Ry
     enthalpy new            =    -515.5826233971 Ry

     CASE: enthalpy_new < enthalpy_old

     new trust radius        =       0.0017292856 bohr
     new conv_thr            =       0.0000000100 Ry

     new unit-cell volume =    411.08087 a.u.^3 (    60.91590 Ang^3 )

[...]

ATOMIC_POSITIONS (crystal)
Ru0      0.000000000   0.000000000   0.000000000    0   0   0
Ru0      0.500000000   0.500000000   0.500000000    0   0   0
O1       0.306069406   0.306069406   0.000000000    1   1   0
O1      -0.306069406  -0.306069406   0.000000000    1   1   0
O1       0.806069406   0.193930594   0.500000000    1   1   0
O1       0.193930594   0.806069406   0.500000000    1   1   0

     Check: negative starting charge=(component1):   -0.129082
     NEW-OLD atomic charge density approx. for the potential
     NEW k-points:
        k(    1) = (   0.0000000   0.0000000   0.0000000), wk =   0.0080000
        k(    2) = (   0.0000000   0.0000000   0.2947351), wk =   0.0160000
        k(    3) = (   0.0000000   0.0000000   0.5894701), wk =   0.0160000
        k(    4) = (   0.0000000   0.2052279   0.0000000), wk =   0.0320000
        k(    5) = (   0.0000000   0.2052279   0.2947351), wk =   0.0640000
        k(    6) = (   0.0000000   0.2052279   0.5894701), wk =   0.0640000
        k(    7) = (   0.0000000   0.4104557   0.0000000), wk =   0.0320000
        k(    8) = (   0.0000000   0.4104557   0.2947351), wk =   0.0640000
        k(    9) = (   0.0000000   0.4104557   0.5894701), wk =   0.0640000
        k(   10) = (   0.2052279   0.2052279   0.0000000), wk =   0.0320000
        k(   11) = (   0.2052279   0.2052279   0.2947351), wk =   0.0640000
        k(   12) = (   0.2052279   0.2052279   0.5894701), wk =   0.0640000
        k(   13) = (   0.2052279   0.4104557   0.0000000), wk =   0.0640000
        k(   14) = (   0.2052279   0.4104557   0.2947351), wk =   0.1280000
        k(   15) = (   0.2052279   0.4104557   0.5894701), wk =   0.1280000
        k(   16) = (   0.4104557   0.4104557   0.0000000), wk =   0.0320000
        k(   17) = (   0.4104557   0.4104557   0.2947351), wk =   0.0640000
        k(   18) = (   0.4104557   0.4104557   0.5894701), wk =   0.0640000
        k(   19) = (   0.0000000   0.0000000   0.0000000), wk =   0.0080000
        k(   20) = (   0.0000000   0.0000000   0.2947351), wk =   0.0160000
        k(   21) = (   0.0000000   0.0000000   0.5894701), wk =   0.0160000
        k(   22) = (   0.0000000   0.2052279   0.0000000), wk =   0.0320000
        k(   23) = (   0.0000000   0.2052279   0.2947351), wk =   0.0640000
        k(   24) = (   0.0000000   0.2052279   0.5894701), wk =   0.0640000
        k(   25) = (   0.0000000   0.4104557   0.0000000), wk =   0.0320000
        k(   26) = (   0.0000000   0.4104557   0.2947351), wk =   0.0640000
        k(   27) = (   0.0000000   0.4104557   0.5894701), wk =   0.0640000
        k(   28) = (   0.2052279   0.2052279   0.0000000), wk =   0.0320000
        k(   29) = (   0.2052279   0.2052279   0.2947351), wk =   0.0640000
        k(   30) = (   0.2052279   0.2052279   0.5894701), wk =   0.0640000
        k(   31) = (   0.2052279   0.4104557   0.0000000), wk =   0.0640000
        k(   32) = (   0.2052279   0.4104557   0.2947351), wk =   0.1280000
        k(   33) = (   0.2052279   0.4104557   0.5894701), wk =   0.1280000
        k(   34) = (   0.4104557   0.4104557   0.0000000), wk =   0.0320000
        k(   35) = (   0.4104557   0.4104557   0.2947351), wk =   0.0640000
        k(   36) = (   0.4104557   0.4104557   0.5894701), wk =   0.0640000

     Check: negative/imaginary core charge=   -0.000008    0.000000
     Check: negative starting charge=(component1):   -0.129078

[...]

     Threshold (ethr) on eigenvalues was too large:
     Diagonalizing with lowered threshold

     Davidson diagonalization with overlap
     ethr =  2.98E-10,  avg # of iterations =  3.0

[...]

     Total force =     0.000062     Total SCF correction =     0.000073
     SCF correction compared to forces is large: reduce conv_thr to get better values

[...]

     Volume is kept fixed: isostatic pressure set to zero

     bfgs converged in   7 scf cycles and   6 bfgs steps
     (criteria: energy < 0.10E-03, force < 0.10E-02, cell < 0.50E+00)

     End of BFGS Geometry Optimization

     Final enthalpy =    -515.5826244873 Ry
Begin final coordinates
     new unit-cell volume =    411.08087 a.u.^3 (    60.91590 Ang^3 )

CELL_PARAMETERS (alat=  8.60823133)
   0.974526497   0.000000000   0.000000000
   0.000000000   0.974526497   0.000000000
   0.000000000   0.000000000   0.678575508

ATOMIC_POSITIONS (crystal)
Ru0      0.000000000   0.000000000   0.000000000    0   0   0
Ru0      0.500000000   0.500000000   0.500000000    0   0   0
O1       0.306069406   0.306069406   0.000000000    1   1   0
O1      -0.306069406  -0.306069406   0.000000000    1   1   0
O1       0.806069406   0.193930594   0.500000000    1   1   0
O1       0.193930594   0.806069406   0.500000000    1   1   0
End final coordinates

     A final scf calculation at the relaxed structure.
     The G-vectors are recalculated for the final unit cell
     Results may differ from those at the preceding step.

     bravais-lattice index     =            0
     lattice parameter (alat)  =       8.6082  a.u.
     unit-cell volume          =     411.0809 (a.u.)^3
     number of atoms/cell      =            6
     number of atomic types    =            2
     number of electrons       =        56.00
     number of Kohn-Sham states=           81
     kinetic-energy cutoff     =      40.0000  Ry
     charge density cutoff     =     500.0000  Ry
     convergence threshold     =      1.0E-08
     mixing beta               =       0.3000
     number of iterations used =            8  plain     mixing
     Exchange-correlation      = SLA  PW   PBE  PBE ( 1 4 3 4 0)
     EXX-fraction              =        0.00

     celldm(1)=   8.608231  celldm(2)=   0.000000  celldm(3)=   0.000000
     celldm(4)=   0.000000  celldm(5)=   0.000000  celldm(6)=   0.000000

     crystal axes: (cart. coord. in units of alat)
               a(1) = (   0.974526   0.000000   0.000000 )
               a(2) = (   0.000000   0.974526   0.000000 )
               a(3) = (   0.000000   0.000000   0.678576 )

     reciprocal axes: (cart. coord. in units 2 pi/alat)
               b(1) = (  1.026139  0.000000  0.000000 )
               b(2) = (  0.000000  1.026139  0.000000 )
               b(3) = (  0.000000  0.000000  1.473675 )

     PseudoPot. # 1 for Ru read from file:
     /home/camp/zhonxu/pseudo/ru_pbe_v1.uspp.F.UPF
     MD5 check sum: df00be1c11b23341d9806d8f1dfa10cf
     Pseudo is Ultrasoft + core correction, Zval = 16.0
     Generated by new atomic code, or converted to UPF format
     Using radial grid of  967 points,  6 beta functions with:
                l(1) =   0
                l(2) =   0
                l(3) =   1
                l(4) =   1
                l(5) =   2
                l(6) =   2
     Q(r) pseudized with  8 coefficients,  rinner =    1.300   1.300   1.300
                                                       1.300   1.300

     PseudoPot. # 2 for O  read from file:
     /home/camp/zhonxu/pseudo/o_pbe_v1.01.uspp.F.UPF
     MD5 check sum: 2bcb18d16ea4b960afae9ec6d52f22d2
     Pseudo is Ultrasoft + core correction, Zval =  6.0
     Generated by new atomic code, or converted to UPF format
     Using radial grid of  737 points,  5 beta functions with:
                l(1) =   0
                l(2) =   0
                l(3) =   1
                l(4) =   1
                l(5) =   2
     Q(r) pseudized with  8 coefficients,  rinner =    0.900   0.900   0.900
                                                       0.900   0.900

     atomic species   valence    mass     pseudopotential
        Ru0           16.00   101.07000     Ru( 1.00)
        O1             6.00    15.99940     O ( 1.00)

     Starting magnetic structure
     atomic species   magnetization
        Ru0          0.000
        O1           0.000

     16 Sym. Ops., with inversion, found ( 8 have fractional translation)

   Cartesian axes

     site n.     atom                  positions (alat units)
         1           Ru0 tau(   1) = (   0.0000000   0.0000000   0.0000000  )
         2           Ru0 tau(   2) = (   0.4872632   0.4872632   0.3392878  )
         3           O1  tau(   3) = (   0.2982727   0.2982727   0.0000000  )
         4           O1  tau(   4) = (  -0.2982727  -0.2982727   0.0000000  )
         5           O1  tau(   5) = (   0.7855360   0.1889905   0.3392878  )
         6           O1  tau(   6) = (   0.1889905   0.7855360   0.3392878  )

     number of k points=    36  Methfessel-Paxton smearing, width (Ry)=  0.0100
                       cart. coord. in units 2pi/alat
        k(    1) = (   0.0000000   0.0000000   0.0000000), wk =   0.0080000
        k(    2) = (   0.0000000   0.0000000   0.2947351), wk =   0.0160000
        k(    3) = (   0.0000000   0.0000000   0.5894701), wk =   0.0160000
        k(    4) = (   0.0000000   0.2052279   0.0000000), wk =   0.0320000
        k(    5) = (   0.0000000   0.2052279   0.2947351), wk =   0.0640000
        k(    6) = (   0.0000000   0.2052279   0.5894701), wk =   0.0640000
        k(    7) = (   0.0000000   0.4104557   0.0000000), wk =   0.0320000
        k(    8) = (   0.0000000   0.4104557   0.2947351), wk =   0.0640000
        k(    9) = (   0.0000000   0.4104557   0.5894701), wk =   0.0640000
        k(   10) = (   0.2052279   0.2052279   0.0000000), wk =   0.0320000
        k(   11) = (   0.2052279   0.2052279   0.2947351), wk =   0.0640000
        k(   12) = (   0.2052279   0.2052279   0.5894701), wk =   0.0640000
        k(   13) = (   0.2052279   0.4104557   0.0000000), wk =   0.0640000
        k(   14) = (   0.2052279   0.4104557   0.2947351), wk =   0.1280000
        k(   15) = (   0.2052279   0.4104557   0.5894701), wk =   0.1280000
        k(   16) = (   0.4104557   0.4104557   0.0000000), wk =   0.0320000
        k(   17) = (   0.4104557   0.4104557   0.2947351), wk =   0.0640000
        k(   18) = (   0.4104557   0.4104557   0.5894701), wk =   0.0640000
        k(   19) = (   0.0000000   0.0000000   0.0000000), wk =   0.0080000
        k(   20) = (   0.0000000   0.0000000   0.2947351), wk =   0.0160000
        k(   21) = (   0.0000000   0.0000000   0.5894701), wk =   0.0160000
        k(   22) = (   0.0000000   0.2052279   0.0000000), wk =   0.0320000
        k(   23) = (   0.0000000   0.2052279   0.2947351), wk =   0.0640000
        k(   24) = (   0.0000000   0.2052279   0.5894701), wk =   0.0640000
        k(   25) = (   0.0000000   0.4104557   0.0000000), wk =   0.0320000
        k(   26) = (   0.0000000   0.4104557   0.2947351), wk =   0.0640000
        k(   27) = (   0.0000000   0.4104557   0.5894701), wk =   0.0640000
        k(   28) = (   0.2052279   0.2052279   0.0000000), wk =   0.0320000
        k(   29) = (   0.2052279   0.2052279   0.2947351), wk =   0.0640000
        k(   30) = (   0.2052279   0.2052279   0.5894701), wk =   0.0640000
        k(   31) = (   0.2052279   0.4104557   0.0000000), wk =   0.0640000
        k(   32) = (   0.2052279   0.4104557   0.2947351), wk =   0.1280000
        k(   33) = (   0.2052279   0.4104557   0.5894701), wk =   0.1280000
        k(   34) = (   0.4104557   0.4104557   0.0000000), wk =   0.0320000
        k(   35) = (   0.4104557   0.4104557   0.2947351), wk =   0.0640000
        k(   36) = (   0.4104557   0.4104557   0.5894701), wk =   0.0640000

     Largest allocated arrays     est. size (Mb)     dimensions
     Largest temporary arrays     est. size (Mb)     dimensions

     Check: negative/imaginary core charge=   -0.000008    0.000000

     Initial potential from superposition of free atoms
     Check: negative starting charge=(component1):   -0.064405
     Check: negative starting charge=(component2):   -0.064405

     starting charge   53.99996, renormalised to   56.00000

     negative rho (up, down):  0.668E-01 0.668E-01
     Starting wfc are   42 randomized atomic wfcs

     Self-consistent Calculation

     iteration #  1     ecut=    40.00 Ry     beta=0.30
     Davidson diagonalization with overlap
     c_bands:  1 eigenvalues not converged
     ethr =  1.00E-06,  avg # of iterations = 11.6

[...]

     total energy              =    -515.58297795 Ry
     Harris-Foulkes estimate   =    -515.58297729 Ry
     estimated scf accuracy    <       0.00000014 Ry

[...]

     iteration # 11     ecut=    40.00 Ry     beta=0.30
     Davidson diagonalization with overlap
     ethr =  2.55E-10,  avg # of iterations =  1.0

     negative rho (up, down):  0.718E-01 0.718E-01

     End of self-consistent calculation

 ------ SPIN UP ------------

[...]

 ------ SPIN DOWN ----------

[...]

          k = 0.4105 0.4105 0.5895 (  1749 PWs)   bands (ev):

   -59.8115 -59.8113 -30.0826 -30.0812 -29.8319 -29.8297 -29.6317 -29.6314
    -5.4768  -5.3590  -5.2234  -5.1088   6.2211   6.4197   6.4553   6.6390
     7.4331   7.7671   8.9190   8.9842   9.6405   9.8858  10.7988  11.0205
    12.8065  13.1197  13.1940  13.4384  13.8293  14.3829  16.4803  17.0131
    17.7592  18.2579  23.8310  24.1491  25.7444  26.7092  26.8368  27.6382
    28.4304  28.8503  31.3043  31.4772  33.0811  33.5648  35.4761  36.0303
    37.2051  37.6157  37.8632  38.9584  41.4465  41.5732  42.1464  42.6021
    43.5507  43.9053  45.2924  46.0837  46.3665  46.8739  47.1931  48.0197
    48.0819  48.1223  49.1567  49.4539  49.9791  50.9576  51.2414  51.9655
    52.2922  52.6481  52.7971  53.9312  54.1354  55.1942  55.3918  55.7247
    57.7480

     the Fermi energy is    13.7692 ev

!    total energy              =    -515.58297865 Ry
     Harris-Foulkes estimate   =    -515.58297797 Ry
     estimated scf accuracy    <          8.2E-10 Ry

     The total energy is the sum of the following terms:

     one-electron contribution =    -159.43393916 Ry
     hartree contribution      =     113.02707367 Ry
     xc contribution           =     -78.66222377 Ry
     ewald contribution        =    -390.51306967 Ry
     smearing contrib. (-TS)   =      -0.00081972 Ry

     total magnetization       =     0.00 Bohr mag/cell
     absolute magnetization    =     0.00 Bohr mag/cell

     convergence has been achieved in  11 iterations

     Forces acting on atoms (Ry/au):

     negative rho (up, down):  0.718E-01 0.718E-01
     atom    1 type  1   force =     0.00000000    0.00000000   -0.00000000
     atom    2 type  1   force =     0.00000000    0.00000000    0.00000000
     atom    3 type  2   force =     0.00018238    0.00018238   -0.00000000
     atom    4 type  2   force =    -0.00018238   -0.00018238    0.00000000
     atom    5 type  2   force =     0.00018238   -0.00018238    0.00000000
     atom    6 type  2   force =    -0.00018238    0.00018238   -0.00000000

     Total force =     0.000516     Total SCF correction =     0.000002

     entering subroutine stress ...

     negative rho (up, down):  0.718E-01 0.718E-01
          total   stress  (Ry/bohr**3)                   (kbar)     P=  121.56
   0.00081925   0.00000000   0.00000000        120.52      0.00      0.00
   0.00000000   0.00081925   0.00000000          0.00    120.52      0.00
   0.00000000   0.00000000   0.00084055          0.00      0.00    123.65

     General routines

     Parallel routines

   This run was terminated on:  15: 1:49  24Jan2014

   JOB DONE.