     Program PWSCF v.5.0.2 (svn rev. 9656) starts on 30Apr2014 at 20:30:32

     Current dimensions of program PWSCF are:
     Max number of different atomic species (ntypx) = 10
     Max number of k-points (npk) =  40000
     Max angular momentum in pseudopotentials (lmaxx) =  3
     Reading input from pwscf.in
Warning: card &CELL ignored
Warning: card / ignored

     Subspace diagonalization in iterative solution of the eigenvalue problem:
     a serial algorithm will be used

     bravais-lattice index     =            0
     lattice parameter (alat)  =      11.7541  a.u.
     unit-cell volume          =    7139.8207 (a.u.)^3
     number of atoms/cell      =           32
     number of atomic types    =            3
     number of electrons       =       239.00
     number of Kohn-Sham states=          358
     kinetic-energy cutoff     =      40.0000  Ry
     charge density cutoff     =     500.0000  Ry
     convergence threshold     =      1.0E-06
     mixing beta               =       0.7000
     number of iterations used =            8  plain     mixing
     Exchange-correlation      = SLA  PW   PBE  PBE ( 1 4 3 4 0)
     EXX-fraction              =        0.00
     nstep                     =           50

     celldm(1)=  11.754097  celldm(2)=   0.000000  celldm(3)=   0.000000
     celldm(4)=   0.000000  celldm(5)=   0.000000  celldm(6)=   0.000000

     crystal axes: (cart. coord. in units of alat)
               a(1) = (   1.000000   0.000000   0.000000 )
               a(2) = (   0.000000   1.034513   0.000000 )
               a(3) = (   0.000000   0.000000   4.249947 )

     reciprocal axes: (cart. coord. in units 2 pi/alat)
               b(1) = (  1.000000  0.000000  0.000000 )
               b(2) = (  0.000000  0.966638  0.000000 )
               b(3) = (  0.000000  0.000000  0.235297 )

     PseudoPot. # 1 for O  read from file:
     /home/camp/zhonxu/pseudo/o_pbe_v1.01.uspp.F.UPF
     MD5 check sum: 2bcb18d16ea4b960afae9ec6d52f22d2
     Pseudo is Ultrasoft + core correction, Zval =  6.0
     Generated by new atomic code, or converted to UPF format
     Using radial grid of  737 points,  5 beta functions with:
                l(1) =   0
                l(2) =   0
                l(3) =   1
                l(4) =   1
                l(5) =   2
     Q(r) pseudized with  8 coefficients,  rinner =    0.900   0.900   0.900
                                                       0.900   0.900

     PseudoPot. # 2 for Rh read from file:
     /home/camp/zhonxu/pseudo/rh_pbe_v1.uspp.F.UPF
     MD5 check sum: 37b626987ad0dd8ec6bf4cc9ef289918
     Pseudo is Ultrasoft + core correction, Zval = 15.0
     Generated by new atomic code, or converted to UPF format
     Using radial grid of  969 points,  7 beta functions with:
                l(1) =   0
                l(2) =   0
                l(3) =   1
                l(4) =   1
                l(5) =   2
                l(6) =   2
                l(7) =   2
     Q(r) pseudized with  6 coefficients,  rinner =    1.050   1.050   1.050
                                                       1.050   1.050

     PseudoPot. # 3 for H  read from file:
     /home/camp/zhonxu/pseudo/h_pbe_v1.uspp.F.UPF
     MD5 check sum: 3408e3ff4ec8b0a4e358431e7e038a48
     Pseudo is Ultrasoft, Zval =  1.0
     Generated by new atomic code, or converted to UPF format
     Using radial grid of  615 points,  2 beta functions with:
                l(1) =   0
                l(2) =   0
     Q(r) pseudized with  8 coefficients,  rinner =    0.700

     atomic species   valence    mass     pseudopotential
        O0             6.00    15.99940     O ( 1.00)
        Rh1           15.00   102.90550     Rh( 1.00)
        H2             1.00     1.00794     H ( 1.00)

     Simplified LDA+U calculation (l_max = 2) with parameters (eV):
     atomic species    L          U    alpha       J0     beta
        Rh1            2     5.0000   0.0000   0.0000   0.0000

     No symmetry found

   Cartesian axes

     site n.     atom                  positions (alat units)
         1           O0  tau(   1) = (   0.0000000   0.0000000   1.6077125  )
         2           O0  tau(   2) = (   0.0000000   0.5172566   1.7060138  )
         3           Rh1 tau(   3) = (   0.2500000   0.5172566   1.9233561  )
         4           Rh1 tau(   4) = (   0.0000000   0.0000000   1.9242061  )
         5           O0  tau(   5) = (   0.2500000   0.8379556   1.9221236  )
         6           O0  tau(   6) = (   0.2500000   0.1965575   1.9218261  )
         7           O0  tau(   7) = (   0.0000000   0.5172566   2.1180887  )
         8           O0  tau(   8) = (   0.0000000   0.0000000   2.2452046  )
         9           Rh1 tau(   9) = (   0.2500000   0.0000000   2.4467796  )
        10           Rh1 tau(  10) = (   0.0000000   0.5172566   2.4248074  )
        11           O0  tau(  11) = (   0.2500000   0.7138141   2.4490746  )
        12           O0  tau(  12) = (   0.2500000   0.3206991   2.4494996  )
        13           O0  tau(  13) = (   0.0000000   0.0000000   2.6392597  )
        14           O0  tau(  14) = (   0.5000000   0.0000000   1.6071175  )
        15           O0  tau(  15) = (   0.5000000   0.5172566   1.7046963  )
        16           Rh1 tau(  16) = (   0.7500000   0.5172566   1.9233561  )
        17           Rh1 tau(  17) = (   0.5000000   0.0000000   1.9236961  )
        18           O0  tau(  18) = (   0.7500000   0.8379556   1.9222086  )
        19           O0  tau(  19) = (   0.7500000   0.1965575   1.9219111  )
        20           O0  tau(  20) = (   0.5000000   0.5172566   2.1234861  )
        21           O0  tau(  21) = (   0.5000000   0.0000000   2.2446521  )
        22           Rh1 tau(  22) = (   0.7500000   0.0000000   2.4466946  )
        23           Rh1 tau(  23) = (   0.5000000   0.5172566   2.4467371  )
        24           O0  tau(  24) = (   0.7500000   0.7138141   2.4449521  )
        25           O0  tau(  25) = (   0.7500000   0.3206991   2.4452921  )
        26           O0  tau(  26) = (   0.5000000   0.0000000   2.6379847  )
        27           H2  tau(  27) = (  -0.0000100   0.6596573   1.6332972  )
        28           H2  tau(  28) = (   0.4999400   0.6612505   1.6349547  )
        29           H2  tau(  29) = (   0.1484100   0.0351631   1.5627056  )
        30           H2  tau(  30) = (   0.6482100   0.0356700   1.5619406  )
        31           O0  tau(  31) = (   0.5154200   0.5168841   2.7565583  )
        32           H2  tau(  32) = (   0.3686900   0.5167083   2.8162275  )

     number of k points=    10  Methfessel-Paxton smearing, width (Ry)=  0.0100
                       cart. coord. in units 2pi/alat
        k(    1) = (   0.0000000   0.0000000   0.0000000), wk =   0.1250000
        k(    2) = (   0.0000000   0.2416596   0.0000000), wk =   0.2500000
        k(    3) = (   0.0000000  -0.4833191   0.0000000), wk =   0.1250000
        k(    4) = (   0.2500000   0.0000000   0.0000000), wk =   0.2500000
        k(    5) = (   0.2500000   0.2416596   0.0000000), wk =   0.2500000
        k(    6) = (   0.2500000  -0.4833191   0.0000000), wk =   0.2500000
        k(    7) = (  -0.5000000   0.0000000   0.0000000), wk =   0.1250000
        k(    8) = (  -0.5000000   0.2416596   0.0000000), wk =   0.2500000
        k(    9) = (  -0.5000000  -0.4833191   0.0000000), wk =   0.1250000
        k(   10) = (  -0.2500000   0.2416596   0.0000000), wk =   0.2500000

     Largest allocated arrays     est. size (Mb)     dimensions
     Largest temporary arrays     est. size (Mb)     dimensions

     Check: negative/imaginary core charge=   -0.000003    0.000000

     Initial potential from superposition of free atoms
     Check: negative starting charge=   -0.644969

     starting charge  234.99914, renormalised to  239.00000

     negative rho (up, down):  0.656E+00 0.000E+00
     Number of +U iterations with fixed ns =  0
     Starting occupations:
 --- enter write_ns ---
 LDA+U parameters:
U( 2)     =  5.00000000
alpha( 2) =  0.00000000
atom    3   Tr[ns(na)] =   7.00000
    eigenvalues:
  0.700  0.700  0.700  0.700  0.700
    eigenvectors:
  1.000  0.000  0.000  0.000  0.000
  0.000  1.000  0.000  0.000  0.000
  0.000  0.000  1.000  0.000  0.000
  0.000  0.000  0.000  1.000  0.000
  0.000  0.000  0.000  0.000  1.000
    occupations:
  0.700  0.000  0.000  0.000  0.000
  0.000  0.700  0.000  0.000  0.000
  0.000  0.000  0.700  0.000  0.000
  0.000  0.000  0.000  0.700  0.000
  0.000  0.000  0.000  0.000  0.700
atom    4   Tr[ns(na)] =   7.00000
    eigenvalues:
  0.700  0.700  0.700  0.700  0.700
    eigenvectors:
  1.000  0.000  0.000  0.000  0.000
  0.000  1.000  0.000  0.000  0.000
  0.000  0.000  1.000  0.000  0.000
  0.000  0.000  0.000  1.000  0.000
  0.000  0.000  0.000  0.000  1.000
    occupations:
  0.700  0.000  0.000  0.000  0.000
  0.000  0.700  0.000  0.000  0.000
  0.000  0.000  0.700  0.000  0.000
  0.000  0.000  0.000  0.700  0.000
  0.000  0.000  0.000  0.000  0.700
atom    9   Tr[ns(na)] =   7.00000
    eigenvalues:
  0.700  0.700  0.700  0.700  0.700
    eigenvectors:
  1.000  0.000  0.000  0.000  0.000
  0.000  1.000  0.000  0.000  0.000
  0.000  0.000  1.000  0.000  0.000
  0.000  0.000  0.000  1.000  0.000
  0.000  0.000  0.000  0.000  1.000
    occupations:
  0.700  0.000  0.000  0.000  0.000
  0.000  0.700  0.000  0.000  0.000
  0.000  0.000  0.700  0.000  0.000
  0.000  0.000  0.000  0.700  0.000
  0.000  0.000  0.000  0.000  0.700
atom   10   Tr[ns(na)] =   7.00000
    eigenvalues:
  0.700  0.700  0.700  0.700  0.700
    eigenvectors:
  1.000  0.000  0.000  0.000  0.000
  0.000  1.000  0.000  0.000  0.000
  0.000  0.000  1.000  0.000  0.000
  0.000  0.000  0.000  1.000  0.000
  0.000  0.000  0.000  0.000  1.000
    occupations:
  0.700  0.000  0.000  0.000  0.000
  0.000  0.700  0.000  0.000  0.000
  0.000  0.000  0.700  0.000  0.000
  0.000  0.000  0.000  0.700  0.000
  0.000  0.000  0.000  0.000  0.700
atom   16   Tr[ns(na)] =   7.00000
    eigenvalues:
  0.700  0.700  0.700  0.700  0.700
    eigenvectors:
  1.000  0.000  0.000  0.000  0.000
  0.000  1.000  0.000  0.000  0.000
  0.000  0.000  1.000  0.000  0.000
  0.000  0.000  0.000  1.000  0.000
  0.000  0.000  0.000  0.000  1.000
    occupations:
  0.700  0.000  0.000  0.000  0.000
  0.000  0.700  0.000  0.000  0.000
  0.000  0.000  0.700  0.000  0.000
  0.000  0.000  0.000  0.700  0.000
  0.000  0.000  0.000  0.000  0.700
atom   17   Tr[ns(na)] =   7.00000
    eigenvalues:
  0.700  0.700  0.700  0.700  0.700
    eigenvectors:
  1.000  0.000  0.000  0.000  0.000
  0.000  1.000  0.000  0.000  0.000
  0.000  0.000  1.000  0.000  0.000
  0.000  0.000  0.000  1.000  0.000
  0.000  0.000  0.000  0.000  1.000
    occupations:
  0.700  0.000  0.000  0.000  0.000
  0.000  0.700  0.000  0.000  0.000
  0.000  0.000  0.700  0.000  0.000
  0.000  0.000  0.000  0.700  0.000
  0.000  0.000  0.000  0.000  0.700
atom   22   Tr[ns(na)] =   7.00000
    eigenvalues:
  0.700  0.700  0.700  0.700  0.700
    eigenvectors:
  1.000  0.000  0.000  0.000  0.000
  0.000  1.000  0.000  0.000  0.000
  0.000  0.000  1.000  0.000  0.000
  0.000  0.000  0.000  1.000  0.000
[...]
  0.929  0.000 -0.000 -0.121 -0.000
  0.000  0.636  0.001  0.001 -0.000
 -0.000  0.001  0.871 -0.000 -0.003
 -0.121  0.001 -0.000  0.694  0.001
 -0.000 -0.000 -0.003  0.001  0.906
atom   10   Tr[ns(na)] =   8.06051
    eigenvalues:
  0.593  0.595  0.929  0.933  0.980
    eigenvectors:
  0.000  0.992  0.000  0.000  0.008
  0.000  0.000  1.000  0.000  0.000
  0.000  0.000  0.000  1.000  0.000
  0.000  0.008  0.000  0.000  0.992
  1.000  0.000  0.000  0.000  0.000
    occupations:
  0.598 -0.003  0.001  0.034 -0.000
 -0.003  0.929  0.000  0.000 -0.000
  0.001  0.000  0.933  0.000  0.003
  0.034  0.000  0.000  0.977  0.000
 -0.000 -0.000  0.003  0.000  0.593
atom   16   Tr[ns(na)] =   8.07065
    eigenvalues:
  0.581  0.603  0.908  0.965  0.979
    eigenvectors:
  0.008  0.193  0.003  0.001  0.796
  0.971  0.028  0.000  0.000  0.000
  0.000  0.000  0.971  0.027  0.002
  0.021  0.779  0.000  0.000  0.200
  0.000  0.000  0.026  0.972  0.001
    occupations:
  0.903  0.006  0.002 -0.151  0.001
  0.006  0.582  0.001  0.001 -0.006
  0.002  0.001  0.909 -0.004 -0.009
 -0.151  0.001 -0.004  0.678  0.000
  0.001 -0.006 -0.009  0.000  0.963
atom   17   Tr[ns(na)] =   8.07385
    eigenvalues:
  0.598  0.648  0.884  0.928  0.979
    eigenvectors:
  0.001  0.991  0.000  0.000  0.008
  0.000  0.000  0.085  0.914  0.000
  0.000  0.000  0.915  0.085  0.000
  0.000  0.008  0.000  0.000  0.992
  0.999  0.001  0.000  0.000  0.000
    occupations:
  0.651 -0.004 -0.001  0.029  0.001
 -0.004  0.924  0.012  0.001 -0.001
 -0.001  0.012  0.887 -0.000  0.001
  0.029  0.001 -0.000  0.977  0.000
  0.001 -0.001  0.001  0.000  0.598
atom   22   Tr[ns(na)] =   8.06793
    eigenvalues:
  0.636  0.645  0.864  0.909  0.980
    eigenvectors:
  0.000  0.151  0.000  0.000  0.849
  0.999  0.001  0.000  0.000  0.000
  0.000  0.000  0.995  0.005  0.000
  0.001  0.848  0.000  0.000  0.151
  0.000  0.000  0.005  0.995  0.000
    occupations:
  0.930  0.000 -0.000 -0.120 -0.000
  0.000  0.636  0.001 -0.001 -0.000
 -0.000  0.001  0.864 -0.000  0.003
 -0.120 -0.001 -0.000  0.695  0.001
 -0.000 -0.000  0.003  0.001  0.909
atom   23   Tr[ns(na)] =   8.06313
    eigenvalues:
  0.604  0.652  0.861  0.936  0.979
    eigenvectors:
  0.000  0.991  0.000  0.000  0.009
  0.000  0.000  0.000  0.999  0.000
  0.000  0.000  1.000  0.000  0.000
  0.000  0.008  0.000  0.000  0.991
  1.000  0.000  0.000  0.000  0.000
    occupations:
  0.655  0.006 -0.000  0.030 -0.000
  0.006  0.936 -0.000 -0.000 -0.000
 -0.000 -0.000  0.861  0.000 -0.002
  0.030 -0.000  0.000  0.976  0.000
 -0.000 -0.000 -0.002  0.000  0.604
N of occupied +U levels =  64.5518004
 --- exit write_ns ---

     Threshold (ethr) on eigenvalues was too large:
     Diagonalizing with lowered threshold

     Davidson diagonalization with overlap
     ethr =  3.52E-08,  avg # of iterations =  3.0

[...]

     total energy              =   -1979.63510586 Ry
     Harris-Foulkes estimate   =   -1979.63510588 Ry
     estimated scf accuracy    <       0.00000028 Ry

     iteration # 16     ecut=    40.00 Ry     beta=0.70
     Davidson diagonalization with overlap
     ethr =  8.82E-12,  avg # of iterations =  1.0

     negative rho (up, down):  0.691E+00 0.000E+00

     End of self-consistent calculation
 --- enter write_ns ---
 LDA+U parameters:
U( 2)     =  5.00000000
alpha( 2) =  0.00000000
atom    3   Tr[ns(na)] =   8.06985
    eigenvalues:
  0.581  0.602  0.908  0.965  0.979
    eigenvectors:
  0.007  0.194  0.003  0.001  0.796
  0.974  0.025  0.000  0.000  0.000
  0.000  0.000  0.965  0.032  0.002
  0.019  0.781  0.000  0.000  0.200
  0.000  0.000  0.032  0.967  0.001
    occupations:
  0.903 -0.006  0.002 -0.151 -0.002
 -0.006  0.581 -0.002 -0.001 -0.006
  0.002 -0.002  0.910 -0.004  0.010
 -0.151 -0.001 -0.004  0.678 -0.001
 -0.002 -0.006  0.010 -0.001  0.963
atom    4   Tr[ns(na)] =   8.07285
    eigenvalues:
  0.599  0.649  0.880  0.929  0.979
    eigenvectors:
  0.001  0.991  0.000  0.000  0.008
  0.000  0.000  0.057  0.943  0.000
  0.000  0.000  0.943  0.057  0.000
  0.000  0.008  0.000  0.000  0.992
  0.999  0.001  0.000  0.000  0.000
    occupations:
  0.652 -0.004 -0.001  0.029  0.001
 -0.004  0.926  0.011  0.001 -0.001
 -0.001  0.011  0.883 -0.000  0.001
  0.029  0.001 -0.000  0.977  0.000
  0.001 -0.001  0.001  0.000  0.599
atom    9   Tr[ns(na)] =   8.07199
    eigenvalues:
  0.636  0.643  0.871  0.906  0.980
    eigenvectors:
  0.003  0.149  0.000  0.000  0.847
  0.979  0.021  0.000  0.000  0.000
  0.000  0.000  0.993  0.007  0.000
  0.017  0.830  0.000  0.000  0.152
  0.000  0.000  0.007  0.993  0.000
    occupations:
  0.929  0.000 -0.000 -0.121 -0.000
  0.000  0.636  0.001  0.001 -0.000
 -0.000  0.001  0.872 -0.000 -0.003
 -0.121  0.001 -0.000  0.694  0.001
 -0.000 -0.000 -0.003  0.001  0.906
atom   10   Tr[ns(na)] =   8.06118
    eigenvalues:
  0.593  0.595  0.929  0.933  0.980
    eigenvectors:
  0.000  0.992  0.000  0.000  0.008
  0.000  0.000  1.000  0.000  0.000
  0.000  0.000  0.000  1.000  0.000
  0.000  0.008  0.000  0.000  0.992
  1.000  0.000  0.000  0.000  0.000
    occupations:
  0.598 -0.003  0.001  0.034 -0.000
 -0.003  0.929  0.000  0.000 -0.000
  0.001  0.000  0.933  0.000  0.003
  0.034  0.000  0.000  0.977  0.000
 -0.000 -0.000  0.003  0.000  0.593
atom   16   Tr[ns(na)] =   8.06975
    eigenvalues:
  0.581  0.603  0.908  0.965  0.979
    eigenvectors:
  0.007  0.193  0.003  0.001  0.796
  0.971  0.028  0.000  0.000  0.000
  0.000  0.000  0.971  0.026  0.002
  0.021  0.779  0.000  0.000  0.200
  0.000  0.000  0.026  0.973  0.001
    occupations:
  0.903  0.006  0.002 -0.151  0.001
  0.006  0.582  0.001  0.001 -0.006
  0.002  0.001  0.909 -0.004 -0.009
 -0.151  0.001 -0.004  0.678  0.000
  0.001 -0.006 -0.009  0.000  0.963
atom   17   Tr[ns(na)] =   8.07291
    eigenvalues:
  0.598  0.648  0.883  0.928  0.979
    eigenvectors:
  0.001  0.991  0.000  0.000  0.008
  0.000  0.000  0.085  0.915  0.000
  0.000  0.000  0.915  0.085  0.000
  0.000  0.008  0.000  0.000  0.992
  0.999  0.001  0.000  0.000  0.000
    occupations:
  0.651 -0.004 -0.001  0.029  0.002
 -0.004  0.924  0.012  0.001 -0.001
 -0.001  0.012  0.887 -0.000  0.001
  0.029  0.001 -0.000  0.977  0.000
  0.002 -0.001  0.001  0.000  0.598
atom   22   Tr[ns(na)] =   8.06863
    eigenvalues:
  0.636  0.645  0.864  0.909  0.980
    eigenvectors:
  0.000  0.151  0.000  0.000  0.849
  0.999  0.001  0.000  0.000  0.000
  0.000  0.000  0.995  0.005  0.000
  0.001  0.848  0.000  0.000  0.151
  0.000  0.000  0.005  0.995  0.000
    occupations:
  0.930  0.000 -0.000 -0.120 -0.000
  0.000  0.636  0.001 -0.001 -0.000
 -0.000  0.001  0.864 -0.000  0.003
 -0.120 -0.001 -0.000  0.695  0.001
 -0.000 -0.000  0.003  0.001  0.909
atom   23   Tr[ns(na)] =   8.06443
    eigenvalues:
  0.604  0.652  0.861  0.936  0.979
    eigenvectors:
  0.000  0.991  0.000  0.000  0.009
  0.000  0.000  0.000  0.999  0.000
  0.000  0.000  1.000  0.000  0.000
  0.000  0.008  0.000  0.000  0.991
  1.000  0.000  0.000  0.000  0.000
    occupations:
  0.655  0.006 -0.000  0.030 -0.000
  0.006  0.936 -0.000 -0.000 -0.000
 -0.000 -0.000  0.861  0.000 -0.002
  0.030 -0.000  0.000  0.976  0.000
 -0.000 -0.000 -0.002  0.000  0.604
N of occupied +U levels =  64.5515871
 --- exit write_ns ---

[...]

          k = 0.2500-0.4833 0.0000 ( 30510 PWs)   bands (ev):

[...]

          k =-0.2500 0.2417 0.0000 ( 30481 PWs)   bands (ev):

   -48.7950 -48.7494 -48.7054 -48.6813 -48.6796 -48.6764 -48.6680 -48.6416
   -48.6151 -48.5990 -48.5885 -48.5789 -48.4973 -48.4940 -48.4671 -48.3653
   -48.3590 -48.3493 -48.3438 -48.3050 -48.2784 -48.2649 -48.2647 -48.2455
   -21.3053 -21.0252 -20.9457 -20.8303 -20.5324 -20.4397 -20.4045 -20.3609
   -20.3081 -20.1898 -20.0991 -20.0732 -20.0326 -20.0210 -19.8458 -19.8092
   -19.7988 -19.0831 -18.9438 -10.0434  -9.9910  -9.8367  -9.6130  -9.4039
    -9.2819  -9.2413  -9.1858  -8.8640  -8.7391  -8.7148  -8.6103  -8.5494
    -8.5165  -8.3581  -8.2104  -8.0715  -8.0573  -7.8098  -7.6592  -7.5009
    -7.4512  -7.3628  -7.2301  -7.1573  -7.0528  -6.9946  -6.8563  -6.6520
    -6.6120  -6.5583  -6.5218  -6.4186  -6.3664  -6.3148  -6.1710  -6.1099
    -6.0470  -5.9976  -5.9135  -5.8381  -5.7247  -5.5024  -5.3285  -5.1383
    -5.0648  -4.9626  -4.8342  -4.7269  -4.6999  -4.5592  -4.3777  -4.3440
    -4.2446  -4.1937  -4.0894  -4.0137  -3.8625  -3.7729  -3.6424  -3.6111
    -3.5460  -3.4475  -3.3904  -3.3515  -3.3088  -3.2833  -3.1739  -3.1049
    -3.0670  -2.9462  -2.6250  -2.4284  -2.3369  -2.1578  -2.0246  -1.9875
    -1.9621  -1.7786  -1.6780  -1.5827  -0.7852  -0.2291  -0.1490   0.1442
     0.4245   0.6787   0.9463   1.1571   1.4330   1.5000   1.6605   1.7076
     1.8188   1.9145   1.9960   2.3407   3.6931   3.8807   4.5703   4.9603
     5.3549   5.5123   5.5633   5.8623   6.1269   6.3393   6.4551   6.4741
     6.5278   6.7679   6.8673   7.0720   7.2601   7.4440   7.5540   7.7066
     7.8809   7.9831   8.0760   8.1777   8.2613   8.3252   8.4513   8.5579
     8.7269   8.8549   8.9446   8.9965   9.1046   9.2440   9.4558   9.5835
     9.6446   9.7385   9.8216   9.9110   9.9556  10.0062  10.1908  10.2245
    10.3423  10.3661  10.4425  10.5972  10.6986  10.7388  10.8448  10.9575
    11.0505  11.1015  11.2191  11.2497  11.3571  11.4325  11.5022  11.5479
    11.5957  11.6989  11.7965  11.8533  11.9040  12.0281  12.1714  12.1992
    12.2509  12.2928  12.3902  12.4649  12.5026  12.5415  12.6445  12.7008
    12.7848  12.8343  12.9272  13.0024  13.1416  13.1872  13.2628  13.2932
    13.4068  13.4804  13.5424  13.5810  13.7528  13.7962  13.8700  13.9515
    14.0465  14.0696  14.1782  14.2533  14.2979  14.3370  14.4189  14.4777
    14.6043  14.6861  14.7244  14.8224  14.9934  15.0718  15.2167  15.3386
    15.3706  15.4074  15.4950  15.5421  15.5900  15.6106  15.7010  15.7842
    15.8159  15.8612  15.9121  16.0334  16.0924  16.1475  16.1868  16.3168
    16.3818  16.4237  16.4753  16.5050  16.5453  16.5870  16.6435  16.7381
    16.7985  16.8887  16.9531  17.0347  17.0899  17.1968  17.2304  17.2549
    17.3573  17.3994  17.4651  17.5223  17.5872  17.6555  17.7414  17.8299
    17.8873  17.9564  18.0236  18.0766  18.0996  18.2273  18.2914  18.3271
    18.4473  18.5244  18.5983  18.6660  18.7440  18.8210  18.8696  18.9304
    18.9776  19.0376  19.1383  19.1600  19.2607  19.2866  19.3560  19.4706
    19.5345  19.6272  19.6627  19.7657  19.7971  19.9102  19.9598  20.0526
    20.1724  20.2216  20.3191  20.3914  20.4948  20.5459  20.6145  20.6638
    20.7425  20.7912  20.8560  20.9239  20.9650  21.0807  21.1646  21.1897
    21.2392  21.2845  21.3383  21.3979  21.4585  21.4924  21.5579  21.6642
    21.7179  21.7857  21.8199  21.8601  21.9560  21.9902  22.0768  22.1275
    22.2335  22.2734  22.3740  22.4126  22.5034  22.5827

     the Fermi energy is    -2.0211 ev

!    total energy              =   -1979.63510587 Ry
     Harris-Foulkes estimate   =   -1979.63510587 Ry
     estimated scf accuracy    <          4.6E-09 Ry

     The total energy is the sum of the following terms:

     one-electron contribution =  -23368.42537999 Ry
     hartree contribution      =   11734.55379055 Ry
     xc contribution           =    -373.03133377 Ry
     ewald contribution        =   10025.35299154 Ry
     Hubbard energy            =       1.91654252 Ry
     smearing contrib. (-TS)   =      -0.00171672 Ry

     convergence has been achieved in  16 iterations

     Forces acting on atoms (Ry/au):

     negative rho (up, down):  0.691E+00 0.000E+00
     atom    1 type  1   force =    -0.00675918   -0.01223633    0.00013047
     atom    2 type  1   force =     0.00030855    0.00308310   -0.00048679
     atom    3 type  2   force =     0.03000495    0.00813512    0.00025534
     atom    4 type  2   force =     0.00814700    0.00878863   -0.00001026
     atom    5 type  1   force =    -0.00368642   -0.02825278   -0.00009237
     atom    6 type  1   force =     0.00305694    0.02466713    0.00001359
     atom    7 type  1   force =     0.00199631   -0.00180985   -0.00017460
     atom    8 type  1   force =    -0.00158570   -0.00094071   -0.00028145
     atom    9 type  2   force =     0.00368653   -0.00012339   -0.00002859
     atom   10 type  2   force =    -0.00620663   -0.00142895    0.00002313
     atom   11 type  1   force =    -0.00867230    0.01464213    0.00016922
     atom   12 type  1   force =    -0.00890217   -0.01454377    0.00014249
     atom   13 type  1   force =    -0.00120387   -0.00003311   -0.00016672
     atom   14 type  1   force =    -0.00668787   -0.01248442    0.00014278
     atom   15 type  1   force =     0.00025683    0.00331935   -0.00038009
     atom   16 type  2   force =    -0.03101166    0.00666392    0.00025147
     atom   17 type  2   force =     0.00823117    0.00891273    0.00012282
     atom   18 type  1   force =    -0.00163890   -0.02800077   -0.00007386
     atom   19 type  1   force =     0.00463978    0.02555778    0.00001468
     atom   20 type  1   force =    -0.00169892   -0.00515784    0.00043481
     atom   21 type  1   force =    -0.00397722   -0.00058055   -0.00027996
     atom   22 type  2   force =    -0.00052387    0.00063378   -0.00008960
     atom   23 type  2   force =     0.00267287    0.00046303    0.00025923
     atom   24 type  1   force =     0.00930280    0.01973570   -0.00006798
     atom   25 type  1   force =     0.01035383   -0.02003505   -0.00008981
     atom   26 type  1   force =    -0.00072025   -0.00017440    0.00011843
     atom   27 type  3   force =     0.00000223    0.00048941    0.00010840
     atom   28 type  3   force =     0.00001633    0.00050585    0.00026637
     atom   29 type  3   force =    -0.00007816    0.00012669    0.00004103
     atom   30 type  3   force =    -0.00014842    0.00026582   -0.00007826
     atom   31 type  1   force =     0.00068857   -0.00010627   -0.00023696
     atom   32 type  3   force =     0.00013681   -0.00008198    0.00004304

     Total force =     0.001550     Total SCF correction =     0.000272
     SCF correction compared to forces is large: reduce conv_thr to get better values

     bfgs converged in  10 scf cycles and   9 bfgs steps
     (criteria: energy < 0.10E-03, force < 0.10E-02)

     End of BFGS Geometry Optimization

     Final energy   =   -1979.6351058674 Ry
Begin final coordinates

ATOMIC_POSITIONS (crystal)
O0       0.000000000   0.000000000   0.378500812    0   0   1
O0       0.000000000   0.500000000   0.402135497    0   0   1
Rh1      0.250000000   0.500000000   0.452779654    0   0   1
Rh1      0.000000000   0.000000000   0.452758662    0   0   1
O0       0.250000000   0.810000000   0.452449728    0   0   1
O0       0.250000000   0.190000000   0.452236476    0   0   1
O0       0.000000000   0.500000000   0.499250177    0   0   1
O0       0.000000000   0.000000000   0.528135004    0   0   1
Rh1      0.250000000   0.000000000   0.575423227    0   0   1
Rh1      0.000000000   0.500000000   0.570800965    0   0   1
O0       0.250000000   0.690000000   0.575819714    0   0   1
O0       0.250000000   0.310000000   0.575887170    0   0   1
O0       0.000000000   0.000000000   0.620810882    0   0   1
O0       0.500000000   0.000000000   0.378212642    0   0   1
O0       0.500000000   0.500000000   0.401675454    0   0   1
Rh1      0.750000000   0.500000000   0.452775264    0   0   1
Rh1      0.500000000   0.000000000   0.452447410    0   0   1
O0       0.750000000   0.810000000   0.452453297    0   0   1
O0       0.750000000   0.190000000   0.452245126    0   0   1
O0       0.500000000   0.500000000   0.500138144    0   0   1
O0       0.500000000   0.000000000   0.528020019    0   0   1
Rh1      0.750000000   0.000000000   0.575358292    0   0   1
Rh1      0.500000000   0.500000000   0.575213266    0   0   1
O0       0.750000000   0.690000000   0.574783860    0   0   1
O0       0.750000000   0.310000000   0.574845597    0   0   1
O0       0.500000000   0.000000000   0.620637121    0   0   1
H2      -0.000179761   0.636129260   0.384538540
H2       0.499807324   0.638194250   0.385008743
H2       0.148186250   0.034449824   0.367792601
H2       0.648015075   0.035341846   0.367555355
O0       0.516677844   0.499298749   0.648008711
H2       0.370599642   0.499316777   0.662422589
End final coordinates

     General routines

     Parallel routines
     Hubbard U routines

   This run was terminated on:  10: 9:42   1May2014

   JOB DONE.
Running PBS batch system epilogue script
Job id: 340562.audhumbla.fysik.dtu.dk
Username: zhonxu
Groupname: campgst
Jobname: RhO2/Eads-2-layers/OH-U-5.0
Sessionid: 25406
Queuename: verylong
Accounting:
This job has allocated the following 16 nodes:
d019 d019 d019 d019 d019 d019 d019 d019 d001 d001 d001 d001 d001 d001 d001 d001
Finished epilogue job 340562.audhumbla.fysik.dtu.dk for zhonxu