     Program PWSCF v.5.0.2 (svn rev. 9656) starts on  1Jun2014 at  5:54:23

     Current dimensions of program PWSCF are:
     Max number of different atomic species (ntypx) = 10
     Max number of k-points (npk) =  40000
     Max angular momentum in pseudopotentials (lmaxx) =  3
     Reading input from pwscf.in
Warning: card &CELL ignored
Warning: card / ignored

     Subspace diagonalization in iterative solution of the eigenvalue problem:
     a serial algorithm will be used

     bravais-lattice index     =            0
     lattice parameter (alat)  =      11.1872  a.u.
     unit-cell volume          =    7531.8600 (a.u.)^3
     number of atoms/cell      =           33
     number of atomic types    =            3
     number of electrons       =       229.00
     number of Kohn-Sham states=          343
     kinetic-energy cutoff     =      40.0000  Ry
     charge density cutoff     =     500.0000  Ry
     convergence threshold     =      1.0E-06
     mixing beta               =       0.7000
     number of iterations used =            8  plain     mixing
     Exchange-correlation      = SLA  PW   PBE  PBE ( 1 4 3 4 0)
     EXX-fraction              =        0.00
     nstep                     =           50

     celldm(1)=  11.187179  celldm(2)=   0.000000  celldm(3)=   0.000000
     celldm(4)=   0.000000  celldm(5)=   0.000000  celldm(6)=   0.000000

     crystal axes: (cart. coord. in units of alat)
               a(1) = (   1.000000   0.000000   0.000000 )
               a(2) = (   0.000000   1.180104   0.000000 )
               a(3) = (   0.000000   0.000000   4.558482 )

     reciprocal axes: (cart. coord. in units 2 pi/alat)
               b(1) = (  1.000000  0.000000  0.000000 )
               b(2) = (  0.000000  0.847383  0.000000 )
               b(3) = (  0.000000  0.000000  0.219371 )

     PseudoPot. # 1 for O  read from file:
     /home/camp/zhonxu/pseudo/o_pbe_v1.01.uspp.F.UPF
     MD5 check sum: 2bcb18d16ea4b960afae9ec6d52f22d2
     Pseudo is Ultrasoft + core correction, Zval =  6.0
     Generated by new atomic code, or converted to UPF format
     Using radial grid of  737 points,  5 beta functions with:
                l(1) =   0
                l(2) =   0
                l(3) =   1
                l(4) =   1
                l(5) =   2
     Q(r) pseudized with  8 coefficients,  rinner =    0.900   0.900   0.900
                                                       0.900   0.900

     PseudoPot. # 2 for Nb read from file:
     /home/camp/zhonxu/pseudo/nb_pbe_v1.uspp.F.UPF
     MD5 check sum: 573aab8a2fa660278ed4a62cd769473f
     Pseudo is Ultrasoft + core correction, Zval = 13.0
     Generated by new atomic code, or converted to UPF format
     Using radial grid of  887 points,  6 beta functions with:
                l(1) =   0
                l(2) =   0
                l(3) =   1
                l(4) =   1
                l(5) =   2
                l(6) =   2
     Q(r) pseudized with  6 coefficients,  rinner =    1.000   1.000   1.000
                                                       1.000   1.000

     PseudoPot. # 3 for H  read from file:
     /home/camp/zhonxu/pseudo/h_pbe_v1.uspp.F.UPF
     MD5 check sum: 3408e3ff4ec8b0a4e358431e7e038a48
     Pseudo is Ultrasoft, Zval =  1.0
     Generated by new atomic code, or converted to UPF format
     Using radial grid of  615 points,  2 beta functions with:
                l(1) =   0
                l(2) =   0
     Q(r) pseudized with  8 coefficients,  rinner =    0.700

     atomic species   valence    mass     pseudopotential
        O0             6.00    15.99940     O ( 1.00)
        Nb1           13.00    92.90640     Nb( 1.00)
        H2             1.00     1.00794     H ( 1.00)

     Simplified LDA+U calculation (l_max = 2) with parameters (eV):
     atomic species    L          U    alpha       J0     beta
        Nb1            2     1.0000   0.0000   0.0000   0.0000

     No symmetry found

   Cartesian axes

     site n.     atom                  positions (alat units)
         1           O0  tau(   1) = (   0.0000000   0.0000000   1.6962113  )
         2           O0  tau(   2) = (   0.0000000   0.5900519   1.7723835  )
         3           Nb1 tau(   3) = (   0.2500000   0.5900519   2.0257895  )
         4           Nb1 tau(   4) = (   0.0000000   0.0000000   2.0274306  )
         5           O0  tau(   5) = (   0.2500000   0.9322821   2.0383253  )
         6           O0  tau(   6) = (   0.2500000   0.2478218   2.0381886  )
         7           O0  tau(   7) = (   0.0000000   0.5900519   2.2790132  )
         8           O0  tau(   8) = (   0.0000000   0.0000000   2.3853170  )
         9           Nb1 tau(   9) = (   0.2500000   0.0000000   2.6318397  )
        10           Nb1 tau(  10) = (   0.0000000   0.5900519   2.5956910  )
        11           O0  tau(  11) = (   0.2500000   0.8378738   2.6232242  )
        12           O0  tau(  12) = (   0.2500000   0.3422301   2.6255034  )
        13           O0  tau(  13) = (   0.0000000   0.0000000   2.8344187  )
        14           O0  tau(  14) = (   0.5000000   0.0000000   1.6974420  )
        15           O0  tau(  15) = (   0.5000000   0.5900519   1.7789021  )
        16           Nb1 tau(  16) = (   0.7500000   0.5900519   2.0259719  )
        17           Nb1 tau(  17) = (   0.5000000   0.0000000   2.0298010  )
        18           O0  tau(  18) = (   0.7500000   0.9322821   2.0382798  )
        19           O0  tau(  19) = (   0.7500000   0.2478218   2.0381886  )
        20           O0  tau(  20) = (   0.5000000   0.5900519   2.2737254  )
        21           O0  tau(  21) = (   0.5000000   0.0000000   2.3845421  )
        22           Nb1 tau(  22) = (   0.7500000   0.0000000   2.6318397  )
        23           Nb1 tau(  23) = (   0.5000000   0.5900519   2.6269166  )
        24           O0  tau(  24) = (   0.7500000   0.8378738   2.6231786  )
        25           O0  tau(  25) = (   0.7500000   0.3422301   2.6254579  )
        26           O0  tau(  26) = (   0.5000000   0.0000000   2.8332335  )
        27           H2  tau(  27) = (  -0.0005200   0.5958463   1.6070929  )
        28           H2  tau(  28) = (   0.4994400   0.5914445   1.6138395  )
        29           H2  tau(  29) = (   0.1507700   0.0008261   1.6243240  )
        30           H2  tau(  30) = (   0.6503900   0.0006019   1.6249166  )
        31           O0  tau(  31) = (   0.5000000   0.6010623   2.9587285  )
        32           O0  tau(  32) = (   0.5000000   0.4103103   3.1155403  )
        33           H2  tau(  33) = (   0.5000000   0.4955964   3.2584031  )

     number of k points=    10  Methfessel-Paxton smearing, width (Ry)=  0.0100
                       cart. coord. in units 2pi/alat
        k(    1) = (   0.0000000   0.0000000   0.0000000), wk =   0.1250000
        k(    2) = (   0.0000000   0.2118458   0.0000000), wk =   0.2500000
        k(    3) = (   0.0000000  -0.4236915   0.0000000), wk =   0.1250000
        k(    4) = (   0.2500000   0.0000000   0.0000000), wk =   0.2500000
        k(    5) = (   0.2500000   0.2118458   0.0000000), wk =   0.2500000
        k(    6) = (   0.2500000  -0.4236915   0.0000000), wk =   0.2500000
        k(    7) = (  -0.5000000   0.0000000   0.0000000), wk =   0.1250000
        k(    8) = (  -0.5000000   0.2118458   0.0000000), wk =   0.2500000
        k(    9) = (  -0.5000000  -0.4236915   0.0000000), wk =   0.1250000
        k(   10) = (  -0.2500000   0.2118458   0.0000000), wk =   0.2500000

     Largest allocated arrays     est. size (Mb)     dimensions
     Largest temporary arrays     est. size (Mb)     dimensions

     Check: negative/imaginary core charge=   -0.000003    0.000000

     Initial potential from superposition of free atoms
     Check: negative starting charge=   -0.003307

     starting charge  228.97806, renormalised to  229.00000

     negative rho (up, down):  0.331E-02 0.000E+00
     Number of +U iterations with fixed ns =  0
     Starting occupations:
 --- enter write_ns ---
 LDA+U parameters:
U( 2)     =  1.00000000
alpha( 2) =  0.00000000
atom    3   Tr[ns(na)] =   3.00000
    eigenvalues:
  0.300  0.300  0.300  0.300  0.300
    eigenvectors:
  1.000  0.000  0.000  0.000  0.000
  0.000  1.000  0.000  0.000  0.000
  0.000  0.000  1.000  0.000  0.000
  0.000  0.000  0.000  1.000  0.000
  0.000  0.000  0.000  0.000  1.000
    occupations:
  0.300  0.000  0.000  0.000  0.000
  0.000  0.300  0.000  0.000  0.000
  0.000  0.000  0.300  0.000  0.000
  0.000  0.000  0.000  0.300  0.000
  0.000  0.000  0.000  0.000  0.300
atom    4   Tr[ns(na)] =   3.00000
    eigenvalues:
  0.300  0.300  0.300  0.300  0.300
    eigenvectors:
  1.000  0.000  0.000  0.000  0.000
  0.000  1.000  0.000  0.000  0.000
  0.000  0.000  1.000  0.000  0.000
  0.000  0.000  0.000  1.000  0.000
  0.000  0.000  0.000  0.000  1.000
    occupations:
  0.300  0.000  0.000  0.000  0.000
  0.000  0.300  0.000  0.000  0.000
  0.000  0.000  0.300  0.000  0.000
  0.000  0.000  0.000  0.300  0.000
  0.000  0.000  0.000  0.000  0.300
atom    9   Tr[ns(na)] =   3.00000
    eigenvalues:
  0.300  0.300  0.300  0.300  0.300
    eigenvectors:
  1.000  0.000  0.000  0.000  0.000
  0.000  1.000  0.000  0.000  0.000
  0.000  0.000  1.000  0.000  0.000
  0.000  0.000  0.000  1.000  0.000
  0.000  0.000  0.000  0.000  1.000
    occupations:
  0.300  0.000  0.000  0.000  0.000
  0.000  0.300  0.000  0.000  0.000
  0.000  0.000  0.300  0.000  0.000
  0.000  0.000  0.000  0.300  0.000
  0.000  0.000  0.000  0.000  0.300
atom   10   Tr[ns(na)] =   3.00000
    eigenvalues:
  0.300  0.300  0.300  0.300  0.300
    eigenvectors:
  1.000  0.000  0.000  0.000  0.000
  0.000  1.000  0.000  0.000  0.000
  0.000  0.000  1.000  0.000  0.000
  0.000  0.000  0.000  1.000  0.000
  0.000  0.000  0.000  0.000  1.000
    occupations:
  0.300  0.000  0.000  0.000  0.000
  0.000  0.300  0.000  0.000  0.000
  0.000  0.000  0.300  0.000  0.000
  0.000  0.000  0.000  0.300  0.000
  0.000  0.000  0.000  0.000  0.300
atom   16   Tr[ns(na)] =   3.00000
    eigenvalues:
  0.300  0.300  0.300  0.300  0.300
    eigenvectors:
  1.000  0.000  0.000  0.000  0.000
  0.000  1.000  0.000  0.000  0.000
  0.000  0.000  1.000  0.000  0.000
  0.000  0.000  0.000  1.000  0.000
  0.000  0.000  0.000  0.000  1.000
    occupations:
  0.300  0.000  0.000  0.000  0.000
  0.000  0.300  0.000  0.000  0.000
  0.000  0.000  0.300  0.000  0.000
  0.000  0.000  0.000  0.300  0.000
  0.000  0.000  0.000  0.000  0.300
atom   17   Tr[ns(na)] =   3.00000
    eigenvalues:
  0.300  0.300  0.300  0.300  0.300
    eigenvectors:
  1.000  0.000  0.000  0.000  0.000
  0.000  1.000  0.000  0.000  0.000
  0.000  0.000  1.000  0.000  0.000
  0.000  0.000  0.000  1.000  0.000
  0.000  0.000  0.000  0.000  1.000
    occupations:
  0.300  0.000  0.000  0.000  0.000
  0.000  0.300  0.000  0.000  0.000
  0.000  0.000  0.300  0.000  0.000
  0.000  0.000  0.000  0.300  0.000
  0.000  0.000  0.000  0.000  0.300
atom   22   Tr[ns(na)] =   3.00000
    eigenvalues:
  0.300  0.300  0.300  0.300  0.300
    eigenvectors:
  1.000  0.000  0.000  0.000  0.000
  0.000  1.000  0.000  0.000  0.000
  0.000  0.000  1.000  0.000  0.000
[...]
  0.000  0.000  0.002  0.000  0.998
  0.000  0.000  0.000  1.000  0.000
    occupations:
  0.508  0.000 -0.000  0.005 -0.000
  0.000  0.470 -0.000 -0.000  0.001
 -0.000 -0.000  0.418  0.000  0.000
  0.005 -0.000  0.000  0.622  0.000
 -0.000  0.001  0.000  0.000  0.544
atom   16   Tr[ns(na)] =   5.23796
    eigenvalues:
  0.425  0.441  0.522  0.571  0.661
    eigenvectors:
  0.000  0.000  0.004  0.457  0.539
  0.000  0.000  0.992  0.008  0.000
  0.041  0.959  0.000  0.000  0.000
  0.000  0.000  0.003  0.535  0.461
  0.959  0.041  0.000  0.000  0.000
    occupations:
  0.619  0.004  0.003 -0.045  0.002
  0.004  0.522  0.000  0.002 -0.000
  0.003  0.000  0.440 -0.002 -0.003
 -0.045  0.002 -0.002  0.612 -0.002
  0.002 -0.000 -0.003 -0.002  0.425
atom   17   Tr[ns(na)] =   5.24164
    eigenvalues:
  0.420  0.456  0.548  0.579  0.617
    eigenvectors:
  0.000  0.005  0.000  0.994  0.001
  0.000  0.994  0.000  0.005  0.001
  1.000  0.000  0.000  0.000  0.000
  0.000  0.001  0.000  0.001  0.998
  0.000  0.000  1.000  0.000  0.000
    occupations:
  0.579  0.008 -0.000  0.002  0.000
  0.008  0.457 -0.000 -0.005 -0.000
 -0.000 -0.000  0.420  0.001  0.001
  0.002 -0.005  0.001  0.617  0.000
  0.000 -0.000  0.001  0.000  0.548
atom   22   Tr[ns(na)] =   5.28402
    eigenvalues:
  0.461  0.471  0.498  0.603  0.608
    eigenvectors:
  0.879  0.000  0.000  0.119  0.002
  0.000  0.000  0.000  0.018  0.982
  0.000  0.095  0.905  0.000  0.000
  0.121  0.000  0.000  0.863  0.016
  0.000  0.904  0.095  0.000  0.000
    occupations:
  0.478  0.000  0.000  0.046 -0.000
  0.000  0.608 -0.000  0.001  0.000
  0.000 -0.000  0.495  0.000 -0.008
  0.046  0.001  0.000  0.586  0.000
 -0.000  0.000 -0.008  0.000  0.474
atom   23   Tr[ns(na)] =   5.25825
    eigenvalues:
  0.417  0.482  0.547  0.578  0.606
    eigenvectors:
  0.003  0.000  0.000  0.986  0.011
  0.000  0.996  0.004  0.000  0.000
  0.997  0.000  0.000  0.003  0.000
  0.000  0.000  0.000  0.011  0.989
  0.000  0.004  0.996  0.000  0.000
    occupations:
  0.577  0.000  0.009  0.003 -0.000
  0.000  0.482 -0.000 -0.000 -0.004
  0.009 -0.000  0.417  0.003  0.000
  0.003 -0.000  0.003  0.605  0.000
 -0.000 -0.004  0.000  0.000  0.547
N of occupied +U levels =  41.9141562
 --- exit write_ns ---

     Threshold (ethr) on eigenvalues was too large:
     Diagonalizing with lowered threshold

     Davidson diagonalization with overlap
     ethr =  2.72E-09,  avg # of iterations =  3.0

[...]

     total energy              =   -1595.00570573 Ry
     Harris-Foulkes estimate   =   -1595.00570574 Ry
     estimated scf accuracy    <       0.00000005 Ry

     iteration # 10     ecut=    40.00 Ry     beta=0.70
     Davidson diagonalization with overlap
     ethr =  2.10E-11,  avg # of iterations =  1.0

     negative rho (up, down):  0.332E-02 0.000E+00

     End of self-consistent calculation
 --- enter write_ns ---
 LDA+U parameters:
U( 2)     =  1.00000000
alpha( 2) =  0.00000000
atom    3   Tr[ns(na)] =   5.23746
    eigenvalues:
  0.424  0.440  0.522  0.571  0.662
    eigenvectors:
  0.000  0.000  0.004  0.456  0.539
  0.000  0.000  0.993  0.007  0.000
  0.048  0.952  0.000  0.000  0.000
  0.000  0.000  0.003  0.537  0.460
  0.952  0.048  0.000  0.000  0.000
    occupations:
  0.620 -0.004  0.003 -0.045 -0.002
 -0.004  0.522 -0.000 -0.002 -0.000
  0.003 -0.000  0.440 -0.002 -0.004
 -0.045 -0.002 -0.002  0.613  0.002
 -0.002 -0.000 -0.004  0.002  0.425
atom    4   Tr[ns(na)] =   5.24535
    eigenvalues:
  0.417  0.451  0.548  0.578  0.628
    eigenvectors:
  0.000  0.005  0.000  0.995  0.001
  0.000  0.995  0.000  0.005  0.001
  1.000  0.000  0.000  0.000  0.000
  0.000  0.001  0.000  0.000  0.999
  0.000  0.000  1.000  0.000  0.000
    occupations:
  0.578  0.009 -0.000  0.001 -0.000
  0.009  0.452 -0.000 -0.005  0.000
 -0.000 -0.000  0.417 -0.000  0.001
  0.001 -0.005 -0.000  0.628  0.000
 -0.000  0.000  0.001  0.000  0.548
atom    9   Tr[ns(na)] =   5.28426
    eigenvalues:
  0.461  0.471  0.498  0.603  0.608
    eigenvectors:
  0.879  0.000  0.000  0.118  0.003
  0.000  0.000  0.000  0.022  0.978
  0.000  0.093  0.907  0.000  0.000
  0.121  0.000  0.000  0.860  0.019
  0.000  0.906  0.093  0.000  0.000
    occupations:
  0.478 -0.000  0.000  0.046  0.000
 -0.000  0.608  0.000 -0.001  0.000
  0.000  0.000  0.496 -0.000  0.008
  0.046 -0.001 -0.000  0.586 -0.000
  0.000  0.000  0.008 -0.000  0.474
atom   10   Tr[ns(na)] =   5.12477
    eigenvalues:
  0.418  0.470  0.508  0.544  0.622
    eigenvectors:
  0.000  0.000  0.998  0.000  0.002
  0.000  1.000  0.000  0.000  0.000
  1.000  0.000  0.000  0.000  0.000
  0.000  0.000  0.002  0.000  0.998
  0.000  0.000  0.000  1.000  0.000
    occupations:
  0.508  0.000 -0.000  0.005 -0.000
  0.000  0.470 -0.000 -0.000  0.001
 -0.000 -0.000  0.418  0.000  0.000
  0.005 -0.000  0.000  0.622  0.000
 -0.000  0.001  0.000  0.000  0.544
atom   16   Tr[ns(na)] =   5.23786
    eigenvalues:
  0.425  0.441  0.522  0.571  0.661
    eigenvectors:
  0.000  0.000  0.004  0.457  0.539
  0.000  0.000  0.992  0.008  0.000
  0.040  0.960  0.000  0.000  0.000
  0.000  0.000  0.003  0.536  0.461
  0.960  0.040  0.000  0.000  0.000
    occupations:
  0.619  0.004  0.003 -0.045  0.002
  0.004  0.522  0.000  0.002 -0.000
  0.003  0.000  0.440 -0.002 -0.003
 -0.045  0.002 -0.002  0.612 -0.002
  0.002 -0.000 -0.003 -0.002  0.425
atom   17   Tr[ns(na)] =   5.24202
    eigenvalues:
  0.420  0.456  0.548  0.579  0.617
    eigenvectors:
  0.000  0.005  0.000  0.994  0.001
  0.000  0.994  0.000  0.005  0.001
  1.000  0.000  0.000  0.000  0.000
  0.000  0.001  0.000  0.001  0.998
  0.000  0.000  1.000  0.000  0.000
    occupations:
  0.579  0.008 -0.000  0.002  0.000
  0.008  0.457 -0.000 -0.005 -0.000
 -0.000 -0.000  0.420  0.001  0.001
  0.002 -0.005  0.001  0.617  0.000
  0.000 -0.000  0.001  0.000  0.548
atom   22   Tr[ns(na)] =   5.28419
    eigenvalues:
  0.461  0.471  0.498  0.603  0.608
    eigenvectors:
  0.879  0.000  0.000  0.119  0.002
  0.000  0.000  0.000  0.018  0.982
  0.000  0.095  0.905  0.000  0.000
  0.121  0.000  0.000  0.863  0.016
  0.000  0.905  0.095  0.000  0.000
    occupations:
  0.478  0.000  0.000  0.046 -0.000
  0.000  0.608 -0.000  0.001  0.000
  0.000 -0.000  0.495  0.000 -0.008
  0.046  0.001  0.000  0.586  0.000
 -0.000  0.000 -0.008  0.000  0.474
atom   23   Tr[ns(na)] =   5.25835
    eigenvalues:
  0.417  0.482  0.547  0.578  0.606
    eigenvectors:
  0.003  0.000  0.000  0.986  0.011
  0.000  0.996  0.004  0.000  0.000
  0.997  0.000  0.000  0.003  0.000
  0.000  0.000  0.000  0.011  0.989
  0.000  0.004  0.996  0.000  0.000
    occupations:
  0.577  0.000  0.009  0.003 -0.000
  0.000  0.482 -0.000 -0.000 -0.004
  0.009 -0.000  0.417  0.003  0.000
  0.003 -0.000  0.003  0.605  0.000
 -0.000 -0.004  0.000  0.000  0.547
N of occupied +U levels =  41.9142581
 --- exit write_ns ---

[...]

          k = 0.2500-0.4237 0.0000 ( 32188 PWs)   bands (ev):

[...]

          k =-0.2500 0.2118 0.0000 ( 32165 PWs)   bands (ev):

   -56.0299 -55.9657 -55.6141 -55.5635 -55.5576 -55.5558 -55.5071 -55.4446
   -32.8386 -32.2329 -32.1339 -32.1193 -32.0900 -32.0855 -32.0624 -32.0190
   -31.9879 -31.9266 -31.9214 -31.9106 -31.8609 -31.8296 -31.7683 -31.6346
   -31.5827 -31.5514 -31.5062 -31.4601 -31.4402 -31.4075 -31.3862 -31.3496
   -22.3674 -20.3150 -19.9443 -19.1333 -18.8478 -18.7606 -18.6425 -18.5888
   -18.5128 -18.5036 -18.4622 -18.4260 -17.9888 -17.8813 -17.8603 -17.7852
   -17.7773 -17.6598 -17.5170 -16.1816  -8.7485  -8.2900  -7.7883  -7.3674
    -6.7956  -6.6006  -6.5152  -6.4078  -6.2981  -6.2785  -6.1254  -6.0639
    -5.9486  -5.9410  -5.7906  -5.7048  -5.6384  -5.6160  -5.4074  -5.3877
    -5.3407  -5.2582  -5.0597  -4.9209  -4.7907  -4.7316  -4.5093  -4.4770
    -4.3859  -4.2832  -4.1336  -4.0579  -4.0204  -3.9624  -3.8196  -3.7792
    -3.7261  -3.7031  -3.6695  -3.6076  -3.5023  -3.4114  -3.3624  -3.3070
    -3.2328  -3.0868  -3.0035  -2.9267  -2.8680  -2.8373  -2.7181  -2.6274
    -2.5445  -2.5122  -2.3719  -2.3445  -2.1207  -1.9270  -0.9056   0.1176
     0.7163   0.7671   1.0716   1.2136   1.4689   1.7448   1.9132   1.9623
     2.0765   2.2540   2.3078   2.3813   2.5063   2.5990   2.7146   2.7665
     2.8380   2.9279   2.9921   3.0665   3.1272   3.1941   3.2150   3.4645
     3.7242   4.1288   4.3364   4.4606   4.7018   4.8267   5.0664   5.3261
     5.3395   5.3985   5.5491   5.5827   5.6897   5.7800   5.8721   5.9086
     6.0333   6.0813   6.1543   6.2421   6.4277   6.5655   6.6191   6.7553
     6.8068   6.9296   6.9464   7.1139   7.2052   7.3877   7.4533   7.5007
     7.6364   7.7774   7.8857   8.0120   8.0757   8.1417   8.3170   8.3627
     8.5154   8.6147   8.7239   8.7843   8.9466   8.9954   9.0575   9.2540
     9.3322   9.3966   9.4579   9.5547   9.6582   9.7668   9.8820   9.9414
    10.0559  10.1235  10.2154  10.3208  10.4071  10.4383  10.6083  10.7671
    10.8371  10.9873  11.0233  11.1037  11.1671  11.2015  11.3263  11.4003
    11.4769  11.5962  11.6320  11.6560  11.6811  11.8472  11.8899  11.9971
    12.1135  12.1705  12.2315  12.3188  12.4470  12.5404  12.6251  12.7064
    12.7294  12.7796  12.8847  12.9133  12.9411  13.0069  13.0628  13.1797
    13.2363  13.3270  13.3590  13.4174  13.5022  13.5803  13.6249  13.6988
    13.7600  13.8634  13.9128  13.9971  14.0379  14.1077  14.1296  14.2387
    14.3023  14.3846  14.4299  14.4685  14.6490  14.7499  14.8380  14.8805
    14.9613  15.1225  15.1540  15.2360  15.2915  15.3279  15.4081  15.4438
    15.4943  15.5618  15.5954  15.6951  15.7576  15.7947  15.8647  15.8990
    15.9877  16.0514  16.1302  16.1904  16.2799  16.3560  16.3691  16.4303
    16.5598  16.6703  16.6939  16.7457  16.7906  16.8701  16.9204  17.0287
    17.0733  17.1060  17.1830  17.2424  17.3090  17.3614  17.4511  17.4679
    17.5599  17.6096  17.6906  17.8227  17.8704  17.9209  17.9667  18.0540
    18.1194  18.2151  18.3050  18.3418  18.3971  18.5326  18.5609  18.6136
    18.6582  18.7270  18.8011  18.8695  18.9491  18.9901  19.0728  19.1014
    19.1774  19.2684  19.2988  19.3493  19.4324  19.4590  19.5050  19.6098
    19.6992  19.7431  19.7662  19.8058  19.8802  19.9193  19.9714  20.0296
    20.0684  20.1491  20.1777  20.2367  20.2801  20.3459  20.4084

     the Fermi energy is     1.1553 ev

!    total energy              =   -1595.00570573 Ry
     Harris-Foulkes estimate   =   -1595.00570573 Ry
     estimated scf accuracy    <          6.5E-09 Ry

     The total energy is the sum of the following terms:

     one-electron contribution =  -19407.61628897 Ry
     hartree contribution      =    9736.99960407 Ry
     xc contribution           =    -294.65069757 Ry
     ewald contribution        =    8369.54522587 Ry
     Hubbard energy            =       0.71684720 Ry
     smearing contrib. (-TS)   =      -0.00039634 Ry

     convergence has been achieved in  10 iterations

     Forces acting on atoms (Ry/au):

     negative rho (up, down):  0.332E-02 0.000E+00
     atom    1 type  1   force =     0.00157543   -0.00023468   -0.00004112
     atom    2 type  1   force =    -0.00075235    0.00026397   -0.00016672
     atom    3 type  2   force =    -0.05277259   -0.00031984   -0.00007479
     atom    4 type  2   force =    -0.00460096   -0.00019279   -0.00000468
     atom    5 type  1   force =    -0.00177022   -0.01414134   -0.00003863
     atom    6 type  1   force =    -0.00124278    0.01433494   -0.00004472
     atom    7 type  1   force =    -0.00008633   -0.00016369   -0.00021748
     atom    8 type  1   force =     0.00177461    0.00105038   -0.00009984
     atom    9 type  2   force =    -0.00008066   -0.00029852    0.00019698
     atom   10 type  2   force =     0.00004237    0.00010440   -0.00065626
     atom   11 type  1   force =    -0.01431264   -0.01350468    0.00036952
     atom   12 type  1   force =    -0.01235157    0.01641929    0.00030601
     atom   13 type  1   force =     0.00034625   -0.00140976    0.00018745
     atom   14 type  1   force =     0.00068903   -0.00002374   -0.00007740
     atom   15 type  1   force =    -0.00071834   -0.00000836   -0.00037788
     atom   16 type  2   force =     0.05424846   -0.00031484   -0.00003468
     atom   17 type  2   force =    -0.00436710   -0.00003331   -0.00005898
     atom   18 type  1   force =     0.00307961   -0.01392995   -0.00004449
     atom   19 type  1   force =     0.00232866    0.01411742   -0.00004125
     atom   20 type  1   force =     0.00014064   -0.00317455    0.00011633
     atom   21 type  1   force =     0.00183140    0.00047717   -0.00015850
     atom   22 type  2   force =    -0.00042502   -0.00030033    0.00019071
     atom   23 type  2   force =    -0.00002690    0.00246583    0.00034541
     atom   24 type  1   force =     0.01448406   -0.01350841    0.00037067
     atom   25 type  1   force =     0.01251512    0.01641769    0.00031345
     atom   26 type  1   force =     0.00042634   -0.00414207    0.00032435
     atom   27 type  3   force =     0.00000826    0.00011856   -0.00023876
     atom   28 type  3   force =    -0.00001147   -0.00021165    0.00036501
     atom   29 type  3   force =     0.00001436    0.00004299    0.00002530
     atom   30 type  3   force =     0.00001438    0.00001830    0.00005619
     atom   31 type  1   force =    -0.00000588   -0.00021521    0.00016474
     atom   32 type  1   force =     0.00000740   -0.00005799   -0.00043888
     atom   33 type  3   force =    -0.00000158    0.00035478   -0.00051706

     Total force =     0.001563     Total SCF correction =     0.000313
     SCF correction compared to forces is large: reduce conv_thr to get better values

     entering subroutine stress ...

     negative rho (up, down):  0.332E-02 0.000E+00
          total   stress  (Ry/bohr**3)                   (kbar)     P=   -2.31
  -0.00000903  -0.00000006   0.00000211         -1.33     -0.01      0.31
  -0.00000006  -0.00000650   0.00000024         -0.01     -0.96      0.03
   0.00000211   0.00000024  -0.00003164          0.31      0.03     -4.65

     bfgs converged in   6 scf cycles and   5 bfgs steps
     (criteria: energy < 0.10E-03, force < 0.10E-02)

     End of BFGS Geometry Optimization

     Final energy   =   -1595.0057057274 Ry
Begin final coordinates

ATOMIC_POSITIONS (crystal)
O0       0.000000000   0.000000000   0.372152307    0   0   1
O0       0.000000000   0.500000000   0.388498836    0   0   1
Nb1      0.250000000   0.500000000   0.444327128    0   0   1
Nb1      0.000000000   0.000000000   0.444786666    0   0   1
O0       0.250000000   0.790000000   0.447070375    0   0   1
O0       0.250000000   0.210000000   0.447038122    0   0   1
O0       0.000000000   0.500000000   0.500383443    0   0   1
O0       0.000000000   0.000000000   0.523321419    0   0   1
Nb1      0.250000000   0.000000000   0.577364151    0   0   1
Nb1      0.000000000   0.500000000   0.569599495    0   0   1
O0       0.250000000   0.710000000   0.575577885    0   0   1
O0       0.250000000   0.290000000   0.576062873    0   0   1
O0       0.000000000   0.000000000   0.621794238    0   0   1
O0       0.500000000   0.000000000   0.372400327    0   0   1
O0       0.500000000   0.500000000   0.390395006    0   0   1
Nb1      0.750000000   0.500000000   0.444357450    0   0   1
Nb1      0.500000000   0.000000000   0.445290880    0   0   1
O0       0.750000000   0.790000000   0.447061195    0   0   1
O0       0.750000000   0.210000000   0.447043404    0   0   1
O0       0.500000000   0.500000000   0.498679201    0   0   1
O0       0.500000000   0.000000000   0.523170523    0   0   1
Nb1      0.750000000   0.000000000   0.577356766    0   0   1
Nb1      0.500000000   0.500000000   0.576069214    0   0   1
O0       0.750000000   0.710000000   0.575572122    0   0   1
O0       0.750000000   0.290000000   0.576059973    0   0   1
O0       0.500000000   0.000000000   0.621494595    0   0   1
H2      -0.000517555   0.505036472   0.352224544
H2       0.499429696   0.501000530   0.354174857
H2       0.150658555   0.000740042   0.356336578
H2       0.650307831   0.000531285   0.356465786
O0       0.499998159   0.508938993   0.648966194
O0       0.500007497   0.347985570   0.683389028
H2       0.499998465   0.420003607   0.714775419
End final coordinates

     General routines

     Parallel routines
     Hubbard U routines

   This run was terminated on:  11:41:51   1Jun2014

   JOB DONE.
Running PBS batch system epilogue script
Job id: 373360.audhumbla.fysik.dtu.dk
Username: zhonxu
Groupname: campgst
Jobname: NbO2/Eads-2-layers/OOH-U-1.0
Sessionid: 8161
Queuename: verylong
Accounting:
This job has allocated the following 16 nodes:
c062 c062 c062 c062 c062 c062 c062 c062 c013 c013 c013 c013 c013 c013 c013 c013
Finished epilogue job 373360.audhumbla.fysik.dtu.dk for zhonxu