     Program PWSCF v.5.0.2 (svn rev. 9656) starts on 24Jan2014 at 14:49:47

     Current dimensions of program PWSCF are:
     Max number of different atomic species (ntypx) = 10
     Max number of k-points (npk) =  40000
     Max angular momentum in pseudopotentials (lmaxx) =  3
     Reading input from MnO2-v-1.10.in

     Subspace diagonalization in iterative solution of the eigenvalue problem:
     a serial algorithm will be used

     bravais-lattice index     =            0
     lattice parameter (alat)  =       8.6913  a.u.
     unit-cell volume          =     423.0909 (a.u.)^3
     number of atoms/cell      =            6
     number of atomic types    =            2
     number of electrons       =        54.00
     number of Kohn-Sham states=           78
     kinetic-energy cutoff     =      40.0000  Ry
     charge density cutoff     =     500.0000  Ry
     convergence threshold     =      1.0E-06
     mixing beta               =       0.3000
     number of iterations used =            8  plain     mixing
     Exchange-correlation      = SLA  PW   PBE  PBE ( 1 4 3 4 0)
     EXX-fraction              =        0.00
     nstep                     =           50

     celldm(1)=   8.691260  celldm(2)=   0.000000  celldm(3)=   0.000000
     celldm(4)=   0.000000  celldm(5)=   0.000000  celldm(6)=   0.000000

     crystal axes: (cart. coord. in units of alat)
               a(1) = (   1.000000   0.000000   0.000000 )
               a(2) = (   0.000000   1.000000   0.000000 )
               a(3) = (   0.000000   0.000000   0.644444 )

     reciprocal axes: (cart. coord. in units 2 pi/alat)
               b(1) = (  1.000000  0.000000  0.000000 )
               b(2) = (  0.000000  1.000000  0.000000 )
               b(3) = (  0.000000  0.000000  1.551724 )

     PseudoPot. # 1 for Mn read from file:
     /home/camp/zhonxu/pseudo/mn_pbe_v1.uspp.F.UPF
     MD5 check sum: 5fd7c7b5c956fd19902447332617373a
     Pseudo is Ultrasoft + core correction, Zval = 15.0
     Generated by new atomic code, or converted to UPF format
     Using radial grid of  859 points,  6 beta functions with:
                l(1) =   0
                l(2) =   0
                l(3) =   1
                l(4) =   1
                l(5) =   2
                l(6) =   2
     Q(r) pseudized with  6 coefficients,  rinner =    1.150   1.150   1.150
                                                       1.150   1.150

     PseudoPot. # 2 for O  read from file:
     /home/camp/zhonxu/pseudo/o_pbe_v1.01.uspp.F.UPF
     MD5 check sum: 2bcb18d16ea4b960afae9ec6d52f22d2
     Pseudo is Ultrasoft + core correction, Zval =  6.0
     Generated by new atomic code, or converted to UPF format
     Using radial grid of  737 points,  5 beta functions with:
                l(1) =   0
                l(2) =   0
                l(3) =   1
                l(4) =   1
                l(5) =   2
     Q(r) pseudized with  8 coefficients,  rinner =    0.900   0.900   0.900
                                                       0.900   0.900

     atomic species   valence    mass     pseudopotential
        Mn0           15.00    54.93800     Mn( 1.00)
        O1             6.00    15.99940     O ( 1.00)

     Starting magnetic structure
     atomic species   magnetization
        Mn0          0.000
        O1           0.000

     16 Sym. Ops., with inversion, found ( 8 have fractional translation)

   Cartesian axes

     site n.     atom                  positions (alat units)
         1           Mn0 tau(   1) = (   0.0000000   0.0000000   0.0000000  )
         2           Mn0 tau(   2) = (   0.5000000   0.5000000   0.3222222  )
         3           O1  tau(   3) = (   0.3050000   0.3050000   0.0000000  )
         4           O1  tau(   4) = (  -0.3050000  -0.3050000   0.0000000  )
         5           O1  tau(   5) = (   0.8050000   0.1950000   0.3222222  )
         6           O1  tau(   6) = (   0.1950000   0.8050000   0.3222222  )

     number of k points=    36  Methfessel-Paxton smearing, width (Ry)=  0.0100
                       cart. coord. in units 2pi/alat
        k(    1) = (   0.0000000   0.0000000   0.0000000), wk =   0.0080000
        k(    2) = (   0.0000000   0.0000000   0.3103448), wk =   0.0160000
        k(    3) = (   0.0000000   0.0000000   0.6206897), wk =   0.0160000
        k(    4) = (   0.0000000   0.2000000   0.0000000), wk =   0.0320000
        k(    5) = (   0.0000000   0.2000000   0.3103448), wk =   0.0640000
        k(    6) = (   0.0000000   0.2000000   0.6206897), wk =   0.0640000
        k(    7) = (   0.0000000   0.4000000   0.0000000), wk =   0.0320000
        k(    8) = (   0.0000000   0.4000000   0.3103448), wk =   0.0640000
        k(    9) = (   0.0000000   0.4000000   0.6206897), wk =   0.0640000
        k(   10) = (   0.2000000   0.2000000   0.0000000), wk =   0.0320000
        k(   11) = (   0.2000000   0.2000000   0.3103448), wk =   0.0640000
        k(   12) = (   0.2000000   0.2000000   0.6206897), wk =   0.0640000
        k(   13) = (   0.2000000   0.4000000   0.0000000), wk =   0.0640000
        k(   14) = (   0.2000000   0.4000000   0.3103448), wk =   0.1280000
        k(   15) = (   0.2000000   0.4000000   0.6206897), wk =   0.1280000
        k(   16) = (   0.4000000   0.4000000   0.0000000), wk =   0.0320000
        k(   17) = (   0.4000000   0.4000000   0.3103448), wk =   0.0640000
        k(   18) = (   0.4000000   0.4000000   0.6206897), wk =   0.0640000
        k(   19) = (   0.0000000   0.0000000   0.0000000), wk =   0.0080000
        k(   20) = (   0.0000000   0.0000000   0.3103448), wk =   0.0160000
        k(   21) = (   0.0000000   0.0000000   0.6206897), wk =   0.0160000
        k(   22) = (   0.0000000   0.2000000   0.0000000), wk =   0.0320000
        k(   23) = (   0.0000000   0.2000000   0.3103448), wk =   0.0640000
        k(   24) = (   0.0000000   0.2000000   0.6206897), wk =   0.0640000
        k(   25) = (   0.0000000   0.4000000   0.0000000), wk =   0.0320000
        k(   26) = (   0.0000000   0.4000000   0.3103448), wk =   0.0640000
        k(   27) = (   0.0000000   0.4000000   0.6206897), wk =   0.0640000
        k(   28) = (   0.2000000   0.2000000   0.0000000), wk =   0.0320000
        k(   29) = (   0.2000000   0.2000000   0.3103448), wk =   0.0640000
        k(   30) = (   0.2000000   0.2000000   0.6206897), wk =   0.0640000
        k(   31) = (   0.2000000   0.4000000   0.0000000), wk =   0.0640000
        k(   32) = (   0.2000000   0.4000000   0.3103448), wk =   0.1280000
        k(   33) = (   0.2000000   0.4000000   0.6206897), wk =   0.1280000
        k(   34) = (   0.4000000   0.4000000   0.0000000), wk =   0.0320000
        k(   35) = (   0.4000000   0.4000000   0.3103448), wk =   0.0640000
        k(   36) = (   0.4000000   0.4000000   0.6206897), wk =   0.0640000

     Largest allocated arrays     est. size (Mb)     dimensions
     Largest temporary arrays     est. size (Mb)     dimensions

     Check: negative/imaginary core charge=   -0.000059    0.000000

     Initial potential from superposition of free atoms

     starting charge   51.99998, renormalised to   54.00000
     Starting wfc are   42 randomized atomic wfcs

     Self-consistent Calculation

     iteration #  1     ecut=    40.00 Ry     beta=0.30
     Davidson diagonalization with overlap
     ethr =  1.00E-02,  avg # of iterations =  4.9

     total energy              =    -553.96803621 Ry
     Harris-Foulkes estimate   =    -555.25407688 Ry
     estimated scf accuracy    <       2.72112687 Ry

     total magnetization       =    -0.00 Bohr mag/cell
     absolute magnetization    =     0.00 Bohr mag/cell

[...]

     End of self-consistent calculation

 ------ SPIN UP ------------

          k = 0.0000 0.0000 0.0000 (  1843 PWs)   bands (ev):

   -71.3003 -71.2989 -40.0847 -40.0847 -39.9792 -39.9792 -39.8826 -39.8769
   -10.5209  -9.0081  -8.7893  -8.7893   1.7751   2.6926   3.2315   4.0258
     4.0258   5.0000   5.0000   5.5583   7.0607   7.4647   7.4647   7.6030
     7.8362   8.1511   8.1525   8.1525   8.3498   9.4035   9.8032  11.8143
    11.8143  12.4293  15.5472  19.3921  19.3921  22.0625  22.5783  23.1504
    24.7908  26.0775  26.0775  26.9260  28.3063  30.6478  31.9723  32.3665
    32.3665  33.1656  33.1656  33.5023  34.2277  34.2277  34.5755  35.5765
    36.5208  37.2785  40.1069  40.1647  40.1647  40.4421  40.4421  42.8568
    43.7069  44.6458  44.6458  46.1538  47.0790  47.0790  47.1252  47.1475
    48.0112  49.2563  49.6628  49.6628  51.6071  52.2467

[...]

 ------ SPIN DOWN ----------

[...]

     the Fermi energy is     8.6793 ev

!    total energy              =    -554.81717656 Ry
     Harris-Foulkes estimate   =    -554.81717555 Ry
     estimated scf accuracy    <       0.00000004 Ry

     The total energy is the sum of the following terms:

     one-electron contribution =    -295.32161934 Ry
     hartree contribution      =     171.62292562 Ry
     xc contribution           =     -80.15422632 Ry
     ewald contribution        =    -350.96363899 Ry
     smearing contrib. (-TS)   =      -0.00061752 Ry

[...]

     convergence has been achieved in  12 iterations

     Forces acting on atoms (Ry/au):

     atom    1 type  1   force =     0.00000000    0.00000000    0.00000000
     atom    2 type  1   force =     0.00000000    0.00000000    0.00000000
     atom    3 type  2   force =     0.00454063    0.00454063    0.00000000
     atom    4 type  2   force =    -0.00454063   -0.00454063    0.00000000
     atom    5 type  2   force =     0.00454063   -0.00454063    0.00000000
     atom    6 type  2   force =    -0.00454063    0.00454063    0.00000000

     Total force =     0.012843     Total SCF correction =     0.000141

     entering subroutine stress ...

          total   stress  (Ry/bohr**3)                   (kbar)     P= -296.45
  -0.00181757   0.00000000   0.00000000       -267.37      0.00      0.00
   0.00000000  -0.00181757   0.00000000          0.00   -267.37      0.00
   0.00000000   0.00000000  -0.00241054          0.00      0.00   -354.60

     Volume is kept fixed: isostatic pressure set to zero

     BFGS Geometry Optimization

     number of scf cycles    =   1
     number of bfgs steps    =   0

     enthalpy new            =    -554.8171765577 Ry

     new trust radius        =       0.0406563544 bohr
     new conv_thr            =       0.0000010000 Ry

     new unit-cell volume =    423.09089 a.u.^3 (    62.69560 Ang^3 )

CELL_PARAMETERS (alat=  8.69125973)
   1.004966039   0.000000000   0.000000000
   0.000000000   1.004966039   0.000000000
   0.000000000   0.000000000   0.638091138

ATOMIC_POSITIONS (crystal)
Mn0      0.000000000   0.000000000   0.000000000    0   0   0
Mn0      0.500000000   0.500000000   0.500000000    0   0   0
O1       0.305522436   0.305522436   0.000000000    1   1   0
O1      -0.305522436  -0.305522436   0.000000000    1   1   0
O1       0.805522436   0.194477564   0.500000000    1   1   0
O1       0.194477564   0.805522436   0.500000000    1   1   0

     NEW-OLD atomic charge density approx. for the potential
     NEW k-points:
        k(    1) = (   0.0000000   0.0000000   0.0000000), wk =   0.0080000
[...]
        k(   16) = (   0.3980234   0.3980234   0.0000000), wk =   0.0320000
        k(   17) = (   0.3980234   0.3980234   0.3134348), wk =   0.0640000
        k(   18) = (   0.3980234   0.3980234   0.6268697), wk =   0.0640000
        k(   19) = (   0.0000000   0.0000000   0.0000000), wk =   0.0080000
        k(   20) = (   0.0000000   0.0000000   0.3134348), wk =   0.0160000
        k(   21) = (   0.0000000   0.0000000   0.6268697), wk =   0.0160000
        k(   22) = (   0.0000000   0.1990117   0.0000000), wk =   0.0320000
        k(   23) = (   0.0000000   0.1990117   0.3134348), wk =   0.0640000
        k(   24) = (   0.0000000   0.1990117   0.6268697), wk =   0.0640000
        k(   25) = (   0.0000000   0.3980234   0.0000000), wk =   0.0320000
        k(   26) = (   0.0000000   0.3980234   0.3134348), wk =   0.0640000
        k(   27) = (   0.0000000   0.3980234   0.6268697), wk =   0.0640000
        k(   28) = (   0.1990117   0.1990117   0.0000000), wk =   0.0320000
        k(   29) = (   0.1990117   0.1990117   0.3134348), wk =   0.0640000
        k(   30) = (   0.1990117   0.1990117   0.6268697), wk =   0.0640000
        k(   31) = (   0.1990117   0.3980234   0.0000000), wk =   0.0640000
        k(   32) = (   0.1990117   0.3980234   0.3134348), wk =   0.1280000
        k(   33) = (   0.1990117   0.3980234   0.6268697), wk =   0.1280000
        k(   34) = (   0.3980234   0.3980234   0.0000000), wk =   0.0320000
        k(   35) = (   0.3980234   0.3980234   0.3134348), wk =   0.0640000
        k(   36) = (   0.3980234   0.3980234   0.6268697), wk =   0.0640000

[...]

     enthalpy old            =    -554.8171765577 Ry
     enthalpy new            =    -554.8195310832 Ry

     CASE: enthalpy_new < enthalpy_old

[...]

     Threshold (ethr) on eigenvalues was too large:
     Diagonalizing with lowered threshold

     Davidson diagonalization with overlap
     ethr =  2.51E-08,  avg # of iterations =  1.0

[...]

     number of scf cycles    =   7
     number of bfgs steps    =   6

     enthalpy old            =    -554.8233178030 Ry
     enthalpy new            =    -554.8233670854 Ry

     CASE: enthalpy_new < enthalpy_old

     new trust radius        =       0.0057743427 bohr
     new conv_thr            =       0.0000000100 Ry

     new unit-cell volume =    423.09089 a.u.^3 (    62.69560 Ang^3 )

[...]

ATOMIC_POSITIONS (crystal)
Mn0      0.000000000   0.000000000   0.000000000    0   0   0
Mn0      0.500000000   0.500000000   0.500000000    0   0   0
O1       0.309853104   0.309853104   0.000000000    1   1   0
O1      -0.309853104  -0.309853104   0.000000000    1   1   0
O1       0.809853104   0.190146896   0.500000000    1   1   0
O1       0.190146896   0.809853104   0.500000000    1   1   0

     NEW-OLD atomic charge density approx. for the potential
     NEW k-points:
        k(    1) = (   0.0000000   0.0000000   0.0000000), wk =   0.0080000
        k(    2) = (   0.0000000   0.0000000   0.3231443), wk =   0.0160000
        k(    3) = (   0.0000000   0.0000000   0.6462886), wk =   0.0160000
        k(    4) = (   0.0000000   0.1959991   0.0000000), wk =   0.0320000
        k(    5) = (   0.0000000   0.1959991   0.3231443), wk =   0.0640000
        k(    6) = (   0.0000000   0.1959991   0.6462886), wk =   0.0640000
        k(    7) = (   0.0000000   0.3919981   0.0000000), wk =   0.0320000
        k(    8) = (   0.0000000   0.3919981   0.3231443), wk =   0.0640000
        k(    9) = (   0.0000000   0.3919981   0.6462886), wk =   0.0640000
        k(   10) = (   0.1959991   0.1959991   0.0000000), wk =   0.0320000
        k(   11) = (   0.1959991   0.1959991   0.3231443), wk =   0.0640000
        k(   12) = (   0.1959991   0.1959991   0.6462886), wk =   0.0640000
        k(   13) = (   0.1959991   0.3919981   0.0000000), wk =   0.0640000
        k(   14) = (   0.1959991   0.3919981   0.3231443), wk =   0.1280000
        k(   15) = (   0.1959991   0.3919981   0.6462886), wk =   0.1280000
        k(   16) = (   0.3919981   0.3919981   0.0000000), wk =   0.0320000
        k(   17) = (   0.3919981   0.3919981   0.3231443), wk =   0.0640000
        k(   18) = (   0.3919981   0.3919981   0.6462886), wk =   0.0640000
        k(   19) = (   0.0000000   0.0000000   0.0000000), wk =   0.0080000
        k(   20) = (   0.0000000   0.0000000   0.3231443), wk =   0.0160000
        k(   21) = (   0.0000000   0.0000000   0.6462886), wk =   0.0160000
        k(   22) = (   0.0000000   0.1959991   0.0000000), wk =   0.0320000
        k(   23) = (   0.0000000   0.1959991   0.3231443), wk =   0.0640000
        k(   24) = (   0.0000000   0.1959991   0.6462886), wk =   0.0640000
        k(   25) = (   0.0000000   0.3919981   0.0000000), wk =   0.0320000
        k(   26) = (   0.0000000   0.3919981   0.3231443), wk =   0.0640000
        k(   27) = (   0.0000000   0.3919981   0.6462886), wk =   0.0640000
        k(   28) = (   0.1959991   0.1959991   0.0000000), wk =   0.0320000
        k(   29) = (   0.1959991   0.1959991   0.3231443), wk =   0.0640000
        k(   30) = (   0.1959991   0.1959991   0.6462886), wk =   0.0640000
        k(   31) = (   0.1959991   0.3919981   0.0000000), wk =   0.0640000
        k(   32) = (   0.1959991   0.3919981   0.3231443), wk =   0.1280000
        k(   33) = (   0.1959991   0.3919981   0.6462886), wk =   0.1280000
        k(   34) = (   0.3919981   0.3919981   0.0000000), wk =   0.0320000
        k(   35) = (   0.3919981   0.3919981   0.3231443), wk =   0.0640000
        k(   36) = (   0.3919981   0.3919981   0.6462886), wk =   0.0640000

[...]

     Threshold (ethr) on eigenvalues was too large:
     Diagonalizing with lowered threshold

     Davidson diagonalization with overlap
     ethr =  6.23E-08,  avg # of iterations =  1.0

[...]

     Total force =     0.000024     Total SCF correction =     0.000082
     SCF correction compared to forces is large: reduce conv_thr to get better values

[...]

     Volume is kept fixed: isostatic pressure set to zero

     bfgs converged in   8 scf cycles and   7 bfgs steps
     (criteria: energy < 0.10E-03, force < 0.10E-02, cell < 0.50E+00)

     End of BFGS Geometry Optimization

     Final enthalpy =    -554.8233847814 Ry
Begin final coordinates
     new unit-cell volume =    423.09089 a.u.^3 (    62.69560 Ang^3 )

CELL_PARAMETERS (alat=  8.69125973)
   1.020413048   0.000000000   0.000000000
   0.000000000   1.020413048   0.000000000
   0.000000000   0.000000000   0.618918519

ATOMIC_POSITIONS (crystal)
Mn0      0.000000000   0.000000000   0.000000000    0   0   0
Mn0      0.500000000   0.500000000   0.500000000    0   0   0
O1       0.309853104   0.309853104   0.000000000    1   1   0
O1      -0.309853104  -0.309853104   0.000000000    1   1   0
O1       0.809853104   0.190146896   0.500000000    1   1   0
O1       0.190146896   0.809853104   0.500000000    1   1   0
End final coordinates

     A final scf calculation at the relaxed structure.
     The G-vectors are recalculated for the final unit cell
     Results may differ from those at the preceding step.

     bravais-lattice index     =            0
     lattice parameter (alat)  =       8.6913  a.u.
     unit-cell volume          =     423.0909 (a.u.)^3
     number of atoms/cell      =            6
     number of atomic types    =            2
     number of electrons       =        54.00
     number of Kohn-Sham states=           78
     kinetic-energy cutoff     =      40.0000  Ry
     charge density cutoff     =     500.0000  Ry
     convergence threshold     =      1.0E-08
     mixing beta               =       0.3000
     number of iterations used =            8  plain     mixing
     Exchange-correlation      = SLA  PW   PBE  PBE ( 1 4 3 4 0)
     EXX-fraction              =        0.00

     celldm(1)=   8.691260  celldm(2)=   0.000000  celldm(3)=   0.000000
     celldm(4)=   0.000000  celldm(5)=   0.000000  celldm(6)=   0.000000

     crystal axes: (cart. coord. in units of alat)
               a(1) = (   1.020413   0.000000   0.000000 )
               a(2) = (   0.000000   1.020413   0.000000 )
               a(3) = (   0.000000   0.000000   0.618919 )

     reciprocal axes: (cart. coord. in units 2 pi/alat)
               b(1) = (  0.979995  0.000000  0.000000 )
               b(2) = (  0.000000  0.979995  0.000000 )
               b(3) = (  0.000000  0.000000  1.615722 )

     PseudoPot. # 1 for Mn read from file:
     /home/camp/zhonxu/pseudo/mn_pbe_v1.uspp.F.UPF
     MD5 check sum: 5fd7c7b5c956fd19902447332617373a
     Pseudo is Ultrasoft + core correction, Zval = 15.0
     Generated by new atomic code, or converted to UPF format
     Using radial grid of  859 points,  6 beta functions with:
                l(1) =   0
                l(2) =   0
                l(3) =   1
                l(4) =   1
                l(5) =   2
                l(6) =   2
     Q(r) pseudized with  6 coefficients,  rinner =    1.150   1.150   1.150
                                                       1.150   1.150

     PseudoPot. # 2 for O  read from file:
     /home/camp/zhonxu/pseudo/o_pbe_v1.01.uspp.F.UPF
     MD5 check sum: 2bcb18d16ea4b960afae9ec6d52f22d2
     Pseudo is Ultrasoft + core correction, Zval =  6.0
     Generated by new atomic code, or converted to UPF format
     Using radial grid of  737 points,  5 beta functions with:
                l(1) =   0
                l(2) =   0
                l(3) =   1
                l(4) =   1
                l(5) =   2
     Q(r) pseudized with  8 coefficients,  rinner =    0.900   0.900   0.900
                                                       0.900   0.900

     atomic species   valence    mass     pseudopotential
        Mn0           15.00    54.93800     Mn( 1.00)
        O1             6.00    15.99940     O ( 1.00)

     Starting magnetic structure
     atomic species   magnetization
        Mn0          0.000
        O1           0.000

     16 Sym. Ops., with inversion, found ( 8 have fractional translation)

   Cartesian axes

     site n.     atom                  positions (alat units)
         1           Mn0 tau(   1) = (   0.0000000   0.0000000   0.0000000  )
         2           Mn0 tau(   2) = (   0.5102065   0.5102065   0.3094593  )
         3           O1  tau(   3) = (   0.3161781   0.3161781   0.0000000  )
         4           O1  tau(   4) = (  -0.3161781  -0.3161781   0.0000000  )
         5           O1  tau(   5) = (   0.8263847   0.1940284   0.3094593  )
         6           O1  tau(   6) = (   0.1940284   0.8263847   0.3094593  )

     number of k points=    36  Methfessel-Paxton smearing, width (Ry)=  0.0100
                       cart. coord. in units 2pi/alat
        k(    1) = (   0.0000000   0.0000000   0.0000000), wk =   0.0080000
        k(    2) = (   0.0000000   0.0000000   0.3231443), wk =   0.0160000
        k(    3) = (   0.0000000   0.0000000   0.6462886), wk =   0.0160000
        k(    4) = (   0.0000000   0.1959991   0.0000000), wk =   0.0320000
        k(    5) = (   0.0000000   0.1959991   0.3231443), wk =   0.0640000
        k(    6) = (   0.0000000   0.1959991   0.6462886), wk =   0.0640000
        k(    7) = (   0.0000000   0.3919981   0.0000000), wk =   0.0320000
        k(    8) = (   0.0000000   0.3919981   0.3231443), wk =   0.0640000
        k(    9) = (   0.0000000   0.3919981   0.6462886), wk =   0.0640000
        k(   10) = (   0.1959991   0.1959991   0.0000000), wk =   0.0320000
        k(   11) = (   0.1959991   0.1959991   0.3231443), wk =   0.0640000
        k(   12) = (   0.1959991   0.1959991   0.6462886), wk =   0.0640000
        k(   13) = (   0.1959991   0.3919981   0.0000000), wk =   0.0640000
        k(   14) = (   0.1959991   0.3919981   0.3231443), wk =   0.1280000
        k(   15) = (   0.1959991   0.3919981   0.6462886), wk =   0.1280000
        k(   16) = (   0.3919981   0.3919981   0.0000000), wk =   0.0320000
        k(   17) = (   0.3919981   0.3919981   0.3231443), wk =   0.0640000
        k(   18) = (   0.3919981   0.3919981   0.6462886), wk =   0.0640000
        k(   19) = (   0.0000000   0.0000000   0.0000000), wk =   0.0080000
        k(   20) = (   0.0000000   0.0000000   0.3231443), wk =   0.0160000
        k(   21) = (   0.0000000   0.0000000   0.6462886), wk =   0.0160000
        k(   22) = (   0.0000000   0.1959991   0.0000000), wk =   0.0320000
        k(   23) = (   0.0000000   0.1959991   0.3231443), wk =   0.0640000
        k(   24) = (   0.0000000   0.1959991   0.6462886), wk =   0.0640000
        k(   25) = (   0.0000000   0.3919981   0.0000000), wk =   0.0320000
        k(   26) = (   0.0000000   0.3919981   0.3231443), wk =   0.0640000
        k(   27) = (   0.0000000   0.3919981   0.6462886), wk =   0.0640000
        k(   28) = (   0.1959991   0.1959991   0.0000000), wk =   0.0320000
        k(   29) = (   0.1959991   0.1959991   0.3231443), wk =   0.0640000
        k(   30) = (   0.1959991   0.1959991   0.6462886), wk =   0.0640000
        k(   31) = (   0.1959991   0.3919981   0.0000000), wk =   0.0640000
        k(   32) = (   0.1959991   0.3919981   0.3231443), wk =   0.1280000
        k(   33) = (   0.1959991   0.3919981   0.6462886), wk =   0.1280000
        k(   34) = (   0.3919981   0.3919981   0.0000000), wk =   0.0320000
        k(   35) = (   0.3919981   0.3919981   0.3231443), wk =   0.0640000
        k(   36) = (   0.3919981   0.3919981   0.6462886), wk =   0.0640000

     Largest allocated arrays     est. size (Mb)     dimensions
     Largest temporary arrays     est. size (Mb)     dimensions

     Check: negative/imaginary core charge=   -0.000058    0.000000

     Initial potential from superposition of free atoms

     starting charge   51.99998, renormalised to   54.00000
     Starting wfc are   42 randomized atomic wfcs

     Self-consistent Calculation

[...]

     total energy              =    -554.82375851 Ry
     Harris-Foulkes estimate   =    -554.82375819 Ry
     estimated scf accuracy    <       0.00000011 Ry

[...]

     iteration # 13     ecut=    40.00 Ry     beta=0.30
     Davidson diagonalization with overlap
     ethr =  3.40E-11,  avg # of iterations =  1.0

     End of self-consistent calculation

 ------ SPIN UP ------------

[...]

 ------ SPIN DOWN ----------

[...]

          k = 0.3920 0.3920 0.6463 (  1820 PWs)   bands (ev):

   -71.2839 -71.2839 -40.0395 -40.0392 -40.0116 -40.0113 -39.9638 -39.9637
    -9.2258  -9.1557  -9.0731  -9.0513   2.7523   2.8911   3.1217   3.1709
     4.0028   4.1411   4.7977   4.7982   6.1379   6.2675   6.3576   6.7459
     8.3281   8.6130   8.7222   8.7651   9.1585   9.3368  10.4255  10.7946
    11.4678  11.8321  19.8103  20.2452  20.9764  21.3768  23.1607  23.2016
    23.9979  24.1260  25.3025  25.3797  26.7268  27.1583  29.0212  30.4251
    31.4747  31.9509  32.4082  33.3550  36.3081  36.5055  37.4898  38.0793
    40.2180  40.4736  41.1966  41.8097  42.5909  42.8456  43.6858  43.7852
    44.3675  44.9234  45.3716  45.9881  46.0503  47.1458  48.0704  48.6180
    49.0425  49.5748  50.6099  50.8348  52.6251  52.9408

     the Fermi energy is     8.7749 ev

!    total energy              =    -554.82375885 Ry
     Harris-Foulkes estimate   =    -554.82375852 Ry
     estimated scf accuracy    <          3.0E-10 Ry

     The total energy is the sum of the following terms:

     one-electron contribution =    -302.61812723 Ry
     hartree contribution      =     175.22382434 Ry
     xc contribution           =     -80.22883740 Ry
     ewald contribution        =    -347.20059156 Ry
     smearing contrib. (-TS)   =      -0.00002700 Ry

     total magnetization       =     0.00 Bohr mag/cell
     absolute magnetization    =     0.00 Bohr mag/cell

     convergence has been achieved in  13 iterations

     Forces acting on atoms (Ry/au):

     atom    1 type  1   force =     0.00000000    0.00000000    0.00000000
     atom    2 type  1   force =     0.00000000    0.00000000    0.00000000
     atom    3 type  2   force =     0.00004137    0.00004137    0.00000000
     atom    4 type  2   force =    -0.00004137   -0.00004137    0.00000000
     atom    5 type  2   force =     0.00004137   -0.00004137    0.00000000
     atom    6 type  2   force =    -0.00004137    0.00004137    0.00000000

     Total force =     0.000117     Total SCF correction =     0.000001

     entering subroutine stress ...

          total   stress  (Ry/bohr**3)                   (kbar)     P= -255.21
  -0.00172025   0.00000000   0.00000000       -253.06      0.00      0.00
   0.00000000  -0.00172025   0.00000000          0.00   -253.06      0.00
   0.00000000   0.00000000  -0.00176409          0.00      0.00   -259.51

     General routines

     Parallel routines

   This run was terminated on:  15:19:18  24Jan2014

   JOB DONE.