     Program PWSCF v.5.0.2 (svn rev. 9656) starts on 13May2014 at  0: 2:19

     Current dimensions of program PWSCF are:
     Max number of different atomic species (ntypx) = 10
     Max number of k-points (npk) =  40000
     Max angular momentum in pseudopotentials (lmaxx) =  3
     Reading input from pwscf.in
Warning: card &CELL ignored
Warning: card / ignored

     Subspace diagonalization in iterative solution of the eigenvalue problem:
     a serial algorithm will be used

     bravais-lattice index     =            0
     lattice parameter (alat)  =      10.7336  a.u.
     unit-cell volume          =    6184.1966 (a.u.)^3
     number of atoms/cell      =           31
     number of atomic types    =            3
     number of electrons       =       238.00 (up: 130.00, down: 108.00)
     number of Kohn-Sham states=          345
     kinetic-energy cutoff     =      40.0000  Ry
     charge density cutoff     =     500.0000  Ry
     convergence threshold     =      1.0E-06
     mixing beta               =       0.7000
     number of iterations used =            8  plain     mixing
     Exchange-correlation      = SLA  PW   PBE  PBE ( 1 4 3 4 0)
     EXX-fraction              =        0.00
     nstep                     =           50

     celldm(1)=  10.733644  celldm(2)=   0.000000  celldm(3)=   0.000000
     celldm(4)=   0.000000  celldm(5)=   0.000000  celldm(6)=   0.000000

     crystal axes: (cart. coord. in units of alat)
               a(1) = (   1.000000   0.000000   0.000000 )
               a(2) = (   0.000000   1.085558   0.000000 )
               a(3) = (   0.000000   0.000000   4.606685 )

     reciprocal axes: (cart. coord. in units 2 pi/alat)
               b(1) = (  1.000000  0.000000  0.000000 )
               b(2) = (  0.000000  0.921185  0.000000 )
               b(3) = (  0.000000  0.000000  0.217076 )

     PseudoPot. # 1 for O  read from file:
     /home/camp/zhonxu/pseudo/o_pbe_v1.01.uspp.F.UPF
     MD5 check sum: 2bcb18d16ea4b960afae9ec6d52f22d2
     Pseudo is Ultrasoft + core correction, Zval =  6.0
     Generated by new atomic code, or converted to UPF format
     Using radial grid of  737 points,  5 beta functions with:
                l(1) =   0
                l(2) =   0
                l(3) =   1
                l(4) =   1
                l(5) =   2
     Q(r) pseudized with  8 coefficients,  rinner =    0.900   0.900   0.900
                                                       0.900   0.900

     PseudoPot. # 2 for Mn read from file:
     /home/camp/zhonxu/pseudo/mn_pbe_v1.uspp.F.UPF
     MD5 check sum: 5fd7c7b5c956fd19902447332617373a
     Pseudo is Ultrasoft + core correction, Zval = 15.0
     Generated by new atomic code, or converted to UPF format
     Using radial grid of  859 points,  6 beta functions with:
                l(1) =   0
                l(2) =   0
                l(3) =   1
                l(4) =   1
                l(5) =   2
                l(6) =   2
     Q(r) pseudized with  6 coefficients,  rinner =    1.150   1.150   1.150
                                                       1.150   1.150

     PseudoPot. # 3 for H  read from file:
     /home/camp/zhonxu/pseudo/h_pbe_v1.uspp.F.UPF
     MD5 check sum: 3408e3ff4ec8b0a4e358431e7e038a48
     Pseudo is Ultrasoft, Zval =  1.0
     Generated by new atomic code, or converted to UPF format
     Using radial grid of  615 points,  2 beta functions with:
                l(1) =   0
                l(2) =   0
     Q(r) pseudized with  8 coefficients,  rinner =    0.700

     atomic species   valence    mass     pseudopotential
        O0             6.00    15.99940     O ( 1.00)
        Mn1           15.00    54.93800     Mn( 1.00)
        H2             1.00     1.00794     H ( 1.00)

     Starting magnetic structure
     atomic species   magnetization
        O0           0.000
        Mn1          0.600
        H2           0.000

     Simplified LDA+U calculation (l_max = 2) with parameters (eV):
     atomic species    L          U    alpha       J0     beta
        Mn1            2     0.0000   0.0000   0.0000   0.0000

     No symmetry found

   Cartesian axes

     site n.     atom                  positions (alat units)
         1           O0  tau(   1) = (   0.0000000   0.0000000   1.7399910  )
         2           O0  tau(   2) = (   0.0000000   0.5427791   1.8336449  )
         3           Mn1 tau(   3) = (   0.2500000   0.5427791   2.0703364  )
         4           Mn1 tau(   4) = (   0.0000000   0.0000000   2.0664668  )
         5           O0  tau(   5) = (   0.2500000   0.8684466   2.0675263  )
         6           O0  tau(   6) = (   0.2500000   0.2171117   2.0713959  )
         7           O0  tau(   7) = (   0.0000000   0.5427791   2.2853304  )
         8           O0  tau(   8) = (   0.0000000   0.0000000   2.4130738  )
         9           Mn1 tau(   9) = (   0.2500000   0.0000000   2.6404597  )
        10           Mn1 tau(  10) = (   0.0000000   0.5427791   2.6100556  )
        11           O0  tau(  11) = (   0.2500000   0.7598908   2.6550169  )
        12           O0  tau(  12) = (   0.2500000   0.3256675   2.6553393  )
        13           O0  tau(  13) = (   0.0000000   0.0000000   2.8422786  )
        14           O0  tau(  14) = (   0.5000000   0.0000000   1.7417876  )
        15           O0  tau(  15) = (   0.5000000   0.5427791   1.8324472  )
        16           Mn1 tau(  16) = (   0.7500000   0.5427791   2.0703364  )
        17           Mn1 tau(  17) = (   0.5000000   0.0000000   2.0689544  )
        18           O0  tau(  18) = (   0.7500000   0.8684466   2.0673421  )
        19           O0  tau(  19) = (   0.7500000   0.2171117   2.0716263  )
        20           O0  tau(  20) = (   0.5000000   0.5427791   2.2770384  )
        21           O0  tau(  21) = (   0.5000000   0.0000000   2.4133962  )
        22           Mn1 tau(  22) = (   0.7500000   0.0000000   2.6405058  )
        23           Mn1 tau(  23) = (   0.5000000   0.5427791   2.7093297  )
        24           O0  tau(  24) = (   0.7500000   0.7598908   2.6549708  )
        25           O0  tau(  25) = (   0.7500000   0.3256675   2.6552472  )
        26           O0  tau(  26) = (   0.5000000   0.0000000   2.8420483  )
        27           H2  tau(  27) = (   0.0000300   0.7005108   1.7564369  )
        28           H2  tau(  28) = (   0.5000400   0.7015529   1.7568515  )
        29           H2  tau(  29) = (   0.1610500   0.0407627   1.6853097  )
        30           H2  tau(  30) = (   0.6609300   0.0408604   1.6868759  )
        31           O0  tau(  31) = (   0.5000700   0.5432134   2.9889094  )

     number of k points=    20  Methfessel-Paxton smearing, width (Ry)=  0.0100
                       cart. coord. in units 2pi/alat
        k(    1) = (   0.0000000   0.0000000   0.0000000), wk =   0.0625000
        k(    2) = (   0.0000000   0.2302962   0.0000000), wk =   0.1250000
        k(    3) = (   0.0000000  -0.4605925   0.0000000), wk =   0.0625000
        k(    4) = (   0.2500000   0.0000000   0.0000000), wk =   0.1250000
        k(    5) = (   0.2500000   0.2302962   0.0000000), wk =   0.1250000
        k(    6) = (   0.2500000  -0.4605925   0.0000000), wk =   0.1250000
        k(    7) = (  -0.5000000   0.0000000   0.0000000), wk =   0.0625000
        k(    8) = (  -0.5000000   0.2302962   0.0000000), wk =   0.1250000
        k(    9) = (  -0.5000000  -0.4605925   0.0000000), wk =   0.0625000
        k(   10) = (  -0.2500000   0.2302962   0.0000000), wk =   0.1250000
        k(   11) = (   0.0000000   0.0000000   0.0000000), wk =   0.0625000
        k(   12) = (   0.0000000   0.2302962   0.0000000), wk =   0.1250000
        k(   13) = (   0.0000000  -0.4605925   0.0000000), wk =   0.0625000
        k(   14) = (   0.2500000   0.0000000   0.0000000), wk =   0.1250000
        k(   15) = (   0.2500000   0.2302962   0.0000000), wk =   0.1250000
        k(   16) = (   0.2500000  -0.4605925   0.0000000), wk =   0.1250000
        k(   17) = (  -0.5000000   0.0000000   0.0000000), wk =   0.0625000
        k(   18) = (  -0.5000000   0.2302962   0.0000000), wk =   0.1250000
        k(   19) = (  -0.5000000  -0.4605925   0.0000000), wk =   0.0625000
        k(   20) = (  -0.2500000   0.2302962   0.0000000), wk =   0.1250000

     Largest allocated arrays     est. size (Mb)     dimensions
     Largest temporary arrays     est. size (Mb)     dimensions

     Check: negative/imaginary core charge=   -0.000022    0.000000

     Initial potential from superposition of free atoms
     Check: negative starting charge=(component1):   -0.000737
     Check: negative starting charge=(component2):   -0.000364

     starting charge  229.99987, renormalised to  238.00000

     negative rho (up, down):  0.762E-03 0.377E-03
     Number of +U iterations with fixed ns =  0
     Starting occupations:
 --- enter write_ns ---
 LDA+U parameters:
U( 2)     =  0.00000000
alpha( 2) =  0.00000000
atom    3   Tr[ns(na)] (up, down, total) =   5.00000  0.00000  5.00000
   spin  1
    eigenvalues:
  1.000  1.000  1.000  1.000  1.000
    eigenvectors:
  1.000  0.000  0.000  0.000  0.000
  0.000  1.000  0.000  0.000  0.000
  0.000  0.000  1.000  0.000  0.000
  0.000  0.000  0.000  1.000  0.000
  0.000  0.000  0.000  0.000  1.000
    occupations:
  1.000  0.000  0.000  0.000  0.000
  0.000  1.000  0.000  0.000  0.000
  0.000  0.000  1.000  0.000  0.000
  0.000  0.000  0.000  1.000  0.000
  0.000  0.000  0.000  0.000  1.000
   spin  2
    eigenvalues:
  0.000  0.000  0.000  0.000  0.000
    eigenvectors:
  1.000  0.000  0.000  0.000  0.000
  0.000  1.000  0.000  0.000  0.000
  0.000  0.000  1.000  0.000  0.000
  0.000  0.000  0.000  1.000  0.000
  0.000  0.000  0.000  0.000  1.000
    occupations:
  0.000  0.000  0.000  0.000  0.000
  0.000  0.000  0.000  0.000  0.000
  0.000  0.000  0.000  0.000  0.000
  0.000  0.000  0.000  0.000  0.000
  0.000  0.000  0.000  0.000  0.000
atomic mag. moment =     5.000000
atom    4   Tr[ns(na)] (up, down, total) =   5.00000  0.00000  5.00000
   spin  1
    eigenvalues:
  1.000  1.000  1.000  1.000  1.000
    eigenvectors:
  1.000  0.000  0.000  0.000  0.000
  0.000  1.000  0.000  0.000  0.000
  0.000  0.000  1.000  0.000  0.000
  0.000  0.000  0.000  1.000  0.000
  0.000  0.000  0.000  0.000  1.000
    occupations:
  1.000  0.000  0.000  0.000  0.000
  0.000  1.000  0.000  0.000  0.000
  0.000  0.000  1.000  0.000  0.000
  0.000  0.000  0.000  1.000  0.000
  0.000  0.000  0.000  0.000  1.000
   spin  2
    eigenvalues:
  0.000  0.000  0.000  0.000  0.000
    eigenvectors:
  1.000  0.000  0.000  0.000  0.000
  0.000  1.000  0.000  0.000  0.000
  0.000  0.000  1.000  0.000  0.000
  0.000  0.000  0.000  1.000  0.000
  0.000  0.000  0.000  0.000  1.000
    occupations:
  0.000  0.000  0.000  0.000  0.000
  0.000  0.000  0.000  0.000  0.000
  0.000  0.000  0.000  0.000  0.000
  0.000  0.000  0.000  0.000  0.000
  0.000  0.000  0.000  0.000  0.000
atomic mag. moment =     5.000000
atom    9   Tr[ns(na)] (up, down, total) =   5.00000  0.00000  5.00000
   spin  1
    eigenvalues:
  1.000  1.000  1.000  1.000  1.000
    eigenvectors:
  1.000  0.000  0.000  0.000  0.000
[...]
 -0.001 -0.000  0.215  0.000  0.000
 -0.018 -0.000  0.000  0.136 -0.000
 -0.000  0.000  0.000 -0.000  0.396
atomic mag. moment =     3.008093
atom   16   Tr[ns(na)] (up, down, total) =   4.10828  1.44495  5.55323
   spin  1
    eigenvalues:
  0.568  0.576  0.985  0.987  0.994
    eigenvectors:
  0.082  0.161  0.736  0.001  0.019
  0.737  0.260  0.002  0.000  0.000
  0.000  0.000  0.020  0.028  0.952
  0.180  0.578  0.237  0.000  0.004
  0.000  0.000  0.004  0.970  0.025
    occupations:
  0.884  0.019 -0.004 -0.176  0.001
  0.019  0.571  0.002 -0.006 -0.010
 -0.004  0.002  0.993 -0.005 -0.001
 -0.176 -0.006 -0.005  0.673  0.000
  0.001 -0.010 -0.001  0.000  0.987
   spin  2
    eigenvalues:
  0.167  0.210  0.247  0.397  0.424
    eigenvectors:
  0.777  0.000  0.002  0.186  0.035
  0.004  0.003  0.000  0.262  0.730
  0.001  0.160  0.839  0.001  0.000
  0.216  0.000  0.000  0.551  0.233
  0.001  0.837  0.159  0.001  0.002
    occupations:
  0.219 -0.010 -0.000  0.097 -0.002
 -0.010  0.415 -0.002  0.018  0.011
 -0.000 -0.002  0.241  0.005  0.014
  0.097  0.018  0.005  0.354  0.001
 -0.002  0.011  0.014  0.001  0.216
atomic mag. moment =     2.663324
atom   17   Tr[ns(na)] (up, down, total) =   4.09432  1.44547  5.53980
   spin  1
    eigenvalues:
  0.547  0.588  0.984  0.987  0.989
    eigenvectors:
  0.000  0.999  0.000  0.000  0.001
  0.000  0.001  0.124  0.012  0.863
  0.000  0.000  0.842  0.024  0.134
  0.000  0.000  0.034  0.964  0.002
  1.000  0.000  0.000  0.000  0.000
    occupations:
  0.588 -0.012 -0.004  0.004 -0.000
 -0.012  0.988  0.001  0.000  0.002
 -0.004  0.001  0.985  0.000  0.000
  0.004  0.000  0.000  0.987  0.000
 -0.000  0.002  0.000  0.000  0.547
   spin  2
    eigenvalues:
  0.147  0.207  0.254  0.412  0.425
    eigenvectors:
  0.001  0.006  0.000  0.000  0.993
  0.000  0.952  0.042  0.000  0.005
  0.000  0.042  0.957  0.000  0.001
  0.999  0.000  0.000  0.000  0.001
  0.000  0.000  0.000  1.000  0.000
    occupations:
  0.423  0.016  0.005 -0.008 -0.000
  0.016  0.210 -0.009  0.000 -0.001
  0.005 -0.009  0.252  0.001  0.000
 -0.008  0.000  0.001  0.148 -0.000
 -0.000 -0.001  0.000 -0.000  0.412
atomic mag. moment =     2.648850
atom   22   Tr[ns(na)] (up, down, total) =   3.97684  1.63647  5.61330
   spin  1
    eigenvalues:
  0.589  0.592  0.890  0.921  0.986
    eigenvectors:
  0.000  0.193  0.000  0.000  0.807
  0.999  0.001  0.000  0.000  0.000
  0.000  0.000  0.057  0.943  0.000
  0.001  0.806  0.000  0.000  0.193
  0.000  0.000  0.943  0.057  0.000
    occupations:
  0.909 -0.000 -0.000 -0.156 -0.000
 -0.000  0.589  0.000  0.000 -0.000
 -0.000  0.000  0.919  0.000  0.007
 -0.156  0.000  0.000  0.668  0.000
 -0.000 -0.000  0.007  0.000  0.892
   spin  2
    eigenvalues:
  0.225  0.255  0.270  0.422  0.464
    eigenvectors:
  0.843  0.000  0.000  0.157  0.000
  0.000  0.000  0.000  0.000  1.000
  0.000  0.893  0.107  0.000  0.000
  0.157  0.000  0.000  0.843  0.000
  0.000  0.107  0.893  0.000  0.000
    occupations:
  0.256  0.000  0.000  0.072 -0.000
  0.000  0.464 -0.000  0.000 -0.000
  0.000 -0.000  0.257 -0.000 -0.005
  0.072  0.000 -0.000  0.391  0.000
 -0.000 -0.000 -0.005  0.000  0.269
atomic mag. moment =     2.340371
atom   23   Tr[ns(na)] (up, down, total) =   3.72218  1.97616  5.69834
   spin  1
    eigenvalues:
  0.559  0.610  0.756  0.807  0.991
    eigenvectors:
  0.000  0.999  0.000  0.000  0.001
  0.000  0.000  0.000  1.000  0.000
  0.000  0.000  1.000  0.000  0.000
  0.000  0.001  0.000  0.000  0.999
  1.000  0.000  0.000  0.000  0.000
    occupations:
  0.610  0.000  0.000  0.010 -0.000
  0.000  0.807 -0.000  0.000  0.000
  0.000 -0.000  0.756 -0.000  0.000
  0.010  0.000 -0.000  0.991 -0.000
 -0.000  0.000  0.000 -0.000  0.559
   spin  2
    eigenvalues:
  0.158  0.435  0.436  0.441  0.506
    eigenvectors:
  0.000  0.000  0.000  0.000  1.000
  0.000  0.000  0.999  0.001  0.000
  0.000  1.000  0.000  0.000  0.000
  1.000  0.000  0.000  0.000  0.000
  0.000  0.000  0.001  0.999  0.000
    occupations:
  0.506 -0.000 -0.000 -0.007 -0.000
 -0.000  0.436  0.000 -0.000 -0.000
 -0.000  0.000  0.435  0.000 -0.000
 -0.007 -0.000  0.000  0.158  0.000
 -0.000 -0.000 -0.000  0.000  0.441
atomic mag. moment =     1.746025
N of occupied +U levels =  44.5948882
 --- exit write_ns ---

 ------ SPIN UP ------------

          k = 0.0000 0.0000 0.0000 ( 26393 PWs)   bands (ev):

   -84.2229 -84.2038 -84.1097 -84.0997 -83.9855 -83.9624 -83.8307 -83.8203
   -53.0066 -52.9338 -52.9146 -52.9106 -52.8675 -52.8523 -52.8511 -52.8444
   -52.8270 -52.7508 -52.7367 -52.7341 -52.7290 -52.7059 -52.6701 -52.6502
   -52.5851 -52.5769 -52.5667 -52.4857 -52.4661 -52.4421 -52.4111 -52.3917
   -22.1270 -21.5779 -21.3662 -21.1905 -20.7483 -20.5790 -20.4731 -20.3882
   -20.2329 -20.1848 -20.1789 -20.1191 -20.0594 -20.0013 -19.8960 -19.7117
   -19.5405 -19.2906 -19.1392 -10.0333  -9.8749  -9.7536  -9.4344  -9.2649
    -8.7554  -8.6442  -8.6097  -8.5075  -8.4524  -8.4323  -8.4130  -8.3648
    -8.0432  -7.9937  -7.9237  -7.7630  -7.6919  -7.6205  -7.4706  -7.4313
    -7.3931  -7.2941  -7.1287  -7.0366  -6.9004  -6.8820  -6.6173  -6.5506
    -6.2592  -6.2058  -6.1226  -6.1076  -5.9913  -5.7912  -5.7389  -5.6349
    -5.6238  -5.4904  -5.4350  -5.3163  -5.1864  -5.0981  -5.0009  -4.9695
    -4.9325  -4.8492  -4.7908  -4.7580  -4.7509  -4.5600  -4.5146  -4.4974
    -4.3229  -4.3029  -4.2229  -4.1625  -4.0386  -3.9898  -3.9615  -3.9160
    -3.6660  -3.6516  -3.5935  -3.5093  -3.3299  -3.0902  -3.0758  -2.9989
    -2.9511  -2.8470  -2.8422  -2.6929  -2.6123  -2.4586  -2.4215  -2.1696
    -2.0367  -2.0356  -1.9273  -1.8639  -1.7252  -0.9707  -0.7819  -0.6798
    -0.5811  -0.3192  -0.2268  -0.1305   0.2054   0.2455   0.2906   0.3745
     0.6508   0.9166   1.0587   1.1982   2.9371   3.7538   3.8910   4.3690
     4.8052   5.5514   6.0236   6.1526   6.5176   6.9744   7.0687   7.1074
     7.2688   7.5968   7.7287   7.8230   7.9431   8.1649   8.1759   8.1957
     8.2972   8.3750   8.4926   8.5286   8.6273   8.8939   8.9388   8.9866
     9.0208   9.1345   9.2774   9.3269   9.4063   9.4807   9.5546   9.6708
     9.8024   9.9268  10.0112  10.2179  10.2905  10.3004  10.4734  10.5265
    10.6712  10.7037  10.9660  10.9948  11.0382  11.0987  11.2811  11.3242
    11.5319  11.5724  11.6470  11.7716  11.8797  12.0154  12.1552  12.1997
    12.2359  12.2744  12.3139  12.3337  12.3930  12.4346  12.5393  12.5925
    12.6342  12.6855  12.7981  12.8126  12.8387  12.8876  12.9647  13.0425
    13.1550  13.1898  13.2465  13.2663  13.3514  13.4528  13.5267  13.5614
    13.7205  13.8159  13.8387  13.9031  13.9316  13.9417  14.1505  14.1743
    14.2459  14.2837  14.3607  14.4366  14.5772  14.6418  14.7258  14.8336
    14.8687  14.9125  15.1474  15.1761  15.2671  15.3032  15.3310  15.3532
    15.5272  15.7611  15.7986  15.8561  15.9374  16.0807  16.1985  16.3341
    16.3865  16.5469  16.5702  16.6673  16.7109  16.7822  17.0601  17.1307
    17.1750  17.3112  17.3762  17.5030  17.5647  17.6981  17.7387  17.8634
    17.9478  18.1630  18.2341  18.2513  18.2849  18.3579  18.4784  18.6618
    18.7023  18.8004  18.9024  18.9877  19.0181  19.1209  19.2060  19.3345
    19.4445  19.4860  19.5573  19.5670  19.6599  19.7352  19.7557  19.8616
    19.9246  19.9499  20.0227  20.0745  20.1540  20.2446  20.3465  20.3522
    20.4101  20.5718  20.6865  20.7533  20.9157  20.9619  21.1359  21.1805
    21.2701  21.2937  21.3362  21.4080  21.4598  21.5117  21.6015  21.6421
    21.7305  21.8074  22.0090  22.1147  22.2128  22.2535  22.3110  22.3676
    22.3860  22.4233  22.4481  22.5612  22.5950  22.6249  22.6485  22.7918
    22.8517

[...]

          k =-0.5000 0.0000 0.0000 ( 26466 PWs)   bands (ev):

[...]

 ------ SPIN DOWN ----------

[...]

          k = 0.2500-0.4606 0.0000 ( 26462 PWs)   bands (ev):

[...]

          k =-0.2500 0.2303 0.0000 ( 26396 PWs)   bands (ev):

   -82.0136 -80.8984 -80.8899 -80.8055 -80.7973 -80.7011 -80.6762 -80.5223
   -51.1295 -50.6090 -50.6036 -49.7996 -49.7918 -49.7868 -49.7175 -49.6832
   -49.6454 -49.6206 -49.5862 -49.5724 -49.5398 -49.5373 -49.5243 -49.5064
   -49.5004 -49.4769 -49.4695 -49.4515 -49.3283 -49.3053 -49.3026 -49.1219
   -21.8623 -21.4098 -21.2700 -20.9791 -20.7020 -20.5687 -20.4159 -20.3769
   -20.2436 -20.1866 -20.0974 -19.9754 -19.8864 -19.7773 -19.6207 -19.5357
   -19.4541 -19.1928 -19.0764  -9.4300  -9.1898  -8.8508  -8.7519  -8.6474
    -8.3235  -8.2010  -8.1369  -7.9756  -7.8176  -7.7351  -7.6689  -7.5840
    -7.4946  -7.4253  -7.2226  -7.1694  -7.0611  -6.9472  -6.8872  -6.7888
    -6.7002  -6.6441  -6.5146  -6.3708  -6.2656  -6.2057  -6.0740  -6.0296
    -5.9419  -5.8666  -5.7633  -5.7112  -5.6221  -5.5427  -5.4445  -5.3198
    -5.1588  -4.9743  -4.9004  -4.8197  -4.6584  -4.5710  -4.4634  -4.3911
    -4.3406  -4.2708  -4.1592  -3.9819  -3.8738  -3.7643  -3.6952  -3.5111
    -3.3647  -3.2495  -3.1104  -2.8677  -1.7942  -1.3574  -1.2925  -1.2464
    -1.1706  -1.1558  -1.0447  -1.0301  -0.9915  -0.8458  -0.7784  -0.7546
    -0.7130  -0.6744  -0.6155  -0.4989  -0.4729  -0.4070  -0.2641  -0.1611
    -0.1474   0.0430   0.1607   0.1908   0.2480   0.3140   0.7146   0.8373
     1.1199   1.1737   1.2693   1.4267   1.4399   1.6974   1.9695   2.0692
     2.1131   2.3060   2.4070   2.5276   3.5848   4.3155   4.5734   4.9805
     5.3772   5.6052   5.6236   6.1523   6.3156   6.5559   6.5754   6.7845
     6.8654   7.0220   7.0883   7.4248   7.5470   7.7873   7.9152   8.0568
     8.3352   8.4251   8.5807   8.6424   8.8386   8.9427   9.0563   9.1824
     9.2502   9.3207   9.5221   9.5742   9.7934   9.8808  10.0619  10.1284
    10.2435  10.2899  10.4090  10.4756  10.6203  10.7150  10.8128  10.9356
    11.0938  11.1440  11.2470  11.3145  11.4375  11.4889  11.6254  11.6748
    11.7071  11.8474  11.9195  12.0047  12.0264  12.1629  12.3568  12.4131
    12.4512  12.5613  12.5938  12.7320  12.8245  12.8927  12.9618  13.0074
    13.0777  13.1043  13.1977  13.2505  13.3793  13.4179  13.5065  13.5460
    13.6417  13.7492  13.7755  13.8359  13.9208  14.0067  14.1059  14.1369
    14.2667  14.3352  14.3766  14.4469  14.5159  14.6019  14.6334  14.6948
    14.8006  14.8535  14.9496  15.0277  15.0998  15.1488  15.2450  15.3218
    15.3608  15.4754  15.5646  15.6346  15.7194  15.8601  16.0088  16.0663
    16.1342  16.2057  16.2753  16.3310  16.4566  16.5551  16.5711  16.5948
    16.6888  16.7674  16.8703  17.0010  17.0541  17.0882  17.2111  17.2629
    17.3336  17.3690  17.4395  17.5117  17.6175  17.6526  17.7229  17.7808
    17.8817  17.8932  17.9485  18.0800  18.1555  18.2186  18.3130  18.3479
    18.3937  18.5335  18.6037  18.6773  18.7421  18.8026  18.9232  19.0252
    19.0783  19.1043  19.1926  19.2313  19.2648  19.4163  19.4860  19.5028
    19.6173  19.6844  19.8075  19.8641  19.9471  20.0130  20.0522  20.0978
    20.2220  20.3039  20.3137  20.3575  20.4187  20.5330  20.6283  20.7364
    20.8428  20.9192  21.0109  21.0557  21.0842  21.1620  21.2198  21.3702
    21.4182  21.4521  21.5263  21.6449  21.6629  21.7123  21.7593  21.8310
    21.9422  21.9992  22.1115  22.1736  22.2551  22.3971  22.4959  22.5238
    22.5739

     the spin up/dw Fermi energies are    -2.0459   -2.3045 ev

!    total energy              =   -2321.00619489 Ry
     Harris-Foulkes estimate   =   -2321.00619564 Ry
     estimated scf accuracy    <       0.00000094 Ry

     The total energy is the sum of the following terms:

     one-electron contribution =  -26491.65440414 Ry
     hartree contribution      =   13261.92398865 Ry
     xc contribution           =    -347.79252827 Ry
     ewald contribution        =   11256.51756076 Ry
     Hubbard energy            =       0.00000000 Ry
     smearing contrib. (-TS)   =      -0.00081189 Ry

     total magnetization       =    22.00 Bohr mag/cell
     absolute magnetization    =    23.02 Bohr mag/cell

     convergence has been achieved in  51 iterations

     Forces acting on atoms (Ry/au):

     negative rho (up, down):  0.221E-02 0.127E-02
     atom    1 type  1   force =    -0.00471293   -0.01543728   -0.00022376
     atom    2 type  1   force =     0.00024895    0.01198087    0.00026646
     atom    3 type  2   force =     0.04618904   -0.00372657    0.00017982
     atom    4 type  2   force =     0.00447982    0.01075727   -0.00033813
     atom    5 type  1   force =     0.00173326    0.01435227    0.00016879
     atom    6 type  1   force =    -0.00538401   -0.01578037    0.00026851
     atom    7 type  1   force =     0.00000103    0.00041743   -0.00045592
     atom    8 type  1   force =    -0.00023883   -0.00112119    0.00002407
     atom    9 type  2   force =     0.00737025   -0.00002182    0.00006886
     atom   10 type  2   force =     0.00000485   -0.00086449   -0.00059081
     atom   11 type  1   force =     0.00158091   -0.06726534   -0.00003677
     atom   12 type  1   force =     0.00141633    0.06744526   -0.00003740
     atom   13 type  1   force =    -0.00017030   -0.00015711   -0.00007118
     atom   14 type  1   force =    -0.00485309   -0.01578519    0.00002693
     atom   15 type  1   force =     0.00024074    0.01164116    0.00014800
     atom   16 type  2   force =    -0.04687569   -0.00352930    0.00014967
     atom   17 type  2   force =     0.00408932    0.01060994   -0.00009644
     atom   18 type  1   force =     0.00595401    0.01395810    0.00015702
     atom   19 type  1   force =    -0.00063536   -0.01597789    0.00021115
     atom   20 type  1   force =    -0.00016149   -0.00056342    0.00081347
     atom   21 type  1   force =    -0.00038917   -0.00107457    0.00015421
     atom   22 type  2   force =    -0.00661949    0.00025715    0.00009795
     atom   23 type  2   force =    -0.00013047   -0.00014582   -0.00007894
     atom   24 type  1   force =    -0.00150062   -0.06734726   -0.00003400
     atom   25 type  1   force =    -0.00131993    0.06742447   -0.00004948
     atom   26 type  1   force =    -0.00025620   -0.00013615   -0.00011632
     atom   27 type  3   force =    -0.00001119   -0.00011268   -0.00012066
     atom   28 type  3   force =    -0.00000426    0.00002933   -0.00037442
     atom   29 type  3   force =     0.00002625    0.00012926   -0.00009462
     atom   30 type  3   force =    -0.00005472    0.00005595   -0.00040648
     atom   31 type  1   force =    -0.00001702   -0.00001202    0.00039043

     Total force =     0.001516     Total SCF correction =     0.002982
     SCF correction compared to forces is large: reduce conv_thr to get better values

     BFGS Geometry Optimization

     bfgs converged in   1 scf cycles and   0 bfgs steps
     (criteria: energy < 0.10E-03, force < 0.10E-02)

     End of BFGS Geometry Optimization

     Final energy   =   -2321.0061948896 Ry
Begin final coordinates

ATOMIC_POSITIONS (crystal)
O0       0.000000000   0.000000000   0.377710000    0   0   1
O0       0.000000000   0.500000000   0.398040000    0   0   1
Mn1      0.250000000   0.500000000   0.449420000    0   0   1
Mn1      0.000000000   0.000000000   0.448580000    0   0   1
O0       0.250000000   0.800000000   0.448810000    0   0   1
O0       0.250000000   0.200000000   0.449650000    0   0   1
O0       0.000000000   0.500000000   0.496090000    0   0   1
O0       0.000000000   0.000000000   0.523820000    0   0   1
Mn1      0.250000000   0.000000000   0.573180000    0   0   1
Mn1      0.000000000   0.500000000   0.566580000    0   0   1
O0       0.250000000   0.700000000   0.576340000    0   0   1
O0       0.250000000   0.300000000   0.576410000    0   0   1
O0       0.000000000   0.000000000   0.616990000    0   0   1
O0       0.500000000   0.000000000   0.378100000    0   0   1
O0       0.500000000   0.500000000   0.397780000    0   0   1
Mn1      0.750000000   0.500000000   0.449420000    0   0   1
Mn1      0.500000000   0.000000000   0.449120000    0   0   1
O0       0.750000000   0.800000000   0.448770000    0   0   1
O0       0.750000000   0.200000000   0.449700000    0   0   1
O0       0.500000000   0.500000000   0.494290000    0   0   1
O0       0.500000000   0.000000000   0.523890000    0   0   1
Mn1      0.750000000   0.000000000   0.573190000    0   0   1
Mn1      0.500000000   0.500000000   0.588130000    0   0   1
O0       0.750000000   0.700000000   0.576330000    0   0   1
O0       0.750000000   0.300000000   0.576390000    0   0   1
O0       0.500000000   0.000000000   0.616940000    0   0   1
H2       0.000030000   0.645300000   0.381280000
H2       0.500040000   0.646260000   0.381370000
H2       0.161050000   0.037550000   0.365840000
H2       0.660930000   0.037640000   0.366180000
O0       0.500070000   0.500400000   0.648820000
End final coordinates

     General routines

     Parallel routines
     Hubbard U routines

   This run was terminated on:   3:33:34  13May2014

   JOB DONE.