     Program PWSCF v.5.0.2 (svn rev. 9656) starts on  5May2014 at 12:39:16

     Current dimensions of program PWSCF are:
     Max number of different atomic species (ntypx) = 10
     Max number of k-points (npk) =  40000
     Max angular momentum in pseudopotentials (lmaxx) =  3
     Reading input from pwscf.in
Warning: card &CELL ignored
Warning: card / ignored

     Subspace diagonalization in iterative solution of the eigenvalue problem:
     a serial algorithm will be used

     Found symmetry operation: I + ( -0.5000  0.0000  0.0000)
     This is a supercell, fractional translations are disabled

     bravais-lattice index     =            0
     lattice parameter (alat)  =      10.3179  a.u.
     unit-cell volume          =    6964.3238 (a.u.)^3
     number of atoms/cell      =           30
     number of atomic types    =            3
     number of electrons       =       224.00
     number of Kohn-Sham states=          336
     kinetic-energy cutoff     =      40.0000  Ry
     charge density cutoff     =     500.0000  Ry
     convergence threshold     =      1.0E-06
     mixing beta               =       0.7000
     number of iterations used =            8  plain     mixing
     Exchange-correlation      = SLA  PW   PBE  PBE ( 1 4 3 4 0)
     EXX-fraction              =        0.00
     nstep                     =           50

     celldm(1)=  10.317905  celldm(2)=   0.000000  celldm(3)=   0.000000
     celldm(4)=   0.000000  celldm(5)=   0.000000  celldm(6)=   0.000000

     crystal axes: (cart. coord. in units of alat)
               a(1) = (   1.000000   0.000000   0.000000 )
               a(2) = (   0.000000   1.282117   0.000000 )
               a(3) = (   0.000000   0.000000   4.945120 )

     reciprocal axes: (cart. coord. in units 2 pi/alat)
               b(1) = (  1.000000  0.000000  0.000000 )
               b(2) = (  0.000000  0.779960  0.000000 )
               b(3) = (  0.000000  0.000000  0.202220 )

     PseudoPot. # 1 for O  read from file:
     /home/camp/zhonxu/pseudo/o_pbe_v1.01.uspp.F.UPF
     MD5 check sum: 2bcb18d16ea4b960afae9ec6d52f22d2
     Pseudo is Ultrasoft + core correction, Zval =  6.0
     Generated by new atomic code, or converted to UPF format
     Using radial grid of  737 points,  5 beta functions with:
                l(1) =   0
                l(2) =   0
                l(3) =   1
                l(4) =   1
                l(5) =   2
     Q(r) pseudized with  8 coefficients,  rinner =    0.900   0.900   0.900
                                                       0.900   0.900

     PseudoPot. # 2 for Mo read from file:
     /home/camp/zhonxu/pseudo/mo_pbe_v1.uspp.F.UPF
     MD5 check sum: 30c4dcd161f5d35cd49bb5239c51a633
     Pseudo is Ultrasoft + core correction, Zval = 14.0
     Generated by new atomic code, or converted to UPF format
     Using radial grid of  889 points,  6 beta functions with:
                l(1) =   0
                l(2) =   0
                l(3) =   1
                l(4) =   1
                l(5) =   2
                l(6) =   2
     Q(r) pseudized with  6 coefficients,  rinner =    1.000   1.000   1.000
                                                       1.000   1.000

     PseudoPot. # 3 for H  read from file:
     /home/camp/zhonxu/pseudo/h_pbe_v1.uspp.F.UPF
     MD5 check sum: 3408e3ff4ec8b0a4e358431e7e038a48
     Pseudo is Ultrasoft, Zval =  1.0
     Generated by new atomic code, or converted to UPF format
     Using radial grid of  615 points,  2 beta functions with:
                l(1) =   0
                l(2) =   0
     Q(r) pseudized with  8 coefficients,  rinner =    0.700

     atomic species   valence    mass     pseudopotential
        O0             6.00    15.99940     O ( 1.00)
        Mo1           14.00    95.94000     Mo( 1.00)
        H2             1.00     1.00794     H ( 1.00)

     Simplified LDA+U calculation (l_max = 2) with parameters (eV):
     atomic species    L          U    alpha       J0     beta
        Mo1            2     4.0000   0.0000   0.0000   0.0000

     No symmetry found

   Cartesian axes

     site n.     atom                  positions (alat units)
         1           O0  tau(   1) = (   0.0000000   0.0000000   1.8465574  )
         2           O0  tau(   2) = (   0.0000000   0.6410583   1.8808271  )
         3           Mo1 tau(   3) = (   0.2500000   0.6410583   2.1650231  )
         4           Mo1 tau(   4) = (   0.0000000   0.0000000   2.2064633  )
         5           O0  tau(   5) = (   0.2500000   1.0000510   2.1927158  )
         6           O0  tau(   6) = (   0.2500000   0.2820657   2.1921224  )
         7           O0  tau(   7) = (   0.0000000   0.6410583   2.4520379  )
         8           O0  tau(   8) = (   0.0000000   0.0000000   2.5658746  )
         9           Mo1 tau(   9) = (   0.2500000   0.0000000   2.8596642  )
        10           Mo1 tau(  10) = (   0.0000000   0.6410583   2.7884050  )
        11           O0  tau(  11) = (   0.2500000   0.9231240   2.8369661  )
        12           O0  tau(  12) = (   0.2500000   0.3589927   2.8372628  )
        13           O0  tau(  13) = (   0.0000000   0.0000000   3.1104807  )
        14           O0  tau(  14) = (   0.5000000   0.0000000   1.8465574  )
        15           O0  tau(  15) = (   0.5000000   0.6410583   1.8808271  )
        16           Mo1 tau(  16) = (   0.7500000   0.6410583   2.1650231  )
        17           Mo1 tau(  17) = (   0.5000000   0.0000000   2.2064633  )
        18           O0  tau(  18) = (   0.7500000   1.0000510   2.1927158  )
        19           O0  tau(  19) = (   0.7500000   0.2820657   2.1921224  )
        20           O0  tau(  20) = (   0.5000000   0.6410583   2.4520379  )
        21           O0  tau(  21) = (   0.5000000   0.0000000   2.5658746  )
        22           Mo1 tau(  22) = (   0.7500000   0.0000000   2.8596642  )
        23           Mo1 tau(  23) = (   0.5000000   0.6410583   2.7884050  )
        24           O0  tau(  24) = (   0.7500000   0.9231240   2.8369661  )
        25           O0  tau(  25) = (   0.7500000   0.3589927   2.8372628  )
        26           O0  tau(  26) = (   0.5000000   0.0000000   3.1104807  )
        27           H2  tau(  27) = (  -0.0004900   0.7868222   1.7746059  )
        28           H2  tau(  28) = (   0.4995100   0.7868222   1.7746059  )
        29           H2  tau(  29) = (   0.1657500   0.0265270   1.7749026  )
        30           H2  tau(  30) = (   0.6657500   0.0265270   1.7749026  )

     number of k points=    10  Methfessel-Paxton smearing, width (Ry)=  0.0100
                       cart. coord. in units 2pi/alat
        k(    1) = (   0.0000000   0.0000000   0.0000000), wk =   0.1250000
        k(    2) = (   0.0000000   0.1949901   0.0000000), wk =   0.2500000
        k(    3) = (   0.0000000  -0.3899801   0.0000000), wk =   0.1250000
        k(    4) = (   0.2500000   0.0000000   0.0000000), wk =   0.2500000
        k(    5) = (   0.2500000   0.1949901   0.0000000), wk =   0.2500000
        k(    6) = (   0.2500000  -0.3899801   0.0000000), wk =   0.2500000
        k(    7) = (  -0.5000000   0.0000000   0.0000000), wk =   0.1250000
        k(    8) = (  -0.5000000   0.1949901   0.0000000), wk =   0.2500000
        k(    9) = (  -0.5000000  -0.3899801   0.0000000), wk =   0.1250000
        k(   10) = (  -0.2500000   0.1949901   0.0000000), wk =   0.2500000

     Largest allocated arrays     est. size (Mb)     dimensions
     Largest temporary arrays     est. size (Mb)     dimensions

     Check: negative/imaginary core charge=   -0.000003    0.000000

     Initial potential from superposition of free atoms
     Check: negative starting charge=   -0.002478

     starting charge  223.99143, renormalised to  224.00000

     negative rho (up, down):  0.248E-02 0.000E+00
     Number of +U iterations with fixed ns =  0
     Starting occupations:
 --- enter write_ns ---
 LDA+U parameters:
U( 2)     =  4.00000000
alpha( 2) =  0.00000000
atom    3   Tr[ns(na)] =   5.00000
    eigenvalues:
  0.500  0.500  0.500  0.500  0.500
    eigenvectors:
  1.000  0.000  0.000  0.000  0.000
  0.000  1.000  0.000  0.000  0.000
  0.000  0.000  1.000  0.000  0.000
  0.000  0.000  0.000  1.000  0.000
  0.000  0.000  0.000  0.000  1.000
    occupations:
  0.500  0.000  0.000  0.000  0.000
  0.000  0.500  0.000  0.000  0.000
  0.000  0.000  0.500  0.000  0.000
  0.000  0.000  0.000  0.500  0.000
  0.000  0.000  0.000  0.000  0.500
atom    4   Tr[ns(na)] =   5.00000
    eigenvalues:
  0.500  0.500  0.500  0.500  0.500
    eigenvectors:
  1.000  0.000  0.000  0.000  0.000
  0.000  1.000  0.000  0.000  0.000
  0.000  0.000  1.000  0.000  0.000
  0.000  0.000  0.000  1.000  0.000
  0.000  0.000  0.000  0.000  1.000
    occupations:
  0.500  0.000  0.000  0.000  0.000
  0.000  0.500  0.000  0.000  0.000
  0.000  0.000  0.500  0.000  0.000
  0.000  0.000  0.000  0.500  0.000
  0.000  0.000  0.000  0.000  0.500
atom    9   Tr[ns(na)] =   5.00000
    eigenvalues:
  0.500  0.500  0.500  0.500  0.500
    eigenvectors:
  1.000  0.000  0.000  0.000  0.000
  0.000  1.000  0.000  0.000  0.000
  0.000  0.000  1.000  0.000  0.000
  0.000  0.000  0.000  1.000  0.000
  0.000  0.000  0.000  0.000  1.000
    occupations:
  0.500  0.000  0.000  0.000  0.000
  0.000  0.500  0.000  0.000  0.000
  0.000  0.000  0.500  0.000  0.000
  0.000  0.000  0.000  0.500  0.000
  0.000  0.000  0.000  0.000  0.500
atom   10   Tr[ns(na)] =   5.00000
    eigenvalues:
  0.500  0.500  0.500  0.500  0.500
    eigenvectors:
  1.000  0.000  0.000  0.000  0.000
  0.000  1.000  0.000  0.000  0.000
  0.000  0.000  1.000  0.000  0.000
  0.000  0.000  0.000  1.000  0.000
  0.000  0.000  0.000  0.000  1.000
    occupations:
  0.500  0.000  0.000  0.000  0.000
  0.000  0.500  0.000  0.000  0.000
  0.000  0.000  0.500  0.000  0.000
  0.000  0.000  0.000  0.500  0.000
  0.000  0.000  0.000  0.000  0.500
atom   16   Tr[ns(na)] =   5.00000
    eigenvalues:
  0.500  0.500  0.500  0.500  0.500
    eigenvectors:
  1.000  0.000  0.000  0.000  0.000
  0.000  1.000  0.000  0.000  0.000
  0.000  0.000  1.000  0.000  0.000
  0.000  0.000  0.000  1.000  0.000
  0.000  0.000  0.000  0.000  1.000
    occupations:
  0.500  0.000  0.000  0.000  0.000
  0.000  0.500  0.000  0.000  0.000
  0.000  0.000  0.500  0.000  0.000
  0.000  0.000  0.000  0.500  0.000
  0.000  0.000  0.000  0.000  0.500
atom   17   Tr[ns(na)] =   5.00000
    eigenvalues:
  0.500  0.500  0.500  0.500  0.500
    eigenvectors:
  1.000  0.000  0.000  0.000  0.000
  0.000  1.000  0.000  0.000  0.000
  0.000  0.000  1.000  0.000  0.000
  0.000  0.000  0.000  1.000  0.000
  0.000  0.000  0.000  0.000  1.000
    occupations:
  0.500  0.000  0.000  0.000  0.000
  0.000  0.500  0.000  0.000  0.000
  0.000  0.000  0.500  0.000  0.000
  0.000  0.000  0.000  0.500  0.000
  0.000  0.000  0.000  0.000  0.500
atom   22   Tr[ns(na)] =   5.00000
    eigenvalues:
  0.500  0.500  0.500  0.500  0.500
    eigenvectors:
  1.000  0.000  0.000  0.000  0.000
  0.000  1.000  0.000  0.000  0.000
  0.000  0.000  1.000  0.000  0.000
  0.000  0.000  0.000  1.000  0.000
  0.000  0.000  0.000  0.000  1.000
    occupations:
[...]
  0.000  1.000  0.000  0.000  0.000
    occupations:
  0.586  0.005  0.001 -0.002  0.000
  0.005  0.636  0.005 -0.001 -0.000
  0.001  0.005  0.426 -0.002  0.000
 -0.002 -0.001 -0.002  0.747  0.000
  0.000 -0.000  0.000  0.000  0.523
atom    9   Tr[ns(na)] =   5.84118
    eigenvalues:
  0.505  0.508  0.586  0.593  0.729
    eigenvectors:
  0.000  0.000  0.230  0.000  0.770
  0.000  0.000  0.000  1.000  0.000
  0.002  0.998  0.000  0.000  0.000
  0.000  0.000  0.770  0.000  0.230
  0.998  0.002  0.000  0.000  0.000
    occupations:
  0.696  0.000  0.002 -0.060 -0.002
  0.000  0.593 -0.000  0.000 -0.001
  0.002 -0.000  0.508 -0.001  0.000
 -0.060  0.000 -0.001  0.619  0.001
 -0.002 -0.001  0.000  0.001  0.505
atom   10   Tr[ns(na)] =   5.79558
    eigenvalues:
  0.462  0.497  0.501  0.671  0.766
    eigenvectors:
  0.007  0.990  0.000  0.000  0.003
  0.000  0.000  0.000  1.000  0.000
  0.993  0.007  0.000  0.000  0.000
  0.000  0.003  0.000  0.000  0.997
  0.000  0.000  1.000  0.000  0.000
    occupations:
  0.498  0.000 -0.003 -0.014 -0.000
  0.000  0.671 -0.001  0.000  0.000
 -0.003 -0.001  0.463  0.001 -0.000
 -0.014  0.000  0.001  0.766  0.000
 -0.000  0.000 -0.000  0.000  0.501
atom   16   Tr[ns(na)] =   5.84166
    eigenvalues:
  0.457  0.492  0.560  0.651  0.760
    eigenvectors:
  0.012  0.000  0.327  0.000  0.662
  0.000  0.999  0.000  0.001  0.000
  0.988  0.000  0.003  0.000  0.009
  0.000  0.000  0.671  0.000  0.329
  0.000  0.001  0.000  0.999  0.000
    occupations:
  0.691  0.000  0.027 -0.093 -0.000
  0.000  0.492 -0.000 -0.000 -0.005
  0.027 -0.000  0.460 -0.013 -0.000
 -0.093 -0.000 -0.013  0.626  0.000
 -0.000 -0.005 -0.000  0.000  0.651
atom   17   Tr[ns(na)] =   5.83706
    eigenvalues:
  0.426  0.523  0.586  0.637  0.747
    eigenvectors:
  0.000  0.000  0.991  0.008  0.000
  0.001  0.000  0.009  0.991  0.000
  0.999  0.000  0.000  0.001  0.000
  0.000  0.000  0.000  0.000  1.000
  0.000  1.000  0.000  0.000  0.000
    occupations:
  0.586  0.005  0.001 -0.002  0.000
  0.005  0.636  0.005 -0.001 -0.000
  0.001  0.005  0.426 -0.002  0.000
 -0.002 -0.001 -0.002  0.747  0.000
  0.000 -0.000  0.000  0.000  0.523
atom   22   Tr[ns(na)] =   5.84114
    eigenvalues:
  0.505  0.508  0.586  0.593  0.729
    eigenvectors:
  0.000  0.000  0.230  0.000  0.770
  0.000  0.000  0.000  1.000  0.000
  0.002  0.998  0.000  0.000  0.000
  0.000  0.000  0.770  0.000  0.230
  0.998  0.002  0.000  0.000  0.000
    occupations:
  0.696  0.000  0.002 -0.060 -0.002
  0.000  0.593 -0.000  0.000 -0.001
  0.002 -0.000  0.508 -0.001  0.000
 -0.060  0.000 -0.001  0.619  0.001
 -0.002 -0.001  0.000  0.001  0.505
atom   23   Tr[ns(na)] =   5.79562
    eigenvalues:
  0.462  0.497  0.501  0.671  0.766
    eigenvectors:
  0.007  0.990  0.000  0.000  0.003
  0.000  0.000  0.000  1.000  0.000
  0.993  0.007  0.000  0.000  0.000
  0.000  0.003  0.000  0.000  0.997
  0.000  0.000  1.000  0.000  0.000
    occupations:
  0.498  0.000 -0.003 -0.014 -0.000
  0.000  0.671 -0.001 -0.000  0.000
 -0.003 -0.001  0.463  0.001 -0.000
 -0.014 -0.000  0.001  0.766  0.000
 -0.000  0.000 -0.000  0.000  0.501
N of occupied +U levels =  46.6310837
 --- exit write_ns ---

     Threshold (ethr) on eigenvalues was too large:
     Diagonalizing with lowered threshold

     Davidson diagonalization with overlap
     ethr =  7.42E-09,  avg # of iterations =  3.0

[...]

     total energy              =   -1697.46000419 Ry
     Harris-Foulkes estimate   =   -1697.46000420 Ry
     estimated scf accuracy    <       0.00000006 Ry

     iteration # 14     ecut=    40.00 Ry     beta=0.70
     Davidson diagonalization with overlap
     ethr =  7.95E-12,  avg # of iterations =  1.0

     negative rho (up, down):  0.355E-02 0.000E+00

     End of self-consistent calculation
 --- enter write_ns ---
 LDA+U parameters:
U( 2)     =  4.00000000
alpha( 2) =  0.00000000
atom    3   Tr[ns(na)] =   5.84265
    eigenvalues:
  0.457  0.492  0.560  0.651  0.760
    eigenvectors:
  0.012  0.000  0.327  0.000  0.662
  0.000  0.999  0.000  0.001  0.000
  0.988  0.000  0.003  0.000  0.009
  0.000  0.000  0.671  0.000  0.329
  0.000  0.001  0.000  0.999  0.000
    occupations:
  0.691  0.000  0.027 -0.093 -0.000
  0.000  0.492 -0.000 -0.000 -0.005
  0.027 -0.000  0.460 -0.013 -0.000
 -0.093 -0.000 -0.013  0.626  0.000
 -0.000 -0.005 -0.000  0.000  0.651
atom    4   Tr[ns(na)] =   5.83663
    eigenvalues:
  0.426  0.523  0.586  0.637  0.747
    eigenvectors:
  0.000  0.000  0.991  0.009  0.000
  0.001  0.000  0.009  0.991  0.000
  0.999  0.000  0.000  0.001  0.000
  0.000  0.000  0.000  0.000  1.000
  0.000  1.000  0.000  0.000  0.000
    occupations:
  0.586  0.005  0.001 -0.002  0.000
  0.005  0.636  0.005 -0.001 -0.000
  0.001  0.005  0.426 -0.002  0.000
 -0.002 -0.001 -0.002  0.747  0.000
  0.000 -0.000  0.000  0.000  0.523
atom    9   Tr[ns(na)] =   5.84115
    eigenvalues:
  0.505  0.508  0.586  0.593  0.729
    eigenvectors:
  0.000  0.000  0.230  0.000  0.770
  0.000  0.000  0.000  1.000  0.000
  0.002  0.998  0.000  0.000  0.000
  0.000  0.000  0.770  0.000  0.230
  0.998  0.002  0.000  0.000  0.000
    occupations:
  0.696  0.000  0.002 -0.060 -0.002
  0.000  0.593 -0.000  0.000 -0.001
  0.002 -0.000  0.508 -0.001  0.000
 -0.060  0.000 -0.001  0.619  0.001
 -0.002 -0.001  0.000  0.001  0.505
atom   10   Tr[ns(na)] =   5.79471
    eigenvalues:
  0.462  0.497  0.501  0.671  0.766
    eigenvectors:
  0.007  0.990  0.000  0.000  0.003
  0.000  0.000  0.000  1.000  0.000
  0.993  0.007  0.000  0.000  0.000
  0.000  0.003  0.000  0.000  0.997
  0.000  0.000  1.000  0.000  0.000
    occupations:
  0.497  0.000 -0.003 -0.014 -0.000
  0.000  0.671 -0.001 -0.000  0.000
 -0.003 -0.001  0.462  0.001 -0.000
 -0.014 -0.000  0.001  0.766  0.000
 -0.000  0.000 -0.000  0.000  0.501
atom   16   Tr[ns(na)] =   5.84267
    eigenvalues:
  0.457  0.492  0.560  0.651  0.760
    eigenvectors:
  0.012  0.000  0.327  0.000  0.662
  0.000  0.999  0.000  0.001  0.000
  0.988  0.000  0.003  0.000  0.009
  0.000  0.000  0.671  0.000  0.329
  0.000  0.001  0.000  0.999  0.000
    occupations:
  0.692  0.000  0.027 -0.093 -0.000
  0.000  0.492 -0.000 -0.000 -0.005
  0.027 -0.000  0.460 -0.013 -0.000
 -0.093 -0.000 -0.013  0.626  0.000
 -0.000 -0.005 -0.000  0.000  0.651
atom   17   Tr[ns(na)] =   5.83661
    eigenvalues:
  0.426  0.523  0.586  0.637  0.747
    eigenvectors:
  0.000  0.000  0.991  0.009  0.000
  0.001  0.000  0.009  0.991  0.000
  0.999  0.000  0.000  0.001  0.000
  0.000  0.000  0.000  0.000  1.000
  0.000  1.000  0.000  0.000  0.000
    occupations:
  0.586  0.005  0.001 -0.002  0.000
  0.005  0.636  0.005 -0.001 -0.000
  0.001  0.005  0.426 -0.002  0.000
 -0.002 -0.001 -0.002  0.747  0.000
  0.000 -0.000  0.000  0.000  0.523
atom   22   Tr[ns(na)] =   5.84113
    eigenvalues:
  0.505  0.508  0.586  0.593  0.729
    eigenvectors:
  0.000  0.000  0.230  0.000  0.770
  0.000  0.000  0.000  1.000  0.000
  0.002  0.998  0.000  0.000  0.000
  0.000  0.000  0.770  0.000  0.230
  0.998  0.002  0.000  0.000  0.000
    occupations:
  0.696  0.000  0.002 -0.060 -0.002
  0.000  0.593 -0.000  0.000 -0.001
  0.002 -0.000  0.508 -0.001  0.000
 -0.060  0.000 -0.001  0.619  0.001
 -0.002 -0.001  0.000  0.001  0.505
atom   23   Tr[ns(na)] =   5.79471
    eigenvalues:
  0.462  0.497  0.501  0.671  0.766
    eigenvectors:
  0.007  0.990  0.000  0.000  0.003
  0.000  0.000  0.000  1.000  0.000
  0.993  0.007  0.000  0.000  0.000
  0.000  0.003  0.000  0.000  0.997
  0.000  0.000  1.000  0.000  0.000
    occupations:
  0.497  0.000 -0.003 -0.014 -0.000
  0.000  0.671 -0.001 -0.000  0.000
 -0.003 -0.001  0.462  0.001 -0.000
 -0.014 -0.000  0.001  0.766  0.000
 -0.000  0.000 -0.000  0.000  0.501
N of occupied +U levels =  46.6302542
 --- exit write_ns ---

[...]

          k = 0.2500-0.3900 0.0000 ( 29726 PWs)   bands (ev):

[...]

          k =-0.2500 0.1950 0.0000 ( 29746 PWs)   bands (ev):

   -62.2823 -62.2295 -62.1952 -62.1484 -62.0185 -62.0042 -61.9372 -61.9226
   -36.8105 -36.7700 -36.7189 -36.6899 -36.6404 -36.4327 -36.3602 -36.3293
   -36.3284 -36.3182 -36.2945 -36.2365 -36.2257 -36.2232 -36.2178 -36.1795
   -36.1687 -36.0805 -36.0455 -36.0322 -36.0141 -35.7100 -35.5859 -35.5659
   -20.7604 -20.4997 -19.8871 -19.7087 -19.6575 -19.5616 -19.4802 -19.3787
   -19.2218 -19.1497 -19.0547 -18.8874 -18.8242 -18.7435 -18.6958 -18.5213
   -18.1354 -17.9752  -8.8041  -8.6295  -8.1129  -7.9091  -7.6870  -7.6869
    -7.6580  -7.5268  -7.3244  -7.3058  -7.2642  -7.1566  -6.9548  -6.8094
    -6.7345  -6.3775  -6.2545  -6.2032  -6.1224  -5.9845  -5.8826  -5.8457
    -5.7368  -5.6077  -5.4698  -5.3337  -5.2674  -5.1743  -5.0050  -4.9496
    -4.7705  -4.6381  -4.5981  -4.4934  -4.4240  -4.3562  -4.2828  -4.2744
    -4.1505  -4.1220  -4.0276  -3.9226  -3.8187  -3.7104  -3.4949  -3.3724
    -3.3672  -3.2798  -3.1707  -3.0209  -2.9965  -2.7672  -2.6590  -2.4584
    -2.1595  -1.9788  -1.6894  -0.8463  -0.6883  -0.5996  -0.3498   0.1646
     0.1665   0.4793   0.7268   0.7972   0.9469   1.1396   1.1399   1.3189
     1.4841   1.5370   1.5552   1.7090   1.7217   1.7627   1.8808   2.1194
     2.3148   2.5378   3.3276   3.4534   3.7185   3.7597   3.9383   4.1028
     4.3446   4.3998   4.5352   4.6188   4.6941   4.8058   4.9355   5.1662
     5.5193   5.6903   5.7567   5.8661   5.9197   6.0987   6.3158   6.3982
     6.5471   6.6548   6.9669   6.9935   7.1015   7.2651   7.5124   7.5945
     7.9156   7.9340   8.1860   8.2784   8.2821   8.4755   8.6398   8.6596
     8.9062   8.9960   9.0712   9.3017   9.3875   9.4214   9.5028   9.5551
     9.5660   9.6046   9.8300   9.9795  10.0342  10.1870  10.2372  10.2737
    10.4707  10.4977  10.6438  10.7351  10.7376  10.9562  11.0827  11.0899
    11.1016  11.2509  11.5397  11.6087  11.6137  11.7400  11.8059  11.9060
    11.9654  12.0766  12.2746  12.3044  12.3484  12.3609  12.4481  12.6201
    12.6710  12.7617  12.8772  12.8927  12.9741  13.0982  13.1063  13.1910
    13.3233  13.4328  13.4374  13.5090  13.5099  13.6379  13.6640  13.7283
    13.8583  13.8914  13.9685  13.9827  14.1304  14.1505  14.2392  14.3467
    14.3938  14.4503  14.5028  14.5590  14.6067  14.7320  14.8403  14.8518
    14.9566  15.0424  15.0660  15.2168  15.2957  15.4098  15.4908  15.5536
    15.6472  15.6607  15.7655  15.8421  15.8957  15.9598  16.0515  16.1028
    16.2004  16.2780  16.2935  16.3471  16.3781  16.4510  16.5789  16.7116
    16.7191  16.7679  16.7771  16.8921  17.0038  17.0973  17.1768  17.2094
    17.2297  17.3100  17.3448  17.4122  17.4968  17.6788  17.6891  17.8013
    17.9063  17.9138  18.0924  18.1016  18.1801  18.2517  18.3469  18.3828
    18.4236  18.4355  18.5363  18.5717  18.6155  18.8015  18.8742  19.0195
    19.0644  19.1232  19.1410  19.2593  19.3093  19.4941  19.5748  19.6025
    19.7170  19.7823  19.8160  19.9089  19.9614  20.0850  20.1493  20.1764
    20.1920  20.2570  20.3422  20.3858  20.4054  20.4228  20.5109  20.5337
    20.6557  20.6952  20.7446  20.8270  20.9285  20.9636  21.0333  21.0705
    21.1181  21.2044  21.2171  21.3070  21.4236  21.4704  21.5517  21.6384

     the Fermi energy is     0.1038 ev

!    total energy              =   -1697.46000420 Ry
     Harris-Foulkes estimate   =   -1697.46000420 Ry
     estimated scf accuracy    <          1.7E-09 Ry

     The total energy is the sum of the following terms:

     one-electron contribution =  -21411.93663096 Ry
     hartree contribution      =   10728.01054489 Ry
     xc contribution           =    -286.64137081 Ry
     ewald contribution        =    9270.38041395 Ry
     Hubbard energy            =       2.72867368 Ry
     smearing contrib. (-TS)   =      -0.00163495 Ry

     convergence has been achieved in  14 iterations

     Forces acting on atoms (Ry/au):

     negative rho (up, down):  0.355E-02 0.000E+00
     atom    1 type  1   force =    -0.00233608   -0.00509081   -0.00031436
     atom    2 type  1   force =    -0.00005652    0.01025633   -0.00001432
     atom    3 type  2   force =    -0.00022088   -0.00559091    0.00055861
     atom    4 type  2   force =    -0.00066430    0.00289245   -0.00015548
     atom    5 type  1   force =     0.00149034   -0.01476836   -0.00030009
     atom    6 type  1   force =     0.00003059    0.01219445   -0.00026818
     atom    7 type  1   force =     0.00016521    0.00070320   -0.00020046
     atom    8 type  1   force =     0.00321336    0.00075962    0.00096726
     atom    9 type  2   force =    -0.00195184   -0.00027133    0.00002072
     atom   10 type  2   force =    -0.00000815    0.00091895    0.00008647
     atom   11 type  1   force =    -0.00018388   -0.03655520    0.00029210
     atom   12 type  1   force =     0.00025491    0.03536869    0.00033431
     atom   13 type  1   force =    -0.00023584    0.00012221   -0.00033691
     atom   14 type  1   force =    -0.00233617   -0.00509211   -0.00030670
     atom   15 type  1   force =    -0.00006070    0.01025369   -0.00001523
     atom   16 type  2   force =    -0.00025017   -0.00559116    0.00055954
     atom   17 type  2   force =    -0.00066183    0.00289259   -0.00016327
     atom   18 type  1   force =     0.00149355   -0.01476562   -0.00030010
     atom   19 type  1   force =     0.00003172    0.01219112   -0.00026831
     atom   20 type  1   force =     0.00016251    0.00070291   -0.00021456
     atom   21 type  1   force =     0.00321459    0.00076124    0.00095333
     atom   22 type  2   force =    -0.00197454   -0.00027131    0.00002201
     atom   23 type  2   force =    -0.00000978    0.00091884    0.00007014
     atom   24 type  1   force =    -0.00017237   -0.03655467    0.00029307
     atom   25 type  1   force =     0.00026838    0.03536744    0.00033531
     atom   26 type  1   force =    -0.00023169    0.00012199   -0.00034097
     atom   27 type  3   force =     0.00000404   -0.00054692   -0.00043199
     atom   28 type  3   force =     0.00000395   -0.00054812   -0.00042921
     atom   29 type  3   force =     0.00051271   -0.00038956   -0.00021689
     atom   30 type  3   force =     0.00050886   -0.00038966   -0.00021581

     Total force =     0.002377     Total SCF correction =     0.000162

     bfgs converged in   6 scf cycles and   5 bfgs steps
     (criteria: energy < 0.10E-03, force < 0.10E-02)

     End of BFGS Geometry Optimization

     Final energy   =   -1697.4600041954 Ry
Begin final coordinates

ATOMIC_POSITIONS (crystal)
O0       0.000000000   0.000000000   0.373492379    0   0   1
O0       0.000000000   0.500000000   0.380152062    0   0   1
Mo1      0.250000000   0.500000000   0.437550170    0   0   1
Mo1      0.000000000   0.000000000   0.445895253    0   0   1
O0       0.250000000   0.780000000   0.443486256    0   0   1
O0       0.250000000   0.220000000   0.443404262    0   0   1
O0       0.000000000   0.500000000   0.496316952    0   0   1
O0       0.000000000   0.000000000   0.518474245    0   0   1
Mo1      0.250000000   0.000000000   0.578196980    0   0   1
Mo1      0.000000000   0.500000000   0.563846221    0   0   1
O0       0.250000000   0.720000000   0.574005867    0   0   1
O0       0.250000000   0.280000000   0.574095948    0   0   1
O0       0.000000000   0.000000000   0.628930880    0   0   1
O0       0.500000000   0.000000000   0.373492667    0   0   1
O0       0.500000000   0.500000000   0.380150134    0   0   1
Mo1      0.750000000   0.500000000   0.437550140    0   0   1
Mo1      0.500000000   0.000000000   0.445895765    0   0   1
O0       0.750000000   0.780000000   0.443486349    0   0   1
O0       0.750000000   0.220000000   0.443404210    0   0   1
O0       0.500000000   0.500000000   0.496318233    0   0   1
O0       0.500000000   0.000000000   0.518474985    0   0   1
Mo1      0.750000000   0.000000000   0.578197327    0   0   1
Mo1      0.500000000   0.500000000   0.563847285    0   0   1
O0       0.750000000   0.720000000   0.574005942    0   0   1
O0       0.750000000   0.280000000   0.574095909    0   0   1
O0       0.500000000   0.000000000   0.628932406    0   0   1
H2      -0.000485693   0.613631051   0.358659497
H2       0.499514216   0.613634580   0.358658722
H2       0.166135219   0.020249211   0.359031522
H2       0.666134471   0.020249505   0.359031433
End final coordinates

     General routines

     Parallel routines
     Hubbard U routines

   This run was terminated on:  17:38:24   5May2014

   JOB DONE.
Running PBS batch system epilogue script
Job id: 340748.audhumbla.fysik.dtu.dk
Username: zhonxu
Groupname: campgst
Jobname: MoO2/Eads-2-layers/bare-U-4.0
Sessionid: 20959
Queuename: verylong
Accounting:
This job has allocated the following 16 nodes:
b036 b036 b036 b036 b036 b036 b036 b036 b028 b028 b028 b028 b028 b028 b028 b028
Finished epilogue job 340748.audhumbla.fysik.dtu.dk for zhonxu