     Program PWSCF v.5.0.2 (svn rev. 9656) starts on  6Mar2014 at  4:41:22

     Current dimensions of program PWSCF are:
     Max number of different atomic species (ntypx) = 10
     Max number of k-points (npk) =  40000
     Max angular momentum in pseudopotentials (lmaxx) =  3
     Reading input from pwscf.in
Warning: card &CELL ignored
Warning: card / ignored

     Subspace diagonalization in iterative solution of the eigenvalue problem:
     a serial algorithm will be used

     Found symmetry operation: I + ( -0.5000  0.0000  0.0000)
     This is a supercell, fractional translations are disabled

     bravais-lattice index     =            0
     lattice parameter (alat)  =      12.2076  a.u.
     unit-cell volume          =   10244.9005 (a.u.)^3
     number of atoms/cell      =           48
     number of atomic types    =            2
     number of electrons       =       448.00
     number of Kohn-Sham states=          672
     kinetic-energy cutoff     =      40.0000  Ry
     charge density cutoff     =     500.0000  Ry
     convergence threshold     =      1.0E-06
     mixing beta               =       0.3000
     number of iterations used =            8  plain     mixing
     Exchange-correlation      = SLA  PW   PBE  PBE ( 1 4 3 4 0)
     EXX-fraction              =        0.00
     nstep                     =           50

     celldm(1)=  12.207631  celldm(2)=   0.000000  celldm(3)=   0.000000
     celldm(4)=   0.000000  celldm(5)=   0.000000  celldm(6)=   0.000000

     crystal axes: (cart. coord. in units of alat)
               a(1) = (   1.000000   0.000000   0.000000 )
               a(2) = (   0.000000   1.004836   0.000000 )
               a(3) = (   0.000000   0.000000   5.604262 )

     reciprocal axes: (cart. coord. in units 2 pi/alat)
               b(1) = (  1.000000  0.000000  0.000000 )
               b(2) = (  0.000000  0.995187  0.000000 )
               b(3) = (  0.000000  0.000000  0.178436 )

     PseudoPot. # 1 for O  read from file:
     /home/camp/zhonxu/pseudo/o_pbe_v1.01.uspp.F.UPF
     MD5 check sum: 2bcb18d16ea4b960afae9ec6d52f22d2
     Pseudo is Ultrasoft + core correction, Zval =  6.0
     Generated by new atomic code, or converted to UPF format
     Using radial grid of  737 points,  5 beta functions with:
                l(1) =   0
                l(2) =   0
                l(3) =   1
                l(4) =   1
                l(5) =   2
     Q(r) pseudized with  8 coefficients,  rinner =    0.900   0.900   0.900
                                                       0.900   0.900

     PseudoPot. # 2 for Pt read from file:
     /home/camp/zhonxu/pseudo/pt_pbe_v1.uspp.F.UPF
     MD5 check sum: 4c71d6ad5ef119f1eb26a4d0b7884226
     Pseudo is Ultrasoft + core correction, Zval = 16.0
     Generated by new atomic code, or converted to UPF format
     Using radial grid of  985 points,  6 beta functions with:
                l(1) =   0
                l(2) =   0
                l(3) =   1
                l(4) =   1
                l(5) =   2
                l(6) =   2
     Q(r) pseudized with  8 coefficients,  rinner =    1.300   1.300   1.300
                                                       1.300   1.300

     atomic species   valence    mass     pseudopotential
        O0             6.00    15.99940     O ( 1.00)
        Pt1           16.00   195.08000     Pt( 1.00)

      4 Sym. Ops. (no inversion) found

   Cartesian axes

     site n.     atom                  positions (alat units)
         1           O0  tau(   1) = (   0.0000000   0.5024180   1.8575886  )
         2           Pt1 tau(   2) = (   0.2500000   0.5024180   2.0485258  )
         3           Pt1 tau(   3) = (   0.0000000   0.0000000   2.0485258  )
         4           O0  tau(   4) = (   0.2500000   0.8139171   2.0485258  )
         5           O0  tau(   5) = (   0.2500000   0.1909188   2.0485258  )
         6           O0  tau(   6) = (   0.0000000   0.5024180   2.2394070  )
         7           O0  tau(   7) = (   0.0000000   0.0000000   2.3600107  )
         8           Pt1 tau(   8) = (   0.2500000   0.0000000   2.5509479  )
         9           Pt1 tau(   9) = (   0.0000000   0.5024180   2.5509479  )
        10           O0  tau(  10) = (   0.2500000   0.6933368   2.5509479  )
        11           O0  tau(  11) = (   0.2500000   0.3114991   2.5509479  )
        12           O0  tau(  12) = (   0.0000000   0.0000000   2.7418291  )
        13           O0  tau(  13) = (   0.0000000   0.5024180   2.8574450  )
        14           Pt1 tau(  14) = (   0.2500000   0.5024180   3.0462526  )
        15           Pt1 tau(  15) = (   0.0000000   0.0000000   3.0520250  )
        16           O0  tau(  16) = (   0.2500000   0.8128419   3.0569007  )
        17           O0  tau(  17) = (   0.2500000   0.1919940   3.0569007  )
        18           O0  tau(  18) = (   0.0000000   0.5024180   3.2387590  )
        19           O0  tau(  19) = (   0.0000000   0.0000000   3.3641824  )
        20           Pt1 tau(  20) = (   0.2500000   0.0000000   3.5568569  )
        21           Pt1 tau(  21) = (   0.0000000   0.5024180   3.5555679  )
        22           O0  tau(  22) = (   0.2500000   0.6921812   3.5921637  )
        23           O0  tau(  23) = (   0.2500000   0.3126547   3.5921637  )
        24           O0  tau(  24) = (   0.0000000   0.0000000   3.7431425  )
        25           O0  tau(  25) = (   0.5000000   0.5024180   1.8575886  )
        26           Pt1 tau(  26) = (   0.7500000   0.5024180   2.0485258  )
        27           Pt1 tau(  27) = (   0.5000000   0.0000000   2.0485258  )
        28           O0  tau(  28) = (   0.7500000   0.8139171   2.0485258  )
        29           O0  tau(  29) = (   0.7500000   0.1909188   2.0485258  )
        30           O0  tau(  30) = (   0.5000000   0.5024180   2.2394070  )
        31           O0  tau(  31) = (   0.5000000   0.0000000   2.3600107  )
        32           Pt1 tau(  32) = (   0.7500000   0.0000000   2.5509479  )
        33           Pt1 tau(  33) = (   0.5000000   0.5024180   2.5509479  )
        34           O0  tau(  34) = (   0.7500000   0.6933368   2.5509479  )
        35           O0  tau(  35) = (   0.7500000   0.3114991   2.5509479  )
        36           O0  tau(  36) = (   0.5000000   0.0000000   2.7418291  )
        37           O0  tau(  37) = (   0.5000000   0.5024180   2.8574450  )
        38           Pt1 tau(  38) = (   0.7500000   0.5024180   3.0462526  )
        39           Pt1 tau(  39) = (   0.5000000   0.0000000   3.0520250  )
        40           O0  tau(  40) = (   0.7500000   0.8128419   3.0569007  )
        41           O0  tau(  41) = (   0.7500000   0.1919940   3.0569007  )
        42           O0  tau(  42) = (   0.5000000   0.5024180   3.2387590  )
        43           O0  tau(  43) = (   0.5000000   0.0000000   3.3641824  )
        44           Pt1 tau(  44) = (   0.7500000   0.0000000   3.5568569  )
        45           Pt1 tau(  45) = (   0.5000000   0.5024180   3.5555679  )
        46           O0  tau(  46) = (   0.7500000   0.6921812   3.5921637  )
        47           O0  tau(  47) = (   0.7500000   0.3126547   3.5921637  )
        48           O0  tau(  48) = (   0.5000000   0.0000000   3.7431425  )

     number of k points=     9  Methfessel-Paxton smearing, width (Ry)=  0.0100
                       cart. coord. in units 2pi/alat
        k(    1) = (   0.0000000   0.0000000   0.0000000), wk =   0.1250000
        k(    2) = (   0.0000000   0.2487968   0.0000000), wk =   0.2500000
        k(    3) = (   0.0000000  -0.4975937   0.0000000), wk =   0.1250000
        k(    4) = (   0.2500000   0.0000000   0.0000000), wk =   0.2500000
        k(    5) = (   0.2500000   0.2487968   0.0000000), wk =   0.5000000
        k(    6) = (   0.2500000  -0.4975937   0.0000000), wk =   0.2500000
        k(    7) = (  -0.5000000   0.0000000   0.0000000), wk =   0.1250000
        k(    8) = (  -0.5000000   0.2487968   0.0000000), wk =   0.2500000
        k(    9) = (  -0.5000000  -0.4975937   0.0000000), wk =   0.1250000

     Largest allocated arrays     est. size (Mb)     dimensions
     Largest temporary arrays     est. size (Mb)     dimensions

     Check: negative/imaginary core charge=   -0.000003    0.000000

     Initial potential from superposition of free atoms
     Check: negative starting charge=   -3.074359

     starting charge  439.99977, renormalised to  448.00000

     negative rho (up, down):  0.313E+01 0.000E+00
     Starting wfc are  320 randomized atomic wfcs

     Self-consistent Calculation

     iteration #  1     ecut=    40.00 Ry     beta=0.30
     Davidson diagonalization with overlap
     ethr =  1.00E-02,  avg # of iterations =  6.8

     negative rho (up, down):  0.308E+01 0.000E+00

     total energy              =   -4349.41370856 Ry
     Harris-Foulkes estimate   =   -4370.63092171 Ry
     estimated scf accuracy    <      45.72131863 Ry

[...]

     End of self-consistent calculation

          k = 0.0000 0.0000 0.0000 ( 43825 PWs)   bands (ev):

   -54.3130 -54.2637 -54.2582 -54.2252 -54.2157 -54.2093 -54.1711 -54.1609
   -54.1477 -54.1367 -54.1356 -54.1321 -54.1317 -54.0907 -54.0827 -54.0795
   -54.0635 -54.0600 -54.0430 -54.0063 -53.9980 -53.9881 -53.9876 -53.9739
   -53.9682 -53.9648 -53.8844 -53.8804 -53.8779 -53.8772 -53.8444 -53.8322
   -53.8261 -53.8248 -53.8188 -53.7881 -53.7299 -53.7244 -53.7224 -53.6690
   -53.4922 -53.4847 -53.3546 -53.3473 -53.2924 -53.2889 -53.1974 -53.1938
   -20.0581 -19.8048 -19.6130 -19.5291 -19.4003 -19.1017 -18.9291 -18.8854
   -18.8493 -18.8465 -18.8076 -18.8060 -18.7894 -18.7833 -18.7266 -18.6557
   -18.6333 -18.5963 -18.5581 -18.5262 -18.4908 -18.4202 -18.3286 -18.2551
   -18.2120 -18.1759 -18.1408 -18.1087 -17.2638 -17.1728 -17.1611 -17.1053
    -8.9716  -8.9627  -8.9244  -8.6604  -8.5739  -8.5082  -7.7033  -7.6660
    -7.5862  -7.5856  -7.5261  -7.5070  -7.4969  -7.4372  -7.4288  -7.4005
    -7.3998  -7.3739  -7.3612  -7.3410  -7.3001  -7.1871  -7.1609  -7.0875
    -7.0695  -6.9962  -6.9484  -6.8644  -6.8274  -6.7693  -6.7594  -6.7465
    -6.7046  -6.5130  -6.3639  -6.3604  -6.2363  -6.2066  -6.0528  -5.7144
    -5.5502  -5.4271  -5.3623  -5.3175  -5.2415  -5.2387  -5.2068  -5.1867
    -5.1369  -5.0660  -4.9940  -4.7184  -4.6895  -4.6606  -4.6447  -4.6269
    -4.5314  -4.4820  -4.4130  -4.2108  -4.1905  -4.0777  -4.0752  -4.0619
    -4.0322  -3.9420  -3.9367  -3.8838  -3.7619  -3.7412  -3.7409  -3.6783
    -3.6572  -3.6421  -3.6219  -3.5290  -3.4944  -3.4559  -3.3129  -3.2748
    -3.2061  -3.1885  -3.1576  -3.1188  -3.0996  -3.0973  -3.0935  -3.0935
    -3.0887  -3.0442  -3.0241  -3.0080  -2.9312  -2.8656  -2.8453  -2.8297
    -2.8091  -2.7808  -2.7575  -2.7184  -2.6549  -2.6376  -2.6109  -2.6095
    -2.6085  -2.6064  -2.4986  -2.4778  -2.3776  -2.3309  -2.2766  -2.2130
    -2.1944  -2.1383  -1.9087  -1.8867  -1.7271  -1.6755  -1.6093  -1.4950
    -1.4358  -1.2821  -1.2451  -1.2392  -1.1339  -1.1330  -1.0552  -0.9723
    -0.9191  -0.8225  -0.7199  -0.6046  -0.5745  -0.3967  -0.3833  -0.3464
    -0.3462  -0.2477  -0.1086  -0.0811   0.0111   0.1071   0.1384   0.2035
[...]

ATOMIC_POSITIONS (crystal)
O0       0.000000000   0.500000000   0.331460000    0   0   0
Pt1      0.250000000   0.500000000   0.365530000    0   0   0
Pt1      0.000000000   0.000000000   0.365530000    0   0   0
O0       0.250000000   0.810000000   0.365530000    0   0   0
O0       0.250000000   0.190000000   0.365530000    0   0   0
O0       0.000000000   0.500000000   0.399590000    0   0   0
O0       0.000000000   0.000000000   0.421110000    0   0   0
Pt1      0.250000000   0.000000000   0.455180000    0   0   0
Pt1      0.000000000   0.500000000   0.455180000    0   0   0
O0       0.250000000   0.690000000   0.455180000    0   0   0
O0       0.250000000   0.310000000   0.455180000    0   0   0
O0       0.000000000   0.000000000   0.489240000    0   0   0
O0       0.000000000   0.500000000   0.509919224
Pt1      0.250000084   0.500000000   0.543585876
Pt1      0.000000000   0.000000000   0.544576478
O0       0.250000025   0.809039701   0.545540543
O0       0.250000025   0.190960299   0.545540543
O0       0.000000000   0.500000000   0.577927848
O0       0.000000000   0.000000000   0.600340567
Pt1      0.250000523  -0.000000000   0.634805011
Pt1      0.000000000   0.500000000   0.634290153
O0       0.250000387   0.688666822   0.640950129
O0       0.250000387   0.311333178   0.640950129
O0       0.000000000   0.000000000   0.668143656
O0       0.500000000   0.500000000   0.331460000    0   0   0
Pt1      0.750000000   0.500000000   0.365530000    0   0   0
Pt1      0.500000000   0.000000000   0.365530000    0   0   0
O0       0.750000000   0.810000000   0.365530000    0   0   0
O0       0.750000000   0.190000000   0.365530000    0   0   0
O0       0.500000000   0.500000000   0.399590000    0   0   0
O0       0.500000000   0.000000000   0.421110000    0   0   0
Pt1      0.750000000   0.000000000   0.455180000    0   0   0
Pt1      0.500000000   0.500000000   0.455180000    0   0   0
O0       0.750000000   0.690000000   0.455180000    0   0   0
O0       0.750000000   0.310000000   0.455180000    0   0   0
O0       0.500000000   0.000000000   0.489240000    0   0   0
O0       0.500000000   0.500000000   0.509919236
Pt1      0.749999916   0.500000000   0.543585876
Pt1      0.500000000   0.000000000   0.544576473
O0       0.749999975   0.809039701   0.545540543
O0       0.749999975   0.190960299   0.545540543
O0       0.500000000   0.500000000   0.577927978
O0       0.500000000   0.000000000   0.600340633
Pt1      0.749999477   0.000000000   0.634805011
Pt1      0.500000000   0.500000000   0.634290115
O0       0.749999613   0.688666822   0.640950129
O0       0.749999613   0.311333178   0.640950129
O0       0.500000000   0.000000000   0.668143528

     Check: negative starting charge=   -3.073803
     NEW-OLD atomic charge density approx. for the potential

     Check: negative/imaginary core charge=   -0.000003    0.000000
     Check: negative starting charge=   -3.073880

[...]

     Self-consistent Calculation

[...]

     Threshold (ethr) on eigenvalues was too large:
     Diagonalizing with lowered threshold

     Davidson diagonalization with overlap
     ethr =  1.76E-08,  avg # of iterations =  2.0

[...]

     total energy              =   -4359.16362613 Ry
     Harris-Foulkes estimate   =   -4359.16362614 Ry
     estimated scf accuracy    <       0.00000038 Ry

     iteration # 16     ecut=    40.00 Ry     beta=0.30
     Davidson diagonalization with overlap
     ethr =  3.59E-11,  avg # of iterations =  1.0

     negative rho (up, down):  0.316E+01 0.000E+00

     End of self-consistent calculation

[...]

          k = 0.2500-0.4976 0.0000 ( 43762 PWs)   bands (ev):

[...]

          k =-0.5000-0.4976 0.0000 ( 43684 PWs)   bands (ev):

   -54.2885 -54.2885 -54.2416 -54.2416 -54.2017 -54.2017 -54.1786 -54.1786
   -54.1372 -54.1372 -54.1370 -54.1370 -54.1240 -54.1240 -54.0832 -54.0832
   -54.0559 -54.0559 -54.0198 -54.0198 -54.0037 -54.0037 -53.9813 -53.9813
   -53.9743 -53.9743 -53.8843 -53.8843 -53.8832 -53.8832 -53.8343 -53.8343
   -53.8198 -53.8197 -53.8162 -53.8162 -53.7301 -53.7301 -53.7123 -53.7123
   -53.4922 -53.4922 -53.3675 -53.3675 -53.2942 -53.2941 -53.2215 -53.2215
   -19.3442 -19.3442 -19.2840 -19.2840 -19.0646 -19.0646 -19.0471 -19.0471
   -18.9120 -18.9120 -18.8958 -18.8958 -18.8262 -18.8262 -18.7586 -18.7586
   -18.6386 -18.6386 -18.5934 -18.5934 -18.5526 -18.5526 -18.5252 -18.5252
   -18.4763 -18.4762 -18.4117 -18.4117 -17.2666 -17.2665 -17.2094 -17.2094
    -8.0803  -8.0803  -7.9852  -7.9852  -7.4617  -7.4617  -7.4511  -7.4511
    -7.3904  -7.3904  -7.3047  -7.3047  -7.2771  -7.2771  -7.1069  -7.1069
    -7.0182  -7.0182  -6.9840  -6.9840  -6.9594  -6.9594  -6.9365  -6.9365
    -6.8611  -6.8610  -6.8195  -6.8195  -6.7102  -6.7102  -6.6866  -6.6866
    -6.5756  -6.5756  -6.5106  -6.5106  -6.3867  -6.3867  -6.3507  -6.3507
    -5.9447  -5.9447  -5.8798  -5.8798  -5.5686  -5.5686  -5.4779  -5.4779
    -5.3164  -5.3164  -5.2934  -5.2934  -5.2538  -5.2538  -5.2092  -5.2092
    -5.1407  -5.1407  -5.0663  -5.0663  -5.0393  -5.0393  -4.9909  -4.9909
    -4.6695  -4.6694  -4.6645  -4.6645  -4.5915  -4.5915  -4.5622  -4.5622
    -4.1785  -4.1785  -3.9610  -3.9610  -3.6879  -3.6879  -3.5708  -3.5708
    -3.4136  -3.4136  -3.3681  -3.3681  -3.2670  -3.2670  -3.2008  -3.2008
    -3.1461  -3.1460  -3.0429  -3.0428  -2.8324  -2.8324  -2.8053  -2.8053
    -2.1206  -2.1206  -2.0672  -2.0672  -1.9430  -1.9430  -1.9130  -1.9130
    -1.8250  -1.8250  -1.7902  -1.7902  -1.6541  -1.6541  -1.6390  -1.6390
    -1.5344  -1.5343  -1.4358  -1.4358  -1.4121  -1.4121  -1.2526  -1.2525
    -0.9766  -0.9766  -0.9477  -0.9477  -0.9117  -0.9117  -0.7297  -0.7297
    -0.6744  -0.6743  -0.6587  -0.6587  -0.5067  -0.5067  -0.4878  -0.4878
    -0.4323  -0.4323  -0.3952  -0.3952  -0.3058  -0.3058  -0.3030  -0.3030
     0.4661   0.4662   0.5803   0.5803   0.9581   0.9581   0.9797   0.9797
     1.1245   1.1245   1.2870   1.2870   1.4741   1.4741   1.4795   1.4796
     2.2115   2.2115   2.2775   2.2775   2.5928   2.5928   2.6339   2.6339
     3.0841   3.0841   3.1504   3.1504   3.3424   3.3424   3.3931   3.3931
     5.8808   5.8808   6.1864   6.1865   7.2527   7.2527   7.3398   7.3398
     7.6905   7.6905   7.8062   7.8062   8.0320   8.0321   8.0406   8.0406
     8.0905   8.0905   8.1038   8.1038   8.4218   8.4218   8.5007   8.5008
     8.5156   8.5156   8.6048   8.6048   9.0508   9.0508   9.1167   9.1167
     9.1809   9.1809   9.1916   9.1916   9.8001   9.8001   9.8253   9.8253
     9.9359   9.9359  10.1548  10.1548  10.4746  10.4747  10.4760  10.4760
    10.6677  10.6677  10.6947  10.6947  10.7179  10.7179  10.7407  10.7408
    11.0336  11.0336  11.0998  11.0998  11.5330  11.5330  11.5726  11.5726
    11.8656  11.8656  11.8678  11.8678  12.2934  12.2934  12.3145  12.3145
    12.8697  12.8697  12.8828  12.8828  13.1322  13.1322  13.1740  13.1740
    13.2203  13.2203  13.3141  13.3141  13.6252  13.6252  13.6760  13.6760
    13.8488  13.8488  14.0054  14.0054  14.0587  14.0587  14.1192  14.1192
    14.1446  14.1446  14.2112  14.2112  14.3406  14.3406  14.4125  14.4125
    14.4453  14.4453  14.5180  14.5180  14.7692  14.7692  14.8891  14.8891
    15.0877  15.0877  15.0897  15.0897  15.1802  15.1802  15.1999  15.1999
    15.2087  15.2087  15.2189  15.2189  15.3282  15.3282  15.3821  15.3821
    15.4880  15.4880  15.4965  15.4965  15.5060  15.5060  15.5461  15.5461
    15.6334  15.6334  15.6545  15.6545  15.8441  15.8441  15.8481  15.8481
    15.9765  15.9765  16.0015  16.0015  16.1215  16.1215  16.1310  16.1310
    16.2116  16.2116  16.2877  16.2877  16.3387  16.3387  16.3734  16.3734
    16.5812  16.5812  16.6203  16.6203  16.7597  16.7597  16.7954  16.7954
    16.8604  16.8604  16.8760  16.8760  17.0529  17.0529  17.0854  17.0854
    17.2072  17.2072  17.2586  17.2586  17.3364  17.3364  17.4211  17.4211
    17.5566  17.5566  17.5619  17.5619  17.6990  17.6990  17.7052  17.7052
    17.9673  17.9673  18.0237  18.0237  18.0254  18.0254  18.0531  18.0531
    18.2022  18.2022  18.2159  18.2159  18.2740  18.2740  18.2988  18.2988
    18.3346  18.3346  18.3757  18.3757  18.4325  18.4325  18.5363  18.5363
    18.7182  18.7182  18.7461  18.7461  18.7514  18.7514  18.8157  18.8157
[...]
    22.7177  22.7177  22.7594  22.7594  22.8438  22.8438  22.8896  22.8896
    22.9455  22.9456  23.0046  23.0046  23.0243  23.0243  23.1786  23.1786
    23.2879  23.2879  23.3064  23.3064  23.3177  23.3177  23.3843  23.3843
    23.4472  23.4472  23.4941  23.4941  23.5910  23.5910  23.7758  23.7758
    23.8824  23.8824  23.9520  23.9520  24.0245  24.0245  24.0324  24.0324
    24.0811  24.0811  24.1774  24.1774  24.3936  24.3936  24.4364  24.4364
    24.4599  24.4599  24.5440  24.5440  24.6406  24.6406  24.6794  24.6794
    24.9528  24.9528  25.0482  25.0482  25.2080  25.2080  25.2261  25.2261
    25.2620  25.2620  25.2697  25.2697  25.2781  25.2781  25.5307  25.5307
    25.5664  25.5664  25.6157  25.6157  25.6782  25.6782  25.7422  25.7422
    25.8276  25.8276  25.8587  25.8587  26.0295  26.0295  26.0555  26.0555
    26.2682  26.2682  26.3616  26.3616  26.4252  26.4252  26.4763  26.4763
    26.5625  26.5625  26.6399  26.6399  26.8730  26.8730  26.9352  26.9352
    26.9736  26.9736  27.1325  27.1325  27.2716  27.2716  27.2886  27.2886
    27.6106  27.6106  27.6551  27.6551  27.8321  27.8321  27.9010  27.9010

     the Fermi energy is     0.1584 ev

!    total energy              =   -4359.16362613 Ry
     Harris-Foulkes estimate   =   -4359.16362614 Ry
     estimated scf accuracy    <          5.4E-09 Ry

     The total energy is the sum of the following terms:

     one-electron contribution =  -81099.18826055 Ry
     hartree contribution      =   40644.23313334 Ry
     xc contribution           =   -1096.28360574 Ry
     ewald contribution        =   37192.07605244 Ry
     smearing contrib. (-TS)   =      -0.00094561 Ry

     convergence has been achieved in  16 iterations

     Forces acting on atoms (Ry/au):

     negative rho (up, down):  0.316E+01 0.000E+00
     atom    1 type  1   force =     0.00000000    0.00000000    0.01384276
     atom    2 type  2   force =     0.00000482    0.00000000   -0.00429199
     atom    3 type  2   force =     0.00000000    0.00000000    0.00543127
     atom    4 type  1   force =     0.00000885   -0.00066029   -0.02900039
     atom    5 type  1   force =     0.00000885    0.00066029   -0.02900039
     atom    6 type  1   force =     0.00000000    0.00000000    0.00729851
     atom    7 type  1   force =     0.00000000    0.00000000    0.02296778
     atom    8 type  2   force =     0.00000144    0.00000000    0.01504490
     atom    9 type  2   force =     0.00000000    0.00000000   -0.02048887
     atom   10 type  1   force =     0.00000152    0.00572330    0.00064464
     atom   11 type  1   force =     0.00000152   -0.00572330    0.00064464
     atom   12 type  1   force =     0.00000000    0.00000000    0.01360341
     atom   13 type  1   force =     0.00000000    0.00000000   -0.00036583
     atom   14 type  2   force =    -0.00000067    0.00000000   -0.00023162
     atom   15 type  2   force =     0.00000000    0.00000000    0.00076138
     atom   16 type  1   force =    -0.00000016   -0.00025105    0.00061708
     atom   17 type  1   force =    -0.00000016    0.00025105    0.00061708
     atom   18 type  1   force =     0.00000000    0.00000000   -0.00051422
     atom   19 type  1   force =     0.00000000    0.00000000    0.00098274
     atom   20 type  2   force =    -0.00000599    0.00000000    0.00066512
     atom   21 type  2   force =     0.00000000    0.00000000    0.00062116
     atom   22 type  1   force =    -0.00000013    0.00025464   -0.00011085
     atom   23 type  1   force =    -0.00000013   -0.00025464   -0.00011085
     atom   24 type  1   force =     0.00000000    0.00000000    0.00037858
     atom   25 type  1   force =     0.00000000    0.00000000    0.01385060
     atom   26 type  2   force =    -0.00000482    0.00000000   -0.00429199
     atom   27 type  2   force =     0.00000000    0.00000000    0.00543968
     atom   28 type  1   force =    -0.00000885   -0.00066029   -0.02900039
     atom   29 type  1   force =    -0.00000885    0.00066029   -0.02900039
     atom   30 type  1   force =     0.00000000    0.00000000    0.00729621
     atom   31 type  1   force =     0.00000000    0.00000000    0.02294687
     atom   32 type  2   force =    -0.00000144    0.00000000    0.01504490
     atom   33 type  2   force =     0.00000000    0.00000000   -0.02048996
     atom   34 type  1   force =    -0.00000152    0.00572330    0.00064464
     atom   35 type  1   force =    -0.00000152   -0.00572330    0.00064464
     atom   36 type  1   force =     0.00000000    0.00000000    0.01360227
     atom   37 type  1   force =     0.00000000    0.00000000   -0.00036644
     atom   38 type  2   force =     0.00000067    0.00000000   -0.00023162
     atom   39 type  2   force =     0.00000000    0.00000000    0.00076189
     atom   40 type  1   force =     0.00000016   -0.00025105    0.00061708
     atom   41 type  1   force =     0.00000016    0.00025105    0.00061708
     atom   42 type  1   force =     0.00000000    0.00000000   -0.00051572
     atom   43 type  1   force =     0.00000000    0.00000000    0.00097921
     atom   44 type  2   force =     0.00000599    0.00000000    0.00066512
     atom   45 type  2   force =     0.00000000    0.00000000    0.00062126
     atom   46 type  1   force =     0.00000013    0.00025464   -0.00011085
     atom   47 type  1   force =     0.00000013   -0.00025464   -0.00011085
     atom   48 type  1   force =     0.00000000    0.00000000    0.00038067

     Total force =     0.002832     Total SCF correction =     0.000246

     bfgs converged in   5 scf cycles and   4 bfgs steps
     (criteria: energy < 0.10E-03, force < 0.10E-02)

     End of BFGS Geometry Optimization

     Final energy   =   -4359.1636261304 Ry
Begin final coordinates

ATOMIC_POSITIONS (crystal)
O0       0.000000000   0.500000000   0.331460000    0   0   0
Pt1      0.250000000   0.500000000   0.365530000    0   0   0
Pt1      0.000000000   0.000000000   0.365530000    0   0   0
O0       0.250000000   0.810000000   0.365530000    0   0   0
O0       0.250000000   0.190000000   0.365530000    0   0   0
O0       0.000000000   0.500000000   0.399590000    0   0   0
O0       0.000000000   0.000000000   0.421110000    0   0   0
Pt1      0.250000000   0.000000000   0.455180000    0   0   0
Pt1      0.000000000   0.500000000   0.455180000    0   0   0
O0       0.250000000   0.690000000   0.455180000    0   0   0
O0       0.250000000   0.310000000   0.455180000    0   0   0
O0       0.000000000   0.000000000   0.489240000    0   0   0
O0       0.000000000   0.500000000   0.509919224
Pt1      0.250000084   0.500000000   0.543585876
Pt1      0.000000000   0.000000000   0.544576478
O0       0.250000025   0.809039701   0.545540543
O0       0.250000025   0.190960299   0.545540543
O0       0.000000000   0.500000000   0.577927848
O0       0.000000000   0.000000000   0.600340567
Pt1      0.250000523  -0.000000000   0.634805011
Pt1      0.000000000   0.500000000   0.634290153
O0       0.250000387   0.688666822   0.640950129
O0       0.250000387   0.311333178   0.640950129
O0       0.000000000   0.000000000   0.668143656
O0       0.500000000   0.500000000   0.331460000    0   0   0
Pt1      0.750000000   0.500000000   0.365530000    0   0   0
Pt1      0.500000000   0.000000000   0.365530000    0   0   0
O0       0.750000000   0.810000000   0.365530000    0   0   0
O0       0.750000000   0.190000000   0.365530000    0   0   0
O0       0.500000000   0.500000000   0.399590000    0   0   0
O0       0.500000000   0.000000000   0.421110000    0   0   0
Pt1      0.750000000   0.000000000   0.455180000    0   0   0
Pt1      0.500000000   0.500000000   0.455180000    0   0   0
O0       0.750000000   0.690000000   0.455180000    0   0   0
O0       0.750000000   0.310000000   0.455180000    0   0   0
O0       0.500000000   0.000000000   0.489240000    0   0   0
O0       0.500000000   0.500000000   0.509919236
Pt1      0.749999916   0.500000000   0.543585876
Pt1      0.500000000   0.000000000   0.544576473
O0       0.749999975   0.809039701   0.545540543
O0       0.749999975   0.190960299   0.545540543
O0       0.500000000   0.500000000   0.577927978
O0       0.500000000   0.000000000   0.600340633
Pt1      0.749999477   0.000000000   0.634805011
Pt1      0.500000000   0.500000000   0.634290115
O0       0.749999613   0.688666822   0.640950129
O0       0.749999613   0.311333178   0.640950129
O0       0.500000000   0.000000000   0.668143528
End final coordinates

     General routines

     Parallel routines

   This run was terminated on:  18:50:55   6Mar2014

   JOB DONE.