     Program PWSCF v.5.0.2 (svn rev. 9656) starts on 27Mar2014 at 22:32:39

     Current dimensions of program PWSCF are:
     Max number of different atomic species (ntypx) = 10
     Max number of k-points (npk) =  40000
     Max angular momentum in pseudopotentials (lmaxx) =  3
     Reading input from pwscf.in
Warning: card &CELL ignored
Warning: card / ignored

     Subspace diagonalization in iterative solution of the eigenvalue problem:
     a serial algorithm will be used

     bravais-lattice index     =            0
     lattice parameter (alat)  =      11.7919  a.u.
     unit-cell volume          =    7123.6633 (a.u.)^3
     number of atoms/cell      =           32
     number of atomic types    =            3
     number of electrons       =       247.00
     number of Kohn-Sham states=          358
     kinetic-energy cutoff     =      40.0000  Ry
     charge density cutoff     =     500.0000  Ry
     convergence threshold     =      1.0E-06
     mixing beta               =       0.3000
     number of iterations used =            8  plain     mixing
     Exchange-correlation      = SLA  PW   PBE  PBE ( 1 4 3 4 0)
     EXX-fraction              =        0.00
     nstep                     =           50

     celldm(1)=  11.791891  celldm(2)=   0.000000  celldm(3)=   0.000000
     celldm(4)=   0.000000  celldm(5)=   0.000000  celldm(6)=   0.000000

     crystal axes: (cart. coord. in units of alat)
               a(1) = (   1.000000   0.000000   0.000000 )
               a(2) = (   0.000000   1.026665   0.000000 )
               a(3) = (   0.000000   0.000000   4.231793 )

     reciprocal axes: (cart. coord. in units 2 pi/alat)
               b(1) = (  1.000000  0.000000  0.000000 )
               b(2) = (  0.000000  0.974028  0.000000 )
               b(3) = (  0.000000  0.000000  0.236306 )

     PseudoPot. # 1 for O  read from file:
     /home/camp/zhonxu/pseudo/o_pbe_v1.01.uspp.F.UPF
     MD5 check sum: 2bcb18d16ea4b960afae9ec6d52f22d2
     Pseudo is Ultrasoft + core correction, Zval =  6.0
     Generated by new atomic code, or converted to UPF format
     Using radial grid of  737 points,  5 beta functions with:
                l(1) =   0
                l(2) =   0
                l(3) =   1
                l(4) =   1
                l(5) =   2
     Q(r) pseudized with  8 coefficients,  rinner =    0.900   0.900   0.900
                                                       0.900   0.900

     PseudoPot. # 2 for Ru read from file:
     /home/camp/zhonxu/pseudo/ru_pbe_v1.uspp.F.UPF
     MD5 check sum: df00be1c11b23341d9806d8f1dfa10cf
     Pseudo is Ultrasoft + core correction, Zval = 16.0
     Generated by new atomic code, or converted to UPF format
     Using radial grid of  967 points,  6 beta functions with:
                l(1) =   0
                l(2) =   0
                l(3) =   1
                l(4) =   1
                l(5) =   2
                l(6) =   2
     Q(r) pseudized with  8 coefficients,  rinner =    1.300   1.300   1.300
                                                       1.300   1.300

     PseudoPot. # 3 for H  read from file:
     /home/camp/zhonxu/pseudo/h_pbe_v1.uspp.F.UPF
     MD5 check sum: 3408e3ff4ec8b0a4e358431e7e038a48
     Pseudo is Ultrasoft, Zval =  1.0
     Generated by new atomic code, or converted to UPF format
     Using radial grid of  615 points,  2 beta functions with:
                l(1) =   0
                l(2) =   0
     Q(r) pseudized with  8 coefficients,  rinner =    0.700

     atomic species   valence    mass     pseudopotential
        O0             6.00    15.99940     O ( 1.00)
        Ru1           16.00   101.07000     Ru( 1.00)
        H2             1.00     1.00794     H ( 1.00)

     Starting magnetic structure
     atomic species   magnetization
        O0           0.000
        Ru1          0.000
        H2           0.000

     No symmetry found

   Cartesian axes

     site n.     atom                  positions (alat units)
         1           O0  tau(   1) = (   0.0000000   0.0000000   1.6080390  )
         2           O0  tau(   2) = (   0.0000000   0.5133323   1.7023233  )
         3           Ru1 tau(   3) = (   0.2500000   0.5133323   1.9175523  )
         4           Ru1 tau(   4) = (   0.0000000   0.0000000   1.9215302  )
         5           O0  tau(   5) = (   0.2500000   0.8315984   1.9195836  )
         6           O0  tau(   6) = (   0.2500000   0.1950663   1.9193297  )
         7           O0  tau(   7) = (   0.0000000   0.5133323   2.1106490  )
         8           O0  tau(   8) = (   0.0000000   0.0000000   2.2345136  )
         9           Ru1 tau(   9) = (   0.2500000   0.0000000   2.4487269  )
        10           Ru1 tau(  10) = (   0.0000000   0.5133323   2.4113179  )
        11           O0  tau(  11) = (   0.2500000   0.7083986   2.4387399  )
        12           O0  tau(  12) = (   0.2500000   0.3182660   2.4402210  )
        13           O0  tau(  13) = (   0.0000000   0.0000000   2.6238385  )
        14           O0  tau(  14) = (   0.5000000   0.0000000   1.6080390  )
        15           O0  tau(  15) = (   0.5000000   0.5133323   1.7023233  )
        16           Ru1 tau(  16) = (   0.7500000   0.5133323   1.9175523  )
        17           Ru1 tau(  17) = (   0.5000000   0.0000000   1.9215302  )
        18           O0  tau(  18) = (   0.7500000   0.8315984   1.9195836  )
        19           O0  tau(  19) = (   0.7500000   0.1950663   1.9193297  )
        20           O0  tau(  20) = (   0.5000000   0.5133323   2.1106490  )
        21           O0  tau(  21) = (   0.5000000   0.0000000   2.2345136  )
        22           Ru1 tau(  22) = (   0.7500000   0.0000000   2.4487269  )
        23           Ru1 tau(  23) = (   0.5000000   0.5133323   2.4113179  )
        24           O0  tau(  24) = (   0.7500000   0.7083986   2.4387399  )
        25           O0  tau(  25) = (   0.7500000   0.3182660   2.4401787  )
        26           O0  tau(  26) = (   0.5000000   0.0000000   2.6238385  )
        27           H2  tau(  27) = (  -0.0004100   0.6466653   1.6162063  )
        28           H2  tau(  28) = (   0.4995900   0.6466653   1.6162063  )
        29           H2  tau(  29) = (   0.1464700   0.0296706   1.5559879  )
        30           H2  tau(  30) = (   0.6464700   0.0296706   1.5559879  )
        31           O0  tau(  31) = (   0.5075700   0.5125110   2.7216776  )
        32           H2  tau(  32) = (   0.3621600   0.5121927   2.7820653  )

     number of k points=    20  Methfessel-Paxton smearing, width (Ry)=  0.0100
                       cart. coord. in units 2pi/alat
        k(    1) = (   0.0000000   0.0000000   0.0000000), wk =   0.0625000
        k(    2) = (   0.0000000   0.2435070   0.0000000), wk =   0.1250000
        k(    3) = (   0.0000000  -0.4870139   0.0000000), wk =   0.0625000
        k(    4) = (   0.2500000   0.0000000   0.0000000), wk =   0.1250000
        k(    5) = (   0.2500000   0.2435070   0.0000000), wk =   0.1250000
        k(    6) = (   0.2500000  -0.4870139   0.0000000), wk =   0.1250000
        k(    7) = (  -0.5000000   0.0000000   0.0000000), wk =   0.0625000
        k(    8) = (  -0.5000000   0.2435070   0.0000000), wk =   0.1250000
        k(    9) = (  -0.5000000  -0.4870139   0.0000000), wk =   0.0625000
        k(   10) = (  -0.2500000   0.2435070   0.0000000), wk =   0.1250000
        k(   11) = (   0.0000000   0.0000000   0.0000000), wk =   0.0625000
        k(   12) = (   0.0000000   0.2435070   0.0000000), wk =   0.1250000
        k(   13) = (   0.0000000  -0.4870139   0.0000000), wk =   0.0625000
        k(   14) = (   0.2500000   0.0000000   0.0000000), wk =   0.1250000
        k(   15) = (   0.2500000   0.2435070   0.0000000), wk =   0.1250000
        k(   16) = (   0.2500000  -0.4870139   0.0000000), wk =   0.1250000
        k(   17) = (  -0.5000000   0.0000000   0.0000000), wk =   0.0625000
        k(   18) = (  -0.5000000   0.2435070   0.0000000), wk =   0.1250000
        k(   19) = (  -0.5000000  -0.4870139   0.0000000), wk =   0.0625000
        k(   20) = (  -0.2500000   0.2435070   0.0000000), wk =   0.1250000

     Largest allocated arrays     est. size (Mb)     dimensions
     Largest temporary arrays     est. size (Mb)     dimensions

     Check: negative/imaginary core charge=   -0.000003    0.000000

     Initial potential from superposition of free atoms
     Check: negative starting charge=(component1):   -0.261016
     Check: negative starting charge=(component2):   -0.261016

     starting charge  238.99980, renormalised to  247.00000

     negative rho (up, down):  0.270E+00 0.270E+00
     Starting wfc are  185 randomized atomic wfcs

     Self-consistent Calculation

     iteration #  1     ecut=    40.00 Ry     beta=0.30
     Davidson diagonalization with overlap
     ethr =  1.00E-02,  avg # of iterations =  6.3

     negative rho (up, down):  0.287E+00 0.287E+00

     total energy              =   -2146.20907616 Ry
     Harris-Foulkes estimate   =   -2168.58085265 Ry
     estimated scf accuracy    <      45.63441702 Ry

     total magnetization       =     0.00 Bohr mag/cell
     absolute magnetization    =     0.01 Bohr mag/cell

[...]

     iteration # 16     ecut=    40.00 Ry     beta=0.30
     Davidson diagonalization with overlap
     c_bands:  1 eigenvalues not converged
     c_bands:  1 eigenvalues not converged
     ethr =  2.56E-06,  avg # of iterations =  7.0

[...]

     End of self-consistent calculation

 ------ SPIN UP ------------

          k = 0.0000 0.0000 0.0000 ( 30363 PWs)   bands (ev):

   -74.9188 -74.9078 -74.7143 -74.6067 -74.5796 -74.4696 -74.2395 -74.2248
   -45.0629 -44.9425 -44.8905 -44.8797 -44.8757 -44.8317 -44.8008 -44.7840
   -44.7617 -44.7136 -44.6317 -44.5858 -44.5577 -44.4521 -44.4168 -44.4057
   -44.3974 -44.3795 -44.3515 -44.2564 -44.2554 -44.1317 -44.1110 -44.0342
   -21.1768 -20.7025 -20.6039 -20.4880 -20.4363 -20.1979 -20.0026 -19.7897
   -19.7290 -19.7046 -19.6822 -19.6480 -19.6433 -19.3868 -19.3261 -19.2048
   -19.1533 -19.1251 -18.9344  -9.3242  -9.2189  -9.1718  -8.4650  -8.3448
    -8.2604  -8.1918  -8.0415  -7.9035  -7.8336  -7.8075  -7.8008  -7.7733
    -7.6904  -7.6113  -7.5588  -7.4574  -7.3360  -7.2905  -7.1128  -6.9624
    -6.7766  -6.6386  -6.5213  -6.0869  -6.0092  -5.7796  -5.6717  -5.6411
    -5.5596  -5.2825  -5.2357  -5.2247  -5.0501  -5.0044  -4.9800  -4.8835
    -4.7418  -4.7104  -4.6976  -4.5515  -4.4351  -4.3997  -4.2859  -4.2046
    -4.0870  -4.0559  -3.9459  -3.8331  -3.7200  -3.7022  -3.4258  -3.3922
    -3.3139  -3.2274  -2.8726  -2.6476  -2.5510  -2.3812  -2.2659  -2.0809
    -2.0618  -1.8257  -1.7449  -1.7260  -1.6639  -1.6570  -1.5194  -1.4957
    -1.3452  -1.3188  -1.1834  -1.1711  -1.0165  -0.7054  -0.5986  -0.3577
    -0.2396  -0.1050   0.0027   0.2282   0.3657   1.1693   1.3056   1.8269
     1.9479   2.0706   2.1636   2.1818   2.4211   2.9081   3.1964   3.3486
     3.3711   3.3735   3.4014   3.6510   3.7504   4.2216   4.3483   4.8100
     5.2027   6.0043   6.1462   6.3720   6.5890   6.9290   7.0584   7.3134
     7.4269   7.5704   7.5962   7.9549   7.9756   8.0774   8.1180   8.2191
[...]
     atom   20 type  1   force =    -0.00018046   -0.00196474   -0.00349079
     atom   21 type  1   force =    -0.00016662   -0.00159426   -0.00048038
     atom   22 type  2   force =    -0.00807683    0.00309556    0.01195577
     atom   23 type  2   force =     0.00236987    0.00306401    0.10015647
     atom   24 type  1   force =     0.01552488    0.00472470   -0.02144960
     atom   25 type  1   force =     0.01734952   -0.00670706   -0.02279663
     atom   26 type  1   force =    -0.00207662   -0.00151194   -0.01103124
     atom   27 type  3   force =    -0.00000173   -0.00139915    0.00155394
     atom   28 type  3   force =    -0.00003162   -0.00182867   -0.00157609
     atom   29 type  3   force =    -0.00056728    0.00067928   -0.00045312
     atom   30 type  3   force =     0.00074212    0.00025911   -0.00061965
     atom   31 type  1   force =     0.00392180   -0.00006497    0.00816203
     atom   32 type  3   force =     0.00126380   -0.00024165    0.00149586

     Total force =     0.009268     Total SCF correction =     0.000128

     BFGS Geometry Optimization

     number of scf cycles    =   1
     number of bfgs steps    =   0

     energy   new            =   -2164.7111332829 Ry

     new trust radius        =       0.0090555773 bohr
     new conv_thr            =       0.0000010000 Ry

ATOMIC_POSITIONS (crystal)
O0       0.000000000   0.000000000   0.379990000    0   0   0
O0       0.000000000   0.500000000   0.402270000    0   0   0
Ru1      0.250000000   0.500000000   0.453130000    0   0   0
Ru1      0.000000000   0.000000000   0.454070000    0   0   0
O0       0.250000000   0.810000000   0.453610000    0   0   0
O0       0.250000000   0.190000000   0.453550000    0   0   0
O0       0.000000000   0.500000000   0.498760000    0   0   0
O0       0.000000000   0.000000000   0.528030000    0   0   0
Ru1      0.250000000   0.000000000   0.578650000    0   0   0
Ru1      0.000000000   0.500000000   0.569810000    0   0   0
O0       0.250000000   0.690000000   0.576290000    0   0   0
O0       0.250000000   0.310000000   0.576640000    0   0   0
O0       0.000000000   0.000000000   0.620030000    0   0   0
O0       0.500000000   0.000000000   0.379990000    0   0   0
O0       0.500000000   0.500000000   0.402270000    0   0   0
Ru1      0.750000000   0.500000000   0.453130000    0   0   0
Ru1      0.500000000   0.000000000   0.454070000    0   0   0
O0       0.750000000   0.810000000   0.453610000    0   0   0
O0       0.750000000   0.190000000   0.453550000    0   0   0
O0       0.500000000   0.500000000   0.498760000    0   0   0
O0       0.500000000   0.000000000   0.528030000    0   0   0
Ru1      0.750000000   0.000000000   0.578650000    0   0   0
Ru1      0.500000000   0.500000000   0.569810000    0   0   0
O0       0.750000000   0.690000000   0.576290000    0   0   0
O0       0.750000000   0.310000000   0.576630000    0   0   0
O0       0.500000000   0.000000000   0.620030000    0   0   0
H2      -0.000410000   0.629870000   0.381920000    0   0   0
H2       0.499590000   0.629870000   0.381920000    0   0   0
H2       0.146470000   0.028900000   0.367690000    0   0   0
H2       0.646470000   0.028900000   0.367690000    0   0   0
O0       0.507902584   0.499194633   0.643313565
H2       0.362267175   0.498870039   0.657449977

     Check: negative starting charge=(component1):   -0.522032
     NEW-OLD atomic charge density approx. for the potential

     Check: negative/imaginary core charge=   -0.000003    0.000000
     Check: negative starting charge=(component1):   -0.522034

[...]

     energy   old            =   -2164.7111332829 Ry
     energy   new            =   -2164.7112047017 Ry

     CASE: energy  _new < energy  _old

[...]

     Threshold (ethr) on eigenvalues was too large:
     Diagonalizing with lowered threshold

     Davidson diagonalization with overlap
     ethr =  7.21E-08,  avg # of iterations =  1.0

[...]

     number of scf cycles    =   9
     number of bfgs steps    =   8

     energy   old            =   -2164.7114870243 Ry
     energy   new            =   -2164.7115116055 Ry

     CASE: energy  _new < energy  _old

     new trust radius        =       0.0020828172 bohr
     new conv_thr            =       0.0000000100 Ry

ATOMIC_POSITIONS (crystal)
O0       0.000000000   0.000000000   0.379990000    0   0   0
O0       0.000000000   0.500000000   0.402270000    0   0   0
Ru1      0.250000000   0.500000000   0.453130000    0   0   0
Ru1      0.000000000   0.000000000   0.454070000    0   0   0
O0       0.250000000   0.810000000   0.453610000    0   0   0
O0       0.250000000   0.190000000   0.453550000    0   0   0
O0       0.000000000   0.500000000   0.498760000    0   0   0
O0       0.000000000   0.000000000   0.528030000    0   0   0
Ru1      0.250000000   0.000000000   0.578650000    0   0   0
Ru1      0.000000000   0.500000000   0.569810000    0   0   0
O0       0.250000000   0.690000000   0.576290000    0   0   0
O0       0.250000000   0.310000000   0.576640000    0   0   0
O0       0.000000000   0.000000000   0.620030000    0   0   0
O0       0.500000000   0.000000000   0.379990000    0   0   0
O0       0.500000000   0.500000000   0.402270000    0   0   0
Ru1      0.750000000   0.500000000   0.453130000    0   0   0
Ru1      0.500000000   0.000000000   0.454070000    0   0   0
O0       0.750000000   0.810000000   0.453610000    0   0   0
O0       0.750000000   0.190000000   0.453550000    0   0   0
O0       0.500000000   0.500000000   0.498760000    0   0   0
O0       0.500000000   0.000000000   0.528030000    0   0   0
Ru1      0.750000000   0.000000000   0.578650000    0   0   0
Ru1      0.500000000   0.500000000   0.569810000    0   0   0
O0       0.750000000   0.690000000   0.576290000    0   0   0
O0       0.750000000   0.310000000   0.576630000    0   0   0
O0       0.500000000   0.000000000   0.620030000    0   0   0
H2      -0.000410000   0.629870000   0.381920000    0   0   0
H2       0.499590000   0.629870000   0.381920000    0   0   0
H2       0.146470000   0.028900000   0.367690000    0   0   0
H2       0.646470000   0.028900000   0.367690000    0   0   0
O0       0.514033849   0.498971121   0.643678452
H2       0.371145006   0.497895700   0.659297730

     Check: negative starting charge=(component1):   -0.522038
     NEW-OLD atomic charge density approx. for the potential

     Check: negative/imaginary core charge=   -0.000003    0.000000
     Check: negative starting charge=(component1):   -0.522037

[...]

     Self-consistent Calculation

[...]

     Threshold (ethr) on eigenvalues was too large:
     Diagonalizing with lowered threshold

     Davidson diagonalization with overlap
     ethr =  7.30E-10,  avg # of iterations =  1.0

[...]

     total energy              =   -2164.71151366 Ry
     Harris-Foulkes estimate   =   -2164.71151366 Ry
     estimated scf accuracy    <       0.00000003 Ry

[...]

     iteration # 11     ecut=    40.00 Ry     beta=0.30
     Davidson diagonalization with overlap
     ethr =  6.56E-12,  avg # of iterations =  1.0

     negative rho (up, down):  0.290E+00 0.290E+00

     End of self-consistent calculation

 ------ SPIN UP ------------

[...]

 ------ SPIN DOWN ----------

[...]

          k = 0.2500-0.4870 0.0000 ( 30468 PWs)   bands (ev):

[...]

          k =-0.2500 0.2435 0.0000 ( 30434 PWs)   bands (ev):

   -74.9162 -74.9069 -74.7038 -74.6048 -74.5789 -74.4693 -74.2357 -74.2264
   -45.0347 -44.9224 -44.9052 -44.8855 -44.8768 -44.8291 -44.8002 -44.7796
   -44.7630 -44.7132 -44.6053 -44.5610 -44.5472 -44.4448 -44.4349 -44.4231
   -44.3990 -44.3824 -44.3560 -44.2568 -44.2313 -44.1413 -44.1034 -44.0509
   -21.0328 -20.5822 -20.5363 -20.4836 -20.3460 -20.2139 -19.9437 -19.9258
   -19.8663 -19.7167 -19.6205 -19.6034 -19.5172 -19.3799 -19.3437 -19.3304
   -19.2846 -19.2307 -19.0063  -9.1494  -8.6622  -8.6024  -8.5989  -8.2560
    -8.2430  -8.1761  -8.0517  -7.9764  -7.9055  -7.8193  -7.7719  -7.6882
    -7.6165  -7.4987  -7.4689  -7.3788  -7.3104  -7.0425  -6.8679  -6.8026
    -6.6686  -6.6342  -6.5477  -6.1535  -6.0382  -5.9213  -5.8249  -5.6669
    -5.6064  -5.5557  -5.5201  -5.4181  -5.3779  -5.3079  -5.1401  -5.1000
    -5.0409  -4.9900  -4.8698  -4.8013  -4.6660  -4.5483  -4.3907  -4.3232
    -4.2534  -4.1809  -4.0716  -3.9740  -3.9114  -3.6558  -3.6052  -3.3664
    -3.2111  -3.1607  -2.8564  -2.7842  -2.1408  -2.0982  -1.9591  -1.8470
    -1.7628  -1.6940  -1.6269  -1.5628  -1.5050  -1.4654  -1.4439  -1.3746
    -1.2233  -1.2126  -1.1709  -1.0798  -0.7932  -0.6470  -0.4735  -0.4015
    -0.3790  -0.2493  -0.1236   0.0594   0.5389   1.2454   1.4195   1.4593
     1.6970   2.0155   2.3653   2.5517   2.8326   2.9186   2.9632   3.0750
     3.1787   3.2079   3.4736   3.8214   4.0034   4.3537   4.8291   5.2521
     5.6542   5.7464   5.8455   6.1546   6.4711   6.6012   6.7088   6.7363
     6.7919   7.0453   7.1365   7.3546   7.5647   7.7626   7.8186   7.9904
     8.1431   8.2183   8.3325   8.3957   8.4806   8.5886   8.7241   8.7812
     8.9704   9.1058   9.1732   9.2887   9.3737   9.5066   9.7079   9.8305
     9.8874  10.0013  10.1025  10.1747  10.2201  10.3073  10.4122  10.4709
    10.6069  10.6463  10.6697  10.8345  10.9265  11.0198  11.1021  11.2790
    11.3563  11.4294  11.4744  11.5723  11.6799  11.7587  11.7700  11.8820
    11.9215  12.0097  12.1170  12.1586  12.2192  12.3267  12.4388  12.4920
    12.5145  12.5351  12.5790  12.7202  12.7867  12.8453  12.9444  13.0024
    13.0835  13.1182  13.2128  13.2958  13.4186  13.4723  13.5068  13.6035
    13.7311  13.7999  13.8886  14.0235  14.0564  14.1170  14.1958  14.2854
    14.3486  14.4356  14.5090  14.5406  14.5869  14.6709  14.7424  14.8371
    14.9074  14.9877  15.0544  15.1494  15.2743  15.4035  15.5321  15.6151
    15.6458  15.6941  15.7800  15.8415  15.8671  15.8995  16.0116  16.0576
    16.1180  16.1682  16.2018  16.3315  16.3858  16.4203  16.4712  16.5615
    16.6499  16.7091  16.7830  16.7957  16.8536  16.8784  16.9564  17.0454
    17.1049  17.1950  17.2345  17.3303  17.4310  17.4746  17.5105  17.5761
    17.6379  17.6847  17.7659  17.8095  17.8569  17.9119  18.0009  18.1082
    18.1582  18.2303  18.2763  18.3365  18.3860  18.4489  18.5441  18.5982
    18.7117  18.7984  18.8536  18.9580  18.9867  19.0659  19.1315  19.1911
    19.2219  19.3256  19.3908  19.4301  19.5075  19.5267  19.6283  19.7497
    19.8071  19.8629  19.9113  20.0106  20.0455  20.1874  20.2584  20.3257
    20.3776  20.4910  20.5807  20.6592  20.7204  20.8260  20.8486  20.9347
    20.9581  21.0135  21.1056  21.1794  21.1829  21.2676  21.3479  21.3774
    21.4406  21.5048  21.5587  21.6043  21.6527  21.7363  21.7801  21.8461
    21.9646  22.0324  22.0576  22.0873  22.1362  22.2111

     the Fermi energy is    -0.9598 ev

!    total energy              =   -2164.71151367 Ry
     Harris-Foulkes estimate   =   -2164.71151366 Ry
     estimated scf accuracy    <          9.6E-09 Ry

     The total energy is the sum of the following terms:

     one-electron contribution =  -25245.20376794 Ry
     hartree contribution      =   12643.59233575 Ry
     xc contribution           =    -338.42093740 Ry
     ewald contribution        =   10775.32052636 Ry
     smearing contrib. (-TS)   =       0.00032955 Ry

     total magnetization       =     0.00 Bohr mag/cell
     absolute magnetization    =     0.01 Bohr mag/cell

     convergence has been achieved in  11 iterations

     Forces acting on atoms (Ry/au):

     negative rho (up, down):  0.290E+00 0.290E+00
     atom    1 type  1   force =    -0.00491255   -0.01210574   -0.00087679
     atom    2 type  1   force =     0.00047740    0.00992625    0.00458733
     atom    3 type  2   force =     0.01127077   -0.00361030   -0.01285539
     atom    4 type  2   force =     0.00379007    0.00584786   -0.00087904
     atom    5 type  1   force =     0.00103810   -0.02759310   -0.00064758
     atom    6 type  1   force =    -0.00128559    0.02873656   -0.00110680
     atom    7 type  1   force =     0.00132216   -0.00173937   -0.01089149
     atom    8 type  1   force =    -0.00011371   -0.00167807    0.00273453
     atom    9 type  2   force =     0.00977680    0.00263751    0.00972432
     atom   10 type  2   force =    -0.00955265    0.00089183   -0.00011236
     atom   11 type  1   force =    -0.01367200    0.00417229   -0.01722497
     atom   12 type  1   force =    -0.01566910   -0.00594156   -0.01837241
     atom   13 type  1   force =    -0.00102892   -0.00112389   -0.00180354
     atom   14 type  1   force =    -0.00540351   -0.01182278    0.00125936
     atom   15 type  1   force =    -0.00007448    0.01276203    0.00249666
     atom   16 type  2   force =    -0.01271093   -0.00312149   -0.01197353
     atom   17 type  2   force =     0.00362548    0.00673726    0.00086995
     atom   18 type  1   force =     0.00238842   -0.02783521   -0.00071237
     atom   19 type  1   force =     0.00269981    0.02827206   -0.00134985
     atom   20 type  1   force =    -0.00022975   -0.00198902   -0.00275933
     atom   21 type  1   force =    -0.00021724   -0.00160009   -0.00039766
     atom   22 type  2   force =    -0.00812759    0.00318466    0.01221753
     atom   23 type  2   force =     0.00368181    0.00299151    0.10784700
     atom   24 type  1   force =     0.01612701    0.00541966   -0.02258125
     atom   25 type  1   force =     0.01816446   -0.00748649   -0.02414728
     atom   26 type  1   force =    -0.00192396   -0.00150983   -0.01113673
     atom   27 type  3   force =    -0.00000335   -0.00138970    0.00149201
     atom   28 type  3   force =    -0.00002429   -0.00181423   -0.00159287
     atom   29 type  3   force =    -0.00052510    0.00068190   -0.00047512
     atom   30 type  3   force =     0.00076022    0.00026728   -0.00063129
     atom   31 type  1   force =     0.00003908    0.00001068   -0.00022224
     atom   32 type  3   force =     0.00031316   -0.00017846   -0.00047882

     Total force =     0.000640     Total SCF correction =     0.000039

     bfgs converged in  10 scf cycles and   9 bfgs steps
     (criteria: energy < 0.10E-03, force < 0.10E-02)

     End of BFGS Geometry Optimization

     Final energy   =   -2164.7115136692 Ry
Begin final coordinates

ATOMIC_POSITIONS (crystal)
O0       0.000000000   0.000000000   0.379990000    0   0   0
O0       0.000000000   0.500000000   0.402270000    0   0   0
Ru1      0.250000000   0.500000000   0.453130000    0   0   0
Ru1      0.000000000   0.000000000   0.454070000    0   0   0
O0       0.250000000   0.810000000   0.453610000    0   0   0
O0       0.250000000   0.190000000   0.453550000    0   0   0
O0       0.000000000   0.500000000   0.498760000    0   0   0
O0       0.000000000   0.000000000   0.528030000    0   0   0
Ru1      0.250000000   0.000000000   0.578650000    0   0   0
Ru1      0.000000000   0.500000000   0.569810000    0   0   0
O0       0.250000000   0.690000000   0.576290000    0   0   0
O0       0.250000000   0.310000000   0.576640000    0   0   0
O0       0.000000000   0.000000000   0.620030000    0   0   0
O0       0.500000000   0.000000000   0.379990000    0   0   0
O0       0.500000000   0.500000000   0.402270000    0   0   0
Ru1      0.750000000   0.500000000   0.453130000    0   0   0
Ru1      0.500000000   0.000000000   0.454070000    0   0   0
O0       0.750000000   0.810000000   0.453610000    0   0   0
O0       0.750000000   0.190000000   0.453550000    0   0   0
O0       0.500000000   0.500000000   0.498760000    0   0   0
O0       0.500000000   0.000000000   0.528030000    0   0   0
Ru1      0.750000000   0.000000000   0.578650000    0   0   0
Ru1      0.500000000   0.500000000   0.569810000    0   0   0
O0       0.750000000   0.690000000   0.576290000    0   0   0
O0       0.750000000   0.310000000   0.576630000    0   0   0
O0       0.500000000   0.000000000   0.620030000    0   0   0
H2      -0.000410000   0.629870000   0.381920000    0   0   0
H2       0.499590000   0.629870000   0.381920000    0   0   0
H2       0.146470000   0.028900000   0.367690000    0   0   0
H2       0.646470000   0.028900000   0.367690000    0   0   0
O0       0.514033849   0.498971121   0.643678452
H2       0.371145006   0.497895700   0.659297730
End final coordinates

     General routines

     Parallel routines

   This run was terminated on:  19:31:17  28Mar2014

   JOB DONE.
Running PBS batch system epilogue script
Job id: 317196.audhumbla.fysik.dtu.dk
Username: zhonxu
Groupname: campgst
Jobname: RuO2/Eads-2-layers/OH
Sessionid: 6994
Queuename: verylong
Accounting:
This job has allocated the following 16 nodes:
a060 a060 a060 a060 a060 a060 a060 a060 a046 a046 a046 a046 a046 a046 a046 a046
Finished epilogue job 317196.audhumbla.fysik.dtu.dk for zhonxu