     Program PWSCF v.5.0.2 (svn rev. 9656) starts on 11Feb2014 at 18:46: 2

     Current dimensions of program PWSCF are:
     Max number of different atomic species (ntypx) = 10
     Max number of k-points (npk) =  40000
     Max angular momentum in pseudopotentials (lmaxx) =  3
     Reading input from alpha_-0.07/alpha_-0.07.in
Warning: card &IONS ignored
Warning: card / ignored
Warning: card &CELL ignored
Warning: card / ignored

     Subspace diagonalization in iterative solution of the eigenvalue problem:
     a serial algorithm will be used

     bravais-lattice index     =            0
     lattice parameter (alat)  =      17.5745  a.u.
     unit-cell volume          =    3466.9609 (a.u.)^3
     number of atoms/cell      =           48
     number of atomic types    =            3
     number of electrons       =       384.00
     number of Kohn-Sham states=          552
     kinetic-energy cutoff     =      40.0000  Ry
     charge density cutoff     =     500.0000  Ry
     convergence threshold     =      1.0E-06
     mixing beta               =       0.7000
     number of iterations used =            8  plain     mixing
     Exchange-correlation      = SLA  PW   PBE  PBE ( 1 4 3 4 0)
     EXX-fraction              =        0.00

     celldm(1)=  17.574453  celldm(2)=   0.000000  celldm(3)=   0.000000
     celldm(4)=   0.000000  celldm(5)=   0.000000  celldm(6)=   0.000000

     crystal axes: (cart. coord. in units of alat)
               a(1) = (   1.000000   0.000000   0.000000 )
               a(2) = (   0.000000   1.000000   0.000000 )
               a(3) = (   0.000000   0.000000   0.638710 )

     reciprocal axes: (cart. coord. in units 2 pi/alat)
               b(1) = (  1.000000  0.000000  0.000000 )
               b(2) = (  0.000000  1.000000  0.000000 )
               b(3) = (  0.000000  0.000000  1.565657 )

     PseudoPot. # 1 for Ti read from file:
     /home/camp/zhonxu/pseudo/ti_pbe_v1.uspp.F.UPF
     MD5 check sum: bcc8f6961b3b91f0cac3ca967d22d0fb
     Pseudo is Ultrasoft + core correction, Zval = 12.0
     Generated by new atomic code, or converted to UPF format
     Using radial grid of  851 points,  6 beta functions with:
                l(1) =   0
                l(2) =   0
                l(3) =   1
                l(4) =   1
                l(5) =   2
                l(6) =   2
     Q(r) pseudized with  6 coefficients,  rinner =    1.000   1.000   1.000
                                                       1.000   1.000

     PseudoPot. # 2 for Ti read from file:
     /home/camp/zhonxu/pseudo/ti_pbe_v1.uspp.F.UPF
     MD5 check sum: bcc8f6961b3b91f0cac3ca967d22d0fb
     Pseudo is Ultrasoft + core correction, Zval = 12.0
     Generated by new atomic code, or converted to UPF format
     Using radial grid of  851 points,  6 beta functions with:
                l(1) =   0
                l(2) =   0
                l(3) =   1
                l(4) =   1
                l(5) =   2
                l(6) =   2
     Q(r) pseudized with  6 coefficients,  rinner =    1.000   1.000   1.000
                                                       1.000   1.000

     PseudoPot. # 3 for O  read from file:
     /home/camp/zhonxu/pseudo/o_pbe_v1.01.uspp.F.UPF
     MD5 check sum: 2bcb18d16ea4b960afae9ec6d52f22d2
     Pseudo is Ultrasoft + core correction, Zval =  6.0
     Generated by new atomic code, or converted to UPF format
     Using radial grid of  737 points,  5 beta functions with:
                l(1) =   0
                l(2) =   0
                l(3) =   1
                l(4) =   1
                l(5) =   2
     Q(r) pseudized with  8 coefficients,  rinner =    0.900   0.900   0.900
                                                       0.900   0.900

     atomic species   valence    mass     pseudopotential
        Ti0           12.00    47.88000     Ti( 1.00)
        Ti1           12.00    47.88000     Ti( 1.00)
        O2             6.00    15.99940     O ( 1.00)

     Starting magnetic structure
     atomic species   magnetization
        Ti0          0.000
        Ti1          0.000
        O2           0.000

     Simplified LDA+U calculation (l_max = 2) with parameters (eV):
     atomic species    L          U    alpha       J0     beta
        Ti0            2     0.0000  -0.0700   0.0000   0.0000
        Ti1            2     0.0000   0.0000   0.0000   0.0000
        O2             1     0.0000   0.0000   0.0000   0.0000

      8 Sym. Ops., with inversion, found

   Cartesian axes

     site n.     atom                  positions (alat units)
         1           Ti0 tau(   1) = (   0.0000000   0.0000000   0.0000000  )
         2           Ti1 tau(   2) = (   0.2500000   0.2500000   0.1596774  )
         3           Ti1 tau(   3) = (   0.0000000   0.0000000   0.3193548  )
         4           Ti1 tau(   4) = (   0.2500000   0.2500000   0.4790323  )
         5           Ti1 tau(   5) = (   0.0000000   0.5000000   0.0000000  )
         6           Ti1 tau(   6) = (   0.2500000   0.7500000   0.1596774  )
         7           Ti1 tau(   7) = (   0.0000000   0.5000000   0.3193548  )
         8           Ti1 tau(   8) = (   0.2500000   0.7500000   0.4790323  )
         9           Ti1 tau(   9) = (   0.5000000   0.0000000   0.0000000  )
        10           Ti1 tau(  10) = (   0.7500000   0.2500000   0.1596774  )
        11           Ti1 tau(  11) = (   0.5000000   0.0000000   0.3193548  )
        12           Ti1 tau(  12) = (   0.7500000   0.2500000   0.4790323  )
        13           Ti1 tau(  13) = (   0.5000000   0.5000000   0.0000000  )
        14           Ti1 tau(  14) = (   0.7500000   0.7500000   0.1596774  )
        15           Ti1 tau(  15) = (   0.5000000   0.5000000   0.3193548  )
        16           Ti1 tau(  16) = (   0.7500000   0.7500000   0.4790323  )
        17           O2  tau(  17) = (   0.1550000   0.1550000   0.0000000  )
        18           O2  tau(  18) = (  -0.1550000  -0.1550000   0.0000000  )
        19           O2  tau(  19) = (   0.4050000   0.0950000   0.1596774  )
        20           O2  tau(  20) = (   0.0950000   0.4050000   0.1596774  )
        21           O2  tau(  21) = (   0.1550000   0.1550000   0.3193548  )
        22           O2  tau(  22) = (  -0.1550000  -0.1550000   0.3193548  )
        23           O2  tau(  23) = (   0.4050000   0.0950000   0.4790323  )
        24           O2  tau(  24) = (   0.0950000   0.4050000   0.4790323  )
        25           O2  tau(  25) = (   0.1550000   0.6550000   0.0000000  )
        26           O2  tau(  26) = (  -0.1550000   0.3450000   0.0000000  )
        27           O2  tau(  27) = (   0.4050000   0.5950000   0.1596774  )
        28           O2  tau(  28) = (   0.0950000   0.9050000   0.1596774  )
        29           O2  tau(  29) = (   0.1550000   0.6550000   0.3193548  )
        30           O2  tau(  30) = (  -0.1550000   0.3450000   0.3193548  )
        31           O2  tau(  31) = (   0.4050000   0.5950000   0.4790323  )
        32           O2  tau(  32) = (   0.0950000   0.9050000   0.4790323  )
        33           O2  tau(  33) = (   0.6550000   0.1550000   0.0000000  )
        34           O2  tau(  34) = (   0.3450000  -0.1550000   0.0000000  )
        35           O2  tau(  35) = (   0.9050000   0.0950000   0.1596774  )
        36           O2  tau(  36) = (   0.5950000   0.4050000   0.1596774  )
        37           O2  tau(  37) = (   0.6550000   0.1550000   0.3193548  )
        38           O2  tau(  38) = (   0.3450000  -0.1550000   0.3193548  )
        39           O2  tau(  39) = (   0.9050000   0.0950000   0.4790323  )
        40           O2  tau(  40) = (   0.5950000   0.4050000   0.4790323  )
        41           O2  tau(  41) = (   0.6550000   0.6550000   0.0000000  )
        42           O2  tau(  42) = (   0.3450000   0.3450000   0.0000000  )
        43           O2  tau(  43) = (   0.9050000   0.5950000   0.1596774  )
        44           O2  tau(  44) = (   0.5950000   0.9050000   0.1596774  )
        45           O2  tau(  45) = (   0.6550000   0.6550000   0.3193548  )
        46           O2  tau(  46) = (   0.3450000   0.3450000   0.3193548  )
        47           O2  tau(  47) = (   0.9050000   0.5950000   0.4790323  )
        48           O2  tau(  48) = (   0.5950000   0.9050000   0.4790323  )

     number of k points=    42  Methfessel-Paxton smearing, width (Ry)=  0.0100
                       cart. coord. in units 2pi/alat
        k(    1) = (   0.0000000   0.0000000   0.0000000), wk =   0.0156250
        k(    2) = (   0.0000000   0.0000000   0.3914141), wk =   0.0312500
        k(    3) = (   0.0000000   0.0000000  -0.7828283), wk =   0.0156250
        k(    4) = (   0.0000000   0.2500000   0.0000000), wk =   0.0625000
        k(    5) = (   0.0000000   0.2500000   0.3914141), wk =   0.1250000
        k(    6) = (   0.0000000   0.2500000  -0.7828283), wk =   0.0625000
        k(    7) = (   0.0000000  -0.5000000   0.0000000), wk =   0.0312500
        k(    8) = (   0.0000000  -0.5000000   0.3914141), wk =   0.0625000
        k(    9) = (   0.0000000  -0.5000000  -0.7828283), wk =   0.0312500
        k(   10) = (   0.2500000   0.2500000   0.0000000), wk =   0.0312500
        k(   11) = (   0.2500000   0.2500000   0.3914141), wk =   0.0625000
        k(   12) = (   0.2500000   0.2500000  -0.7828283), wk =   0.0312500
        k(   13) = (   0.2500000  -0.5000000   0.0000000), wk =   0.0625000
        k(   14) = (   0.2500000  -0.5000000   0.3914141), wk =   0.1250000
        k(   15) = (   0.2500000  -0.5000000  -0.7828283), wk =   0.0625000
        k(   16) = (  -0.5000000  -0.5000000   0.0000000), wk =   0.0156250
        k(   17) = (  -0.5000000  -0.5000000   0.3914141), wk =   0.0312500
        k(   18) = (  -0.5000000  -0.5000000  -0.7828283), wk =   0.0156250
        k(   19) = (  -0.2500000   0.2500000   0.0000000), wk =   0.0312500
        k(   20) = (  -0.2500000   0.2500000  -0.3914141), wk =   0.0625000
        k(   21) = (  -0.2500000   0.2500000   0.7828283), wk =   0.0312500
        k(   22) = (   0.0000000   0.0000000   0.0000000), wk =   0.0156250
        k(   23) = (   0.0000000   0.0000000   0.3914141), wk =   0.0312500
        k(   24) = (   0.0000000   0.0000000  -0.7828283), wk =   0.0156250
        k(   25) = (   0.0000000   0.2500000   0.0000000), wk =   0.0625000
        k(   26) = (   0.0000000   0.2500000   0.3914141), wk =   0.1250000
        k(   27) = (   0.0000000   0.2500000  -0.7828283), wk =   0.0625000
        k(   28) = (   0.0000000  -0.5000000   0.0000000), wk =   0.0312500
        k(   29) = (   0.0000000  -0.5000000   0.3914141), wk =   0.0625000
        k(   30) = (   0.0000000  -0.5000000  -0.7828283), wk =   0.0312500
        k(   31) = (   0.2500000   0.2500000   0.0000000), wk =   0.0312500
        k(   32) = (   0.2500000   0.2500000   0.3914141), wk =   0.0625000
        k(   33) = (   0.2500000   0.2500000  -0.7828283), wk =   0.0312500
        k(   34) = (   0.2500000  -0.5000000   0.0000000), wk =   0.0625000
        k(   35) = (   0.2500000  -0.5000000   0.3914141), wk =   0.1250000
        k(   36) = (   0.2500000  -0.5000000  -0.7828283), wk =   0.0625000
[...]
   spin  2
    eigenvalues:
  0.895  0.903  0.907
    eigenvectors:
  0.000  0.000  1.000
  0.500  0.500  0.000
  0.500  0.500  0.000
    occupations:
  0.907 -0.000  0.000
 -0.000  0.899  0.004
  0.000  0.004  0.899
atomic mag. moment =     0.000000
atom   40   Tr[ns(na)] (up, down, total) =   2.70575  2.70575  5.41150
   spin  1
    eigenvalues:
  0.895  0.903  0.908
    eigenvectors:
  0.000  0.000  1.000
  0.500  0.500  0.000
  0.500  0.500  0.000
    occupations:
  0.908 -0.000  0.000
 -0.000  0.899  0.004
  0.000  0.004  0.899
   spin  2
    eigenvalues:
  0.895  0.903  0.908
    eigenvectors:
  0.000  0.000  1.000
  0.500  0.500  0.000
  0.500  0.500  0.000
    occupations:
  0.908 -0.000  0.000
 -0.000  0.899  0.004
  0.000  0.004  0.899
atomic mag. moment =    -0.000000
atom   41   Tr[ns(na)] (up, down, total) =   2.70579  2.70579  5.41159
   spin  1
    eigenvalues:
  0.895  0.903  0.908
    eigenvectors:
  0.000  0.000  1.000
  0.500  0.500  0.000
  0.500  0.500  0.000
    occupations:
  0.908 -0.000 -0.000
 -0.000  0.899 -0.004
 -0.000 -0.004  0.899
   spin  2
    eigenvalues:
  0.895  0.903  0.908
    eigenvectors:
  0.000  0.000  1.000
  0.500  0.500  0.000
  0.500  0.500  0.000
    occupations:
  0.908 -0.000 -0.000
 -0.000  0.899 -0.004
 -0.000 -0.004  0.899
atomic mag. moment =    -0.000000
atom   42   Tr[ns(na)] (up, down, total) =   2.70579  2.70579  5.41159
   spin  1
    eigenvalues:
  0.895  0.903  0.908
    eigenvectors:
  0.000  0.000  1.000
  0.500  0.500  0.000
  0.500  0.500  0.000
    occupations:
  0.908 -0.000 -0.000
 -0.000  0.899 -0.004
 -0.000 -0.004  0.899
   spin  2
    eigenvalues:
  0.895  0.903  0.908
    eigenvectors:
  0.000  0.000  1.000
  0.500  0.500  0.000
  0.500  0.500  0.000
    occupations:
  0.908 -0.000 -0.000
 -0.000  0.899 -0.004
 -0.000 -0.004  0.899
atomic mag. moment =    -0.000000
atom   43   Tr[ns(na)] (up, down, total) =   2.70577  2.70577  5.41154
   spin  1
    eigenvalues:
  0.895  0.903  0.908
    eigenvectors:
  0.000  0.000  1.000
  0.500  0.500  0.000
  0.500  0.500  0.000
    occupations:
  0.908  0.000 -0.000
  0.000  0.899  0.004
 -0.000  0.004  0.899
   spin  2
    eigenvalues:
  0.895  0.903  0.908
    eigenvectors:
  0.000  0.000  1.000
  0.500  0.500  0.000
  0.500  0.500  0.000
    occupations:
  0.908  0.000 -0.000
  0.000  0.899  0.004
 -0.000  0.004  0.899
atomic mag. moment =    -0.000000
atom   44   Tr[ns(na)] (up, down, total) =   2.70577  2.70577  5.41154
   spin  1
    eigenvalues:
  0.895  0.903  0.908
    eigenvectors:
  0.000  0.000  1.000
  0.500  0.500  0.000
  0.500  0.500  0.000
    occupations:
  0.908 -0.000  0.000
 -0.000  0.899  0.004
  0.000  0.004  0.899
   spin  2
    eigenvalues:
  0.895  0.903  0.908
    eigenvectors:
  0.000  0.000  1.000
  0.500  0.500  0.000
  0.500  0.500  0.000
    occupations:
  0.908 -0.000  0.000
 -0.000  0.899  0.004
  0.000  0.004  0.899
atomic mag. moment =    -0.000000
atom   45   Tr[ns(na)] (up, down, total) =   2.70584  2.70584  5.41169
   spin  1
    eigenvalues:
  0.895  0.904  0.908
    eigenvectors:
  0.000  0.000  1.000
  0.500  0.500  0.000
  0.500  0.500  0.000
    occupations:
  0.908 -0.000 -0.000
 -0.000  0.899 -0.004
 -0.000 -0.004  0.899
   spin  2
    eigenvalues:
  0.895  0.904  0.908
    eigenvectors:
  0.000  0.000  1.000
  0.500  0.500  0.000
  0.500  0.500  0.000
    occupations:
  0.908 -0.000 -0.000
 -0.000  0.899 -0.004
 -0.000 -0.004  0.899
atomic mag. moment =    -0.000000
atom   46   Tr[ns(na)] (up, down, total) =   2.70584  2.70584  5.41169
   spin  1
    eigenvalues:
  0.895  0.904  0.908
    eigenvectors:
  0.000  0.000  1.000
  0.500  0.500  0.000
  0.500  0.500  0.000
    occupations:
  0.908 -0.000 -0.000
 -0.000  0.899 -0.004
 -0.000 -0.004  0.899
   spin  2
    eigenvalues:
  0.895  0.904  0.908
    eigenvectors:
  0.000  0.000  1.000
  0.500  0.500  0.000
  0.500  0.500  0.000
    occupations:
  0.908 -0.000 -0.000
 -0.000  0.899 -0.004
 -0.000 -0.004  0.899
atomic mag. moment =    -0.000000
atom   47   Tr[ns(na)] (up, down, total) =   2.70577  2.70577  5.41154
   spin  1
    eigenvalues:
  0.895  0.903  0.908
    eigenvectors:
  0.000  0.000  1.000
  0.500  0.500  0.000
  0.500  0.500  0.000
    occupations:
  0.908 -0.000  0.000
 -0.000  0.899  0.004
  0.000  0.004  0.899
   spin  2
    eigenvalues:
  0.895  0.903  0.908
    eigenvectors:
  0.000  0.000  1.000
  0.500  0.500  0.000
  0.500  0.500  0.000
    occupations:
  0.908 -0.000  0.000
 -0.000  0.899  0.004
  0.000  0.004  0.899
atomic mag. moment =    -0.000000
atom   48   Tr[ns(na)] (up, down, total) =   2.70577  2.70577  5.41154
   spin  1
    eigenvalues:
  0.895  0.903  0.908
    eigenvectors:
  0.000  0.000  1.000
  0.500  0.500  0.000
  0.500  0.500  0.000
    occupations:
  0.908  0.000 -0.000
  0.000  0.899  0.004
 -0.000  0.004  0.899
   spin  2
    eigenvalues:
  0.895  0.903  0.908
    eigenvectors:
  0.000  0.000  1.000
  0.500  0.500  0.000
  0.500  0.500  0.000
    occupations:
  0.908  0.000 -0.000
  0.000  0.899  0.004
 -0.000  0.004  0.899
atomic mag. moment =    -0.000000
N of occupied +U levels = 219.8276438
 --- exit write_ns ---

 ------ SPIN UP ------------

          k = 0.0000 0.0000 0.0000 ( 14755 PWs)   bands (ev):

   -48.1859 -48.1800 -48.1794 -48.1793 -48.1793 -48.1793 -48.1739 -48.1634
   -48.1405 -48.1394 -48.1394 -48.1393 -48.1393 -48.1393 -48.1393 -48.0805
   -24.7332 -24.7332 -24.7329 -24.7308 -24.7254 -24.7250 -24.7247 -24.6973
   -24.5018 -24.5007 -24.4915 -24.4889 -24.4572 -24.4571 -24.4571 -24.4426
   -24.3754 -24.3752 -24.3752 -24.3687 -24.3520 -24.3517 -24.3508 -24.3504
   -24.3503 -24.3501 -24.3501 -24.3431 -24.3423 -24.3413 -24.3401 -24.3374
   -24.3354 -24.3339 -24.3338 -24.3337 -24.3313 -24.3307 -24.2995 -24.2893
   -24.2760 -24.2759 -24.2753 -24.2752 -24.2752 -24.2751 -24.2633 -24.2357
    -9.3739  -8.7536  -8.7525  -8.7106  -8.7105  -8.7102  -8.7102  -8.2985
    -8.2959  -8.2955  -8.2954  -8.2747  -8.1381  -8.1363  -8.0570  -8.0553
    -7.9026  -7.9019  -7.8010  -7.8002  -7.6939  -7.6927  -7.6927  -7.6920
    -7.6413  -7.6412  -7.6408  -7.6401  -7.6267  -7.6266  -7.5108  -7.5107
     3.0507   3.2897   3.2910   3.4749   3.7846   3.7869   3.7871   3.7882
     3.7996   3.8015   3.8017   3.8018   4.0341   4.1731   4.1752   4.2746
     4.2748   4.3871   4.3884   4.8067   4.8081   4.8655   4.8669   4.9036
     4.9064   4.9064   4.9066   4.9957   4.9958   4.9968   4.9968   5.1275
     5.1294   5.1449   5.1450   5.2737   5.2751   5.5471   5.5478   5.5479
     5.5483   5.6043   5.6064   5.6067   5.6067   5.8833   5.8836   5.8936
     5.8942   5.8943   5.8948   6.0672   6.0685   6.0835   6.0847   6.2030
     6.2034   6.3631   6.3636   6.3637   6.3641   6.5424   6.5433   6.5984
     6.5997   6.6382   6.6386   6.6391   6.6394   6.8314   7.1856   7.1860
     7.1861   7.1873   7.2561   7.2569   7.4545   7.4550   7.5387   7.5390
     7.7092   7.7092   7.7092   7.7095   7.7721   7.7722   7.9196   7.9197
     7.9198   7.9200   7.9569   7.9575   8.0142   8.2885   8.2886   8.6011
    10.6187  10.6201  10.6210  10.6210  10.6495  10.7189  10.7200  11.0589
    11.1944  11.1953  11.2117  11.2124  11.2206  11.2263  11.2270  11.3346
    11.3358  11.3359  11.3362  11.5296  11.5301  11.6229  11.6238  11.6238
    11.6238  11.8118  11.8120  11.8464  11.8468  11.8469  11.8469  11.8630
    11.8631  11.9923  11.9925  12.2580  12.2581  12.2582  12.2582  12.3925
    12.3926  12.4865  12.4867  12.5780  12.5781  12.5781  12.5783  12.8561
    13.1661  13.5528  13.5529  13.5535  13.5538  13.9457  13.9467  14.2768
    14.2774  14.3031  14.3043  14.5493  14.5495  14.5495  14.5519  14.7427
    14.7438  14.7660  14.7673  15.1565  15.1566  15.1568  15.1594  15.4270
    15.4280  15.4371  15.4386  15.6500  15.6500  15.6516  15.6516  15.8685
    16.5624  18.6718  18.6721  18.6727  18.6732  19.7500  19.7504  20.2920
    20.2926  20.3554  20.3558  20.7578  20.7583  20.7587  20.7590  20.9774
    20.9776  21.5442  21.5453  22.0091  22.0099  22.0106  22.0110  22.7088
    22.7091  22.7098  22.7099  22.8290  22.8297  22.8312  23.1162  23.1165
    23.4024  23.4031  23.9503  23.9515  24.0045  24.0051  24.2737  24.3561
    24.3566  24.3570  24.3574  24.5932  24.5933  24.5939  24.5946  25.2982
    25.5351  25.5372  25.6638  25.6657  25.7174  25.7182  25.7186  25.7199
    26.3188  26.3198  26.6526  26.7019  26.7027  26.7037  26.7041  26.7434
    26.7436  26.7873  26.7881  26.7888  26.7892  26.9506  26.9508  26.9523
    26.9555  27.4306  27.4321  27.5520  27.5526  28.0591  28.0592  28.1641
    28.1651  28.1667  28.3827  28.3831  28.3841  28.3842  29.5765  29.5779
    29.9078  29.9955  29.9957  29.9963  29.9964  30.1209  30.1227  30.7311
    30.7321  31.0265  31.0271  31.2933  31.4988  31.5012  31.6586  31.6601
    31.6602  31.6606  31.6976  31.6978  31.6983  31.7026  32.2677  32.2702
    32.2825  32.2828  32.2943  32.2945  32.2950  32.2974  32.4267  32.4281
    32.8378  32.8379  33.4505  33.9804  33.9815  34.1605  34.1610  34.1613
    34.1628  34.2212  34.2216  34.2222  34.2229  34.5066  34.5088  34.5303
    34.7718  34.7736  35.0110  35.0126  35.3320  35.7222  35.7224  35.8047
    35.8052  35.8053  35.8078  35.8619  35.8620  35.8625  35.8647  35.8754
    35.8764  36.0089  36.0093  36.0095  36.0110  36.1125  36.1131  36.1138
    36.1143  36.3801  36.3801  36.6353  36.6354  36.6360  36.6363  37.0349
    37.1200  37.1205  37.3527  37.3534  37.9181  37.9183  38.8117  38.8128
    39.3935  39.3948  39.4570  40.0354  40.0364  40.0578  40.0579  40.0952
    40.0955  40.0962  40.0977  40.1102  40.2195  40.4039  40.4042  40.4055
    40.4078  40.5297  40.5300  40.5303  40.5315  40.6462  40.6469  40.9749
    40.9770  41.1144  41.1154  41.2626  41.2633  41.2635  41.2638  41.5862
    41.5863  41.5875  41.5899  41.6805  41.7812  41.7814  41.8073  41.8084
    41.9182  41.9187  42.7967  42.7971  43.2740  43.2756  43.6327  43.6344
    43.7776  43.7778  43.7985  43.7999  43.7999  43.8005  43.9859  43.9861
    44.0027  44.0030  44.0040  44.0056  44.1458  44.1459  44.1461  44.1471
    44.2953  44.2969  44.3744  44.3746  44.3748  44.3752  44.4173  44.7876
    44.7894  44.8245  44.8247  45.2665  45.2688  45.4077  45.4081  45.4091
    45.4109  45.5749  45.6074  45.6085  45.7038  45.7039  45.7044  45.7058
    46.1174  46.1178  46.3667  46.3679  46.4937  46.4943  46.5784  46.5787
    46.5787  46.5813  46.5919  46.5922  46.9710  46.9711  46.9717  46.9730

[...]

          k =-0.5000-0.5000 0.0000 ( 14812 PWs)   bands (ev):

[...]

 ------ SPIN DOWN ----------

[...]

          k = 0.2500-0.5000-0.7828 ( 14816 PWs)   bands (ev):

[...]

          k =-0.2500 0.2500 0.7828 ( 14778 PWs)   bands (ev):

   -48.1641 -48.1633 -48.1616 -48.1614 -48.1608 -48.1607 -48.1603 -48.1594
   -48.1589 -48.1584 -48.1578 -48.1578 -48.1573 -48.1555 -48.1553 -48.0856
   -24.5177 -24.5176 -24.5176 -24.5171 -24.5170 -24.5149 -24.5109 -24.5102
   -24.5096 -24.5093 -24.5092 -24.5056 -24.5054 -24.5003 -24.4990 -24.4499
   -24.4401 -24.4380 -24.4346 -24.4299 -24.4236 -24.4235 -24.4218 -24.4210
   -24.4202 -24.4193 -24.4176 -24.4026 -24.4026 -24.4025 -24.4006 -24.3802
   -24.3489 -24.3488 -24.3477 -24.3380 -24.3365 -24.3363 -24.3349 -24.3346
   -24.3339 -24.3335 -24.3320 -24.3273 -24.3249 -24.3243 -24.3064 -24.2735
    -8.7157  -8.7149  -8.4754  -8.4749  -8.4748  -8.4742  -8.3631  -8.3623
    -8.2184  -8.2178  -8.1276  -8.1273  -8.1263  -8.1262  -7.9506  -7.9496
    -7.9047  -7.9037  -7.9036  -7.9030  -7.8941  -7.8926  -7.8692  -7.8679
    -7.8601  -7.8582  -7.8497  -7.8479  -7.8477  -7.8476  -7.8006  -7.7993
     3.9186   3.9189   3.9335   3.9340   4.1511   4.1524   4.1525   4.1531
     4.1843   4.1856   4.1915   4.1929   4.2496   4.2513   4.2777   4.2791
     4.3655   4.3666   4.3671   4.3674   4.4267   4.4274   4.4658   4.4672
     4.4673   4.4690   4.6715   4.6725   4.6726   4.6729   4.7231   4.7240
     5.1332   5.1339   5.1754   5.1768   5.1770   5.1776   5.3744   5.3747
     5.5578   5.5581   5.5581   5.5585   5.6651   5.6654   5.9030   5.9042
     5.9042   5.9046   5.9592   5.9599   5.9868   5.9873   6.3517   6.3517
     6.4836   6.4837   6.4838   6.4838   6.7285   6.7288   6.7288   6.7299
     6.7842   6.7854   6.8312   6.8315   6.9143   6.9147   6.9824   6.9832
     7.1304   7.1304   7.1304   7.1307   7.1493   7.1509   7.2501   7.2512
     7.2850   7.2869   7.3634   7.3635   7.5366   7.5370   7.5373   7.5373
     7.6409   7.6415   7.9597   7.9597   7.9600   7.9605   8.2494   8.2498
    10.8827  10.8831  11.0970  11.0980  11.0983  11.0987  11.3489  11.3492
    11.4011  11.4013  11.4162  11.4164  11.5145  11.5151  11.5151  11.5155
    11.6497  11.6498  11.7051  11.7061  11.7063  11.7068  11.7104  11.7107
    11.7215  11.7216  11.8179  11.8181  11.9160  11.9160  11.9313  11.9316
    11.9410  11.9410  11.9411  11.9415  12.1361  12.1362  12.1362  12.1363
    12.1368  12.1368  12.3615  12.3616  12.3620  12.3622  12.5938  12.5945
    13.6498  13.6506  13.7443  13.7444  13.7447  13.7467  14.0528  14.0531
    14.0531  14.0544  14.0756  14.0764  14.3765  14.3770  14.4087  14.4112
    14.8231  14.8234  14.8297  14.8301  14.9265  14.9267  14.9275  14.9293
    15.0590  15.0604  15.3557  15.3559  15.3560  15.3560  15.3575  15.3595
    18.3924  18.3937  19.2498  19.2502  19.2508  19.2518  19.8113  19.8120
    20.5146  20.5162  20.5811  20.5816  20.5817  20.5829  21.8146  21.8155
    22.1472  22.1493  22.2354  22.2371  22.7276  22.7279  22.7287  22.7289
    22.9664  22.9676  23.4935  23.4946  23.5094  23.5109  23.7651  23.7657
    23.7658  23.7670  23.9090  23.9093  23.9110  23.9118  23.9177  23.9193
    24.0068  24.0069  24.2864  24.2870  24.2875  24.2882  25.3275  25.3278
    25.3285  25.3304  25.3361  25.3371  25.5921  25.5927  25.7808  25.7825
    25.9323  25.9334  25.9899  25.9900  25.9915  25.9917  26.4075  26.4092
    26.5831  26.5836  26.5838  26.5874  26.8035  26.8045  27.0561  27.0580
    27.0986  27.1018  27.2103  27.2106  27.7248  27.7253  27.7261  27.7270
    27.9178  27.9192  28.3881  28.3886  28.4450  28.4468  28.4468  28.4479
    29.1450  29.1485  29.3343  29.3344  29.3344  29.3375  30.3270  30.3289
    30.3967  30.3984  30.3985  30.3986  30.9203  30.9213  31.3196  31.3225
    31.8983  31.8992  32.3264  32.3275  32.3282  32.3285  32.7972  32.7984
    33.0424  33.0425  33.0669  33.0683  33.1052  33.1067  33.1103  33.1121
    33.2876  33.2877  33.2877  33.2879  33.8575  33.8577  33.8580  33.8604
    34.0057  34.0062  34.4499  34.4499  34.4502  34.4509  34.4998  34.5010
    35.0127  35.0131  35.0131  35.0145  35.0395  35.0404  35.1795  35.1795
    35.7095  35.7106  35.7111  35.7116  35.7353  35.7367  36.3120  36.3123
    36.3126  36.3156  36.3551  36.3553  36.5298  36.5302  36.8680  36.8685
    36.9281  36.9285  36.9288  36.9306  36.9348  36.9349  37.2857  37.2869
    37.3012  37.3021  37.6730  37.6743  37.8518  37.8521  37.8522  37.8522
    38.0898  38.0902  38.0906  38.0909  38.3807  38.3816  39.2145  39.2150
    39.7457  39.7462  39.7467  39.7475  39.8826  39.8829  40.2576  40.2586
    40.4597  40.4602  40.5377  40.5382  40.5429  40.5436  40.5439  40.5443
    40.8511  40.8526  40.8712  40.8720  41.5252  41.5255  41.5255  41.5257
    42.4381  42.4386  42.4397  42.4399  42.4840  42.4845  42.7271  42.7292
    43.0313  43.0341  43.6625  43.6626  43.7379  43.7382  43.7465  43.7466
    43.7474  43.7475  43.9768  43.9780  43.9783  43.9784  44.0008  44.0022
    44.1287  44.1287  44.1500  44.1511  44.4753  44.4758  44.8319  44.8320
    44.8328  44.8339  45.0052  45.0056  45.0059  45.0062  45.3322  45.3329
    45.4693  45.4711  45.6174  45.6176  45.6184  45.6185  45.7230  45.7231
    45.8187  45.8206  45.9700  45.9703  45.9715  45.9726  46.0249  46.0249
    46.3033  46.3043  46.4792  46.4792  46.4796  46.4816  46.5703  46.5709
    46.5975  46.5996  46.6311  46.6319  46.6321  46.6322  46.8399  46.8412

     the Fermi energy is     8.6558 ev

!    total energy              =   -2931.99282793 Ry
     Harris-Foulkes estimate   =   -2931.99282862 Ry
     estimated scf accuracy    <       0.00000074 Ry

     The total energy is the sum of the following terms:

     one-electron contribution =   -1044.12916506 Ry
     hartree contribution      =     704.66309347 Ry
     xc contribution           =    -505.96875416 Ry
     ewald contribution        =   -2086.54328247 Ry
     Hubbard energy            =      -0.01505911 Ry
     smearing contrib. (-TS)   =       0.00033940 Ry

     total magnetization       =    -0.00 Bohr mag/cell
     absolute magnetization    =     0.00 Bohr mag/cell

     convergence has been achieved in   4 iterations

     Writing output data file pwscf.save

     General routines

     Parallel routines
     Hubbard U routines

   This run was terminated on:  21: 4:55  11Feb2014

   JOB DONE.