     Program PWSCF v.5.0.2 (svn rev. 9656) starts on 11Feb2014 at 23:12:21

     Current dimensions of program PWSCF are:
     Max number of different atomic species (ntypx) = 10
     Max number of k-points (npk) =  40000
     Max angular momentum in pseudopotentials (lmaxx) =  3
     Reading input from alpha_0.07/alpha_0.07.in
Warning: card &IONS ignored
Warning: card / ignored
Warning: card &CELL ignored
Warning: card / ignored

     Subspace diagonalization in iterative solution of the eigenvalue problem:
     a serial algorithm will be used

     bravais-lattice index     =            0
     lattice parameter (alat)  =      17.5745  a.u.
     unit-cell volume          =    3466.9609 (a.u.)^3
     number of atoms/cell      =           48
     number of atomic types    =            3
     number of electrons       =       384.00
     number of Kohn-Sham states=          552
     kinetic-energy cutoff     =      40.0000  Ry
     charge density cutoff     =     500.0000  Ry
     convergence threshold     =      1.0E-06
     mixing beta               =       0.7000
     number of iterations used =            8  plain     mixing
     Exchange-correlation      = SLA  PW   PBE  PBE ( 1 4 3 4 0)
     EXX-fraction              =        0.00

     celldm(1)=  17.574453  celldm(2)=   0.000000  celldm(3)=   0.000000
     celldm(4)=   0.000000  celldm(5)=   0.000000  celldm(6)=   0.000000

     crystal axes: (cart. coord. in units of alat)
               a(1) = (   1.000000   0.000000   0.000000 )
               a(2) = (   0.000000   1.000000   0.000000 )
               a(3) = (   0.000000   0.000000   0.638710 )

     reciprocal axes: (cart. coord. in units 2 pi/alat)
               b(1) = (  1.000000  0.000000  0.000000 )
               b(2) = (  0.000000  1.000000  0.000000 )
               b(3) = (  0.000000  0.000000  1.565657 )

     PseudoPot. # 1 for Ti read from file:
     /home/camp/zhonxu/pseudo/ti_pbe_v1.uspp.F.UPF
     MD5 check sum: bcc8f6961b3b91f0cac3ca967d22d0fb
     Pseudo is Ultrasoft + core correction, Zval = 12.0
     Generated by new atomic code, or converted to UPF format
     Using radial grid of  851 points,  6 beta functions with:
                l(1) =   0
                l(2) =   0
                l(3) =   1
                l(4) =   1
                l(5) =   2
                l(6) =   2
     Q(r) pseudized with  6 coefficients,  rinner =    1.000   1.000   1.000
                                                       1.000   1.000

     PseudoPot. # 2 for Ti read from file:
     /home/camp/zhonxu/pseudo/ti_pbe_v1.uspp.F.UPF
     MD5 check sum: bcc8f6961b3b91f0cac3ca967d22d0fb
     Pseudo is Ultrasoft + core correction, Zval = 12.0
     Generated by new atomic code, or converted to UPF format
     Using radial grid of  851 points,  6 beta functions with:
                l(1) =   0
                l(2) =   0
                l(3) =   1
                l(4) =   1
                l(5) =   2
                l(6) =   2
     Q(r) pseudized with  6 coefficients,  rinner =    1.000   1.000   1.000
                                                       1.000   1.000

     PseudoPot. # 3 for O  read from file:
     /home/camp/zhonxu/pseudo/o_pbe_v1.01.uspp.F.UPF
     MD5 check sum: 2bcb18d16ea4b960afae9ec6d52f22d2
     Pseudo is Ultrasoft + core correction, Zval =  6.0
     Generated by new atomic code, or converted to UPF format
     Using radial grid of  737 points,  5 beta functions with:
                l(1) =   0
                l(2) =   0
                l(3) =   1
                l(4) =   1
                l(5) =   2
     Q(r) pseudized with  8 coefficients,  rinner =    0.900   0.900   0.900
                                                       0.900   0.900

     atomic species   valence    mass     pseudopotential
        Ti0           12.00    47.88000     Ti( 1.00)
        Ti1           12.00    47.88000     Ti( 1.00)
        O2             6.00    15.99940     O ( 1.00)

     Starting magnetic structure
     atomic species   magnetization
        Ti0          0.000
        Ti1          0.000
        O2           0.000

     Simplified LDA+U calculation (l_max = 2) with parameters (eV):
     atomic species    L          U    alpha       J0     beta
        Ti0            2     0.0000   0.0700   0.0000   0.0000
        Ti1            2     0.0000   0.0000   0.0000   0.0000
        O2             1     0.0000   0.0000   0.0000   0.0000

      8 Sym. Ops., with inversion, found

   Cartesian axes

     site n.     atom                  positions (alat units)
         1           Ti0 tau(   1) = (   0.0000000   0.0000000   0.0000000  )
         2           Ti1 tau(   2) = (   0.2500000   0.2500000   0.1596774  )
         3           Ti1 tau(   3) = (   0.0000000   0.0000000   0.3193548  )
         4           Ti1 tau(   4) = (   0.2500000   0.2500000   0.4790323  )
         5           Ti1 tau(   5) = (   0.0000000   0.5000000   0.0000000  )
         6           Ti1 tau(   6) = (   0.2500000   0.7500000   0.1596774  )
         7           Ti1 tau(   7) = (   0.0000000   0.5000000   0.3193548  )
         8           Ti1 tau(   8) = (   0.2500000   0.7500000   0.4790323  )
         9           Ti1 tau(   9) = (   0.5000000   0.0000000   0.0000000  )
        10           Ti1 tau(  10) = (   0.7500000   0.2500000   0.1596774  )
        11           Ti1 tau(  11) = (   0.5000000   0.0000000   0.3193548  )
        12           Ti1 tau(  12) = (   0.7500000   0.2500000   0.4790323  )
        13           Ti1 tau(  13) = (   0.5000000   0.5000000   0.0000000  )
        14           Ti1 tau(  14) = (   0.7500000   0.7500000   0.1596774  )
        15           Ti1 tau(  15) = (   0.5000000   0.5000000   0.3193548  )
        16           Ti1 tau(  16) = (   0.7500000   0.7500000   0.4790323  )
        17           O2  tau(  17) = (   0.1550000   0.1550000   0.0000000  )
        18           O2  tau(  18) = (  -0.1550000  -0.1550000   0.0000000  )
        19           O2  tau(  19) = (   0.4050000   0.0950000   0.1596774  )
        20           O2  tau(  20) = (   0.0950000   0.4050000   0.1596774  )
        21           O2  tau(  21) = (   0.1550000   0.1550000   0.3193548  )
        22           O2  tau(  22) = (  -0.1550000  -0.1550000   0.3193548  )
        23           O2  tau(  23) = (   0.4050000   0.0950000   0.4790323  )
        24           O2  tau(  24) = (   0.0950000   0.4050000   0.4790323  )
        25           O2  tau(  25) = (   0.1550000   0.6550000   0.0000000  )
        26           O2  tau(  26) = (  -0.1550000   0.3450000   0.0000000  )
        27           O2  tau(  27) = (   0.4050000   0.5950000   0.1596774  )
        28           O2  tau(  28) = (   0.0950000   0.9050000   0.1596774  )
        29           O2  tau(  29) = (   0.1550000   0.6550000   0.3193548  )
        30           O2  tau(  30) = (  -0.1550000   0.3450000   0.3193548  )
        31           O2  tau(  31) = (   0.4050000   0.5950000   0.4790323  )
        32           O2  tau(  32) = (   0.0950000   0.9050000   0.4790323  )
        33           O2  tau(  33) = (   0.6550000   0.1550000   0.0000000  )
        34           O2  tau(  34) = (   0.3450000  -0.1550000   0.0000000  )
        35           O2  tau(  35) = (   0.9050000   0.0950000   0.1596774  )
        36           O2  tau(  36) = (   0.5950000   0.4050000   0.1596774  )
        37           O2  tau(  37) = (   0.6550000   0.1550000   0.3193548  )
        38           O2  tau(  38) = (   0.3450000  -0.1550000   0.3193548  )
        39           O2  tau(  39) = (   0.9050000   0.0950000   0.4790323  )
        40           O2  tau(  40) = (   0.5950000   0.4050000   0.4790323  )
        41           O2  tau(  41) = (   0.6550000   0.6550000   0.0000000  )
        42           O2  tau(  42) = (   0.3450000   0.3450000   0.0000000  )
        43           O2  tau(  43) = (   0.9050000   0.5950000   0.1596774  )
        44           O2  tau(  44) = (   0.5950000   0.9050000   0.1596774  )
        45           O2  tau(  45) = (   0.6550000   0.6550000   0.3193548  )
        46           O2  tau(  46) = (   0.3450000   0.3450000   0.3193548  )
        47           O2  tau(  47) = (   0.9050000   0.5950000   0.4790323  )
        48           O2  tau(  48) = (   0.5950000   0.9050000   0.4790323  )

     number of k points=    42  Methfessel-Paxton smearing, width (Ry)=  0.0100
                       cart. coord. in units 2pi/alat
        k(    1) = (   0.0000000   0.0000000   0.0000000), wk =   0.0156250
        k(    2) = (   0.0000000   0.0000000   0.3914141), wk =   0.0312500
        k(    3) = (   0.0000000   0.0000000  -0.7828283), wk =   0.0156250
        k(    4) = (   0.0000000   0.2500000   0.0000000), wk =   0.0625000
        k(    5) = (   0.0000000   0.2500000   0.3914141), wk =   0.1250000
        k(    6) = (   0.0000000   0.2500000  -0.7828283), wk =   0.0625000
        k(    7) = (   0.0000000  -0.5000000   0.0000000), wk =   0.0312500
        k(    8) = (   0.0000000  -0.5000000   0.3914141), wk =   0.0625000
        k(    9) = (   0.0000000  -0.5000000  -0.7828283), wk =   0.0312500
        k(   10) = (   0.2500000   0.2500000   0.0000000), wk =   0.0312500
        k(   11) = (   0.2500000   0.2500000   0.3914141), wk =   0.0625000
        k(   12) = (   0.2500000   0.2500000  -0.7828283), wk =   0.0312500
        k(   13) = (   0.2500000  -0.5000000   0.0000000), wk =   0.0625000
        k(   14) = (   0.2500000  -0.5000000   0.3914141), wk =   0.1250000
        k(   15) = (   0.2500000  -0.5000000  -0.7828283), wk =   0.0625000
        k(   16) = (  -0.5000000  -0.5000000   0.0000000), wk =   0.0156250
        k(   17) = (  -0.5000000  -0.5000000   0.3914141), wk =   0.0312500
        k(   18) = (  -0.5000000  -0.5000000  -0.7828283), wk =   0.0156250
        k(   19) = (  -0.2500000   0.2500000   0.0000000), wk =   0.0312500
        k(   20) = (  -0.2500000   0.2500000  -0.3914141), wk =   0.0625000
        k(   21) = (  -0.2500000   0.2500000   0.7828283), wk =   0.0312500
        k(   22) = (   0.0000000   0.0000000   0.0000000), wk =   0.0156250
        k(   23) = (   0.0000000   0.0000000   0.3914141), wk =   0.0312500
        k(   24) = (   0.0000000   0.0000000  -0.7828283), wk =   0.0156250
        k(   25) = (   0.0000000   0.2500000   0.0000000), wk =   0.0625000
        k(   26) = (   0.0000000   0.2500000   0.3914141), wk =   0.1250000
        k(   27) = (   0.0000000   0.2500000  -0.7828283), wk =   0.0625000
        k(   28) = (   0.0000000  -0.5000000   0.0000000), wk =   0.0312500
        k(   29) = (   0.0000000  -0.5000000   0.3914141), wk =   0.0625000
        k(   30) = (   0.0000000  -0.5000000  -0.7828283), wk =   0.0312500
        k(   31) = (   0.2500000   0.2500000   0.0000000), wk =   0.0312500
        k(   32) = (   0.2500000   0.2500000   0.3914141), wk =   0.0625000
        k(   33) = (   0.2500000   0.2500000  -0.7828283), wk =   0.0312500
        k(   34) = (   0.2500000  -0.5000000   0.0000000), wk =   0.0625000
        k(   35) = (   0.2500000  -0.5000000   0.3914141), wk =   0.1250000
        k(   36) = (   0.2500000  -0.5000000  -0.7828283), wk =   0.0625000
[...]
   spin  2
    eigenvalues:
  0.895  0.904  0.908
    eigenvectors:
  0.000  0.000  1.000
  0.500  0.500  0.000
  0.500  0.500  0.000
    occupations:
  0.908  0.000 -0.000
  0.000  0.899  0.004
 -0.000  0.004  0.899
atomic mag. moment =     0.000000
atom   40   Tr[ns(na)] (up, down, total) =   2.70575  2.70575  5.41149
   spin  1
    eigenvalues:
  0.895  0.903  0.908
    eigenvectors:
  0.000  0.000  1.000
  0.500  0.500  0.000
  0.500  0.500  0.000
    occupations:
  0.908  0.000 -0.000
  0.000  0.899  0.004
 -0.000  0.004  0.899
   spin  2
    eigenvalues:
  0.895  0.903  0.908
    eigenvectors:
  0.000  0.000  1.000
  0.500  0.500  0.000
  0.500  0.500  0.000
    occupations:
  0.908  0.000 -0.000
  0.000  0.899  0.004
 -0.000  0.004  0.899
atomic mag. moment =    -0.000000
atom   41   Tr[ns(na)] (up, down, total) =   2.70578  2.70578  5.41156
   spin  1
    eigenvalues:
  0.895  0.903  0.908
    eigenvectors:
  0.000  0.000  1.000
  0.500  0.500  0.000
  0.500  0.500  0.000
    occupations:
  0.908 -0.000 -0.000
 -0.000  0.899 -0.004
 -0.000 -0.004  0.899
   spin  2
    eigenvalues:
  0.895  0.903  0.908
    eigenvectors:
  0.000  0.000  1.000
  0.500  0.500  0.000
  0.500  0.500  0.000
    occupations:
  0.908 -0.000 -0.000
 -0.000  0.899 -0.004
 -0.000 -0.004  0.899
atomic mag. moment =    -0.000000
atom   42   Tr[ns(na)] (up, down, total) =   2.70578  2.70578  5.41156
   spin  1
    eigenvalues:
  0.895  0.903  0.908
    eigenvectors:
  0.000  0.000  1.000
  0.500  0.500  0.000
  0.500  0.500  0.000
    occupations:
  0.908 -0.000 -0.000
 -0.000  0.899 -0.004
 -0.000 -0.004  0.899
   spin  2
    eigenvalues:
  0.895  0.903  0.908
    eigenvectors:
  0.000  0.000  1.000
  0.500  0.500  0.000
  0.500  0.500  0.000
    occupations:
  0.908 -0.000 -0.000
 -0.000  0.899 -0.004
 -0.000 -0.004  0.899
atomic mag. moment =    -0.000000
atom   43   Tr[ns(na)] (up, down, total) =   2.70580  2.70580  5.41160
   spin  1
    eigenvalues:
  0.895  0.903  0.908
    eigenvectors:
  0.000  0.000  1.000
  0.500  0.500  0.000
  0.500  0.500  0.000
    occupations:
  0.908 -0.000  0.000
 -0.000  0.899  0.004
  0.000  0.004  0.899
   spin  2
    eigenvalues:
  0.895  0.903  0.908
    eigenvectors:
  0.000  0.000  1.000
  0.500  0.500  0.000
  0.500  0.500  0.000
    occupations:
  0.908 -0.000  0.000
 -0.000  0.899  0.004
  0.000  0.004  0.899
atomic mag. moment =    -0.000000
atom   44   Tr[ns(na)] (up, down, total) =   2.70580  2.70580  5.41160
   spin  1
    eigenvalues:
  0.895  0.903  0.908
    eigenvectors:
  0.000  0.000  1.000
  0.500  0.500  0.000
  0.500  0.500  0.000
    occupations:
  0.908  0.000 -0.000
  0.000  0.899  0.004
 -0.000  0.004  0.899
   spin  2
    eigenvalues:
  0.895  0.903  0.908
    eigenvectors:
  0.000  0.000  1.000
  0.500  0.500  0.000
  0.500  0.500  0.000
    occupations:
  0.908  0.000 -0.000
  0.000  0.899  0.004
 -0.000  0.004  0.899
atomic mag. moment =    -0.000000
atom   45   Tr[ns(na)] (up, down, total) =   2.70574  2.70574  5.41149
   spin  1
    eigenvalues:
  0.895  0.903  0.908
    eigenvectors:
  0.000  0.000  1.000
  0.500  0.500  0.000
  0.500  0.500  0.000
    occupations:
  0.908 -0.000 -0.000
 -0.000  0.899 -0.004
 -0.000 -0.004  0.899
   spin  2
    eigenvalues:
  0.895  0.903  0.908
    eigenvectors:
  0.000  0.000  1.000
  0.500  0.500  0.000
  0.500  0.500  0.000
    occupations:
  0.908 -0.000 -0.000
 -0.000  0.899 -0.004
 -0.000 -0.004  0.899
atomic mag. moment =    -0.000000
atom   46   Tr[ns(na)] (up, down, total) =   2.70574  2.70574  5.41149
   spin  1
    eigenvalues:
  0.895  0.903  0.908
    eigenvectors:
  0.000  0.000  1.000
  0.500  0.500  0.000
  0.500  0.500  0.000
    occupations:
  0.908 -0.000 -0.000
 -0.000  0.899 -0.004
 -0.000 -0.004  0.899
   spin  2
    eigenvalues:
  0.895  0.903  0.908
    eigenvectors:
  0.000  0.000  1.000
  0.500  0.500  0.000
  0.500  0.500  0.000
    occupations:
  0.908 -0.000 -0.000
 -0.000  0.899 -0.004
 -0.000 -0.004  0.899
atomic mag. moment =    -0.000000
atom   47   Tr[ns(na)] (up, down, total) =   2.70580  2.70580  5.41160
   spin  1
    eigenvalues:
  0.895  0.903  0.908
    eigenvectors:
  0.000  0.000  1.000
  0.500  0.500  0.000
  0.500  0.500  0.000
    occupations:
  0.908  0.000 -0.000
  0.000  0.899  0.004
 -0.000  0.004  0.899
   spin  2
    eigenvalues:
  0.895  0.903  0.908
    eigenvectors:
  0.000  0.000  1.000
  0.500  0.500  0.000
  0.500  0.500  0.000
    occupations:
  0.908  0.000 -0.000
  0.000  0.899  0.004
 -0.000  0.004  0.899
atomic mag. moment =    -0.000000
atom   48   Tr[ns(na)] (up, down, total) =   2.70580  2.70580  5.41160
   spin  1
    eigenvalues:
  0.895  0.903  0.908
    eigenvectors:
  0.000  0.000  1.000
  0.500  0.500  0.000
  0.500  0.500  0.000
    occupations:
  0.908 -0.000  0.000
 -0.000  0.899  0.004
  0.000  0.004  0.899
   spin  2
    eigenvalues:
  0.895  0.903  0.908
    eigenvectors:
  0.000  0.000  1.000
  0.500  0.500  0.000
  0.500  0.500  0.000
    occupations:
  0.908 -0.000  0.000
 -0.000  0.899  0.004
  0.000  0.004  0.899
atomic mag. moment =    -0.000000
N of occupied +U levels = 219.8187192
 --- exit write_ns ---

 ------ SPIN UP ------------

          k = 0.0000 0.0000 0.0000 ( 14755 PWs)   bands (ev):

   -48.2326 -48.1831 -48.1772 -48.1770 -48.1769 -48.1769 -48.1765 -48.1708
   -48.1514 -48.1372 -48.1372 -48.1371 -48.1371 -48.1370 -48.1369 -48.1362
   -24.7617 -24.7311 -24.7311 -24.7311 -24.7257 -24.7230 -24.7229 -24.7223
   -24.5198 -24.5054 -24.4954 -24.4932 -24.4682 -24.4551 -24.4549 -24.4549
   -24.4105 -24.3756 -24.3730 -24.3728 -24.3727 -24.3568 -24.3495 -24.3492
   -24.3482 -24.3481 -24.3480 -24.3480 -24.3473 -24.3406 -24.3400 -24.3388
   -24.3354 -24.3341 -24.3326 -24.3320 -24.3317 -24.3314 -24.3281 -24.3281
   -24.3058 -24.2847 -24.2731 -24.2731 -24.2728 -24.2727 -24.2725 -24.2590
    -9.3724  -8.7509  -8.7497  -8.7087  -8.7087  -8.7086  -8.7081  -8.2936
    -8.2935  -8.2927  -8.2896  -8.2709  -8.1346  -8.1327  -8.0536  -8.0517
    -7.9007  -7.9001  -7.7990  -7.7983  -7.6909  -7.6907  -7.6907  -7.6891
    -7.6396  -7.6394  -7.6394  -7.6393  -7.6252  -7.6251  -7.5092  -7.5092
     3.0536   3.2932   3.2946   3.4794   3.7884   3.7891   3.7893   3.7919
     3.8037   3.8039   3.8046   3.8062   4.0386   4.1764   4.1784   4.2759
     4.2759   4.3899   4.3914   4.8105   4.8119   4.8693   4.8708   4.9083
     4.9085   4.9086   4.9123   4.9988   4.9988   5.0003   5.0008   5.1309
     5.1328   5.1462   5.1462   5.2767   5.2782   5.5485   5.5486   5.5487
     5.5491   5.6086   5.6087   5.6088   5.6114   5.8848   5.8850   5.8962
     5.8963   5.8964   5.8975   6.0694   6.0708   6.0857   6.0871   6.2044
     6.2048   6.3646   6.3648   6.3649   6.3652   6.5455   6.5462   6.6019
     6.6033   6.6411   6.6413   6.6420   6.6427   6.8327   7.1877   7.1880
     7.1881   7.1890   7.2580   7.2587   7.4561   7.4564   7.5413   7.5416
     7.7110   7.7111   7.7112   7.7117   7.7737   7.7739   7.9217   7.9217
     7.9219   7.9223   7.9589   7.9594   8.0158   8.2904   8.2905   8.6036
    10.6230  10.6231  10.6242  10.6260  10.6531  10.7223  10.7237  11.0619
    11.1975  11.1987  11.2149  11.2157  11.2240  11.2294  11.2304  11.3379
    11.3379  11.3381  11.3402  11.5325  11.5332  11.6259  11.6260  11.6262
    11.6276  11.8143  11.8148  11.8489  11.8490  11.8493  11.8503  11.8654
    11.8658  11.9947  11.9951  12.2601  12.2603  12.2603  12.2610  12.3948
    12.3951  12.4888  12.4890  12.5801  12.5802  12.5804  12.5807  12.8582
    13.1677  13.5545  13.5547  13.5549  13.5549  13.9470  13.9477  14.2780
    14.2786  14.3044  14.3052  14.5499  14.5515  14.5517  14.5518  14.7439
    14.7448  14.7671  14.7681  15.1567  15.1585  15.1586  15.1587  15.4278
    15.4288  15.4381  15.4389  15.6510  15.6511  15.6520  15.6520  15.8693
    16.5628  18.6727  18.6732  18.6737  18.6739  19.7512  19.7516  20.2927
    20.2933  20.3555  20.3558  20.7587  20.7590  20.7594  20.7597  20.9781
    20.9783  21.5443  21.5453  22.0093  22.0096  22.0102  22.0110  22.7096
    22.7097  22.7103  22.7106  22.8287  22.8295  22.8323  23.1172  23.1175
    23.4026  23.4033  23.9508  23.9519  24.0044  24.0050  24.2725  24.3566
    24.3570  24.3573  24.3578  24.5935  24.5942  24.5946  24.5946  25.2980
    25.5351  25.5371  25.6638  25.6656  25.7167  25.7179  25.7184  25.7190
    26.3185  26.3195  26.6528  26.7019  26.7021  26.7031  26.7039  26.7428
    26.7431  26.7871  26.7876  26.7882  26.7887  26.9486  26.9512  26.9526
    26.9529  27.4297  27.4311  27.5522  27.5528  28.0586  28.0586  28.1643
    28.1649  28.1661  28.3827  28.3827  28.3837  28.3840  29.5749  29.5763
    29.9067  29.9961  29.9962  29.9968  29.9969  30.1207  30.1224  30.7315
    30.7324  31.0259  31.0266  31.2940  31.4981  31.5006  31.6585  31.6589
    31.6591  31.6604  31.6951  31.6988  31.6994  31.6994  32.2670  32.2697
    32.2823  32.2827  32.2924  32.2950  32.2952  32.2952  32.4265  32.4279
    32.8383  32.8384  33.4498  33.9804  33.9815  34.1597  34.1611  34.1614
    34.1618  34.2215  34.2220  34.2226  34.2229  34.5058  34.5080  34.5305
    34.7715  34.7732  35.0114  35.0129  35.3305  35.7220  35.7221  35.8037
    35.8061  35.8061  35.8067  35.8606  35.8627  35.8631  35.8633  35.8752
    35.8762  36.0085  36.0099  36.0100  36.0104  36.1121  36.1125  36.1131
    36.1137  36.3799  36.3799  36.6351  36.6353  36.6360  36.6360  37.0335
    37.1206  37.1210  37.3526  37.3532  37.9177  37.9179  38.8113  38.8123
    39.3928  39.3941  39.4559  40.0344  40.0354  40.0575  40.0576  40.0947
    40.0961  40.0966  40.0970  40.1088  40.2202  40.4024  40.4045  40.4057
    40.4059  40.5296  40.5307  40.5310  40.5314  40.6468  40.6474  40.9747
    40.9768  41.1143  41.1153  41.2629  41.2631  41.2633  41.2640  41.5844
    41.5867  41.5877  41.5879  41.6802  41.7810  41.7811  41.8071  41.8081
    41.9183  41.9188  42.7960  42.7963  43.2733  43.2747  43.6326  43.6342
    43.7775  43.7775  43.7985  43.7990  43.7991  43.8003  43.9865  43.9866
    44.0023  44.0035  44.0042  44.0045  44.1453  44.1463  44.1464  44.1465
    44.2950  44.2965  44.3746  44.3750  44.3752  44.3754  44.4172  44.7871
    44.7890  44.8245  44.8246  45.2659  45.2682  45.4063  45.4080  45.4088
    45.4093  45.5747  45.6076  45.6086  45.7032  45.7045  45.7050  45.7050
    46.1177  46.1181  46.3669  46.3680  46.4936  46.4942  46.5773  46.5795
    46.5795  46.5799  46.5908  46.5911  46.9702  46.9714  46.9719  46.9720

[...]

          k =-0.5000-0.5000 0.0000 ( 14812 PWs)   bands (ev):

[...]

 ------ SPIN DOWN ----------

[...]

          k = 0.2500-0.5000-0.7828 ( 14816 PWs)   bands (ev):

[...]

          k =-0.2500 0.2500 0.7828 ( 14778 PWs)   bands (ev):

   -48.2273 -48.1612 -48.1610 -48.1591 -48.1587 -48.1586 -48.1581 -48.1576
   -48.1570 -48.1561 -48.1558 -48.1555 -48.1552 -48.1550 -48.1533 -48.1526
   -24.5725 -24.5179 -24.5167 -24.5154 -24.5150 -24.5146 -24.5125 -24.5080
   -24.5078 -24.5075 -24.5074 -24.5069 -24.5038 -24.5032 -24.4976 -24.4965
   -24.4745 -24.4531 -24.4375 -24.4347 -24.4321 -24.4218 -24.4210 -24.4197
   -24.4191 -24.4189 -24.4168 -24.4158 -24.4007 -24.4004 -24.4003 -24.4003
   -24.3841 -24.3465 -24.3458 -24.3453 -24.3409 -24.3346 -24.3337 -24.3327
   -24.3326 -24.3324 -24.3309 -24.3306 -24.3303 -24.3243 -24.3232 -24.3213
    -8.7140  -8.7135  -8.4735  -8.4734  -8.4731  -8.4729  -8.3606  -8.3602
    -8.2161  -8.2155  -8.1254  -8.1252  -8.1247  -8.1242  -7.9477  -7.9465
    -7.9017  -7.9013  -7.9009  -7.8995  -7.8905  -7.8893  -7.8673  -7.8664
    -7.8566  -7.8549  -7.8460  -7.8459  -7.8451  -7.8427  -7.7988  -7.7979
     3.9213   3.9213   3.9363   3.9363   4.1544   4.1544   4.1544   4.1565
     4.1870   4.1883   4.1946   4.1961   4.2531   4.2549   4.2807   4.2821
     4.3694   4.3696   4.3699   4.3715   4.4298   4.4306   4.4682   4.4695
     4.4695   4.4713   4.6746   4.6748   4.6750   4.6764   4.7267   4.7276
     5.1366   5.1374   5.1787   5.1790   5.1792   5.1811   5.3763   5.3767
     5.5604   5.5604   5.5609   5.5614   5.6680   5.6684   5.9065   5.9068
     5.9068   5.9081   5.9613   5.9617   5.9889   5.9892   6.3544   6.3546
     6.4857   6.4857   6.4858   6.4859   6.7305   6.7310   6.7314   6.7316
     6.7857   6.7868   6.8333   6.8335   6.9168   6.9173   6.9857   6.9866
     7.1327   7.1328   7.1328   7.1332   7.1516   7.1529   7.2522   7.2532
     7.2873   7.2890   7.3657   7.3658   7.5391   7.5392   7.5395   7.5402
     7.6429   7.6434   7.9618   7.9623   7.9625   7.9627   8.2517   8.2519
    10.8863  10.8868  11.1005  11.1008  11.1013  11.1028  11.3520  11.3526
    11.4035  11.4035  11.4186  11.4187  11.5174  11.5178  11.5181  11.5191
    11.6524  11.6529  11.7083  11.7087  11.7088  11.7106  11.7132  11.7145
    11.7238  11.7243  11.8202  11.8203  11.9189  11.9193  11.9344  11.9347
    11.9431  11.9432  11.9432  11.9434  12.1383  12.1384  12.1386  12.1389
    12.1391  12.1393  12.3637  12.3640  12.3642  12.3644  12.5961  12.5964
    13.6515  13.6521  13.7453  13.7465  13.7467  13.7469  14.0541  14.0549
    14.0551  14.0551  14.0772  14.0777  14.3769  14.3773  14.4095  14.4114
    14.8250  14.8253  14.8315  14.8318  14.9268  14.9282  14.9286  14.9287
    15.0599  15.0609  15.3553  15.3570  15.3579  15.3580  15.3582  15.3583
    18.3931  18.3943  19.2507  19.2515  19.2520  19.2523  19.8122  19.8127
    20.5158  20.5172  20.5818  20.5828  20.5829  20.5833  21.8153  21.8161
    22.1473  22.1492  22.2355  22.2369  22.7280  22.7281  22.7288  22.7293
    22.9671  22.9682  23.4936  23.4946  23.5095  23.5110  23.7648  23.7659
    23.7660  23.7667  23.9088  23.9095  23.9111  23.9113  23.9183  23.9197
    24.0068  24.0068  24.2869  24.2875  24.2880  24.2885  25.3271  25.3289
    25.3295  25.3297  25.3368  25.3378  25.5925  25.5930  25.7798  25.7815
    25.9330  25.9340  25.9896  25.9898  25.9913  25.9913  26.4077  26.4092
    26.5811  26.5845  26.5845  26.5851  26.8025  26.8034  27.0558  27.0575
    27.0980  27.1009  27.2106  27.2108  27.7243  27.7252  27.7259  27.7265
    27.9166  27.9179  28.3887  28.3892  28.4438  28.4448  28.4449  28.4465
    29.1433  29.1466  29.3329  29.3358  29.3359  29.3359  30.3267  30.3284
    30.3971  30.3971  30.3972  30.3988  30.9188  30.9197  31.3184  31.3212
    31.8980  31.8989  32.3261  32.3262  32.3270  32.3279  32.7958  32.7968
    33.0428  33.0430  33.0669  33.0683  33.1056  33.1070  33.1104  33.1121
    33.2879  33.2880  33.2881  33.2882  33.8566  33.8589  33.8590  33.8593
    34.0044  34.0050  34.4499  34.4506  34.4507  34.4508  34.4985  34.4996
    35.0123  35.0135  35.0136  35.0139  35.0389  35.0397  35.1800  35.1801
    35.7092  35.7098  35.7103  35.7113  35.7354  35.7365  36.3096  36.3126
    36.3128  36.3130  36.3561  36.3563  36.5302  36.5305  36.8676  36.8680
    36.9268  36.9285  36.9289  36.9293  36.9338  36.9338  37.2848  37.2859
    37.3016  37.3025  37.6729  37.6741  37.8528  37.8528  37.8529  37.8532
    38.0895  38.0897  38.0902  38.0904  38.3816  38.3824  39.2139  39.2145
    39.7452  39.7460  39.7464  39.7469  39.8828  39.8830  40.2582  40.2591
    40.4605  40.4610  40.5378  40.5382  40.5427  40.5432  40.5436  40.5440
    40.8510  40.8524  40.8705  40.8712  41.5250  41.5252  41.5252  41.5255
    42.4379  42.4381  42.4392  42.4396  42.4845  42.4850  42.7263  42.7282
    43.0301  43.0328  43.6637  43.6638  43.7378  43.7379  43.7465  43.7467
    43.7474  43.7474  43.9772  43.9773  43.9776  43.9788  44.0001  44.0014
    44.1276  44.1276  44.1502  44.1512  44.4742  44.4747  44.8317  44.8327
    44.8333  44.8333  45.0053  45.0056  45.0059  45.0063  45.3318  45.3324
    45.4689  45.4706  45.6177  45.6179  45.6187  45.6188  45.7231  45.7233
    45.8179  45.8196  45.9690  45.9701  45.9711  45.9714  46.0239  46.0240
    46.3045  46.3054  46.4780  46.4801  46.4804  46.4804  46.5708  46.5713
    46.5965  46.5983  46.6312  46.6313  46.6315  46.6323  46.8389  46.8401

     the Fermi energy is     8.6581 ev

!    total energy              =   -2931.96282428 Ry
     Harris-Foulkes estimate   =   -2931.96282484 Ry
     estimated scf accuracy    <       0.00000066 Ry

     The total energy is the sum of the following terms:

     one-electron contribution =   -1044.09369542 Ry
     hartree contribution      =     704.62651961 Ry
     xc contribution           =    -505.96764508 Ry
     ewald contribution        =   -2086.54328247 Ry
     Hubbard energy            =       0.01493980 Ry
     smearing contrib. (-TS)   =       0.00033926 Ry

     total magnetization       =    -0.00 Bohr mag/cell
     absolute magnetization    =     0.00 Bohr mag/cell

     convergence has been achieved in   4 iterations

     Writing output data file pwscf.save

     General routines

     Parallel routines
     Hubbard U routines

   This run was terminated on:   1:31:18  12Feb2014

   JOB DONE.