     Program PWSCF v.5.0.2 (svn rev. 9656) starts on 12Feb2014 at  1:34:34

     Current dimensions of program PWSCF are:
     Max number of different atomic species (ntypx) = 10
     Max number of k-points (npk) =  40000
     Max angular momentum in pseudopotentials (lmaxx) =  3
     Reading input from alpha_0.15/alpha_0.15.in
Warning: card &IONS ignored
Warning: card / ignored
Warning: card &CELL ignored
Warning: card / ignored

     Subspace diagonalization in iterative solution of the eigenvalue problem:
     a serial algorithm will be used

     bravais-lattice index     =            0
     lattice parameter (alat)  =      17.5745  a.u.
     unit-cell volume          =    3466.9609 (a.u.)^3
     number of atoms/cell      =           48
     number of atomic types    =            3
     number of electrons       =       384.00
     number of Kohn-Sham states=          552
     kinetic-energy cutoff     =      40.0000  Ry
     charge density cutoff     =     500.0000  Ry
     convergence threshold     =      1.0E-06
     mixing beta               =       0.7000
     number of iterations used =            8  plain     mixing
     Exchange-correlation      = SLA  PW   PBE  PBE ( 1 4 3 4 0)
     EXX-fraction              =        0.00

     celldm(1)=  17.574453  celldm(2)=   0.000000  celldm(3)=   0.000000
     celldm(4)=   0.000000  celldm(5)=   0.000000  celldm(6)=   0.000000

     crystal axes: (cart. coord. in units of alat)
               a(1) = (   1.000000   0.000000   0.000000 )
               a(2) = (   0.000000   1.000000   0.000000 )
               a(3) = (   0.000000   0.000000   0.638710 )

     reciprocal axes: (cart. coord. in units 2 pi/alat)
               b(1) = (  1.000000  0.000000  0.000000 )
               b(2) = (  0.000000  1.000000  0.000000 )
               b(3) = (  0.000000  0.000000  1.565657 )

     PseudoPot. # 1 for Ti read from file:
     /home/camp/zhonxu/pseudo/ti_pbe_v1.uspp.F.UPF
     MD5 check sum: bcc8f6961b3b91f0cac3ca967d22d0fb
     Pseudo is Ultrasoft + core correction, Zval = 12.0
     Generated by new atomic code, or converted to UPF format
     Using radial grid of  851 points,  6 beta functions with:
                l(1) =   0
                l(2) =   0
                l(3) =   1
                l(4) =   1
                l(5) =   2
                l(6) =   2
     Q(r) pseudized with  6 coefficients,  rinner =    1.000   1.000   1.000
                                                       1.000   1.000

     PseudoPot. # 2 for Ti read from file:
     /home/camp/zhonxu/pseudo/ti_pbe_v1.uspp.F.UPF
     MD5 check sum: bcc8f6961b3b91f0cac3ca967d22d0fb
     Pseudo is Ultrasoft + core correction, Zval = 12.0
     Generated by new atomic code, or converted to UPF format
     Using radial grid of  851 points,  6 beta functions with:
                l(1) =   0
                l(2) =   0
                l(3) =   1
                l(4) =   1
                l(5) =   2
                l(6) =   2
     Q(r) pseudized with  6 coefficients,  rinner =    1.000   1.000   1.000
                                                       1.000   1.000

     PseudoPot. # 3 for O  read from file:
     /home/camp/zhonxu/pseudo/o_pbe_v1.01.uspp.F.UPF
     MD5 check sum: 2bcb18d16ea4b960afae9ec6d52f22d2
     Pseudo is Ultrasoft + core correction, Zval =  6.0
     Generated by new atomic code, or converted to UPF format
     Using radial grid of  737 points,  5 beta functions with:
                l(1) =   0
                l(2) =   0
                l(3) =   1
                l(4) =   1
                l(5) =   2
     Q(r) pseudized with  8 coefficients,  rinner =    0.900   0.900   0.900
                                                       0.900   0.900

     atomic species   valence    mass     pseudopotential
        Ti0           12.00    47.88000     Ti( 1.00)
        Ti1           12.00    47.88000     Ti( 1.00)
        O2             6.00    15.99940     O ( 1.00)

     Starting magnetic structure
     atomic species   magnetization
        Ti0          0.000
        Ti1          0.000
        O2           0.000

     Simplified LDA+U calculation (l_max = 2) with parameters (eV):
     atomic species    L          U    alpha       J0     beta
        Ti0            2     0.0000   0.1500   0.0000   0.0000
        Ti1            2     0.0000   0.0000   0.0000   0.0000
        O2             1     0.0000   0.0000   0.0000   0.0000

      8 Sym. Ops., with inversion, found

   Cartesian axes

     site n.     atom                  positions (alat units)
         1           Ti0 tau(   1) = (   0.0000000   0.0000000   0.0000000  )
         2           Ti1 tau(   2) = (   0.2500000   0.2500000   0.1596774  )
         3           Ti1 tau(   3) = (   0.0000000   0.0000000   0.3193548  )
         4           Ti1 tau(   4) = (   0.2500000   0.2500000   0.4790323  )
         5           Ti1 tau(   5) = (   0.0000000   0.5000000   0.0000000  )
         6           Ti1 tau(   6) = (   0.2500000   0.7500000   0.1596774  )
         7           Ti1 tau(   7) = (   0.0000000   0.5000000   0.3193548  )
         8           Ti1 tau(   8) = (   0.2500000   0.7500000   0.4790323  )
         9           Ti1 tau(   9) = (   0.5000000   0.0000000   0.0000000  )
        10           Ti1 tau(  10) = (   0.7500000   0.2500000   0.1596774  )
        11           Ti1 tau(  11) = (   0.5000000   0.0000000   0.3193548  )
        12           Ti1 tau(  12) = (   0.7500000   0.2500000   0.4790323  )
        13           Ti1 tau(  13) = (   0.5000000   0.5000000   0.0000000  )
        14           Ti1 tau(  14) = (   0.7500000   0.7500000   0.1596774  )
        15           Ti1 tau(  15) = (   0.5000000   0.5000000   0.3193548  )
        16           Ti1 tau(  16) = (   0.7500000   0.7500000   0.4790323  )
        17           O2  tau(  17) = (   0.1550000   0.1550000   0.0000000  )
        18           O2  tau(  18) = (  -0.1550000  -0.1550000   0.0000000  )
        19           O2  tau(  19) = (   0.4050000   0.0950000   0.1596774  )
        20           O2  tau(  20) = (   0.0950000   0.4050000   0.1596774  )
        21           O2  tau(  21) = (   0.1550000   0.1550000   0.3193548  )
        22           O2  tau(  22) = (  -0.1550000  -0.1550000   0.3193548  )
        23           O2  tau(  23) = (   0.4050000   0.0950000   0.4790323  )
        24           O2  tau(  24) = (   0.0950000   0.4050000   0.4790323  )
        25           O2  tau(  25) = (   0.1550000   0.6550000   0.0000000  )
        26           O2  tau(  26) = (  -0.1550000   0.3450000   0.0000000  )
        27           O2  tau(  27) = (   0.4050000   0.5950000   0.1596774  )
        28           O2  tau(  28) = (   0.0950000   0.9050000   0.1596774  )
        29           O2  tau(  29) = (   0.1550000   0.6550000   0.3193548  )
        30           O2  tau(  30) = (  -0.1550000   0.3450000   0.3193548  )
        31           O2  tau(  31) = (   0.4050000   0.5950000   0.4790323  )
        32           O2  tau(  32) = (   0.0950000   0.9050000   0.4790323  )
        33           O2  tau(  33) = (   0.6550000   0.1550000   0.0000000  )
        34           O2  tau(  34) = (   0.3450000  -0.1550000   0.0000000  )
        35           O2  tau(  35) = (   0.9050000   0.0950000   0.1596774  )
        36           O2  tau(  36) = (   0.5950000   0.4050000   0.1596774  )
        37           O2  tau(  37) = (   0.6550000   0.1550000   0.3193548  )
        38           O2  tau(  38) = (   0.3450000  -0.1550000   0.3193548  )
        39           O2  tau(  39) = (   0.9050000   0.0950000   0.4790323  )
        40           O2  tau(  40) = (   0.5950000   0.4050000   0.4790323  )
        41           O2  tau(  41) = (   0.6550000   0.6550000   0.0000000  )
        42           O2  tau(  42) = (   0.3450000   0.3450000   0.0000000  )
        43           O2  tau(  43) = (   0.9050000   0.5950000   0.1596774  )
        44           O2  tau(  44) = (   0.5950000   0.9050000   0.1596774  )
        45           O2  tau(  45) = (   0.6550000   0.6550000   0.3193548  )
        46           O2  tau(  46) = (   0.3450000   0.3450000   0.3193548  )
        47           O2  tau(  47) = (   0.9050000   0.5950000   0.4790323  )
        48           O2  tau(  48) = (   0.5950000   0.9050000   0.4790323  )

     number of k points=    42  Methfessel-Paxton smearing, width (Ry)=  0.0100
                       cart. coord. in units 2pi/alat
        k(    1) = (   0.0000000   0.0000000   0.0000000), wk =   0.0156250
        k(    2) = (   0.0000000   0.0000000   0.3914141), wk =   0.0312500
        k(    3) = (   0.0000000   0.0000000  -0.7828283), wk =   0.0156250
        k(    4) = (   0.0000000   0.2500000   0.0000000), wk =   0.0625000
        k(    5) = (   0.0000000   0.2500000   0.3914141), wk =   0.1250000
        k(    6) = (   0.0000000   0.2500000  -0.7828283), wk =   0.0625000
        k(    7) = (   0.0000000  -0.5000000   0.0000000), wk =   0.0312500
        k(    8) = (   0.0000000  -0.5000000   0.3914141), wk =   0.0625000
        k(    9) = (   0.0000000  -0.5000000  -0.7828283), wk =   0.0312500
        k(   10) = (   0.2500000   0.2500000   0.0000000), wk =   0.0312500
        k(   11) = (   0.2500000   0.2500000   0.3914141), wk =   0.0625000
        k(   12) = (   0.2500000   0.2500000  -0.7828283), wk =   0.0312500
        k(   13) = (   0.2500000  -0.5000000   0.0000000), wk =   0.0625000
        k(   14) = (   0.2500000  -0.5000000   0.3914141), wk =   0.1250000
        k(   15) = (   0.2500000  -0.5000000  -0.7828283), wk =   0.0625000
        k(   16) = (  -0.5000000  -0.5000000   0.0000000), wk =   0.0156250
        k(   17) = (  -0.5000000  -0.5000000   0.3914141), wk =   0.0312500
        k(   18) = (  -0.5000000  -0.5000000  -0.7828283), wk =   0.0156250
        k(   19) = (  -0.2500000   0.2500000   0.0000000), wk =   0.0312500
        k(   20) = (  -0.2500000   0.2500000  -0.3914141), wk =   0.0625000
        k(   21) = (  -0.2500000   0.2500000   0.7828283), wk =   0.0312500
        k(   22) = (   0.0000000   0.0000000   0.0000000), wk =   0.0156250
        k(   23) = (   0.0000000   0.0000000   0.3914141), wk =   0.0312500
        k(   24) = (   0.0000000   0.0000000  -0.7828283), wk =   0.0156250
        k(   25) = (   0.0000000   0.2500000   0.0000000), wk =   0.0625000
        k(   26) = (   0.0000000   0.2500000   0.3914141), wk =   0.1250000
        k(   27) = (   0.0000000   0.2500000  -0.7828283), wk =   0.0625000
        k(   28) = (   0.0000000  -0.5000000   0.0000000), wk =   0.0312500
        k(   29) = (   0.0000000  -0.5000000   0.3914141), wk =   0.0625000
        k(   30) = (   0.0000000  -0.5000000  -0.7828283), wk =   0.0312500
        k(   31) = (   0.2500000   0.2500000   0.0000000), wk =   0.0312500
        k(   32) = (   0.2500000   0.2500000   0.3914141), wk =   0.0625000
        k(   33) = (   0.2500000   0.2500000  -0.7828283), wk =   0.0312500
        k(   34) = (   0.2500000  -0.5000000   0.0000000), wk =   0.0625000
        k(   35) = (   0.2500000  -0.5000000   0.3914141), wk =   0.1250000
        k(   36) = (   0.2500000  -0.5000000  -0.7828283), wk =   0.0625000
[...]
   spin  2
    eigenvalues:
  0.895  0.904  0.908
    eigenvectors:
  0.000  0.000  1.000
  0.500  0.500  0.000
  0.500  0.500  0.000
    occupations:
  0.908  0.000 -0.000
  0.000  0.900  0.005
 -0.000  0.005  0.900
atomic mag. moment =     0.000000
atom   40   Tr[ns(na)] (up, down, total) =   2.70575  2.70575  5.41150
   spin  1
    eigenvalues:
  0.895  0.903  0.908
    eigenvectors:
  0.000  0.000  1.000
  0.500  0.500  0.000
  0.500  0.500  0.000
    occupations:
  0.908  0.000 -0.000
  0.000  0.899  0.004
 -0.000  0.004  0.899
   spin  2
    eigenvalues:
  0.895  0.903  0.908
    eigenvectors:
  0.000  0.000  1.000
  0.500  0.500  0.000
  0.500  0.500  0.000
    occupations:
  0.908  0.000 -0.000
  0.000  0.899  0.004
 -0.000  0.004  0.899
atomic mag. moment =    -0.000000
atom   41   Tr[ns(na)] (up, down, total) =   2.70575  2.70575  5.41149
   spin  1
    eigenvalues:
  0.895  0.903  0.908
    eigenvectors:
  0.000  0.000  1.000
  0.500  0.500  0.000
  0.500  0.500  0.000
    occupations:
  0.908 -0.000 -0.000
 -0.000  0.899 -0.004
 -0.000 -0.004  0.899
   spin  2
    eigenvalues:
  0.895  0.903  0.908
    eigenvectors:
  0.000  0.000  1.000
  0.500  0.500  0.000
  0.500  0.500  0.000
    occupations:
  0.908 -0.000 -0.000
 -0.000  0.899 -0.004
 -0.000 -0.004  0.899
atomic mag. moment =    -0.000000
atom   42   Tr[ns(na)] (up, down, total) =   2.70575  2.70575  5.41149
   spin  1
    eigenvalues:
  0.895  0.903  0.908
    eigenvectors:
  0.000  0.000  1.000
  0.500  0.500  0.000
  0.500  0.500  0.000
    occupations:
  0.908 -0.000 -0.000
 -0.000  0.899 -0.004
 -0.000 -0.004  0.899
   spin  2
    eigenvalues:
  0.895  0.903  0.908
    eigenvectors:
  0.000  0.000  1.000
  0.500  0.500  0.000
  0.500  0.500  0.000
    occupations:
  0.908 -0.000 -0.000
 -0.000  0.899 -0.004
 -0.000 -0.004  0.899
atomic mag. moment =    -0.000000
atom   43   Tr[ns(na)] (up, down, total) =   2.70578  2.70578  5.41155
   spin  1
    eigenvalues:
  0.895  0.903  0.908
    eigenvectors:
  0.000  0.000  1.000
  0.500  0.500  0.000
  0.500  0.500  0.000
    occupations:
  0.908  0.000  0.000
  0.000  0.899  0.004
  0.000  0.004  0.899
   spin  2
    eigenvalues:
  0.895  0.903  0.908
    eigenvectors:
  0.000  0.000  1.000
  0.500  0.500  0.000
  0.500  0.500  0.000
    occupations:
  0.908  0.000  0.000
  0.000  0.899  0.004
  0.000  0.004  0.899
atomic mag. moment =    -0.000000
atom   44   Tr[ns(na)] (up, down, total) =   2.70578  2.70578  5.41155
   spin  1
    eigenvalues:
  0.895  0.903  0.908
    eigenvectors:
  0.000  0.000  1.000
  0.500  0.500  0.000
  0.500  0.500  0.000
    occupations:
  0.908  0.000  0.000
  0.000  0.899  0.004
  0.000  0.004  0.899
   spin  2
    eigenvalues:
  0.895  0.903  0.908
    eigenvectors:
  0.000  0.000  1.000
  0.500  0.500  0.000
  0.500  0.500  0.000
    occupations:
  0.908  0.000  0.000
  0.000  0.899  0.004
  0.000  0.004  0.899
atomic mag. moment =    -0.000000
atom   45   Tr[ns(na)] (up, down, total) =   2.70578  2.70578  5.41157
   spin  1
    eigenvalues:
  0.895  0.903  0.908
    eigenvectors:
  0.000  0.000  1.000
  0.500  0.500  0.000
  0.500  0.500  0.000
    occupations:
  0.908 -0.000 -0.000
 -0.000  0.899 -0.004
 -0.000 -0.004  0.899
   spin  2
    eigenvalues:
  0.895  0.903  0.908
    eigenvectors:
  0.000  0.000  1.000
  0.500  0.500  0.000
  0.500  0.500  0.000
    occupations:
  0.908 -0.000 -0.000
 -0.000  0.899 -0.004
 -0.000 -0.004  0.899
atomic mag. moment =    -0.000000
atom   46   Tr[ns(na)] (up, down, total) =   2.70578  2.70578  5.41157
   spin  1
    eigenvalues:
  0.895  0.903  0.908
    eigenvectors:
  0.000  0.000  1.000
  0.500  0.500  0.000
  0.500  0.500  0.000
    occupations:
  0.908 -0.000 -0.000
 -0.000  0.899 -0.004
 -0.000 -0.004  0.899
   spin  2
    eigenvalues:
  0.895  0.903  0.908
    eigenvectors:
  0.000  0.000  1.000
  0.500  0.500  0.000
  0.500  0.500  0.000
    occupations:
  0.908 -0.000 -0.000
 -0.000  0.899 -0.004
 -0.000 -0.004  0.899
atomic mag. moment =    -0.000000
atom   47   Tr[ns(na)] (up, down, total) =   2.70578  2.70578  5.41155
   spin  1
    eigenvalues:
  0.895  0.903  0.908
    eigenvectors:
  0.000  0.000  1.000
  0.500  0.500  0.000
  0.500  0.500  0.000
    occupations:
  0.908 -0.000 -0.000
 -0.000  0.899  0.004
 -0.000  0.004  0.899
   spin  2
    eigenvalues:
  0.895  0.903  0.908
    eigenvectors:
  0.000  0.000  1.000
  0.500  0.500  0.000
  0.500  0.500  0.000
    occupations:
  0.908 -0.000 -0.000
 -0.000  0.899  0.004
 -0.000  0.004  0.899
atomic mag. moment =    -0.000000
atom   48   Tr[ns(na)] (up, down, total) =   2.70578  2.70578  5.41155
   spin  1
    eigenvalues:
  0.895  0.903  0.908
    eigenvectors:
  0.000  0.000  1.000
  0.500  0.500  0.000
  0.500  0.500  0.000
    occupations:
  0.908 -0.000 -0.000
 -0.000  0.899  0.004
 -0.000  0.004  0.899
   spin  2
    eigenvalues:
  0.895  0.903  0.908
    eigenvectors:
  0.000  0.000  1.000
  0.500  0.500  0.000
  0.500  0.500  0.000
    occupations:
  0.908 -0.000 -0.000
 -0.000  0.899  0.004
 -0.000  0.004  0.899
atomic mag. moment =    -0.000000
N of occupied +U levels = 219.8153125
 --- exit write_ns ---

 ------ SPIN UP ------------

          k = 0.0000 0.0000 0.0000 ( 14755 PWs)   bands (ev):

   -48.3132 -48.1819 -48.1762 -48.1760 -48.1756 -48.1754 -48.1743 -48.1693
   -48.1529 -48.1372 -48.1360 -48.1360 -48.1354 -48.1354 -48.1343 -48.1343
   -24.8076 -24.7312 -24.7296 -24.7283 -24.7266 -24.7220 -24.7210 -24.7201
   -24.5756 -24.5312 -24.4943 -24.4937 -24.4755 -24.4577 -24.4542 -24.4537
   -24.4524 -24.3912 -24.3714 -24.3708 -24.3697 -24.3594 -24.3491 -24.3486
   -24.3476 -24.3472 -24.3468 -24.3464 -24.3456 -24.3390 -24.3389 -24.3370
   -24.3370 -24.3356 -24.3328 -24.3314 -24.3299 -24.3285 -24.3267 -24.3262
   -24.3259 -24.2842 -24.2721 -24.2720 -24.2716 -24.2714 -24.2703 -24.2579
    -9.3715  -8.7499  -8.7474  -8.7081  -8.7079  -8.7070  -8.7066  -8.2916
    -8.2915  -8.2915  -8.2858  -8.2686  -8.1335  -8.1294  -8.0525  -8.0484
    -7.9000  -7.8985  -7.7982  -7.7967  -7.6908  -7.6889  -7.6888  -7.6869
    -7.6404  -7.6391  -7.6374  -7.6373  -7.6243  -7.6241  -7.5083  -7.5082
     3.0552   3.2945   3.2974   3.4821   3.7879   3.7910   3.7915   3.7944
     3.8057   3.8058   3.8063   3.8094   4.0412   4.1771   4.1815   4.2765
     4.2767   4.3909   4.3938   4.8119   4.8145   4.8706   4.8732   4.9092
     4.9102   4.9106   4.9163   5.0008   5.0009   5.0021   5.0030   5.1318
     5.1360   5.1469   5.1470   5.2778   5.2808   5.5479   5.5491   5.5491
     5.5511   5.6098   5.6099   5.6109   5.6148   5.8856   5.8861   5.8967
     5.8982   5.8984   5.8989   6.0699   6.0729   6.0865   6.0891   6.2051
     6.2059   6.3647   6.3652   6.3657   6.3669   6.5467   6.5483   6.6032
     6.6061   6.6424   6.6431   6.6440   6.6446   6.8335   7.1870   7.1900
     7.1901   7.1904   7.2587   7.2603   7.4566   7.4576   7.5427   7.5433
     7.7118   7.7126   7.7128   7.7128   7.7746   7.7750   7.9228   7.9232
     7.9234   7.9237   7.9597   7.9609   8.0168   8.2916   8.2917   8.6051
    10.6247  10.6253  10.6262  10.6286  10.6548  10.7235  10.7260  11.0635
    11.1988  11.2009  11.2163  11.2181  11.2257  11.2308  11.2326  11.3383
    11.3396  11.3404  11.3413  11.5338  11.5350  11.6274  11.6275  11.6286
    11.6288  11.8154  11.8162  11.8499  11.8503  11.8505  11.8516  11.8665
    11.8672  11.9959  11.9968  12.2606  12.2613  12.2618  12.2627  12.3962
    12.3966  12.4900  12.4902  12.5809  12.5812  12.5820  12.5824  12.8594
    13.1685  13.5536  13.5545  13.5565  13.5570  13.9469  13.9489  14.2783
    14.2796  14.3044  14.3066  14.5473  14.5529  14.5535  14.5544  14.7430
    14.7458  14.7671  14.7691  15.1531  15.1591  15.1602  15.1610  15.4261
    15.4296  15.4387  15.4399  15.6495  15.6499  15.6539  15.6541  15.8698
    16.5631  18.6720  18.6733  18.6747  18.6755  19.7516  19.7525  20.2927
    20.2940  20.3552  20.3561  20.7583  20.7591  20.7599  20.7612  20.9784
    20.9789  21.5437  21.5460  22.0079  22.0089  22.0105  22.0122  22.7094
    22.7094  22.7111  22.7116  22.8282  22.8298  22.8329  23.1176  23.1184
    23.4024  23.4038  23.9503  23.9529  24.0040  24.0052  24.2717  24.3560
    24.3568  24.3578  24.3588  24.5925  24.5942  24.5956  24.5957  25.2979
    25.5338  25.5382  25.6626  25.6667  25.7144  25.7174  25.7184  25.7204
    26.3177  26.3199  26.6528  26.7003  26.7007  26.7033  26.7055  26.7422
    26.7429  26.7854  26.7868  26.7886  26.7899  26.9442  26.9503  26.9544
    26.9545  27.4284  27.4314  27.5519  27.5532  28.0584  28.0584  28.1628
    28.1649  28.1670  28.3814  28.3817  28.3842  28.3849  29.5731  29.5762
    29.9060  29.9958  29.9961  29.9976  29.9978  30.1195  30.1233  30.7311
    30.7332  31.0251  31.0266  31.2944  31.4961  31.5016  31.6573  31.6579
    31.6584  31.6618  31.6902  31.6990  31.7004  31.7013  32.2647  32.2709
    32.2817  32.2830  32.2890  32.2952  32.2960  32.2962  32.4257  32.4286
    32.8386  32.8387  33.4494  33.9797  33.9821  34.1576  34.1607  34.1618
    34.1627  34.2203  34.2218  34.2232  34.2243  34.5040  34.5088  34.5306
    34.7701  34.7740  35.0106  35.0139  35.3295  35.7217  35.7221  35.8010
    35.8064  35.8069  35.8081  35.8578  35.8625  35.8641  35.8642  35.8746
    35.8767  36.0065  36.0100  36.0106  36.0116  36.1105  36.1117  36.1131
    36.1146  36.3798  36.3799  36.6342  36.6348  36.6363  36.6366  37.0327
    37.1207  37.1216  37.3521  37.3536  37.9173  37.9179  38.8103  38.8127
    39.3916  39.3943  39.4553  40.0332  40.0353  40.0573  40.0576  40.0920
    40.0958  40.0976  40.0983  40.1082  40.2206  40.3987  40.4037  40.4069
    40.4075  40.5284  40.5310  40.5317  40.5323  40.6467  40.6480  40.9734
    40.9780  41.1137  41.1158  41.2622  41.2628  41.2634  41.2649  41.5807
    41.5860  41.5891  41.5891  41.6799  41.7806  41.7811  41.8062  41.8086
    41.9180  41.9192  42.7953  42.7961  43.2718  43.2752  43.6314  43.6352
    43.7771  43.7774  43.7972  43.7982  43.7984  43.8018  43.9867  43.9869
    43.9998  44.0028  44.0055  44.0060  44.1440  44.1464  44.1469  44.1470
    44.2940  44.2973  44.3744  44.3752  44.3756  44.3761  44.4172  44.7858
    44.7898  44.8243  44.8247  45.2643  45.2693  45.4031  45.4072  45.4097
    45.4102  45.5746  45.6070  45.6093  45.7014  45.7046  45.7058  45.7061
    46.1176  46.1186  46.3662  46.3688  46.4929  46.4946  46.5747  46.5802
    46.5805  46.5807  46.5899  46.5906  46.9681  46.9712  46.9724  46.9730

[...]

          k =-0.5000-0.5000 0.0000 ( 14812 PWs)   bands (ev):

[...]

 ------ SPIN DOWN ----------

[...]

          k = 0.2500-0.5000-0.7828 ( 14816 PWs)   bands (ev):

[...]

          k =-0.2500 0.2500 0.7828 ( 14778 PWs)   bands (ev):

   -48.3107 -48.1602 -48.1598 -48.1579 -48.1572 -48.1572 -48.1569 -48.1563
   -48.1558 -48.1550 -48.1547 -48.1541 -48.1533 -48.1532 -48.1515 -48.1512
   -24.6487 -24.5572 -24.5365 -24.5141 -24.5140 -24.5133 -24.5113 -24.5106
   -24.5075 -24.5065 -24.5065 -24.5057 -24.5050 -24.5021 -24.5009 -24.4962
   -24.4950 -24.4889 -24.4364 -24.4331 -24.4309 -24.4215 -24.4203 -24.4189
   -24.4171 -24.4171 -24.4156 -24.4147 -24.4054 -24.4002 -24.3996 -24.3990
   -24.3987 -24.3449 -24.3431 -24.3430 -24.3425 -24.3336 -24.3322 -24.3317
   -24.3315 -24.3308 -24.3305 -24.3294 -24.3291 -24.3230 -24.3203 -24.3197
    -8.7133  -8.7123  -8.4735  -8.4724  -8.4718  -8.4713  -8.3591  -8.3588
    -8.2151  -8.2138  -8.1243  -8.1243  -8.1233  -8.1226  -7.9467  -7.9440
    -7.9002  -7.9001  -7.8995  -7.8967  -7.8891  -7.8868  -7.8665  -7.8652
    -7.8557  -7.8530  -7.8442  -7.8441  -7.8439  -7.8382  -7.7978  -7.7966
     3.9226   3.9230   3.9377   3.9379   4.1542   4.1564   4.1565   4.1584
     4.1879   4.1907   4.1955   4.1989   4.2542   4.2581   4.2817   4.2844
     4.3704   4.3711   4.3724   4.3743   4.4311   4.4328   4.4675   4.4713
     4.4715   4.4739   4.6757   4.6763   4.6766   4.6787   4.7283   4.7301
     5.1381   5.1400   5.1788   5.1810   5.1812   5.1839   5.3771   5.3780
     5.5614   5.5624   5.5625   5.5625   5.6694   5.6702   5.9078   5.9082
     5.9082   5.9111   5.9624   5.9630   5.9901   5.9905   6.3559   6.3565
     6.4867   6.4867   6.4874   6.4875   6.7302   6.7325   6.7328   6.7338
     6.7860   6.7883   6.8346   6.8347   6.9180   6.9191   6.9872   6.9891
     7.1335   7.1343   7.1345   7.1347   7.1524   7.1547   7.2530   7.2548
     7.2879   7.2911   7.3668   7.3673   7.5404   7.5407   7.5411   7.5417
     7.6439   7.6448   7.9630   7.9639   7.9640   7.9641   8.2530   8.2532
    10.8879  10.8891  11.1024  11.1025  11.1027  11.1052  11.3534  11.3548
    11.4046  11.4047  11.4198  11.4199  11.5190  11.5195  11.5198  11.5207
    11.6535  11.6546  11.7087  11.7108  11.7108  11.7111  11.7141  11.7174
    11.7250  11.7259  11.8215  11.8217  11.9204  11.9212  11.9357  11.9365
    11.9435  11.9442  11.9447  11.9447  12.1393  12.1398  12.1403  12.1403
    12.1404  12.1406  12.3641  12.3649  12.3659  12.3660  12.5970  12.5976
    13.6521  13.6533  13.7432  13.7473  13.7487  13.7488  14.0529  14.0555
    14.0567  14.0568  14.0777  14.0787  14.3767  14.3773  14.4089  14.4126
    14.8255  14.8263  14.8323  14.8328  14.9238  14.9274  14.9307  14.9308
    15.0596  15.0618  15.3522  15.3560  15.3593  15.3594  15.3600  15.3600
    18.3928  18.3953  19.2499  19.2521  19.2528  19.2538  19.8124  19.8135
    20.5157  20.5187  20.5809  20.5833  20.5838  20.5847  21.8153  21.8170
    22.1462  22.1502  22.2346  22.2376  22.7275  22.7280  22.7293  22.7302
    22.9669  22.9691  23.4931  23.4952  23.5086  23.5118  23.7634  23.7658
    23.7663  23.7676  23.9069  23.9088  23.9119  23.9126  23.9179  23.9208
    24.0068  24.0068  24.2861  24.2877  24.2884  24.2897  25.3250  25.3294
    25.3301  25.3310  25.3367  25.3387  25.5922  25.5936  25.7783  25.7818
    25.9328  25.9348  25.9886  25.9888  25.9920  25.9922  26.4068  26.4101
    26.5771  26.5851  26.5853  26.5861  26.8013  26.8032  27.0545  27.0583
    27.0960  27.1020  27.2107  27.2111  27.7226  27.7247  27.7262  27.7276
    27.9152  27.9179  28.3887  28.3897  28.4411  28.4436  28.4439  28.4476
    29.1404  29.1473  29.3300  29.3364  29.3367  29.3370  30.3254  30.3291
    30.3962  30.3962  30.3967  30.4001  30.9174  30.9193  31.3161  31.3220
    31.8973  31.8991  32.3246  32.3252  32.3265  32.3289  32.7943  32.7966
    33.0428  33.0435  33.0662  33.0692  33.1051  33.1080  33.1096  33.1130
    33.2880  33.2882  33.2883  33.2886  33.8541  33.8597  33.8598  33.8601
    34.0033  34.0046  34.4493  34.4506  34.4512  34.4515  34.4971  34.4994
    35.0109  35.0136  35.0140  35.0144  35.0381  35.0398  35.1804  35.1805
    35.7072  35.7086  35.7103  35.7125  35.7350  35.7370  36.3058  36.3128
    36.3130  36.3137  36.3565  36.3572  36.5302  36.5309  36.8670  36.8679
    36.9244  36.9286  36.9289  36.9302  36.9332  36.9333  37.2836  37.2859
    37.3014  37.3032  37.6722  37.6747  37.8531  37.8533  37.8533  37.8542
    38.0887  38.0890  38.0901  38.0909  38.3816  38.3834  39.2132  39.2145
    39.7438  39.7456  39.7465  39.7474  39.8827  39.8832  40.2581  40.2600
    40.4606  40.4616  40.5375  40.5382  40.5419  40.5428  40.5436  40.5447
    40.8502  40.8532  40.8696  40.8711  41.5245  41.5250  41.5251  41.5257
    42.4367  42.4374  42.4394  42.4404  42.4845  42.4856  42.7247  42.7288
    43.0279  43.0336  43.6643  43.6646  43.7375  43.7377  43.7460  43.7464
    43.7478  43.7479  43.9765  43.9768  43.9771  43.9800  43.9989  44.0016
    44.1268  44.1268  44.1496  44.1518  44.4732  44.4743  44.8301  44.8323
    44.8343  44.8343  45.0048  45.0053  45.0063  45.0070  45.3311  45.3325
    45.4677  45.4712  45.6171  45.6175  45.6193  45.6195  45.7231  45.7235
    45.8163  45.8200  45.9662  45.9688  45.9718  45.9726  46.0234  46.0236
    46.3046  46.3065  46.4756  46.4807  46.4809  46.4811  46.5707  46.5718
    46.5950  46.5987  46.6305  46.6307  46.6313  46.6330  46.8376  46.8403

     the Fermi energy is    10.6153 ev

!    total energy              =   -2931.94516774 Ry
     Harris-Foulkes estimate   =   -2931.94516811 Ry
     estimated scf accuracy    <       0.00000041 Ry

     The total energy is the sum of the following terms:

     one-electron contribution =   -1044.07216636 Ry
     hartree contribution      =     704.60106689 Ry
     xc contribution           =    -505.96467284 Ry
     ewald contribution        =   -2086.54328247 Ry
     Hubbard energy            =       0.03187994 Ry
     smearing contrib. (-TS)   =       0.00200709 Ry

     total magnetization       =    -0.00 Bohr mag/cell
     absolute magnetization    =     0.00 Bohr mag/cell

     convergence has been achieved in   6 iterations

     Writing output data file pwscf.save

     General routines

     Parallel routines
     Hubbard U routines

   This run was terminated on:   4:36: 6  12Feb2014

   JOB DONE.