     Program PWSCF v.5.0.2 (svn rev. 9656) starts on 24Jan2014 at 15:29:45

     Current dimensions of program PWSCF are:
     Max number of different atomic species (ntypx) = 10
     Max number of k-points (npk) =  40000
     Max angular momentum in pseudopotentials (lmaxx) =  3
     Reading input from TiO2-v-1.00.in

     Subspace diagonalization in iterative solution of the eigenvalue problem:
     a serial algorithm will be used

     bravais-lattice index     =            0
     lattice parameter (alat)  =       8.7632  a.u.
     unit-cell volume          =     433.6817 (a.u.)^3
     number of atoms/cell      =            6
     number of atomic types    =            2
     number of electrons       =        48.00
     number of Kohn-Sham states=           69
     kinetic-energy cutoff     =      40.0000  Ry
     charge density cutoff     =     500.0000  Ry
     convergence threshold     =      1.0E-06
     mixing beta               =       0.3000
     number of iterations used =            8  plain     mixing
     Exchange-correlation      = SLA  PW   PBE  PBE ( 1 4 3 4 0)
     EXX-fraction              =        0.00
     nstep                     =           50

     celldm(1)=   8.763183  celldm(2)=   0.000000  celldm(3)=   0.000000
     celldm(4)=   0.000000  celldm(5)=   0.000000  celldm(6)=   0.000000

     crystal axes: (cart. coord. in units of alat)
               a(1) = (   1.000000   0.000000   0.000000 )
               a(2) = (   0.000000   1.000000   0.000000 )
               a(3) = (   0.000000   0.000000   0.644444 )

     reciprocal axes: (cart. coord. in units 2 pi/alat)
               b(1) = (  1.000000  0.000000  0.000000 )
               b(2) = (  0.000000  1.000000  0.000000 )
               b(3) = (  0.000000  0.000000  1.551724 )

     PseudoPot. # 1 for Ti read from file:
     /home/camp/zhonxu/pseudo/ti_pbe_v1.uspp.F.UPF
     MD5 check sum: bcc8f6961b3b91f0cac3ca967d22d0fb
     Pseudo is Ultrasoft + core correction, Zval = 12.0
     Generated by new atomic code, or converted to UPF format
     Using radial grid of  851 points,  6 beta functions with:
                l(1) =   0
                l(2) =   0
                l(3) =   1
                l(4) =   1
                l(5) =   2
                l(6) =   2
     Q(r) pseudized with  6 coefficients,  rinner =    1.000   1.000   1.000
                                                       1.000   1.000

     PseudoPot. # 2 for O  read from file:
     /home/camp/zhonxu/pseudo/o_pbe_v1.01.uspp.F.UPF
     MD5 check sum: 2bcb18d16ea4b960afae9ec6d52f22d2
     Pseudo is Ultrasoft + core correction, Zval =  6.0
     Generated by new atomic code, or converted to UPF format
     Using radial grid of  737 points,  5 beta functions with:
                l(1) =   0
                l(2) =   0
                l(3) =   1
                l(4) =   1
                l(5) =   2
     Q(r) pseudized with  8 coefficients,  rinner =    0.900   0.900   0.900
                                                       0.900   0.900

     atomic species   valence    mass     pseudopotential
        Ti0           12.00    47.88000     Ti( 1.00)
        O1             6.00    15.99940     O ( 1.00)

     Starting magnetic structure
     atomic species   magnetization
        Ti0          0.600
        O1           0.000

      8 Sym. Ops., with inversion, found
          (note:  8 additional sym.ops. were found but ignored
           their fractional translations are incommensurate with FFT grid)

   Cartesian axes

     site n.     atom                  positions (alat units)
         1           Ti0 tau(   1) = (   0.0000000   0.0000000   0.0000000  )
         2           Ti0 tau(   2) = (   0.5000000   0.5000000   0.3222222  )
         3           O1  tau(   3) = (   0.3050000   0.3050000   0.0000000  )
         4           O1  tau(   4) = (  -0.3050000  -0.3050000   0.0000000  )
         5           O1  tau(   5) = (   0.8050000   0.1950000   0.3222222  )
         6           O1  tau(   6) = (   0.1950000   0.8050000   0.3222222  )

     number of k points=    54  Methfessel-Paxton smearing, width (Ry)=  0.0100
                       cart. coord. in units 2pi/alat
        k(    1) = (   0.0000000   0.0000000   0.0000000), wk =   0.0080000
        k(    2) = (   0.0000000   0.0000000   0.3103448), wk =   0.0160000
        k(    3) = (   0.0000000   0.0000000   0.6206897), wk =   0.0160000
        k(    4) = (   0.0000000   0.2000000   0.0000000), wk =   0.0320000
        k(    5) = (   0.0000000   0.2000000   0.3103448), wk =   0.0640000
        k(    6) = (   0.0000000   0.2000000   0.6206897), wk =   0.0640000
        k(    7) = (   0.0000000   0.4000000   0.0000000), wk =   0.0320000
        k(    8) = (   0.0000000   0.4000000   0.3103448), wk =   0.0640000
        k(    9) = (   0.0000000   0.4000000   0.6206897), wk =   0.0640000
        k(   10) = (   0.2000000   0.2000000   0.0000000), wk =   0.0160000
        k(   11) = (   0.2000000   0.2000000   0.3103448), wk =   0.0320000
        k(   12) = (   0.2000000   0.2000000   0.6206897), wk =   0.0320000
        k(   13) = (   0.2000000   0.4000000   0.0000000), wk =   0.0320000
        k(   14) = (   0.2000000   0.4000000   0.3103448), wk =   0.0640000
        k(   15) = (   0.2000000   0.4000000   0.6206897), wk =   0.0640000
        k(   16) = (   0.4000000   0.4000000   0.0000000), wk =   0.0160000
        k(   17) = (   0.4000000   0.4000000   0.3103448), wk =   0.0320000
        k(   18) = (   0.4000000   0.4000000   0.6206897), wk =   0.0320000
        k(   19) = (  -0.2000000   0.2000000   0.0000000), wk =   0.0160000
        k(   20) = (  -0.2000000   0.2000000  -0.3103448), wk =   0.0320000
        k(   21) = (  -0.2000000   0.2000000  -0.6206897), wk =   0.0320000
        k(   22) = (  -0.2000000   0.4000000   0.0000000), wk =   0.0320000
        k(   23) = (  -0.2000000   0.4000000  -0.3103448), wk =   0.0640000
        k(   24) = (  -0.2000000   0.4000000  -0.6206897), wk =   0.0640000
        k(   25) = (  -0.4000000   0.4000000   0.0000000), wk =   0.0160000
        k(   26) = (  -0.4000000   0.4000000  -0.3103448), wk =   0.0320000
        k(   27) = (  -0.4000000   0.4000000  -0.6206897), wk =   0.0320000
        k(   28) = (   0.0000000   0.0000000   0.0000000), wk =   0.0080000
        k(   29) = (   0.0000000   0.0000000   0.3103448), wk =   0.0160000
        k(   30) = (   0.0000000   0.0000000   0.6206897), wk =   0.0160000
        k(   31) = (   0.0000000   0.2000000   0.0000000), wk =   0.0320000
        k(   32) = (   0.0000000   0.2000000   0.3103448), wk =   0.0640000
        k(   33) = (   0.0000000   0.2000000   0.6206897), wk =   0.0640000
        k(   34) = (   0.0000000   0.4000000   0.0000000), wk =   0.0320000
        k(   35) = (   0.0000000   0.4000000   0.3103448), wk =   0.0640000
        k(   36) = (   0.0000000   0.4000000   0.6206897), wk =   0.0640000
        k(   37) = (   0.2000000   0.2000000   0.0000000), wk =   0.0160000
        k(   38) = (   0.2000000   0.2000000   0.3103448), wk =   0.0320000
        k(   39) = (   0.2000000   0.2000000   0.6206897), wk =   0.0320000
        k(   40) = (   0.2000000   0.4000000   0.0000000), wk =   0.0320000
        k(   41) = (   0.2000000   0.4000000   0.3103448), wk =   0.0640000
        k(   42) = (   0.2000000   0.4000000   0.6206897), wk =   0.0640000
        k(   43) = (   0.4000000   0.4000000   0.0000000), wk =   0.0160000
        k(   44) = (   0.4000000   0.4000000   0.3103448), wk =   0.0320000
        k(   45) = (   0.4000000   0.4000000   0.6206897), wk =   0.0320000
        k(   46) = (  -0.2000000   0.2000000   0.0000000), wk =   0.0160000
        k(   47) = (  -0.2000000   0.2000000  -0.3103448), wk =   0.0320000
        k(   48) = (  -0.2000000   0.2000000  -0.6206897), wk =   0.0320000
        k(   49) = (  -0.2000000   0.4000000   0.0000000), wk =   0.0320000
        k(   50) = (  -0.2000000   0.4000000  -0.3103448), wk =   0.0640000
        k(   51) = (  -0.2000000   0.4000000  -0.6206897), wk =   0.0640000
        k(   52) = (  -0.4000000   0.4000000   0.0000000), wk =   0.0160000
        k(   53) = (  -0.4000000   0.4000000  -0.3103448), wk =   0.0320000
        k(   54) = (  -0.4000000   0.4000000  -0.6206897), wk =   0.0320000

     Largest allocated arrays     est. size (Mb)     dimensions
     Largest temporary arrays     est. size (Mb)     dimensions

     Check: negative/imaginary core charge=   -0.000014    0.000000

     Initial potential from superposition of free atoms
     Check: negative starting charge=(component1):   -0.019998
     Check: negative starting charge=(component2):   -0.004905

     starting charge   45.99991, renormalised to   48.00000

     negative rho (up, down):  0.209E-01 0.512E-02
     Starting wfc are   36 randomized atomic wfcs

     Self-consistent Calculation

     iteration #  1     ecut=    40.00 Ry     beta=0.30
     Davidson diagonalization with overlap
     ethr =  1.00E-02,  avg # of iterations =  5.2

     negative rho (up, down):  0.188E-01 0.829E-02

     total energy              =    -365.46216046 Ry
     Harris-Foulkes estimate   =    -365.22368911 Ry
     estimated scf accuracy    <       2.59804755 Ry

     total magnetization       =    -0.00 Bohr mag/cell
     absolute magnetization    =     1.80 Bohr mag/cell

[...]

     End of self-consistent calculation

 ------ SPIN UP ------------

          k = 0.0000 0.0000 0.0000 (  1875 PWs)   bands (ev):

   -48.2468 -48.2324 -24.5405 -24.5403 -24.3943 -24.3941 -24.3552 -24.3234
    -9.3375  -8.2040  -7.5290  -7.5290   3.0813   3.5250   3.9987   5.0000
     5.0001   6.2332   6.2333   6.7679   8.0202   8.2894   8.2894   8.7331
    10.5562  10.8471  11.0607  11.1463  11.1467  12.9221  13.1310  15.1330
    15.1333  16.0655  16.4184  20.2165  20.2165  23.0463  24.1278  25.0252
    26.5275  27.7575  27.7575  27.9698  29.6147  31.3137  32.4768  32.4768
    33.4179  34.0303  34.0304  34.3846  34.4951  34.4953  35.1087  36.9824
    39.4749  39.7931  40.1992  40.5651  40.5652  41.8109  42.0180  42.0180
    44.2410  44.4993  44.4993  45.1981  47.6421

[...]

          k =-0.2000 0.2000 0.0000 (  1855 PWs)   bands (ev):

[...]

 ------ SPIN DOWN ----------

[...]

     the Fermi energy is    10.5242 ev

!    total energy              =    -366.49963449 Ry
     Harris-Foulkes estimate   =    -366.49963266 Ry
     estimated scf accuracy    <       0.00000023 Ry

     The total energy is the sum of the following terms:

     one-electron contribution =    -128.61523684 Ry
     hartree contribution      =      87.08457756 Ry
     xc contribution           =     -63.20319200 Ry
     ewald contribution        =    -261.76598850 Ry
     smearing contrib. (-TS)   =       0.00020529 Ry

[...]

     convergence has been achieved in  11 iterations

     Forces acting on atoms (Ry/au):

     negative rho (up, down):  0.123E-01 0.123E-01
     atom    1 type  1   force =     0.00000000    0.00000000    0.00000000
     atom    2 type  1   force =     0.00000000    0.00000000    0.00000000
     atom    3 type  2   force =     0.00061299    0.00061299    0.00000000
[...]
        k(    6) = (   0.0000008   0.1993296   0.6248716), wk =   0.0640000
        k(    7) = (   0.0000016   0.3986593   0.0000000), wk =   0.0320000
        k(    8) = (   0.0000016   0.3986593   0.3124358), wk =   0.0640000
        k(    9) = (   0.0000016   0.3986593   0.6248716), wk =   0.0640000
        k(   10) = (   0.1993304   0.1993304   0.0000000), wk =   0.0160000
        k(   11) = (   0.1993304   0.1993304   0.3124358), wk =   0.0320000
        k(   12) = (   0.1993304   0.1993304   0.6248716), wk =   0.0320000
        k(   13) = (   0.1993312   0.3986601   0.0000000), wk =   0.0320000
        k(   14) = (   0.1993312   0.3986601   0.3124358), wk =   0.0640000
        k(   15) = (   0.1993312   0.3986601   0.6248716), wk =   0.0640000
        k(   16) = (   0.3986609   0.3986609   0.0000000), wk =   0.0160000
        k(   17) = (   0.3986609   0.3986609   0.3124358), wk =   0.0320000
        k(   18) = (   0.3986609   0.3986609   0.6248716), wk =   0.0320000
        k(   19) = (  -0.1993288   0.1993288   0.0000000), wk =   0.0160000
        k(   20) = (  -0.1993288   0.1993288  -0.3124358), wk =   0.0320000
        k(   21) = (  -0.1993288   0.1993288  -0.6248716), wk =   0.0320000
        k(   22) = (  -0.1993280   0.3986585   0.0000000), wk =   0.0320000
        k(   23) = (  -0.1993280   0.3986585  -0.3124358), wk =   0.0640000
        k(   24) = (  -0.1993280   0.3986585  -0.6248716), wk =   0.0640000
        k(   25) = (  -0.3986577   0.3986577   0.0000000), wk =   0.0160000
        k(   26) = (  -0.3986577   0.3986577  -0.3124358), wk =   0.0320000
        k(   27) = (  -0.3986577   0.3986577  -0.6248716), wk =   0.0320000
        k(   28) = (   0.0000000   0.0000000   0.0000000), wk =   0.0080000
        k(   29) = (   0.0000000   0.0000000   0.3124358), wk =   0.0160000
        k(   30) = (   0.0000000   0.0000000   0.6248716), wk =   0.0160000
        k(   31) = (   0.0000008   0.1993296   0.0000000), wk =   0.0320000
        k(   32) = (   0.0000008   0.1993296   0.3124358), wk =   0.0640000
        k(   33) = (   0.0000008   0.1993296   0.6248716), wk =   0.0640000
        k(   34) = (   0.0000016   0.3986593   0.0000000), wk =   0.0320000
        k(   35) = (   0.0000016   0.3986593   0.3124358), wk =   0.0640000
        k(   36) = (   0.0000016   0.3986593   0.6248716), wk =   0.0640000
        k(   37) = (   0.1993304   0.1993304   0.0000000), wk =   0.0160000
        k(   38) = (   0.1993304   0.1993304   0.3124358), wk =   0.0320000
        k(   39) = (   0.1993304   0.1993304   0.6248716), wk =   0.0320000
        k(   40) = (   0.1993312   0.3986601   0.0000000), wk =   0.0320000
        k(   41) = (   0.1993312   0.3986601   0.3124358), wk =   0.0640000
        k(   42) = (   0.1993312   0.3986601   0.6248716), wk =   0.0640000
        k(   43) = (   0.3986609   0.3986609   0.0000000), wk =   0.0160000
        k(   44) = (   0.3986609   0.3986609   0.3124358), wk =   0.0320000
        k(   45) = (   0.3986609   0.3986609   0.6248716), wk =   0.0320000
        k(   46) = (  -0.1993288   0.1993288   0.0000000), wk =   0.0160000
        k(   47) = (  -0.1993288   0.1993288  -0.3124358), wk =   0.0320000
        k(   48) = (  -0.1993288   0.1993288  -0.6248716), wk =   0.0320000
        k(   49) = (  -0.1993280   0.3986585   0.0000000), wk =   0.0320000
        k(   50) = (  -0.1993280   0.3986585  -0.3124358), wk =   0.0640000
        k(   51) = (  -0.1993280   0.3986585  -0.6248716), wk =   0.0640000
        k(   52) = (  -0.3986577   0.3986577   0.0000000), wk =   0.0160000
        k(   53) = (  -0.3986577   0.3986577  -0.3124358), wk =   0.0320000
        k(   54) = (  -0.3986577   0.3986577  -0.6248716), wk =   0.0320000

     Check: negative/imaginary core charge=   -0.000014    0.000000
     Check: negative starting charge=(component1):   -0.024853

[...]

     Threshold (ethr) on eigenvalues was too large:
     Diagonalizing with lowered threshold

     Davidson diagonalization with overlap
     ethr =  2.81E-09,  avg # of iterations =  1.9

[...]

     Volume is kept fixed: isostatic pressure set to zero

     bfgs converged in   4 scf cycles and   3 bfgs steps
     (criteria: energy < 0.10E-03, force < 0.10E-02, cell < 0.50E+00)

     End of BFGS Geometry Optimization

     Final enthalpy =    -366.4998937418 Ry
Begin final coordinates
     new unit-cell volume =    433.68172 a.u.^3 (    64.26500 Ang^3 )

CELL_PARAMETERS (alat=  8.76318294)
   1.003363114  -0.000004030   0.000000000
  -0.000004030   1.003363114   0.000000000
   0.000000000   0.000000000   0.640131533

ATOMIC_POSITIONS (crystal)
Ti0      0.000000000   0.000000000   0.000000000    0   0   0
Ti0      0.500000000   0.500000000   0.500000000    0   0   0
O1       0.305192829   0.305192829   0.000000000    1   1   0
O1      -0.305192829  -0.305192829   0.000000000    1   1   0
O1       0.805189998   0.194810002   0.500000000    1   1   0
O1       0.194810002   0.805189998   0.500000000    1   1   0
End final coordinates

     A final scf calculation at the relaxed structure.
     The G-vectors are recalculated for the final unit cell
     Results may differ from those at the preceding step.

     bravais-lattice index     =            0
     lattice parameter (alat)  =       8.7632  a.u.
     unit-cell volume          =     433.6817 (a.u.)^3
     number of atoms/cell      =            6
     number of atomic types    =            2
     number of electrons       =        48.00
     number of Kohn-Sham states=           69
     kinetic-energy cutoff     =      40.0000  Ry
     charge density cutoff     =     500.0000  Ry
     convergence threshold     =      1.0E-08
     mixing beta               =       0.3000
     number of iterations used =            8  plain     mixing
     Exchange-correlation      = SLA  PW   PBE  PBE ( 1 4 3 4 0)
     EXX-fraction              =        0.00

     celldm(1)=   8.763183  celldm(2)=   0.000000  celldm(3)=   0.000000
     celldm(4)=   0.000000  celldm(5)=   0.000000  celldm(6)=   0.000000

     crystal axes: (cart. coord. in units of alat)
               a(1) = (   1.003363  -0.000004   0.000000 )
               a(2) = (  -0.000004   1.003363   0.000000 )
               a(3) = (   0.000000   0.000000   0.640132 )

     reciprocal axes: (cart. coord. in units 2 pi/alat)
               b(1) = (  0.996648  0.000004 -0.000000 )
               b(2) = (  0.000004  0.996648 -0.000000 )
               b(3) = ( -0.000000 -0.000000  1.562179 )

     PseudoPot. # 1 for Ti read from file:
     /home/camp/zhonxu/pseudo/ti_pbe_v1.uspp.F.UPF
     MD5 check sum: bcc8f6961b3b91f0cac3ca967d22d0fb
     Pseudo is Ultrasoft + core correction, Zval = 12.0
     Generated by new atomic code, or converted to UPF format
     Using radial grid of  851 points,  6 beta functions with:
                l(1) =   0
                l(2) =   0
                l(3) =   1
                l(4) =   1
                l(5) =   2
                l(6) =   2
     Q(r) pseudized with  6 coefficients,  rinner =    1.000   1.000   1.000
                                                       1.000   1.000

     PseudoPot. # 2 for O  read from file:
     /home/camp/zhonxu/pseudo/o_pbe_v1.01.uspp.F.UPF
     MD5 check sum: 2bcb18d16ea4b960afae9ec6d52f22d2
     Pseudo is Ultrasoft + core correction, Zval =  6.0
     Generated by new atomic code, or converted to UPF format
     Using radial grid of  737 points,  5 beta functions with:
                l(1) =   0
                l(2) =   0
                l(3) =   1
                l(4) =   1
                l(5) =   2
     Q(r) pseudized with  8 coefficients,  rinner =    0.900   0.900   0.900
                                                       0.900   0.900

     atomic species   valence    mass     pseudopotential
        Ti0           12.00    47.88000     Ti( 1.00)
        O1             6.00    15.99940     O ( 1.00)

     Starting magnetic structure
     atomic species   magnetization
        Ti0          0.600
        O1           0.000

      8 Sym. Ops., with inversion, found
          (note:  8 additional sym.ops. were found but ignored
           their fractional translations are incommensurate with FFT grid)

   Cartesian axes

     site n.     atom                  positions (alat units)
         1           Ti0 tau(   1) = (   0.0000000   0.0000000   0.0000000  )
         2           Ti0 tau(   2) = (   0.5016795   0.5016795   0.3200658  )
         3           O1  tau(   3) = (   0.3062180   0.3062180   0.0000000  )
         4           O1  tau(   4) = (  -0.3062180  -0.3062180   0.0000000  )
         5           O1  tau(   5) = (   0.8078972   0.1954619   0.3200658  )
         6           O1  tau(   6) = (   0.1954619   0.8078972   0.3200658  )

     number of k points=    54  Methfessel-Paxton smearing, width (Ry)=  0.0100
                       cart. coord. in units 2pi/alat
        k(    1) = (   0.0000000   0.0000000   0.0000000), wk =   0.0080000
        k(    2) = (   0.0000000   0.0000000   0.3124358), wk =   0.0160000
        k(    3) = (   0.0000000   0.0000000   0.6248716), wk =   0.0160000
        k(    4) = (   0.0000008   0.1993296   0.0000000), wk =   0.0320000
        k(    5) = (   0.0000008   0.1993296   0.3124358), wk =   0.0640000
        k(    6) = (   0.0000008   0.1993296   0.6248716), wk =   0.0640000
        k(    7) = (   0.0000016   0.3986593   0.0000000), wk =   0.0320000
        k(    8) = (   0.0000016   0.3986593   0.3124358), wk =   0.0640000
        k(    9) = (   0.0000016   0.3986593   0.6248716), wk =   0.0640000
        k(   10) = (   0.1993304   0.1993304   0.0000000), wk =   0.0160000
        k(   11) = (   0.1993304   0.1993304   0.3124358), wk =   0.0320000
        k(   12) = (   0.1993304   0.1993304   0.6248716), wk =   0.0320000
        k(   13) = (   0.1993312   0.3986601   0.0000000), wk =   0.0320000
        k(   14) = (   0.1993312   0.3986601   0.3124358), wk =   0.0640000
        k(   15) = (   0.1993312   0.3986601   0.6248716), wk =   0.0640000
        k(   16) = (   0.3986609   0.3986609   0.0000000), wk =   0.0160000
        k(   17) = (   0.3986609   0.3986609   0.3124358), wk =   0.0320000
        k(   18) = (   0.3986609   0.3986609   0.6248716), wk =   0.0320000
        k(   19) = (  -0.1993288   0.1993288   0.0000000), wk =   0.0160000
        k(   20) = (  -0.1993288   0.1993288  -0.3124358), wk =   0.0320000
        k(   21) = (  -0.1993288   0.1993288  -0.6248716), wk =   0.0320000
        k(   22) = (  -0.1993280   0.3986585   0.0000000), wk =   0.0320000
        k(   23) = (  -0.1993280   0.3986585  -0.3124358), wk =   0.0640000
        k(   24) = (  -0.1993280   0.3986585  -0.6248716), wk =   0.0640000
        k(   25) = (  -0.3986577   0.3986577   0.0000000), wk =   0.0160000
        k(   26) = (  -0.3986577   0.3986577  -0.3124358), wk =   0.0320000
        k(   27) = (  -0.3986577   0.3986577  -0.6248716), wk =   0.0320000
        k(   28) = (   0.0000000   0.0000000   0.0000000), wk =   0.0080000
        k(   29) = (   0.0000000   0.0000000   0.3124358), wk =   0.0160000
        k(   30) = (   0.0000000   0.0000000   0.6248716), wk =   0.0160000
        k(   31) = (   0.0000008   0.1993296   0.0000000), wk =   0.0320000
        k(   32) = (   0.0000008   0.1993296   0.3124358), wk =   0.0640000
        k(   33) = (   0.0000008   0.1993296   0.6248716), wk =   0.0640000
        k(   34) = (   0.0000016   0.3986593   0.0000000), wk =   0.0320000
        k(   35) = (   0.0000016   0.3986593   0.3124358), wk =   0.0640000
        k(   36) = (   0.0000016   0.3986593   0.6248716), wk =   0.0640000
        k(   37) = (   0.1993304   0.1993304   0.0000000), wk =   0.0160000
        k(   38) = (   0.1993304   0.1993304   0.3124358), wk =   0.0320000
        k(   39) = (   0.1993304   0.1993304   0.6248716), wk =   0.0320000
        k(   40) = (   0.1993312   0.3986601   0.0000000), wk =   0.0320000
        k(   41) = (   0.1993312   0.3986601   0.3124358), wk =   0.0640000
        k(   42) = (   0.1993312   0.3986601   0.6248716), wk =   0.0640000
        k(   43) = (   0.3986609   0.3986609   0.0000000), wk =   0.0160000
        k(   44) = (   0.3986609   0.3986609   0.3124358), wk =   0.0320000
        k(   45) = (   0.3986609   0.3986609   0.6248716), wk =   0.0320000
        k(   46) = (  -0.1993288   0.1993288   0.0000000), wk =   0.0160000
        k(   47) = (  -0.1993288   0.1993288  -0.3124358), wk =   0.0320000
        k(   48) = (  -0.1993288   0.1993288  -0.6248716), wk =   0.0320000
        k(   49) = (  -0.1993280   0.3986585   0.0000000), wk =   0.0320000
        k(   50) = (  -0.1993280   0.3986585  -0.3124358), wk =   0.0640000
        k(   51) = (  -0.1993280   0.3986585  -0.6248716), wk =   0.0640000
        k(   52) = (  -0.3986577   0.3986577   0.0000000), wk =   0.0160000
        k(   53) = (  -0.3986577   0.3986577  -0.3124358), wk =   0.0320000
        k(   54) = (  -0.3986577   0.3986577  -0.6248716), wk =   0.0320000

     Largest allocated arrays     est. size (Mb)     dimensions
     Largest temporary arrays     est. size (Mb)     dimensions

     Check: negative/imaginary core charge=   -0.000014    0.000000

     Initial potential from superposition of free atoms
     Check: negative starting charge=(component1):   -0.020559
     Check: negative starting charge=(component2):   -0.005054

     starting charge   45.99991, renormalised to   48.00000

     negative rho (up, down):  0.215E-01 0.527E-02
     Starting wfc are   36 randomized atomic wfcs

     Self-consistent Calculation

[...]

     total energy              =    -366.49984420 Ry
     Harris-Foulkes estimate   =    -366.49984388 Ry
     estimated scf accuracy    <       0.00000031 Ry

[...]

     iteration # 13     ecut=    40.00 Ry     beta=0.30
     Davidson diagonalization with overlap
     ethr =  6.05E-10,  avg # of iterations =  1.0

     negative rho (up, down):  0.127E-01 0.127E-01

     End of self-consistent calculation

 ------ SPIN UP ------------

[...]

 ------ SPIN DOWN ----------

[...]

          k = 0.3987 0.3987 0.6249 (  1857 PWs)   bands (ev):

[...]

          k =-0.3987 0.3987-0.6249 (  1857 PWs)   bands (ev):

   -48.1997 -48.1993 -24.7188 -24.7162 -24.4296 -24.4234 -24.3834 -24.3809
    -8.1720  -8.0592  -7.9296  -7.8127   4.0000   4.1732   4.3094   4.4441
     5.1856   5.4289   6.1686   6.2037   7.2203   7.3605   7.7949   7.9690
    11.0337  11.4065  11.7311  11.7876  11.8407  12.1166  13.8952  14.4369
    14.5593  15.0832  20.2925  20.6232  22.2359  22.8928  23.4336  23.9591
    25.5453  25.6875  26.7169  27.0416  27.9340  28.4523  31.3557  32.3720
    33.1947  33.3428  33.7386  34.5634  36.8652  36.9602  38.6389  39.3992
    40.6714  41.0645  41.6562  42.0469  42.2582  42.7521  42.8486  43.4992
    44.3716  45.0611  45.6076  46.4099  46.5588

     the Fermi energy is    10.5063 ev

!    total energy              =    -366.49984463 Ry
     Harris-Foulkes estimate   =    -366.49984425 Ry
     estimated scf accuracy    <          2.8E-09 Ry

     The total energy is the sum of the following terms:

     one-electron contribution =    -129.20560567 Ry
     hartree contribution      =      87.37290516 Ry
     xc contribution           =     -63.21108715 Ry
     ewald contribution        =    -261.45625118 Ry
     smearing contrib. (-TS)   =       0.00019420 Ry

     total magnetization       =     0.00 Bohr mag/cell
     absolute magnetization    =     0.00 Bohr mag/cell

     convergence has been achieved in  13 iterations

     Forces acting on atoms (Ry/au):

     negative rho (up, down):  0.127E-01 0.127E-01
     atom    1 type  1   force =     0.00000000    0.00000000    0.00000000
     atom    2 type  1   force =     0.00000000    0.00000000    0.00000000
     atom    3 type  2   force =    -0.00003805   -0.00003805    0.00000000
     atom    4 type  2   force =     0.00003805    0.00003805    0.00000000
     atom    5 type  2   force =    -0.00002054    0.00002054    0.00000000
     atom    6 type  2   force =     0.00002054   -0.00002054    0.00000000

     Total force =     0.000086     Total SCF correction =     0.000111
     SCF correction compared to forces is large: reduce conv_thr to get better values

     entering subroutine stress ...

     negative rho (up, down):  0.127E-01 0.127E-01
          total   stress  (Ry/bohr**3)                   (kbar)     P=  -19.54
  -0.00013257   0.00000009   0.00000000        -19.50      0.01      0.00
   0.00000009  -0.00013257   0.00000000          0.01    -19.50      0.00
   0.00000000   0.00000000  -0.00013326          0.00      0.00    -19.60

     General routines

     Parallel routines

   This run was terminated on:  15:51:10  24Jan2014

   JOB DONE.