     Program PWSCF v.5.0.2 (svn rev. 9656) starts on  6Jun2014 at  2: 1:56

     Current dimensions of program PWSCF are:
     Max number of different atomic species (ntypx) = 10
     Max number of k-points (npk) =  40000
     Max angular momentum in pseudopotentials (lmaxx) =  3
     Reading input from pwscf.in
Warning: card &CELL ignored
Warning: card / ignored

     Subspace diagonalization in iterative solution of the eigenvalue problem:
     a serial algorithm will be used

     bravais-lattice index     =            0
     lattice parameter (alat)  =      10.7336  a.u.
     unit-cell volume          =    6184.1966 (a.u.)^3
     number of atoms/cell      =           33
     number of atomic types    =            3
     number of electrons       =       245.00 (up: 134.00, down: 111.00)
     number of Kohn-Sham states=          355
     kinetic-energy cutoff     =      40.0000  Ry
     charge density cutoff     =     500.0000  Ry
     convergence threshold     =      1.0E-06
     mixing beta               =       0.7000
     number of iterations used =            8  plain     mixing
     Exchange-correlation      = SLA  PW   PBE  PBE ( 1 4 3 4 0)
     EXX-fraction              =        0.00
     nstep                     =           50

     celldm(1)=  10.733644  celldm(2)=   0.000000  celldm(3)=   0.000000
     celldm(4)=   0.000000  celldm(5)=   0.000000  celldm(6)=   0.000000

     crystal axes: (cart. coord. in units of alat)
               a(1) = (   1.000000   0.000000   0.000000 )
               a(2) = (   0.000000   1.085558   0.000000 )
               a(3) = (   0.000000   0.000000   4.606685 )

     reciprocal axes: (cart. coord. in units 2 pi/alat)
               b(1) = (  1.000000  0.000000  0.000000 )
               b(2) = (  0.000000  0.921185  0.000000 )
               b(3) = (  0.000000  0.000000  0.217076 )

     PseudoPot. # 1 for O  read from file:
     /home/camp/zhonxu/pseudo/o_pbe_v1.01.uspp.F.UPF
     MD5 check sum: 2bcb18d16ea4b960afae9ec6d52f22d2
     Pseudo is Ultrasoft + core correction, Zval =  6.0
     Generated by new atomic code, or converted to UPF format
     Using radial grid of  737 points,  5 beta functions with:
                l(1) =   0
                l(2) =   0
                l(3) =   1
                l(4) =   1
                l(5) =   2
     Q(r) pseudized with  8 coefficients,  rinner =    0.900   0.900   0.900
                                                       0.900   0.900

     PseudoPot. # 2 for Mn read from file:
     /home/camp/zhonxu/pseudo/mn_pbe_v1.uspp.F.UPF
     MD5 check sum: 5fd7c7b5c956fd19902447332617373a
     Pseudo is Ultrasoft + core correction, Zval = 15.0
     Generated by new atomic code, or converted to UPF format
     Using radial grid of  859 points,  6 beta functions with:
                l(1) =   0
                l(2) =   0
                l(3) =   1
                l(4) =   1
                l(5) =   2
                l(6) =   2
     Q(r) pseudized with  6 coefficients,  rinner =    1.150   1.150   1.150
                                                       1.150   1.150

     PseudoPot. # 3 for H  read from file:
     /home/camp/zhonxu/pseudo/h_pbe_v1.uspp.F.UPF
     MD5 check sum: 3408e3ff4ec8b0a4e358431e7e038a48
     Pseudo is Ultrasoft, Zval =  1.0
     Generated by new atomic code, or converted to UPF format
     Using radial grid of  615 points,  2 beta functions with:
                l(1) =   0
                l(2) =   0
     Q(r) pseudized with  8 coefficients,  rinner =    0.700

     atomic species   valence    mass     pseudopotential
        O0             6.00    15.99940     O ( 1.00)
        Mn1           15.00    54.93800     Mn( 1.00)
        H2             1.00     1.00794     H ( 1.00)

     Starting magnetic structure
     atomic species   magnetization
        O0           0.000
        Mn1          0.600
        H2           0.000

     Simplified LDA+U calculation (l_max = 2) with parameters (eV):
     atomic species    L          U    alpha       J0     beta
        Mn1            2     5.0000   0.0000   0.0000   0.0000

     No symmetry found

   Cartesian axes

     site n.     atom                  positions (alat units)
         1           O0  tau(   1) = (   0.0000000   0.0000000   1.7180171  )
         2           O0  tau(   2) = (   0.0000000   0.5427791   1.8095980  )
         3           Mn1 tau(   3) = (   0.2500000   0.5427791   2.0532456  )
         4           Mn1 tau(   4) = (   0.0000000   0.0000000   2.0535681  )
         5           O0  tau(   5) = (   0.2500000   0.8684466   2.0510805  )
         6           O0  tau(   6) = (   0.2500000   0.2171117   2.0634724  )
         7           O0  tau(   7) = (   0.0000000   0.5427791   2.2734451  )
         8           O0  tau(   8) = (   0.0000000   0.0000000   2.4130738  )
         9           Mn1 tau(   9) = (   0.2500000   0.0000000   2.6382485  )
        10           Mn1 tau(  10) = (   0.0000000   0.5427791   2.6282981  )
        11           O0  tau(  11) = (   0.2500000   0.7598908   2.6829334  )
        12           O0  tau(  12) = (   0.2500000   0.3256675   2.6873558  )
        13           O0  tau(  13) = (   0.0000000   0.0000000   2.8610278  )
        14           O0  tau(  14) = (   0.5000000   0.0000000   1.7180171  )
        15           O0  tau(  15) = (   0.5000000   0.5427791   1.8094598  )
        16           Mn1 tau(  16) = (   0.7500000   0.5427791   2.0531995  )
        17           Mn1 tau(  17) = (   0.5000000   0.0000000   2.0534299  )
        18           O0  tau(  18) = (   0.7500000   0.8684466   2.0514490  )
        19           O0  tau(  19) = (   0.7500000   0.2171117   2.0635185  )
        20           O0  tau(  20) = (   0.5000000   0.5427791   2.2770384  )
        21           O0  tau(  21) = (   0.5000000   0.0000000   2.4128434  )
        22           Mn1 tau(  22) = (   0.7500000   0.0000000   2.6382025  )
        23           Mn1 tau(  23) = (   0.5000000   0.5427791   2.6380182  )
        24           O0  tau(  24) = (   0.7500000   0.7598908   2.6829794  )
        25           O0  tau(  25) = (   0.7500000   0.3256675   2.6873097  )
        26           O0  tau(  26) = (   0.5000000   0.0000000   2.8604750  )
        27           H2  tau(  27) = (   0.0005100   0.7022260   1.7358450  )
        28           H2  tau(  28) = (   0.5005200   0.7027904   1.7367203  )
        29           H2  tau(  29) = (   0.1610500   0.0481662   1.6698773  )
        30           H2  tau(  30) = (   0.6607700   0.0491758   1.6700615  )
        31           O0  tau(  31) = (   0.4992800   0.5934204   3.0996541  )
        32           O0  tau(  32) = (   0.5022200   0.3937971   3.2273975  )
        33           H2  tau(  33) = (   0.4987800   0.4491823   3.3936527  )

     number of k points=    20  Methfessel-Paxton smearing, width (Ry)=  0.0100
                       cart. coord. in units 2pi/alat
        k(    1) = (   0.0000000   0.0000000   0.0000000), wk =   0.0625000
        k(    2) = (   0.0000000   0.2302962   0.0000000), wk =   0.1250000
        k(    3) = (   0.0000000  -0.4605925   0.0000000), wk =   0.0625000
        k(    4) = (   0.2500000   0.0000000   0.0000000), wk =   0.1250000
        k(    5) = (   0.2500000   0.2302962   0.0000000), wk =   0.1250000
        k(    6) = (   0.2500000  -0.4605925   0.0000000), wk =   0.1250000
        k(    7) = (  -0.5000000   0.0000000   0.0000000), wk =   0.0625000
        k(    8) = (  -0.5000000   0.2302962   0.0000000), wk =   0.1250000
        k(    9) = (  -0.5000000  -0.4605925   0.0000000), wk =   0.0625000
        k(   10) = (  -0.2500000   0.2302962   0.0000000), wk =   0.1250000
        k(   11) = (   0.0000000   0.0000000   0.0000000), wk =   0.0625000
        k(   12) = (   0.0000000   0.2302962   0.0000000), wk =   0.1250000
        k(   13) = (   0.0000000  -0.4605925   0.0000000), wk =   0.0625000
        k(   14) = (   0.2500000   0.0000000   0.0000000), wk =   0.1250000
        k(   15) = (   0.2500000   0.2302962   0.0000000), wk =   0.1250000
        k(   16) = (   0.2500000  -0.4605925   0.0000000), wk =   0.1250000
        k(   17) = (  -0.5000000   0.0000000   0.0000000), wk =   0.0625000
        k(   18) = (  -0.5000000   0.2302962   0.0000000), wk =   0.1250000
        k(   19) = (  -0.5000000  -0.4605925   0.0000000), wk =   0.0625000
        k(   20) = (  -0.2500000   0.2302962   0.0000000), wk =   0.1250000

     Largest allocated arrays     est. size (Mb)     dimensions
     Largest temporary arrays     est. size (Mb)     dimensions

     Check: negative/imaginary core charge=   -0.000023    0.000000

     Initial potential from superposition of free atoms
     Check: negative starting charge=(component1):   -0.000605
     Check: negative starting charge=(component2):   -0.000334

     starting charge  236.99986, renormalised to  245.00000

     negative rho (up, down):  0.626E-03 0.346E-03
     Number of +U iterations with fixed ns =  0
     Starting occupations:
 --- enter write_ns ---
 LDA+U parameters:
U( 2)     =  5.00000000
alpha( 2) =  0.00000000
atom    3   Tr[ns(na)] (up, down, total) =   5.00000  0.00000  5.00000
   spin  1
    eigenvalues:
  1.000  1.000  1.000  1.000  1.000
    eigenvectors:
  1.000  0.000  0.000  0.000  0.000
  0.000  1.000  0.000  0.000  0.000
  0.000  0.000  1.000  0.000  0.000
  0.000  0.000  0.000  1.000  0.000
  0.000  0.000  0.000  0.000  1.000
    occupations:
  1.000  0.000  0.000  0.000  0.000
  0.000  1.000  0.000  0.000  0.000
  0.000  0.000  1.000  0.000  0.000
  0.000  0.000  0.000  1.000  0.000
  0.000  0.000  0.000  0.000  1.000
   spin  2
    eigenvalues:
  0.000  0.000  0.000  0.000  0.000
    eigenvectors:
  1.000  0.000  0.000  0.000  0.000
  0.000  1.000  0.000  0.000  0.000
  0.000  0.000  1.000  0.000  0.000
  0.000  0.000  0.000  1.000  0.000
  0.000  0.000  0.000  0.000  1.000
    occupations:
  0.000  0.000  0.000  0.000  0.000
  0.000  0.000  0.000  0.000  0.000
  0.000  0.000  0.000  0.000  0.000
  0.000  0.000  0.000  0.000  0.000
  0.000  0.000  0.000  0.000  0.000
atomic mag. moment =     5.000000
atom    4   Tr[ns(na)] (up, down, total) =   5.00000  0.00000  5.00000
   spin  1
    eigenvalues:
  1.000  1.000  1.000  1.000  1.000
    eigenvectors:
  1.000  0.000  0.000  0.000  0.000
  0.000  1.000  0.000  0.000  0.000
  0.000  0.000  1.000  0.000  0.000
  0.000  0.000  0.000  1.000  0.000
  0.000  0.000  0.000  0.000  1.000
    occupations:
  1.000  0.000  0.000  0.000  0.000
  0.000  1.000  0.000  0.000  0.000
  0.000  0.000  1.000  0.000  0.000
  0.000  0.000  0.000  1.000  0.000
  0.000  0.000  0.000  0.000  1.000
   spin  2
    eigenvalues:
  0.000  0.000  0.000  0.000  0.000
    eigenvectors:
  1.000  0.000  0.000  0.000  0.000
  0.000  1.000  0.000  0.000  0.000
  0.000  0.000  1.000  0.000  0.000
  0.000  0.000  0.000  1.000  0.000
  0.000  0.000  0.000  0.000  1.000
    occupations:
  0.000  0.000  0.000  0.000  0.000
  0.000  0.000  0.000  0.000  0.000
  0.000  0.000  0.000  0.000  0.000
  0.000  0.000  0.000  0.000  0.000
  0.000  0.000  0.000  0.000  0.000
atomic mag. moment =     5.000000
[...]
  0.002  0.712  0.284  0.002  0.000
  0.002  0.281  0.716  0.001  0.000
  0.992  0.004  0.000  0.004  0.000
  0.000  0.000  0.000  0.000  1.000
    occupations:
  0.332  0.010  0.006 -0.015  0.000
  0.010  0.110 -0.005  0.000 -0.005
  0.006 -0.005  0.114  0.001  0.000
 -0.015  0.000  0.001  0.086 -0.000
  0.000 -0.005  0.000 -0.000  0.362
atomic mag. moment =     3.372176
atom    9   Tr[ns(na)] (up, down, total) =   4.36124  1.05050  5.41173
   spin  1
    eigenvalues:
  0.694  0.700  0.981  0.988  0.999
    eigenvectors:
  0.223  0.001  0.000  0.000  0.776
  0.003  0.997  0.000  0.000  0.000
  0.000  0.000  0.002  0.998  0.000
  0.774  0.002  0.000  0.000  0.224
  0.000  0.000  0.998  0.002  0.000
    occupations:
  0.931 -0.000 -0.000 -0.127 -0.000
 -0.000  0.700  0.000  0.000  0.000
 -0.000  0.000  0.988 -0.001 -0.000
 -0.127  0.000 -0.001  0.762  0.000
 -0.000  0.000 -0.000  0.000  0.981
   spin  2
    eigenvalues:
  0.097  0.112  0.116  0.356  0.370
    eigenvectors:
  0.812  0.000  0.000  0.188  0.000
  0.000  0.000  0.000  0.000  1.000
  0.000  0.000  1.000  0.000  0.000
  0.188  0.000  0.000  0.811  0.000
  0.000  1.000  0.000  0.000  0.000
    occupations:
  0.146  0.000  0.001  0.101 -0.000
  0.000  0.370 -0.000 -0.000 -0.000
  0.001 -0.000  0.116  0.001 -0.000
  0.101 -0.000  0.001  0.307 -0.000
 -0.000 -0.000 -0.000 -0.000  0.112
atomic mag. moment =     3.310738
atom   10   Tr[ns(na)] (up, down, total) =   4.60985  0.69926  5.30911
   spin  1
    eigenvalues:
  0.672  0.944  0.997  0.998  0.999
    eigenvectors:
  0.000  0.949  0.000  0.051  0.000
  0.000  0.000  1.000  0.000  0.000
  0.000  0.000  0.000  0.002  0.997
  0.000  0.051  0.000  0.947  0.002
  1.000  0.000  0.000  0.000  0.000
    occupations:
  0.946  0.000  0.000  0.012  0.000
  0.000  0.997  0.000  0.000 -0.002
  0.000  0.000  0.999 -0.000 -0.000
  0.012  0.000 -0.000  0.995 -0.000
  0.000 -0.002 -0.000 -0.000  0.672
   spin  2
    eigenvalues:
  0.071  0.080  0.087  0.150  0.312
    eigenvectors:
  0.034  0.000  0.000  0.966  0.000
  0.000  0.000  1.000  0.000  0.000
  0.000  1.000  0.000  0.000  0.000
  0.965  0.000  0.000  0.034  0.000
  0.000  0.000  0.000  0.000  1.000
    occupations:
  0.147  0.000 -0.000 -0.014 -0.000
  0.000  0.087 -0.000 -0.000  0.001
 -0.000 -0.000  0.080 -0.000 -0.000
 -0.014 -0.000 -0.000  0.074  0.000
 -0.000  0.001 -0.000  0.000  0.312
atomic mag. moment =     3.910590
atom   16   Tr[ns(na)] (up, down, total) =   4.39374  0.99375  5.38749
   spin  1
    eigenvalues:
  0.678  0.715  0.998  0.999  1.003
    eigenvectors:
  0.246  0.001  0.005  0.700  0.048
  0.002  0.997  0.001  0.000  0.000
  0.000  0.000  0.000  0.059  0.940
  0.752  0.001  0.002  0.233  0.012
  0.000  0.001  0.992  0.007  0.000
    occupations:
  0.920 -0.002 -0.003 -0.138 -0.000
 -0.002  0.715 -0.000  0.003 -0.007
 -0.003 -0.000  1.003 -0.003 -0.000
 -0.138  0.003 -0.003  0.757  0.000
 -0.000 -0.007 -0.000  0.000  0.998
   spin  2
    eigenvalues:
  0.082  0.105  0.120  0.333  0.353
    eigenvectors:
  0.775  0.000  0.004  0.002  0.219
  0.000  0.002  0.000  0.992  0.006
  0.005  0.001  0.994  0.000  0.000
  0.220  0.000  0.001  0.004  0.775
  0.000  0.997  0.001  0.002  0.000
    occupations:
  0.142  0.001 -0.002  0.112  0.000
  0.001  0.332  0.000 -0.002  0.009
 -0.002  0.000  0.120  0.002 -0.001
  0.112 -0.002  0.002  0.293 -0.000
  0.000  0.009 -0.001 -0.000  0.106
atomic mag. moment =     3.399990
atom   17   Tr[ns(na)] (up, down, total) =   4.37614  1.00362  5.37976
   spin  1
    eigenvalues:
  0.655  0.715  0.996  1.004  1.005
    eigenvectors:
  0.000  0.998  0.001  0.001  0.000
  0.000  0.001  0.000  0.943  0.056
  0.000  0.000  0.000  0.056  0.944
  0.000  0.001  0.999  0.000  0.000
  1.000  0.000  0.000  0.000  0.000
    occupations:
  0.716 -0.009 -0.006  0.007 -0.000
 -0.009  1.004 -0.000  0.000  0.001
 -0.006 -0.000  1.005  0.000  0.000
  0.007  0.000  0.000  0.996  0.000
 -0.000  0.001  0.000  0.000  0.655
   spin  2
    eigenvalues:
  0.085  0.106  0.117  0.334  0.362
    eigenvectors:
  0.004  0.002  0.000  0.994  0.000
  0.002  0.703  0.293  0.002  0.000
  0.002  0.291  0.707  0.001  0.000
  0.992  0.004  0.000  0.004  0.000
  0.000  0.000  0.000  0.000  1.000
    occupations:
  0.332  0.010  0.006 -0.015  0.000
  0.010  0.110 -0.005  0.000 -0.005
  0.006 -0.005  0.114  0.001  0.000
 -0.015  0.000  0.001  0.086 -0.000
  0.000 -0.005  0.000 -0.000  0.362
atomic mag. moment =     3.372515
atom   22   Tr[ns(na)] (up, down, total) =   4.36128  1.05040  5.41168
   spin  1
    eigenvalues:
  0.694  0.699  0.981  0.988  0.999
    eigenvectors:
  0.222  0.002  0.000  0.000  0.776
  0.010  0.990  0.000  0.000  0.000
  0.000  0.000  0.002  0.998  0.000
  0.769  0.008  0.000  0.000  0.224
  0.000  0.000  0.998  0.002  0.000
    occupations:
  0.931  0.001 -0.000 -0.127  0.000
  0.001  0.699  0.000  0.000  0.000
 -0.000  0.000  0.988 -0.001  0.000
 -0.127  0.000 -0.001  0.762 -0.000
  0.000  0.000  0.000 -0.000  0.981
   spin  2
    eigenvalues:
  0.097  0.112  0.116  0.356  0.370
    eigenvectors:
  0.811  0.000  0.000  0.188  0.000
  0.000  0.000  0.000  0.000  1.000
  0.000  0.000  1.000  0.000  0.000
  0.189  0.000  0.000  0.811  0.000
  0.000  1.000  0.000  0.000  0.000
    occupations:
  0.146 -0.000  0.001  0.101  0.000
 -0.000  0.370 -0.000  0.000 -0.000
  0.001 -0.000  0.116  0.001 -0.000
  0.101  0.000  0.001  0.307  0.000
  0.000 -0.000 -0.000  0.000  0.112
atomic mag. moment =     3.310887
atom   23   Tr[ns(na)] (up, down, total) =   4.59282  0.71446  5.30728
   spin  1
    eigenvalues:
  0.667  0.930  0.998  0.999  0.999
    eigenvectors:
  0.000  0.969  0.031  0.000  0.000
  0.000  0.000  0.000  0.998  0.001
  0.000  0.000  0.001  0.001  0.997
  0.000  0.031  0.967  0.000  0.001
  1.000  0.000  0.000  0.000  0.000
    occupations:
  0.932 -0.000  0.001  0.012 -0.000
 -0.000  0.999  0.000  0.000 -0.002
  0.001  0.000  0.999 -0.000  0.000
  0.012  0.000 -0.000  0.996 -0.000
 -0.000 -0.002  0.000 -0.000  0.667
   spin  2
    eigenvalues:
  0.074  0.076  0.085  0.157  0.322
    eigenvectors:
  0.029  0.000  0.000  0.971  0.000
  0.000  0.000  1.000  0.000  0.000
  0.016  0.984  0.000  0.000  0.000
  0.955  0.016  0.000  0.029  0.000
  0.000  0.000  0.000  0.000  1.000
    occupations:
  0.155  0.000 -0.001 -0.014  0.000
  0.000  0.085 -0.000  0.000  0.001
 -0.001 -0.000  0.076 -0.000  0.000
 -0.014  0.000 -0.000  0.076 -0.000
  0.000  0.001  0.000 -0.000  0.322
atomic mag. moment =     3.878367
N of occupied +U levels =  42.9744173
 --- exit write_ns ---

 ------ SPIN UP ------------

[...]

 ------ SPIN DOWN ----------

[...]

          k = 0.2500-0.4606 0.0000 ( 26462 PWs)   bands (ev):

[...]

          k =-0.2500 0.2303 0.0000 ( 26396 PWs)   bands (ev):

   -79.3544 -79.3466 -79.3105 -79.3019 -79.2933 -79.2852 -78.4159 -78.3748
   -48.2926 -48.2307 -48.2177 -48.2059 -48.1861 -48.1853 -48.1411 -48.1340
   -48.1259 -48.1239 -48.1180 -48.0850 -48.0650 -48.0485 -47.9953 -47.9773
   -47.9284 -47.9206 -47.5564 -47.4442 -47.3772 -47.3298 -46.8323 -46.8035
   -25.8865 -20.7311 -20.2808 -20.1557 -19.9380 -19.4763 -19.4180 -19.3774
   -19.3119 -19.1088 -19.0954 -19.0157 -18.9219 -18.8077 -18.7875 -18.7470
   -18.7129 -18.6021 -18.5880 -17.6161  -9.7982  -8.0903  -7.8662  -7.8311
    -7.6494  -7.4445  -7.3825  -7.2369  -7.0092  -6.7931  -6.6442  -6.4981
    -6.4288  -6.2293  -6.2026  -6.0818  -6.0488  -5.9299  -5.8698  -5.7839
    -5.6705  -5.6272  -5.4393  -5.4182  -5.3070  -5.2612  -5.1388  -5.0475
    -4.8292  -4.7811  -4.7448  -4.6526  -4.5063  -4.4386  -4.3772  -4.2438
    -4.1734  -4.1221  -4.0589  -3.9831  -3.8033  -3.7697  -3.6486  -3.5459
    -3.5078  -3.4178  -3.2698  -3.2263  -3.1212  -2.9952  -2.8991  -2.8514
    -2.7723  -2.6985  -2.6665  -2.5663  -2.3153  -2.2833  -1.9644   1.7221
     1.7630   1.7683   1.8536   1.8679   2.0104   2.0176   2.0311   2.0696
     2.0787   2.1442   2.2221   2.3365   2.3552   2.4592   2.5163   2.5230
     2.5623   2.6463   2.6742   2.7618   2.8068   2.8459   2.8796   2.9325
     2.9467   3.0116   3.1008   3.1460   3.2364   3.3575   3.4090   3.4702
     3.5114   3.5740   3.5946   3.7692   3.8798   3.9511   3.9866   4.0331
     4.1508   4.3824   4.5281   4.8927   5.2401   5.5675   5.7246   6.0981
     6.2470   6.3769   6.5146   6.6154   6.8507   6.9914   7.1704   7.4860
     7.6256   7.7944   7.9696   8.0304   8.2527   8.3544   8.4675   8.7261
     8.7760   8.9976   9.1430   9.2650   9.3438   9.5598   9.5967   9.6484
     9.7798   9.9113  10.0231  10.0757  10.1865  10.3502  10.4476  10.5246
    10.6334  10.7982  10.8515  10.8791  11.1202  11.1805  11.2157  11.3196
    11.5174  11.5539  11.7321  11.7831  11.8964  11.9685  12.0049  12.0378
    12.1637  12.2268  12.3475  12.3847  12.4654  12.5232  12.5791  12.6801
    12.8658  12.9536  12.9913  13.0995  13.1994  13.2300  13.3491  13.4269
    13.4768  13.5143  13.5907  13.6565  13.8535  13.9831  14.0046  14.0625
    14.2065  14.2852  14.3537  14.3925  14.4205  14.4467  14.5324  14.6608
    14.7161  14.7853  14.8714  14.8934  14.9823  15.0384  15.1233  15.2042
    15.2830  15.3536  15.4731  15.5227  15.6122  15.6807  15.7356  15.8105
    15.8872  15.9950  16.0258  16.0885  16.1751  16.2795  16.3195  16.4333
    16.4788  16.5970  16.6741  16.7520  16.8211  16.9310  17.0100  17.0569
    17.1275  17.1775  17.2781  17.3556  17.4309  17.5018  17.5510  17.6187
    17.6856  17.7499  17.8218  17.9125  17.9747  18.0213  18.0570  18.1357
    18.2376  18.2930  18.3459  18.4109  18.4983  18.5908  18.6740  18.7288
    18.7698  18.8624  18.9561  19.0363  19.0735  19.1207  19.2553  19.2803
    19.3606  19.4808  19.5625  19.5968  19.6638  19.7576  19.8381  19.9288
    19.9821  20.0884  20.1262  20.1823  20.2662  20.3750  20.4618  20.5113
    20.6022  20.6616  20.7282  20.7571  20.8611  20.9542  21.0206  21.0903
    21.2122  21.2996  21.3451  21.4551  21.5095  21.5671  21.6559  21.7056
    21.8453  21.9201  21.9845  22.0161  22.1328  22.1977  22.2320  22.2689
    22.3170  22.4040  22.4744  22.5249  22.6316  22.6894  22.8065  22.8742
    22.9641  23.0326  23.1039

     the spin up/dw Fermi energies are    -1.4297    0.1221 ev

!    total energy              =   -2352.37706059 Ry
     Harris-Foulkes estimate   =   -2352.37706059 Ry
     estimated scf accuracy    <          4.9E-09 Ry

     The total energy is the sum of the following terms:

     one-electron contribution =  -26132.31198799 Ry
     hartree contribution      =   13094.98451879 Ry
     xc contribution           =    -356.60566152 Ry
     ewald contribution        =   11039.95575351 Ry
     Hubbard energy            =       1.60055448 Ry
     smearing contrib. (-TS)   =      -0.00023786 Ry

     total magnetization       =    23.00 Bohr mag/cell
     absolute magnetization    =    34.33 Bohr mag/cell

     convergence has been achieved in  17 iterations

     Forces acting on atoms (Ry/au):

     negative rho (up, down):  0.167E-02 0.126E-02
     atom    1 type  1   force =    -0.00487235   -0.01355198    0.00012143
     atom    2 type  1   force =     0.00039644    0.00851645   -0.00011612
     atom    3 type  2   force =     0.00203403    0.00031731    0.00010320
     atom    4 type  2   force =     0.00644748    0.01072996   -0.00013835
     atom    5 type  1   force =     0.00193209    0.01544123   -0.00043629
     atom    6 type  1   force =    -0.00192787   -0.02046760   -0.00017598
     atom    7 type  1   force =     0.00008545    0.00117958    0.00031673
     atom    8 type  1   force =    -0.00136409   -0.00165357    0.00005623
     atom    9 type  2   force =     0.00094778    0.00153927    0.00002085
     atom   10 type  2   force =    -0.00011096   -0.00221039   -0.00054851
     atom   11 type  1   force =    -0.00640046   -0.02238444    0.00022128
     atom   12 type  1   force =    -0.00584898    0.02371951   -0.00032423
     atom   13 type  1   force =    -0.00042089   -0.00079149    0.00040258
     atom   14 type  1   force =    -0.00505621   -0.01357062    0.00016432
     atom   15 type  1   force =     0.00049350    0.00844044   -0.00039355
     atom   16 type  2   force =    -0.00338501    0.00036300    0.00007210
     atom   17 type  2   force =     0.00646014    0.01074464   -0.00027340
     atom   18 type  1   force =     0.00175581    0.01545399   -0.00049141
     atom   19 type  1   force =    -0.00222901   -0.02048634   -0.00022633
     atom   20 type  1   force =     0.00000625    0.00144043    0.00042645
     atom   21 type  1   force =    -0.00144496   -0.00169911   -0.00009713
     atom   22 type  2   force =     0.00059307    0.00158789   -0.00002180
     atom   23 type  2   force =    -0.00001569   -0.00237319   -0.00023128
     atom   24 type  1   force =     0.00652503   -0.02227670    0.00022046
     atom   25 type  1   force =     0.00584151    0.02372973   -0.00031886
     atom   26 type  1   force =    -0.00040123   -0.00174971    0.00039377
     atom   27 type  3   force =     0.00001810    0.00043337    0.00078125
     atom   28 type  3   force =     0.00002524    0.00048939    0.00056115
     atom   29 type  3   force =    -0.00001567   -0.00038499   -0.00010010
     atom   30 type  3   force =    -0.00002001   -0.00051804   -0.00018059
     atom   31 type  1   force =    -0.00006059    0.00012296   -0.00062727
     atom   32 type  1   force =     0.00000284    0.00057293    0.00042382
     atom   33 type  3   force =     0.00000923   -0.00070390    0.00041559

     Total force =     0.002347     Total SCF correction =     0.000280
     SCF correction compared to forces is large: reduce conv_thr to get better values

     entering subroutine stress ...

     negative rho (up, down):  0.167E-02 0.126E-02
          total   stress  (Ry/bohr**3)                   (kbar)     P=   26.39
   0.00029538  -0.00000281   0.00000397         43.45     -0.41      0.58
  -0.00000281   0.00029227   0.00000492         -0.41     42.99      0.72
   0.00000397   0.00000492  -0.00004951          0.58      0.72     -7.28

     bfgs converged in   5 scf cycles and   4 bfgs steps
     (criteria: energy < 0.10E-03, force < 0.10E-02)

     End of BFGS Geometry Optimization

     Final energy   =   -2352.3770605878 Ry
Begin final coordinates

ATOMIC_POSITIONS (crystal)
O0       0.000000000   0.000000000   0.372868628    0   0   1
O0       0.000000000   0.500000000   0.392752911    0   0   1
Mn1      0.250000000   0.500000000   0.445654961    0   0   1
Mn1      0.000000000   0.000000000   0.445770267    0   0   1
O0       0.250000000   0.800000000   0.445134755    0   0   1
O0       0.250000000   0.200000000   0.447873011    0   0   1
O0       0.000000000   0.500000000   0.493354918    0   0   1
O0       0.000000000   0.000000000   0.523877912    0   0   1
Mn1      0.250000000   0.000000000   0.572780333    0   0   1
Mn1      0.000000000   0.500000000   0.570486903    0   0   1
O0       0.250000000   0.700000000   0.582463130    0   0   1
O0       0.250000000   0.300000000   0.583240321    0   0   1
O0       0.000000000   0.000000000   0.621127795    0   0   1
O0       0.500000000   0.000000000   0.372869557    0   0   1
O0       0.500000000   0.500000000   0.392962579    0   0   1
Mn1      0.750000000   0.500000000   0.445654350    0   0   1
Mn1      0.500000000   0.000000000   0.445764560    0   0   1
O0       0.750000000   0.800000000   0.445203233    0   0   1
O0       0.750000000   0.200000000   0.447864780    0   0   1
O0       0.500000000   0.500000000   0.494154375    0   0   1
O0       0.500000000   0.000000000   0.523859406    0   0   1
Mn1      0.750000000   0.000000000   0.572778152    0   0   1
Mn1      0.500000000   0.500000000   0.572692532    0   0   1
O0       0.750000000   0.700000000   0.582470069    0   0   1
O0       0.750000000   0.300000000   0.583229488    0   0   1
O0       0.500000000   0.000000000   0.621011116    0   0   1
H2       0.000538741   0.647558445   0.377056497
H2       0.500565925   0.647424271   0.377223002
H2       0.161284102   0.044107936   0.362482314
H2       0.660987745   0.044900772   0.362480485
O0       0.499215422   0.546756052   0.673001879
O0       0.502246623   0.362391033   0.700581270
H2       0.498776249   0.414122477   0.736584511
End final coordinates

     General routines

     Parallel routines
     Hubbard U routines

   This run was terminated on:  10:38:48   6Jun2014

   JOB DONE.
Running PBS batch system epilogue script
Job id: 381436.audhumbla.fysik.dtu.dk
Username: zhonxu
Groupname: campgst
Jobname: MnO2/Eads-2-layers/OOH-U-5.0
Sessionid: 14992
Queuename: verylong
Accounting:
This job has allocated the following 16 nodes:
a027 a027 a027 a027 a027 a027 a027 a027 a018 a018 a018 a018 a018 a018 a018 a018
Finished epilogue job 381436.audhumbla.fysik.dtu.dk for zhonxu