     Program PWSCF v.5.0.2 (svn rev. 9656) starts on  6May2014 at 10: 8:38

     Current dimensions of program PWSCF are:
     Max number of different atomic species (ntypx) = 10
     Max number of k-points (npk) =  40000
     Max angular momentum in pseudopotentials (lmaxx) =  3
     Reading input from pwscf.in
Warning: card &CELL ignored
Warning: card / ignored

     Subspace diagonalization in iterative solution of the eigenvalue problem:
     a serial algorithm will be used

     Found symmetry operation: I + ( -0.5000  0.0000  0.0000)
     This is a supercell, fractional translations are disabled

     bravais-lattice index     =            0
     lattice parameter (alat)  =      12.2076  a.u.
     unit-cell volume          =    7496.5096 (a.u.)^3
     number of atoms/cell      =           30
     number of atomic types    =            3
     number of electrons       =       240.00
     number of Kohn-Sham states=          360
     kinetic-energy cutoff     =      40.0000  Ry
     charge density cutoff     =     500.0000  Ry
     convergence threshold     =      1.0E-06
     mixing beta               =       0.7000
     number of iterations used =            8  plain     mixing
     Exchange-correlation      = SLA  PW   PBE  PBE ( 1 4 3 4 0)
     EXX-fraction              =        0.00
     nstep                     =           50

     celldm(1)=  12.207631  celldm(2)=   0.000000  celldm(3)=   0.000000
     celldm(4)=   0.000000  celldm(5)=   0.000000  celldm(6)=   0.000000

     crystal axes: (cart. coord. in units of alat)
               a(1) = (   1.000000   0.000000   0.000000 )
               a(2) = (   0.000000   1.004836   0.000000 )
               a(3) = (   0.000000   0.000000   4.100811 )

     reciprocal axes: (cart. coord. in units 2 pi/alat)
               b(1) = (  1.000000  0.000000  0.000000 )
               b(2) = (  0.000000  0.995187  0.000000 )
               b(3) = (  0.000000  0.000000  0.243854 )

     PseudoPot. # 1 for O  read from file:
     /home/camp/zhonxu/pseudo/o_pbe_v1.01.uspp.F.UPF
     MD5 check sum: 2bcb18d16ea4b960afae9ec6d52f22d2
     Pseudo is Ultrasoft + core correction, Zval =  6.0
     Generated by new atomic code, or converted to UPF format
     Using radial grid of  737 points,  5 beta functions with:
                l(1) =   0
                l(2) =   0
                l(3) =   1
                l(4) =   1
                l(5) =   2
     Q(r) pseudized with  8 coefficients,  rinner =    0.900   0.900   0.900
                                                       0.900   0.900

     PseudoPot. # 2 for Pt read from file:
     /home/camp/zhonxu/pseudo/pt_pbe_v1.uspp.F.UPF
     MD5 check sum: 4c71d6ad5ef119f1eb26a4d0b7884226
     Pseudo is Ultrasoft + core correction, Zval = 16.0
     Generated by new atomic code, or converted to UPF format
     Using radial grid of  985 points,  6 beta functions with:
                l(1) =   0
                l(2) =   0
                l(3) =   1
                l(4) =   1
                l(5) =   2
                l(6) =   2
     Q(r) pseudized with  8 coefficients,  rinner =    1.300   1.300   1.300
                                                       1.300   1.300

     PseudoPot. # 3 for H  read from file:
     /home/camp/zhonxu/pseudo/h_pbe_v1.uspp.F.UPF
     MD5 check sum: 3408e3ff4ec8b0a4e358431e7e038a48
     Pseudo is Ultrasoft, Zval =  1.0
     Generated by new atomic code, or converted to UPF format
     Using radial grid of  615 points,  2 beta functions with:
                l(1) =   0
                l(2) =   0
     Q(r) pseudized with  8 coefficients,  rinner =    0.700

     atomic species   valence    mass     pseudopotential
        O0             6.00    15.99940     O ( 1.00)
        Pt1           16.00   195.08000     Pt( 1.00)
        H2             1.00     1.00794     H ( 1.00)

     Simplified LDA+U calculation (l_max = 2) with parameters (eV):
     atomic species    L          U    alpha       J0     beta
        Pt1            2     5.5000   0.0000   0.0000   0.0000

     No symmetry found

   Cartesian axes

     site n.     atom                  positions (alat units)
         1           O0  tau(   1) = (   0.0000000   0.0000000   1.5457188  )
         2           O0  tau(   2) = (   0.0000000   0.5024180   1.6369208  )
         3           Pt1 tau(   3) = (   0.2500000   0.5024180   1.8413872  )
         4           Pt1 tau(   4) = (   0.0000000   0.0000000   1.8534436  )
         5           O0  tau(   5) = (   0.2500000   0.8139171   1.8157162  )
         6           O0  tau(   6) = (   0.2500000   0.1909188   1.8824364  )
         7           O0  tau(   7) = (   0.0000000   0.5024180   2.0315829  )
         8           O0  tau(   8) = (   0.0000000   0.0000000   2.1708464  )
         9           Pt1 tau(   9) = (   0.2500000   0.0000000   2.3625593  )
        10           Pt1 tau(  10) = (   0.0000000   0.5024180   2.3549318  )
        11           O0  tau(  11) = (   0.2500000   0.6933368   2.3911010  )
        12           O0  tau(  12) = (   0.2500000   0.3114991   2.3934384  )
        13           O0  tau(  13) = (   0.0000000   0.0000000   2.5491052  )
        14           O0  tau(  14) = (   0.5000000   0.0000000   1.5457188  )
        15           O0  tau(  15) = (   0.5000000   0.5024180   1.6369208  )
        16           Pt1 tau(  16) = (   0.7500000   0.5024180   1.8413872  )
        17           Pt1 tau(  17) = (   0.5000000   0.0000000   1.8534436  )
        18           O0  tau(  18) = (   0.7500000   0.8139171   1.8157162  )
        19           O0  tau(  19) = (   0.7500000   0.1909188   1.8824364  )
        20           O0  tau(  20) = (   0.5000000   0.5024180   2.0315829  )
        21           O0  tau(  21) = (   0.5000000   0.0000000   2.1708464  )
        22           Pt1 tau(  22) = (   0.7500000   0.0000000   2.3625593  )
        23           Pt1 tau(  23) = (   0.5000000   0.5024180   2.3549318  )
        24           O0  tau(  24) = (   0.7500000   0.6933368   2.3911010  )
        25           O0  tau(  25) = (   0.7500000   0.3114991   2.3934384  )
        26           O0  tau(  26) = (   0.5000000   0.0000000   2.5491052  )
        27           H2  tau(  27) = (  -0.0000500   0.6431553   1.5728661  )
        28           H2  tau(  28) = (   0.4999500   0.6431553   1.5728661  )
        29           H2  tau(  29) = (   0.1440700   0.0315318   1.5048747  )
        30           H2  tau(  30) = (   0.6440700   0.0315318   1.5048747  )

     number of k points=    10  Methfessel-Paxton smearing, width (Ry)=  0.0100
                       cart. coord. in units 2pi/alat
        k(    1) = (   0.0000000   0.0000000   0.0000000), wk =   0.1250000
        k(    2) = (   0.0000000   0.2487968   0.0000000), wk =   0.2500000
        k(    3) = (   0.0000000  -0.4975937   0.0000000), wk =   0.1250000
        k(    4) = (   0.2500000   0.0000000   0.0000000), wk =   0.2500000
        k(    5) = (   0.2500000   0.2487968   0.0000000), wk =   0.2500000
        k(    6) = (   0.2500000  -0.4975937   0.0000000), wk =   0.2500000
        k(    7) = (  -0.5000000   0.0000000   0.0000000), wk =   0.1250000
        k(    8) = (  -0.5000000   0.2487968   0.0000000), wk =   0.2500000
        k(    9) = (  -0.5000000  -0.4975937   0.0000000), wk =   0.1250000
        k(   10) = (  -0.2500000   0.2487968   0.0000000), wk =   0.2500000

     Largest allocated arrays     est. size (Mb)     dimensions
     Largest temporary arrays     est. size (Mb)     dimensions

     Check: negative/imaginary core charge=   -0.000003    0.000000

     Initial potential from superposition of free atoms
     Check: negative starting charge=   -1.537272

     starting charge  235.99985, renormalised to  240.00000

     negative rho (up, down):  0.156E+01 0.000E+00
     Number of +U iterations with fixed ns =  0
     Starting occupations:
 --- enter write_ns ---
 LDA+U parameters:
U( 2)     =  5.50000000
alpha( 2) =  0.00000000
atom    3   Tr[ns(na)] =   8.00000
    eigenvalues:
  0.800  0.800  0.800  0.800  0.800
    eigenvectors:
  1.000  0.000  0.000  0.000  0.000
  0.000  1.000  0.000  0.000  0.000
  0.000  0.000  1.000  0.000  0.000
  0.000  0.000  0.000  1.000  0.000
  0.000  0.000  0.000  0.000  1.000
    occupations:
  0.800  0.000  0.000  0.000  0.000
  0.000  0.800  0.000  0.000  0.000
  0.000  0.000  0.800  0.000  0.000
  0.000  0.000  0.000  0.800  0.000
  0.000  0.000  0.000  0.000  0.800
atom    4   Tr[ns(na)] =   8.00000
    eigenvalues:
  0.800  0.800  0.800  0.800  0.800
    eigenvectors:
  1.000  0.000  0.000  0.000  0.000
  0.000  1.000  0.000  0.000  0.000
  0.000  0.000  1.000  0.000  0.000
  0.000  0.000  0.000  1.000  0.000
  0.000  0.000  0.000  0.000  1.000
    occupations:
  0.800  0.000  0.000  0.000  0.000
  0.000  0.800  0.000  0.000  0.000
  0.000  0.000  0.800  0.000  0.000
  0.000  0.000  0.000  0.800  0.000
  0.000  0.000  0.000  0.000  0.800
atom    9   Tr[ns(na)] =   8.00000
    eigenvalues:
  0.800  0.800  0.800  0.800  0.800
    eigenvectors:
  1.000  0.000  0.000  0.000  0.000
  0.000  1.000  0.000  0.000  0.000
  0.000  0.000  1.000  0.000  0.000
  0.000  0.000  0.000  1.000  0.000
  0.000  0.000  0.000  0.000  1.000
    occupations:
  0.800  0.000  0.000  0.000  0.000
  0.000  0.800  0.000  0.000  0.000
  0.000  0.000  0.800  0.000  0.000
  0.000  0.000  0.000  0.800  0.000
  0.000  0.000  0.000  0.000  0.800
atom   10   Tr[ns(na)] =   8.00000
    eigenvalues:
  0.800  0.800  0.800  0.800  0.800
    eigenvectors:
  1.000  0.000  0.000  0.000  0.000
  0.000  1.000  0.000  0.000  0.000
  0.000  0.000  1.000  0.000  0.000
  0.000  0.000  0.000  1.000  0.000
  0.000  0.000  0.000  0.000  1.000
    occupations:
  0.800  0.000  0.000  0.000  0.000
  0.000  0.800  0.000  0.000  0.000
  0.000  0.000  0.800  0.000  0.000
  0.000  0.000  0.000  0.800  0.000
  0.000  0.000  0.000  0.000  0.800
atom   16   Tr[ns(na)] =   8.00000
    eigenvalues:
  0.800  0.800  0.800  0.800  0.800
    eigenvectors:
  1.000  0.000  0.000  0.000  0.000
  0.000  1.000  0.000  0.000  0.000
  0.000  0.000  1.000  0.000  0.000
  0.000  0.000  0.000  1.000  0.000
  0.000  0.000  0.000  0.000  1.000
    occupations:
  0.800  0.000  0.000  0.000  0.000
  0.000  0.800  0.000  0.000  0.000
  0.000  0.000  0.800  0.000  0.000
  0.000  0.000  0.000  0.800  0.000
  0.000  0.000  0.000  0.000  0.800
atom   17   Tr[ns(na)] =   8.00000
    eigenvalues:
  0.800  0.800  0.800  0.800  0.800
    eigenvectors:
  1.000  0.000  0.000  0.000  0.000
  0.000  1.000  0.000  0.000  0.000
  0.000  0.000  1.000  0.000  0.000
  0.000  0.000  0.000  1.000  0.000
  0.000  0.000  0.000  0.000  1.000
    occupations:
  0.800  0.000  0.000  0.000  0.000
  0.000  0.800  0.000  0.000  0.000
  0.000  0.000  0.800  0.000  0.000
  0.000  0.000  0.000  0.800  0.000
  0.000  0.000  0.000  0.000  0.800
atom   22   Tr[ns(na)] =   8.00000
    eigenvalues:
  0.800  0.800  0.800  0.800  0.800
    eigenvectors:
  1.000  0.000  0.000  0.000  0.000
  0.000  1.000  0.000  0.000  0.000
  0.000  0.000  1.000  0.000  0.000
  0.000  0.000  0.000  1.000  0.000
  0.000  0.000  0.000  0.000  1.000
    occupations:
[...]
    eigenvectors:
  0.001  0.141  0.000  0.000  0.858
  0.996  0.004  0.000  0.000  0.000
  0.000  0.000  0.000  1.000  0.000
  0.003  0.855  0.000  0.000  0.142
  0.000  0.000  1.000  0.000  0.000
    occupations:
  0.951  0.000 -0.000 -0.090  0.000
  0.000  0.722  0.000  0.000 -0.000
 -0.000  0.000  0.969 -0.001 -0.000
 -0.090  0.000 -0.001  0.766  0.000
  0.000 -0.000 -0.000  0.000  0.964
atom   10   Tr[ns(na)] =   8.81683
    eigenvalues:
  0.665  0.794  0.974  0.988  0.988
    eigenvectors:
  0.000  0.978  0.000  0.022  0.000
  0.000  0.000  1.000  0.000  0.000
  0.000  0.000  0.000  0.004  0.996
  0.000  0.022  0.000  0.974  0.004
  1.000  0.000  0.000  0.000  0.000
    occupations:
  0.798  0.000  0.001  0.029  0.000
  0.000  0.974 -0.000  0.000 -0.001
  0.001 -0.000  0.988 -0.000 -0.000
  0.029  0.000 -0.000  0.984 -0.000
  0.000 -0.001 -0.000 -0.000  0.665
atom   16   Tr[ns(na)] =   8.77945
    eigenvalues:
  0.706  0.717  0.986  0.989  0.991
    eigenvectors:
  0.175  0.000  0.791  0.000  0.034
  0.000  1.000  0.000  0.000  0.000
  0.004  0.000  0.053  0.000  0.942
  0.821  0.000  0.155  0.000  0.023
  0.000  0.000  0.000  1.000  0.000
    occupations:
  0.937 -0.000  0.006 -0.106  0.000
 -0.000  0.717  0.000  0.000 -0.001
  0.006  0.000  0.990  0.017 -0.000
 -0.106  0.000  0.017  0.756  0.000
  0.000 -0.001 -0.000  0.000  0.989
atom   17   Tr[ns(na)] =   8.75680
    eigenvalues:
  0.697  0.721  0.985  0.988  0.989
    eigenvectors:
  0.000  0.985  0.011  0.002  0.002
  0.011  0.000  0.026  0.929  0.034
  0.000  0.005  0.715  0.001  0.279
  0.000  0.010  0.248  0.057  0.685
  0.988  0.000  0.000  0.011  0.000
    occupations:
  0.725 -0.004 -0.018  0.026 -0.001
 -0.004  0.984  0.000  0.000  0.031
 -0.018  0.000  0.985  0.003  0.000
  0.026  0.000  0.003  0.985  0.000
 -0.001  0.031  0.000  0.000  0.700
atom   22   Tr[ns(na)] =   8.74315
    eigenvalues:
  0.722  0.729  0.964  0.969  0.988
    eigenvectors:
  0.001  0.141  0.000  0.000  0.858
  0.996  0.004  0.000  0.000  0.000
  0.000  0.000  0.000  1.000  0.000
  0.003  0.855  0.000  0.000  0.142
  0.000  0.000  1.000  0.000  0.000
    occupations:
  0.951  0.000 -0.000 -0.090  0.000
  0.000  0.722  0.000  0.000 -0.000
 -0.000  0.000  0.969 -0.001 -0.000
 -0.090  0.000 -0.001  0.766  0.000
  0.000 -0.000 -0.000  0.000  0.964
atom   23   Tr[ns(na)] =   8.81679
    eigenvalues:
  0.665  0.794  0.974  0.988  0.988
    eigenvectors:
  0.000  0.978  0.000  0.022  0.000
  0.000  0.000  1.000  0.000  0.000
  0.000  0.000  0.000  0.004  0.996
  0.000  0.022  0.000  0.974  0.004
  1.000  0.000  0.000  0.000  0.000
    occupations:
  0.798  0.000  0.001  0.029  0.000
  0.000  0.974 -0.000  0.000 -0.001
  0.001 -0.000  0.988 -0.000 -0.000
  0.029  0.000 -0.000  0.984 -0.000
  0.000 -0.001 -0.000 -0.000  0.665
N of occupied +U levels =  70.1924383
 --- exit write_ns ---

     Threshold (ethr) on eigenvalues was too large:
     Diagonalizing with lowered threshold

     Davidson diagonalization with overlap
     ethr =  1.51E-09,  avg # of iterations =  2.0

[...]

     total energy              =   -2247.28121512 Ry
     Harris-Foulkes estimate   =   -2247.28121515 Ry
     estimated scf accuracy    <       0.00000023 Ry

     iteration # 10     ecut=    40.00 Ry     beta=0.70
     Davidson diagonalization with overlap
     ethr =  8.02E-11,  avg # of iterations =  1.0

     negative rho (up, down):  0.158E+01 0.000E+00

     End of self-consistent calculation
 --- enter write_ns ---
 LDA+U parameters:
U( 2)     =  5.50000000
alpha( 2) =  0.00000000
atom    3   Tr[ns(na)] =   8.77920
    eigenvalues:
  0.706  0.717  0.986  0.989  0.991
    eigenvectors:
  0.175  0.000  0.791  0.000  0.034
  0.000  1.000  0.000  0.000  0.000
  0.004  0.000  0.053  0.000  0.943
  0.821  0.000  0.155  0.000  0.023
  0.000  0.000  0.000  1.000  0.000
    occupations:
  0.937 -0.000  0.006 -0.106  0.000
 -0.000  0.717  0.000  0.000 -0.001
  0.006  0.000  0.990  0.017 -0.000
 -0.106  0.000  0.017  0.756  0.000
  0.000 -0.001 -0.000  0.000  0.989
atom    4   Tr[ns(na)] =   8.75668
    eigenvalues:
  0.697  0.721  0.985  0.988  0.989
    eigenvectors:
  0.000  0.985  0.011  0.002  0.002
  0.012  0.000  0.026  0.928  0.034
  0.000  0.005  0.714  0.001  0.280
  0.000  0.010  0.249  0.057  0.684
  0.988  0.000  0.000  0.011  0.000
    occupations:
  0.725 -0.004 -0.018  0.026 -0.001
 -0.004  0.984  0.000  0.000  0.031
 -0.018  0.000  0.985  0.003  0.000
  0.026  0.000  0.003  0.985  0.000
 -0.001  0.031  0.000  0.000  0.700
atom    9   Tr[ns(na)] =   8.74330
    eigenvalues:
  0.722  0.729  0.964  0.969  0.988
    eigenvectors:
  0.001  0.141  0.000  0.000  0.858
  0.996  0.004  0.000  0.000  0.000
  0.000  0.000  0.000  1.000  0.000
  0.003  0.855  0.000  0.000  0.142
  0.000  0.000  1.000  0.000  0.000
    occupations:
  0.951  0.000 -0.000 -0.090  0.000
  0.000  0.722  0.000  0.000 -0.000
 -0.000  0.000  0.969 -0.001 -0.000
 -0.090  0.000 -0.001  0.766  0.000
  0.000 -0.000 -0.000  0.000  0.964
atom   10   Tr[ns(na)] =   8.81702
    eigenvalues:
  0.665  0.794  0.974  0.988  0.988
    eigenvectors:
  0.000  0.978  0.000  0.022  0.000
  0.000  0.000  1.000  0.000  0.000
  0.000  0.000  0.000  0.004  0.996
  0.000  0.022  0.000  0.974  0.004
  1.000  0.000  0.000  0.000  0.000
    occupations:
  0.798  0.000  0.001  0.029  0.000
  0.000  0.974 -0.000  0.000 -0.001
  0.001 -0.000  0.988 -0.000 -0.000
  0.029  0.000 -0.000  0.984 -0.000
  0.000 -0.001 -0.000 -0.000  0.665
atom   16   Tr[ns(na)] =   8.77920
    eigenvalues:
  0.706  0.717  0.986  0.989  0.991
    eigenvectors:
  0.175  0.000  0.791  0.000  0.034
  0.000  1.000  0.000  0.000  0.000
  0.004  0.000  0.053  0.000  0.943
  0.821  0.000  0.155  0.000  0.023
  0.000  0.000  0.000  1.000  0.000
    occupations:
  0.937 -0.000  0.006 -0.106  0.000
 -0.000  0.717  0.000  0.000 -0.001
  0.006  0.000  0.990  0.017 -0.000
 -0.106  0.000  0.017  0.756  0.000
  0.000 -0.001 -0.000  0.000  0.989
atom   17   Tr[ns(na)] =   8.75668
    eigenvalues:
  0.697  0.721  0.985  0.988  0.989
    eigenvectors:
  0.000  0.985  0.011  0.002  0.002
  0.012  0.000  0.026  0.928  0.034
  0.000  0.005  0.714  0.001  0.280
  0.000  0.010  0.249  0.057  0.684
  0.988  0.000  0.000  0.011  0.000
    occupations:
  0.725 -0.004 -0.018  0.026 -0.001
 -0.004  0.984  0.000  0.000  0.031
 -0.018  0.000  0.985  0.003  0.000
  0.026  0.000  0.003  0.985  0.000
 -0.001  0.031  0.000  0.000  0.700
atom   22   Tr[ns(na)] =   8.74330
    eigenvalues:
  0.722  0.729  0.964  0.969  0.988
    eigenvectors:
  0.001  0.141  0.000  0.000  0.858
  0.996  0.004  0.000  0.000  0.000
  0.000  0.000  0.000  1.000  0.000
  0.003  0.855  0.000  0.000  0.142
  0.000  0.000  1.000  0.000  0.000
    occupations:
  0.951  0.000 -0.000 -0.090  0.000
  0.000  0.722  0.000  0.000 -0.000
 -0.000  0.000  0.969 -0.001 -0.000
 -0.090  0.000 -0.001  0.766  0.000
  0.000 -0.000 -0.000  0.000  0.964
atom   23   Tr[ns(na)] =   8.81700
    eigenvalues:
  0.665  0.794  0.974  0.988  0.988
    eigenvectors:
  0.000  0.978  0.000  0.022  0.000
  0.000  0.000  1.000  0.000  0.000
  0.000  0.000  0.000  0.004  0.996
  0.000  0.022  0.000  0.974  0.004
  1.000  0.000  0.000  0.000  0.000
    occupations:
  0.798  0.000  0.001  0.029  0.000
  0.000  0.974 -0.000  0.000 -0.001
  0.001 -0.000  0.988 -0.000 -0.000
  0.029  0.000 -0.000  0.984 -0.000
  0.000 -0.001 -0.000 -0.000  0.665
N of occupied +U levels =  70.1923848
 --- exit write_ns ---

[...]

          k = 0.2500-0.4976 0.0000 ( 32026 PWs)   bands (ev):

[...]

          k =-0.2500 0.2488 0.0000 ( 32025 PWs)   bands (ev):

   -55.2205 -55.2052 -55.1799 -55.1736 -55.1656 -55.1342 -55.0801 -55.0774
   -55.0619 -55.0584 -54.9529 -54.9489 -54.8790 -54.8740 -54.8425 -54.8391
   -54.8203 -54.8154 -54.5883 -54.5480 -54.2450 -54.2399 -53.9772 -53.9744
   -22.1660 -21.9948 -21.2856 -21.1797 -20.8903 -20.7447 -20.7278 -20.5932
   -20.5793 -20.5310 -20.3898 -20.3042 -20.2934 -20.1169 -20.0630 -20.0220
   -19.2760 -19.0548 -11.0579 -10.9040 -10.7794 -10.6692 -10.2613 -10.1977
   -10.1383  -9.7447  -9.6947  -9.6882  -9.5909  -9.4316  -9.3071  -9.2088
    -9.1966  -9.0723  -8.9377  -8.7689  -8.6903  -8.5212  -8.3364  -8.2726
    -8.0688  -8.0487  -7.9082  -7.8828  -7.7675  -7.6079  -7.5617  -7.4786
    -7.4667  -7.3845  -7.1094  -7.0733  -7.0355  -7.0129  -6.9122  -6.8037
    -6.6648  -6.5249  -6.4675  -6.2613  -6.1273  -6.0009  -5.7560  -5.5866
    -5.5817  -5.5473  -5.3843  -5.2128  -5.0965  -5.0724  -4.8621  -4.7240
    -4.5377  -4.5247  -4.4193  -4.3690  -4.1340  -4.0864  -3.9699  -3.8265
    -3.7069  -3.6659  -3.6329  -3.5457  -3.2648  -3.2354  -2.9388  -2.8056
    -2.7991  -2.7204  -2.5839  -2.5391  -2.5053  -2.4099  -2.0257  -1.9347
    -1.8743  -1.5085  -1.1666  -0.7200  -0.4330  -0.3662  -0.1978   0.2383
     0.4757   0.6566   0.7973   0.9406   1.1821   1.2051   1.3401   1.5627
     3.0693   3.6912   4.5414   4.9667   5.0480   5.0780   5.1761   5.5136
     5.7049   5.9365   6.0538   6.2142   6.3893   6.4825   6.5762   6.6357
     6.7580   6.8111   7.0176   7.0792   7.2560   7.3976   7.4314   7.5066
     7.6145   7.7347   7.8079   7.9825   8.1138   8.1696   8.2591   8.3218
     8.3717   8.4937   8.5325   8.6422   8.7690   8.8742   9.0275   9.1193
     9.3071   9.3356   9.4450   9.5676   9.6350   9.7723   9.8978   9.9453
    10.0874  10.1323  10.2031  10.2178  10.4180  10.5147  10.5265  10.6332
    10.6557  10.8265  10.8421  10.9785  11.1456  11.2450  11.3442  11.3951
    11.4203  11.5563  11.6606  11.7221  11.8020  11.8043  11.8995  11.9321
    11.9984  12.1604  12.2142  12.2245  12.3192  12.3656  12.4388  12.5205
    12.5836  12.6198  12.7268  12.8035  12.8928  12.9190  13.0468  13.1033
    13.1662  13.2527  13.4111  13.5130  13.6244  13.6401  13.7081  13.8224
    13.8264  13.8958  14.0285  14.0426  14.1236  14.2996  14.3653  14.4292
    14.4693  14.6214  14.6819  14.7404  14.8401  14.9174  15.0674  15.1558
    15.2210  15.2312  15.3502  15.3519  15.4412  15.5124  15.5661  15.6259
    15.6271  15.6725  15.7614  15.8173  15.8690  15.9427  16.0238  16.0372
    16.1748  16.1777  16.2348  16.3331  16.3965  16.4965  16.6100  16.7203
    16.7784  16.8690  16.8937  17.0197  17.0595  17.1059  17.1106  17.1530
    17.1663  17.1687  17.1859  17.2358  17.2597  17.2707  17.2987  17.3312
    17.3614  17.4116  17.4539  17.4570  17.5016  17.6217  17.6956  17.7731
    17.7803  17.8897  18.0097  18.0532  18.0622  18.1368  18.1472  18.1967
    18.2155  18.3660  18.4010  18.4067  18.5341  18.6028  18.7047  18.7124
    18.7405  18.8975  18.9365  19.0085  19.0300  19.1080  19.1548  19.2896
    19.3375  19.3976  19.4074  19.5684  19.6194  19.7815  19.8284  19.8406
    19.9021  19.9466  19.9856  20.0538  20.0812  20.0989  20.2519  20.2749
    20.3166  20.3386  20.5141  20.5211  20.6619  20.6938  20.7701  20.8022
    20.8139  20.9303  20.9365  21.0012  21.0444  21.2135  21.2464  21.2608
    21.3573  21.4394  21.4411  21.5302  21.5828  21.6255  21.6586  21.7736

     the Fermi energy is    -1.8611 ev

!    total energy              =   -2247.28121513 Ry
     Harris-Foulkes estimate   =   -2247.28121514 Ry
     estimated scf accuracy    <          6.3E-09 Ry

     The total energy is the sum of the following terms:

     one-electron contribution =  -22793.14431008 Ry
     hartree contribution      =   11438.06166777 Ry
     xc contribution           =    -565.18148399 Ry
     ewald contribution        =    9671.52398622 Ry
     Hubbard energy            =       1.45990753 Ry
     smearing contrib. (-TS)   =      -0.00098258 Ry

     convergence has been achieved in  10 iterations

     Forces acting on atoms (Ry/au):

     negative rho (up, down):  0.158E+01 0.000E+00
     atom    1 type  1   force =    -0.00751418   -0.00410120   -0.00018789
     atom    2 type  1   force =     0.00009212    0.00439097    0.00020538
     atom    3 type  2   force =    -0.00046992    0.00209718    0.00010014
     atom    4 type  2   force =     0.00988788    0.00193494    0.00004041
     atom    5 type  1   force =     0.00116143   -0.00176326    0.00018210
     atom    6 type  1   force =     0.00014197    0.00061735   -0.00006929
     atom    7 type  1   force =     0.00002545    0.00464333    0.00027539
     atom    8 type  1   force =    -0.00393881   -0.00793078    0.00034653
     atom    9 type  2   force =     0.00175456    0.00093190   -0.00005347
     atom   10 type  2   force =    -0.00002833   -0.00163644   -0.00019524
     atom   11 type  1   force =    -0.00000872   -0.00616268   -0.00009597
     atom   12 type  1   force =     0.00007509    0.00700190   -0.00001004
     atom   13 type  1   force =    -0.00106354   -0.00022548   -0.00010820
     atom   14 type  1   force =    -0.00751167   -0.00410046   -0.00018689
     atom   15 type  1   force =     0.00009214    0.00439014    0.00020533
     atom   16 type  2   force =    -0.00047237    0.00209724    0.00010004
     atom   17 type  2   force =     0.00988501    0.00193406    0.00004769
     atom   18 type  1   force =     0.00116120   -0.00176323    0.00018185
     atom   19 type  1   force =     0.00014125    0.00061738   -0.00006959
     atom   20 type  1   force =     0.00002544    0.00464343    0.00028217
     atom   21 type  1   force =    -0.00393845   -0.00793084    0.00034636
     atom   22 type  2   force =     0.00176468    0.00093202   -0.00005355
     atom   23 type  2   force =    -0.00002830   -0.00163601   -0.00020026
     atom   24 type  1   force =    -0.00001009   -0.00616270   -0.00009601
     atom   25 type  1   force =     0.00007396    0.00700196   -0.00001008
     atom   26 type  1   force =    -0.00106380   -0.00022577   -0.00011784
     atom   27 type  3   force =     0.00001352   -0.00003777    0.00011463
     atom   28 type  3   force =     0.00001363   -0.00003743    0.00011389
     atom   29 type  3   force =    -0.00013096    0.00024026   -0.00054173
     atom   30 type  3   force =    -0.00013020    0.00023995   -0.00054585

     Total force =     0.001244     Total SCF correction =     0.000206
     SCF correction compared to forces is large: reduce conv_thr to get better values

     bfgs converged in  10 scf cycles and   9 bfgs steps
     (criteria: energy < 0.10E-03, force < 0.10E-02)

     End of BFGS Geometry Optimization

     Final energy   =   -2247.2812151299 Ry
Begin final coordinates

ATOMIC_POSITIONS (crystal)
O0       0.000000000   0.000000000   0.376760102    0   0   1
O0       0.000000000   0.500000000   0.399505101    0   0   1
Pt1      0.250000000   0.500000000   0.448982505    0   0   1
Pt1      0.000000000   0.000000000   0.451838279    0   0   1
O0       0.250000000   0.810000000   0.441644840    0   0   1
O0       0.250000000   0.190000000   0.459782263    0   0   1
O0       0.000000000   0.500000000   0.495400482    0   0   1
O0       0.000000000   0.000000000   0.529312285    0   0   1
Pt1      0.250000000   0.000000000   0.575774327    0   0   1
Pt1      0.000000000   0.500000000   0.573767120    0   0   1
O0       0.250000000   0.690000000   0.583392264    0   0   1
O0       0.250000000   0.310000000   0.583824788    0   0   1
O0       0.000000000   0.000000000   0.621357680    0   0   1
O0       0.500000000   0.000000000   0.376760115    0   0   1
O0       0.500000000   0.500000000   0.399505212    0   0   1
Pt1      0.750000000   0.500000000   0.448982511    0   0   1
Pt1      0.500000000   0.000000000   0.451838126    0   0   1
O0       0.750000000   0.810000000   0.441644883    0   0   1
O0       0.750000000   0.190000000   0.459782277    0   0   1
O0       0.500000000   0.500000000   0.495400589    0   0   1
O0       0.500000000   0.000000000   0.529312376    0   0   1
Pt1      0.750000000   0.000000000   0.575774333    0   0   1
Pt1      0.500000000   0.500000000   0.573767370    0   0   1
O0       0.750000000   0.690000000   0.583392284    0   0   1
O0       0.750000000   0.310000000   0.583824807    0   0   1
O0       0.500000000   0.000000000   0.621359380    0   0   1
H2      -0.000023999   0.641097021   0.384421666
H2       0.499975953   0.641097088   0.384421874
H2       0.144222757   0.032483312   0.367164632
H2       0.644223541   0.032484011   0.367165529
End final coordinates

     General routines

     Parallel routines
     Hubbard U routines

   This run was terminated on:  18:34:19   6May2014

   JOB DONE.
Running PBS batch system epilogue script
Job id: 340802.audhumbla.fysik.dtu.dk
Username: zhonxu
Groupname: campgst
Jobname: PtO2/Eads-2-layers/bare-U-5.5
Sessionid: 7017
Queuename: verylong
Accounting:
This job has allocated the following 16 nodes:
b110 b110 b110 b110 b110 b110 b110 b110 b085 b085 b085 b085 b085 b085 b085 b085
Finished epilogue job 340802.audhumbla.fysik.dtu.dk for zhonxu