     Program PWSCF v.5.0.2 (svn rev. 9656) starts on  6Jun2014 at  2:49:41

     Current dimensions of program PWSCF are:
     Max number of different atomic species (ntypx) = 10
     Max number of k-points (npk) =  40000
     Max angular momentum in pseudopotentials (lmaxx) =  3
     Reading input from pwscf.in
Warning: card &CELL ignored
Warning: card / ignored

     Subspace diagonalization in iterative solution of the eigenvalue problem:
     a serial algorithm will be used

     bravais-lattice index     =            0
     lattice parameter (alat)  =      10.7336  a.u.
     unit-cell volume          =    6184.1966 (a.u.)^3
     number of atoms/cell      =           33
     number of atomic types    =            3
     number of electrons       =       245.00 (up: 134.00, down: 111.00)
     number of Kohn-Sham states=          355
     kinetic-energy cutoff     =      40.0000  Ry
     charge density cutoff     =     500.0000  Ry
     convergence threshold     =      1.0E-06
     mixing beta               =       0.7000
     number of iterations used =            8  plain     mixing
     Exchange-correlation      = SLA  PW   PBE  PBE ( 1 4 3 4 0)
     EXX-fraction              =        0.00
     nstep                     =           50

     celldm(1)=  10.733644  celldm(2)=   0.000000  celldm(3)=   0.000000
     celldm(4)=   0.000000  celldm(5)=   0.000000  celldm(6)=   0.000000

     crystal axes: (cart. coord. in units of alat)
               a(1) = (   1.000000   0.000000   0.000000 )
               a(2) = (   0.000000   1.085558   0.000000 )
               a(3) = (   0.000000   0.000000   4.606685 )

     reciprocal axes: (cart. coord. in units 2 pi/alat)
               b(1) = (  1.000000  0.000000  0.000000 )
               b(2) = (  0.000000  0.921185  0.000000 )
               b(3) = (  0.000000  0.000000  0.217076 )

     PseudoPot. # 1 for O  read from file:
     /home/camp/zhonxu/pseudo/o_pbe_v1.01.uspp.F.UPF
     MD5 check sum: 2bcb18d16ea4b960afae9ec6d52f22d2
     Pseudo is Ultrasoft + core correction, Zval =  6.0
     Generated by new atomic code, or converted to UPF format
     Using radial grid of  737 points,  5 beta functions with:
                l(1) =   0
                l(2) =   0
                l(3) =   1
                l(4) =   1
                l(5) =   2
     Q(r) pseudized with  8 coefficients,  rinner =    0.900   0.900   0.900
                                                       0.900   0.900

     PseudoPot. # 2 for Mn read from file:
     /home/camp/zhonxu/pseudo/mn_pbe_v1.uspp.F.UPF
     MD5 check sum: 5fd7c7b5c956fd19902447332617373a
     Pseudo is Ultrasoft + core correction, Zval = 15.0
     Generated by new atomic code, or converted to UPF format
     Using radial grid of  859 points,  6 beta functions with:
                l(1) =   0
                l(2) =   0
                l(3) =   1
                l(4) =   1
                l(5) =   2
                l(6) =   2
     Q(r) pseudized with  6 coefficients,  rinner =    1.150   1.150   1.150
                                                       1.150   1.150

     PseudoPot. # 3 for H  read from file:
     /home/camp/zhonxu/pseudo/h_pbe_v1.uspp.F.UPF
     MD5 check sum: 3408e3ff4ec8b0a4e358431e7e038a48
     Pseudo is Ultrasoft, Zval =  1.0
     Generated by new atomic code, or converted to UPF format
     Using radial grid of  615 points,  2 beta functions with:
                l(1) =   0
                l(2) =   0
     Q(r) pseudized with  8 coefficients,  rinner =    0.700

     atomic species   valence    mass     pseudopotential
        O0             6.00    15.99940     O ( 1.00)
        Mn1           15.00    54.93800     Mn( 1.00)
        H2             1.00     1.00794     H ( 1.00)

     Starting magnetic structure
     atomic species   magnetization
        O0           0.000
        Mn1          0.600
        H2           0.000

     Simplified LDA+U calculation (l_max = 2) with parameters (eV):
     atomic species    L          U    alpha       J0     beta
        Mn1            2     5.5000   0.0000   0.0000   0.0000

     No symmetry found

   Cartesian axes

     site n.     atom                  positions (alat units)
         1           O0  tau(   1) = (   0.0000000   0.0000000   1.7147924  )
         2           O0  tau(   2) = (   0.0000000   0.5427791   1.8056823  )
         3           Mn1 tau(   3) = (   0.2500000   0.5427791   2.0506659  )
         4           Mn1 tau(   4) = (   0.0000000   0.0000000   2.0522782  )
         5           O0  tau(   5) = (   0.2500000   0.8684466   2.0475794  )
         6           O0  tau(   6) = (   0.2500000   0.2171117   2.0626893  )
         7           O0  tau(   7) = (   0.0000000   0.5427791   2.2725238  )
         8           O0  tau(   8) = (   0.0000000   0.0000000   2.4130277  )
         9           Mn1 tau(   9) = (   0.2500000   0.0000000   2.6386631  )
        10           Mn1 tau(  10) = (   0.0000000   0.5427791   2.6285284  )
        11           O0  tau(  11) = (   0.2500000   0.7598908   2.6855592  )
        12           O0  tau(  12) = (   0.2500000   0.3256675   2.6901659  )
        13           O0  tau(  13) = (   0.0000000   0.0000000   2.8635154  )
        14           O0  tau(  14) = (   0.5000000   0.0000000   1.7149767  )
        15           O0  tau(  15) = (   0.5000000   0.5427791   1.8058205  )
        16           Mn1 tau(  16) = (   0.7500000   0.5427791   2.0506198  )
        17           Mn1 tau(  17) = (   0.5000000   0.0000000   2.0522782  )
        18           O0  tau(  18) = (   0.7500000   0.8684466   2.0479940  )
        19           O0  tau(  19) = (   0.7500000   0.2171117   2.0627354  )
        20           O0  tau(  20) = (   0.5000000   0.5427791   2.2753339  )
        21           O0  tau(  21) = (   0.5000000   0.0000000   2.4127974  )
        22           Mn1 tau(  22) = (   0.7500000   0.0000000   2.6386171  )
        23           Mn1 tau(  23) = (   0.5000000   0.5427791   2.6396305  )
        24           O0  tau(  24) = (   0.7500000   0.7598908   2.6855592  )
        25           O0  tau(  25) = (   0.7500000   0.3256675   2.6901198  )
        26           O0  tau(  26) = (   0.5000000   0.0000000   2.8629166  )
        27           H2  tau(  27) = (   0.0005600   0.7026059   1.7327585  )
        28           H2  tau(  28) = (   0.5005600   0.7031812   1.7340023  )
        29           H2  tau(  29) = (   0.1608200   0.0496209   1.6672975  )
        30           H2  tau(  30) = (   0.6605900   0.0504676   1.6676661  )
        31           O0  tau(  31) = (   0.4994600   0.5935724   3.1112630  )
        32           O0  tau(  32) = (   0.5017100   0.3904970   3.2333401  )
        33           H2  tau(  33) = (   0.4989500   0.4406932   3.4012077  )

     number of k points=    20  Methfessel-Paxton smearing, width (Ry)=  0.0100
                       cart. coord. in units 2pi/alat
        k(    1) = (   0.0000000   0.0000000   0.0000000), wk =   0.0625000
        k(    2) = (   0.0000000   0.2302962   0.0000000), wk =   0.1250000
        k(    3) = (   0.0000000  -0.4605925   0.0000000), wk =   0.0625000
        k(    4) = (   0.2500000   0.0000000   0.0000000), wk =   0.1250000
        k(    5) = (   0.2500000   0.2302962   0.0000000), wk =   0.1250000
        k(    6) = (   0.2500000  -0.4605925   0.0000000), wk =   0.1250000
        k(    7) = (  -0.5000000   0.0000000   0.0000000), wk =   0.0625000
        k(    8) = (  -0.5000000   0.2302962   0.0000000), wk =   0.1250000
        k(    9) = (  -0.5000000  -0.4605925   0.0000000), wk =   0.0625000
        k(   10) = (  -0.2500000   0.2302962   0.0000000), wk =   0.1250000
        k(   11) = (   0.0000000   0.0000000   0.0000000), wk =   0.0625000
        k(   12) = (   0.0000000   0.2302962   0.0000000), wk =   0.1250000
        k(   13) = (   0.0000000  -0.4605925   0.0000000), wk =   0.0625000
        k(   14) = (   0.2500000   0.0000000   0.0000000), wk =   0.1250000
        k(   15) = (   0.2500000   0.2302962   0.0000000), wk =   0.1250000
        k(   16) = (   0.2500000  -0.4605925   0.0000000), wk =   0.1250000
        k(   17) = (  -0.5000000   0.0000000   0.0000000), wk =   0.0625000
        k(   18) = (  -0.5000000   0.2302962   0.0000000), wk =   0.1250000
        k(   19) = (  -0.5000000  -0.4605925   0.0000000), wk =   0.0625000
        k(   20) = (  -0.2500000   0.2302962   0.0000000), wk =   0.1250000

     Largest allocated arrays     est. size (Mb)     dimensions
     Largest temporary arrays     est. size (Mb)     dimensions

     Check: negative/imaginary core charge=   -0.000023    0.000000

     Initial potential from superposition of free atoms
     Check: negative starting charge=(component1):   -0.000599
     Check: negative starting charge=(component2):   -0.000332

     starting charge  236.99986, renormalised to  245.00000

     negative rho (up, down):  0.619E-03 0.344E-03
     Number of +U iterations with fixed ns =  0
     Starting occupations:
 --- enter write_ns ---
 LDA+U parameters:
U( 2)     =  5.50000000
alpha( 2) =  0.00000000
atom    3   Tr[ns(na)] (up, down, total) =   5.00000  0.00000  5.00000
   spin  1
    eigenvalues:
  1.000  1.000  1.000  1.000  1.000
    eigenvectors:
  1.000  0.000  0.000  0.000  0.000
  0.000  1.000  0.000  0.000  0.000
  0.000  0.000  1.000  0.000  0.000
  0.000  0.000  0.000  1.000  0.000
  0.000  0.000  0.000  0.000  1.000
    occupations:
  1.000  0.000  0.000  0.000  0.000
  0.000  1.000  0.000  0.000  0.000
  0.000  0.000  1.000  0.000  0.000
  0.000  0.000  0.000  1.000  0.000
  0.000  0.000  0.000  0.000  1.000
   spin  2
    eigenvalues:
  0.000  0.000  0.000  0.000  0.000
    eigenvectors:
  1.000  0.000  0.000  0.000  0.000
  0.000  1.000  0.000  0.000  0.000
  0.000  0.000  1.000  0.000  0.000
  0.000  0.000  0.000  1.000  0.000
  0.000  0.000  0.000  0.000  1.000
    occupations:
  0.000  0.000  0.000  0.000  0.000
  0.000  0.000  0.000  0.000  0.000
  0.000  0.000  0.000  0.000  0.000
  0.000  0.000  0.000  0.000  0.000
  0.000  0.000  0.000  0.000  0.000
atomic mag. moment =     5.000000
atom    4   Tr[ns(na)] (up, down, total) =   5.00000  0.00000  5.00000
   spin  1
    eigenvalues:
  1.000  1.000  1.000  1.000  1.000
    eigenvectors:
  1.000  0.000  0.000  0.000  0.000
  0.000  1.000  0.000  0.000  0.000
  0.000  0.000  1.000  0.000  0.000
  0.000  0.000  0.000  1.000  0.000
  0.000  0.000  0.000  0.000  1.000
    occupations:
  1.000  0.000  0.000  0.000  0.000
  0.000  1.000  0.000  0.000  0.000
  0.000  0.000  1.000  0.000  0.000
  0.000  0.000  0.000  1.000  0.000
  0.000  0.000  0.000  0.000  1.000
   spin  2
    eigenvalues:
  0.000  0.000  0.000  0.000  0.000
    eigenvectors:
  1.000  0.000  0.000  0.000  0.000
  0.000  1.000  0.000  0.000  0.000
  0.000  0.000  1.000  0.000  0.000
  0.000  0.000  0.000  1.000  0.000
  0.000  0.000  0.000  0.000  1.000
    occupations:
  0.000  0.000  0.000  0.000  0.000
  0.000  0.000  0.000  0.000  0.000
  0.000  0.000  0.000  0.000  0.000
  0.000  0.000  0.000  0.000  0.000
  0.000  0.000  0.000  0.000  0.000
atomic mag. moment =     5.000000
[...]
  0.080  0.097  0.106  0.317  0.352
    eigenvectors:
  0.005  0.002  0.000  0.993  0.000
  0.002  0.613  0.382  0.002  0.001
  0.003  0.378  0.618  0.001  0.000
  0.989  0.006  0.000  0.004  0.000
  0.000  0.000  0.000  0.000  0.999
    occupations:
  0.315  0.009  0.006 -0.016  0.000
  0.009  0.101 -0.004  0.000 -0.006
  0.006 -0.004  0.103  0.001  0.000
 -0.016  0.000  0.001  0.081 -0.000
  0.000 -0.006  0.000 -0.000  0.351
atomic mag. moment =     3.462161
atom    9   Tr[ns(na)] (up, down, total) =   4.39538  0.99938  5.39475
   spin  1
    eigenvalues:
  0.707  0.714  0.984  0.990  1.000
    eigenvectors:
  0.226  0.000  0.000  0.000  0.774
  0.000  1.000  0.000  0.000  0.000
  0.000  0.000  0.000  1.000  0.000
  0.774  0.000  0.000  0.000  0.226
  0.000  0.000  1.000  0.000  0.000
    occupations:
  0.934 -0.000 -0.001 -0.122 -0.000
 -0.000  0.714  0.000  0.000  0.000
 -0.001  0.000  0.990 -0.001 -0.000
 -0.122  0.000 -0.001  0.774  0.000
 -0.000  0.000 -0.000  0.000  0.984
   spin  2
    eigenvalues:
  0.090  0.103  0.108  0.344  0.355
    eigenvectors:
  0.810  0.000  0.000  0.190  0.000
  0.000  0.000  0.000  0.001  0.999
  0.000  0.000  1.000  0.000  0.000
  0.190  0.000  0.000  0.809  0.001
  0.000  1.000  0.000  0.000  0.000
    occupations:
  0.138  0.000  0.001  0.100 -0.000
  0.000  0.355 -0.000 -0.000 -0.000
  0.001 -0.000  0.108  0.001 -0.000
  0.100 -0.000  0.001  0.296 -0.000
 -0.000 -0.000 -0.000 -0.000  0.103
atomic mag. moment =     3.396001
atom   10   Tr[ns(na)] (up, down, total) =   4.63330  0.66352  5.29682
   spin  1
    eigenvalues:
  0.687  0.950  0.998  0.998  0.999
    eigenvectors:
  0.000  0.949  0.000  0.051  0.000
  0.000  0.000  0.997  0.001  0.001
  0.000  0.000  0.001  0.006  0.993
  0.000  0.051  0.001  0.942  0.006
  1.000  0.000  0.000  0.000  0.000
    occupations:
  0.953 -0.000  0.000  0.011  0.000
 -0.000  0.998  0.000  0.000 -0.002
  0.000  0.000  0.999 -0.000  0.000
  0.011  0.000 -0.000  0.996 -0.000
  0.000 -0.002  0.000 -0.000  0.687
   spin  2
    eigenvalues:
  0.067  0.074  0.082  0.141  0.300
    eigenvectors:
  0.037  0.000  0.000  0.963  0.000
  0.000  0.000  1.000  0.000  0.000
  0.001  0.999  0.000  0.000  0.000
  0.962  0.001  0.000  0.037  0.000
  0.000  0.000  0.000  0.000  1.000
    occupations:
  0.138  0.000 -0.000 -0.014 -0.000
  0.000  0.082 -0.000 -0.000  0.002
 -0.000 -0.000  0.074 -0.000 -0.000
 -0.014 -0.000 -0.000  0.070  0.000
 -0.000  0.002 -0.000  0.000  0.300
atomic mag. moment =     3.969778
atom   16   Tr[ns(na)] (up, down, total) =   4.42555  0.94722  5.37278
   spin  1
    eigenvalues:
  0.694  0.731  0.999  1.000  1.003
    eigenvectors:
  0.245  0.001  0.001  0.670  0.082
  0.004  0.995  0.001  0.000  0.000
  0.000  0.000  0.000  0.104  0.895
  0.751  0.003  0.000  0.223  0.023
  0.000  0.001  0.997  0.002  0.000
    occupations:
  0.925 -0.001 -0.003 -0.132  0.000
 -0.001  0.731 -0.000  0.003 -0.007
 -0.003 -0.000  1.003 -0.003 -0.000
 -0.132  0.003 -0.003  0.769  0.000
  0.000 -0.007 -0.000  0.000  0.998
   spin  2
    eigenvalues:
  0.077  0.097  0.110  0.320  0.343
    eigenvectors:
  0.775  0.000  0.003  0.001  0.220
  0.000  0.002  0.000  0.995  0.004
  0.004  0.001  0.994  0.000  0.000
  0.220  0.000  0.001  0.003  0.776
  0.000  0.997  0.001  0.002  0.000
    occupations:
  0.136  0.000 -0.002  0.111  0.000
  0.000  0.319  0.000 -0.002  0.009
 -0.002  0.000  0.110  0.000 -0.000
  0.111 -0.002  0.000  0.284 -0.000
  0.000  0.009 -0.000 -0.000  0.098
atomic mag. moment =     3.478328
atom   17   Tr[ns(na)] (up, down, total) =   4.41329  0.95156  5.36485
   spin  1
    eigenvalues:
  0.674  0.733  0.997  1.004  1.005
    eigenvectors:
  0.000  0.998  0.001  0.001  0.000
  0.000  0.001  0.000  0.861  0.138
  0.000  0.000  0.000  0.137  0.862
  0.000  0.001  0.999  0.000  0.000
  1.000  0.000  0.000  0.000  0.000
    occupations:
  0.734 -0.008 -0.006  0.007 -0.001
 -0.008  1.004 -0.000  0.000  0.002
 -0.006 -0.000  1.005  0.000 -0.000
  0.007  0.000  0.000  0.997  0.000
 -0.001  0.002 -0.000  0.000  0.674
   spin  2
    eigenvalues:
  0.080  0.097  0.106  0.317  0.352
    eigenvectors:
  0.005  0.002  0.000  0.993  0.000
  0.002  0.607  0.389  0.002  0.001
  0.003  0.385  0.611  0.001  0.000
  0.989  0.006  0.000  0.004  0.000
  0.000  0.000  0.000  0.000  0.999
    occupations:
  0.315  0.009  0.006 -0.016  0.000
  0.009  0.101 -0.004  0.000 -0.006
  0.006 -0.004  0.103  0.001  0.000
 -0.016  0.000  0.001  0.081 -0.000
  0.000 -0.006  0.000 -0.000  0.351
atomic mag. moment =     3.461730
atom   22   Tr[ns(na)] (up, down, total) =   4.39539  0.99933  5.39472
   spin  1
    eigenvalues:
  0.707  0.714  0.984  0.990  1.000
    eigenvectors:
  0.224  0.002  0.000  0.000  0.774
  0.011  0.989  0.000  0.000  0.000
  0.000  0.000  0.000  1.000  0.000
  0.765  0.009  0.000  0.000  0.226
  0.000  0.000  1.000  0.000  0.000
    occupations:
  0.934  0.001 -0.000 -0.122  0.000
  0.001  0.714  0.000  0.000  0.000
 -0.000  0.000  0.990 -0.001  0.000
 -0.122  0.000 -0.001  0.774  0.000
  0.000  0.000  0.000  0.000  0.984
   spin  2
    eigenvalues:
  0.089  0.103  0.108  0.344  0.355
    eigenvectors:
  0.810  0.000  0.000  0.190  0.000
  0.000  0.000  0.000  0.001  0.999
  0.000  0.000  1.000  0.000  0.000
  0.190  0.000  0.000  0.809  0.000
  0.000  1.000  0.000  0.000  0.000
    occupations:
  0.138 -0.000  0.001  0.100  0.000
 -0.000  0.355 -0.000  0.000 -0.000
  0.001 -0.000  0.108  0.001  0.000
  0.100  0.000  0.001  0.296  0.000
  0.000 -0.000  0.000  0.000  0.103
atomic mag. moment =     3.396052
atom   23   Tr[ns(na)] (up, down, total) =   4.61949  0.67519  5.29468
   spin  1
    eigenvalues:
  0.679  0.944  0.998  0.999  0.999
    eigenvectors:
  0.000  0.961  0.039  0.000  0.000
  0.000  0.000  0.000  0.968  0.031
  0.000  0.000  0.005  0.031  0.964
  0.000  0.039  0.956  0.000  0.005
  1.000  0.000  0.000  0.000  0.000
    occupations:
  0.946 -0.000  0.001  0.011 -0.000
 -0.000  0.999  0.000  0.000 -0.002
  0.001  0.000  0.999 -0.000  0.000
  0.011  0.000 -0.000  0.996  0.000
 -0.000 -0.002  0.000  0.000  0.679
   spin  2
    eigenvalues:
  0.070  0.070  0.079  0.145  0.311
    eigenvectors:
  0.023  0.010  0.000  0.967  0.000
  0.000  0.000  1.000  0.000  0.000
  0.351  0.649  0.000  0.000  0.000
  0.626  0.341  0.000  0.033  0.000
  0.000  0.000  0.000  0.000  1.000
    occupations:
  0.143  0.000 -0.001 -0.014  0.000
  0.000  0.079 -0.000  0.000  0.002
 -0.001 -0.000  0.070 -0.000  0.000
 -0.014  0.000 -0.000  0.072 -0.000
  0.000  0.002  0.000 -0.000  0.311
atomic mag. moment =     3.944303
N of occupied +U levels =  42.8562135
 --- exit write_ns ---

 ------ SPIN UP ------------

[...]

 ------ SPIN DOWN ----------

[...]

          k = 0.2500-0.4606 0.0000 ( 26462 PWs)   bands (ev):

[...]

          k =-0.2500 0.2303 0.0000 ( 26396 PWs)   bands (ev):

   -79.2770 -79.2692 -79.2378 -79.2330 -79.2298 -79.2246 -78.3417 -78.3220
   -48.2178 -48.1548 -48.1460 -48.1342 -48.1314 -48.1106 -48.0707 -48.0664
   -48.0628 -48.0585 -48.0493 -48.0315 -47.9890 -47.9725 -47.9476 -47.9297
   -47.8590 -47.8515 -47.4878 -47.3794 -47.3130 -47.2803 -46.7667 -46.7561
   -25.8468 -20.7214 -20.2597 -20.1819 -19.9667 -19.5064 -19.4448 -19.4133
   -19.3431 -19.1378 -19.1290 -19.0503 -18.9591 -18.8491 -18.8013 -18.7607
   -18.7125 -18.6473 -18.6168 -17.5684  -9.7572  -8.0561  -7.8333  -7.7679
    -7.6117  -7.4311  -7.3736  -7.2223  -7.0083  -6.7977  -6.6364  -6.4878
    -6.4026  -6.2018  -6.1835  -6.0616  -6.0273  -5.9333  -5.8358  -5.7609
    -5.6293  -5.6005  -5.4301  -5.3854  -5.2623  -5.2513  -5.1228  -4.9910
    -4.8311  -4.7796  -4.7469  -4.6616  -4.5239  -4.4440  -4.3719  -4.2523
    -4.1795  -4.1345  -4.0651  -3.9986  -3.8277  -3.7798  -3.6531  -3.5577
    -3.5206  -3.4422  -3.2969  -3.2689  -3.1615  -3.0192  -2.9142  -2.8315
    -2.7800  -2.7021  -2.6654  -2.5881  -2.3430  -2.3186  -2.0106   1.9591
     2.0121   2.0161   2.0959   2.1005   2.2407   2.2570   2.2595   2.3065
     2.3168   2.3841   2.4574   2.5504   2.5742   2.6463   2.7082   2.7410
     2.7713   2.8525   2.8790   2.9107   2.9498   3.0114   3.0635   3.1439
     3.1824   3.2393   3.2859   3.3335   3.3700   3.5446   3.5909   3.6281
     3.6784   3.7211   3.7691   3.9225   3.9991   4.0343   4.0699   4.1298
     4.2696   4.3946   4.5564   4.9102   5.2578   5.5826   5.7401   6.1078
     6.2575   6.3821   6.5197   6.6278   6.8565   6.9921   7.1670   7.4876
     7.6378   7.7929   7.9436   8.0298   8.2517   8.3579   8.4660   8.7266
     8.7872   8.9941   9.1224   9.2349   9.2965   9.5515   9.6030   9.6278
     9.7527   9.9108  10.0146  10.0559  10.1793  10.3397  10.4303  10.5002
    10.6292  10.7913  10.8363  10.8698  11.1106  11.1769  11.2020  11.3147
    11.5241  11.5448  11.7221  11.7721  11.8666  11.9330  11.9835  12.0157
    12.1538  12.2061  12.3356  12.3647  12.4473  12.5113  12.5351  12.6615
    12.8523  12.9600  12.9901  13.0836  13.1863  13.2095  13.3430  13.4123
    13.4522  13.5105  13.5840  13.6481  13.8182  13.9614  13.9888  14.0350
    14.1885  14.2443  14.3340  14.3850  14.4040  14.4264  14.4992  14.6140
    14.6637  14.7710  14.8297  14.8631  14.9627  15.0130  15.1001  15.1882
    15.2745  15.3449  15.4712  15.4938  15.5856  15.6714  15.7183  15.8069
    15.8735  15.9708  16.0044  16.0686  16.1670  16.2760  16.3107  16.4302
    16.4754  16.6016  16.6758  16.7525  16.8189  16.9229  17.0074  17.0540
    17.1208  17.1737  17.2741  17.3416  17.4438  17.4949  17.5514  17.6096
    17.6801  17.7467  17.8232  17.9135  17.9664  18.0179  18.0629  18.1319
    18.2299  18.2942  18.3419  18.4110  18.4886  18.5875  18.6749  18.7293
    18.7568  18.8637  18.9546  19.0323  19.0717  19.1228  19.2689  19.2855
    19.3570  19.4815  19.5612  19.5953  19.6565  19.7655  19.8556  19.9450
    19.9920  20.0988  20.1311  20.1750  20.2672  20.3721  20.4658  20.5122
    20.5989  20.6628  20.6975  20.7459  20.8369  20.9498  21.0131  21.0833
    21.2021  21.3009  21.3401  21.4476  21.5084  21.5567  21.6524  21.7193
    21.8379  21.9119  21.9828  22.0099  22.1300  22.1926  22.2383  22.2564
    22.3144  22.3928  22.4673  22.5381  22.6245  22.6913  22.8058  22.8661
    22.9668  23.0303  23.0621

     the spin up/dw Fermi energies are    -1.4686    0.1185 ev

!    total energy              =   -2352.22007449 Ry
     Harris-Foulkes estimate   =   -2352.22007449 Ry
     estimated scf accuracy    <          4.7E-09 Ry

     The total energy is the sum of the following terms:

     one-electron contribution =  -26011.25979885 Ry
     hartree contribution      =   13034.57068331 Ry
     xc contribution           =    -356.68323116 Ry
     ewald contribution        =   10979.45942070 Ry
     Hubbard energy            =       1.69309907 Ry
     smearing contrib. (-TS)   =      -0.00024756 Ry

     total magnetization       =    23.00 Bohr mag/cell
     absolute magnetization    =    35.43 Bohr mag/cell

     convergence has been achieved in  16 iterations

     Forces acting on atoms (Ry/au):

     negative rho (up, down):  0.161E-02 0.127E-02
     atom    1 type  1   force =    -0.00477258   -0.01266059   -0.00002086
     atom    2 type  1   force =     0.00041171    0.00730082   -0.00024846
     atom    3 type  2   force =     0.00248653    0.00098797    0.00012166
     atom    4 type  2   force =     0.00626787    0.01024547   -0.00016030
     atom    5 type  1   force =     0.00184995    0.01443857   -0.00036856
     atom    6 type  1   force =    -0.00181226   -0.01976522   -0.00038615
     atom    7 type  1   force =     0.00009575    0.00168317    0.00042790
     atom    8 type  1   force =    -0.00137180   -0.00184990    0.00048134
     atom    9 type  2   force =     0.00122063    0.00163152    0.00009574
     atom   10 type  2   force =    -0.00009141   -0.00231163   -0.00053801
     atom   11 type  1   force =    -0.00656711   -0.01921469    0.00035968
     atom   12 type  1   force =    -0.00607787    0.02062199   -0.00036014
     atom   13 type  1   force =    -0.00043758   -0.00082883    0.00031925
     atom   14 type  1   force =    -0.00487323   -0.01274116    0.00000752
     atom   15 type  1   force =     0.00050388    0.00780753   -0.00003131
     atom   16 type  2   force =    -0.00386834    0.00102851    0.00010413
     atom   17 type  2   force =     0.00622939    0.01027510   -0.00038869
     atom   18 type  1   force =     0.00158791    0.01445433   -0.00043277
     atom   19 type  1   force =    -0.00211010   -0.01977566   -0.00044880
     atom   20 type  1   force =     0.00000280    0.00185350   -0.00008380
     atom   21 type  1   force =    -0.00147158   -0.00192854    0.00036007
     atom   22 type  2   force =     0.00032876    0.00166823    0.00006533
     atom   23 type  2   force =    -0.00003398   -0.00221192   -0.00009229
     atom   24 type  1   force =     0.00670478   -0.01911609    0.00036938
     atom   25 type  1   force =     0.00608603    0.02063821   -0.00035502
     atom   26 type  1   force =    -0.00041630   -0.00192474    0.00032367
     atom   27 type  3   force =     0.00002653    0.00063758    0.00077587
     atom   28 type  3   force =     0.00003823    0.00030390    0.00053764
     atom   29 type  3   force =     0.00005838   -0.00040988   -0.00019579
     atom   30 type  3   force =     0.00004967   -0.00053250   -0.00037616
     atom   31 type  1   force =    -0.00005329   -0.00015651   -0.00064219
     atom   32 type  1   force =     0.00000555    0.00007035    0.00050100
     atom   33 type  3   force =     0.00000310   -0.00021887    0.00027916

     Total force =     0.002320     Total SCF correction =     0.000114

     entering subroutine stress ...

     negative rho (up, down):  0.161E-02 0.127E-02
          total   stress  (Ry/bohr**3)                   (kbar)     P=   29.37
   0.00032870  -0.00000254   0.00000367         48.35     -0.37      0.54
  -0.00000254   0.00031726   0.00000431         -0.37     46.67      0.63
   0.00000367   0.00000431  -0.00004696          0.54      0.63     -6.91

     bfgs converged in   4 scf cycles and   3 bfgs steps
     (criteria: energy < 0.10E-03, force < 0.10E-02)

     End of BFGS Geometry Optimization

     Final energy   =   -2352.2200744897 Ry
Begin final coordinates

ATOMIC_POSITIONS (crystal)
O0       0.000000000   0.000000000   0.372175133    0   0   1
O0       0.000000000   0.500000000   0.391946365    0   0   1
Mn1      0.250000000   0.500000000   0.445102385    0   0   1
Mn1      0.000000000   0.000000000   0.445498536    0   0   1
O0       0.250000000   0.800000000   0.444432512    0   0   1
O0       0.250000000   0.200000000   0.447701692    0   0   1
O0       0.000000000   0.500000000   0.493125197    0   0   1
O0       0.000000000   0.000000000   0.523810741    0   0   1
Mn1      0.250000000   0.000000000   0.572857992    0   0   1
Mn1      0.000000000   0.500000000   0.570634870    0   0   1
O0       0.250000000   0.700000000   0.583021819    0   0   1
O0       0.250000000   0.300000000   0.583888729    0   0   1
O0       0.000000000   0.000000000   0.621684379    0   0   1
O0       0.500000000   0.000000000   0.372202046    0   0   1
O0       0.500000000   0.500000000   0.392120961    0   0   1
Mn1      0.750000000   0.500000000   0.445099833    0   0   1
Mn1      0.500000000   0.000000000   0.445515140    0   0   1
O0       0.750000000   0.800000000   0.444514046    0   0   1
O0       0.750000000   0.200000000   0.447699538    0   0   1
O0       0.500000000   0.500000000   0.493867187    0   0   1
O0       0.500000000   0.000000000   0.523791331    0   0   1
Mn1      0.750000000   0.000000000   0.572856619    0   0   1
Mn1      0.500000000   0.500000000   0.573019946    0   0   1
O0       0.750000000   0.700000000   0.583022226    0   0   1
O0       0.750000000   0.300000000   0.583878226    0   0   1
O0       0.500000000   0.000000000   0.621545300    0   0   1
H2       0.000580904   0.647583995   0.376308652
H2       0.500592409   0.647710054   0.376537841
H2       0.160993870   0.045509881   0.361911760
H2       0.660751826   0.046204641   0.361955393
O0       0.499421546   0.546596587   0.675458023
O0       0.501722745   0.359333793   0.701890287
H2       0.498944925   0.406382946   0.738255295
End final coordinates

     General routines

     Parallel routines
     Hubbard U routines

   This run was terminated on:   9:58:40   6Jun2014

   JOB DONE.
Running PBS batch system epilogue script
Job id: 381437.audhumbla.fysik.dtu.dk
Username: zhonxu
Groupname: campgst
Jobname: MnO2/Eads-2-layers/OOH-U-5.5
Sessionid: 17365
Queuename: verylong
Accounting:
This job has allocated the following 16 nodes:
a010 a010 a010 a010 a010 a010 a010 a010 a001 a001 a001 a001 a001 a001 a001 a001
Finished epilogue job 381437.audhumbla.fysik.dtu.dk for zhonxu