     Program PWSCF v.5.0.2 (svn rev. 9656) starts on 30Apr2014 at 20:59:15

     Current dimensions of program PWSCF are:
     Max number of different atomic species (ntypx) = 10
     Max number of k-points (npk) =  40000
     Max angular momentum in pseudopotentials (lmaxx) =  3
     Reading input from pwscf.in
Warning: card &CELL ignored
Warning: card / ignored

     Subspace diagonalization in iterative solution of the eigenvalue problem:
     a serial algorithm will be used

     bravais-lattice index     =            0
     lattice parameter (alat)  =      11.7541  a.u.
     unit-cell volume          =    7139.8207 (a.u.)^3
     number of atoms/cell      =           32
     number of atomic types    =            3
     number of electrons       =       239.00
     number of Kohn-Sham states=          358
     kinetic-energy cutoff     =      40.0000  Ry
     charge density cutoff     =     500.0000  Ry
     convergence threshold     =      1.0E-06
     mixing beta               =       0.7000
     number of iterations used =            8  plain     mixing
     Exchange-correlation      = SLA  PW   PBE  PBE ( 1 4 3 4 0)
     EXX-fraction              =        0.00
     nstep                     =           50

     celldm(1)=  11.754097  celldm(2)=   0.000000  celldm(3)=   0.000000
     celldm(4)=   0.000000  celldm(5)=   0.000000  celldm(6)=   0.000000

     crystal axes: (cart. coord. in units of alat)
               a(1) = (   1.000000   0.000000   0.000000 )
               a(2) = (   0.000000   1.034513   0.000000 )
               a(3) = (   0.000000   0.000000   4.249947 )

     reciprocal axes: (cart. coord. in units 2 pi/alat)
               b(1) = (  1.000000  0.000000  0.000000 )
               b(2) = (  0.000000  0.966638  0.000000 )
               b(3) = (  0.000000  0.000000  0.235297 )

     PseudoPot. # 1 for O  read from file:
     /home/camp/zhonxu/pseudo/o_pbe_v1.01.uspp.F.UPF
     MD5 check sum: 2bcb18d16ea4b960afae9ec6d52f22d2
     Pseudo is Ultrasoft + core correction, Zval =  6.0
     Generated by new atomic code, or converted to UPF format
     Using radial grid of  737 points,  5 beta functions with:
                l(1) =   0
                l(2) =   0
                l(3) =   1
                l(4) =   1
                l(5) =   2
     Q(r) pseudized with  8 coefficients,  rinner =    0.900   0.900   0.900
                                                       0.900   0.900

     PseudoPot. # 2 for Rh read from file:
     /home/camp/zhonxu/pseudo/rh_pbe_v1.uspp.F.UPF
     MD5 check sum: 37b626987ad0dd8ec6bf4cc9ef289918
     Pseudo is Ultrasoft + core correction, Zval = 15.0
     Generated by new atomic code, or converted to UPF format
     Using radial grid of  969 points,  7 beta functions with:
                l(1) =   0
                l(2) =   0
                l(3) =   1
                l(4) =   1
                l(5) =   2
                l(6) =   2
                l(7) =   2
     Q(r) pseudized with  6 coefficients,  rinner =    1.050   1.050   1.050
                                                       1.050   1.050

     PseudoPot. # 3 for H  read from file:
     /home/camp/zhonxu/pseudo/h_pbe_v1.uspp.F.UPF
     MD5 check sum: 3408e3ff4ec8b0a4e358431e7e038a48
     Pseudo is Ultrasoft, Zval =  1.0
     Generated by new atomic code, or converted to UPF format
     Using radial grid of  615 points,  2 beta functions with:
                l(1) =   0
                l(2) =   0
     Q(r) pseudized with  8 coefficients,  rinner =    0.700

     atomic species   valence    mass     pseudopotential
        O0             6.00    15.99940     O ( 1.00)
        Rh1           15.00   102.90550     Rh( 1.00)
        H2             1.00     1.00794     H ( 1.00)

     Simplified LDA+U calculation (l_max = 2) with parameters (eV):
     atomic species    L          U    alpha       J0     beta
        Rh1            2     7.5000   0.0000   0.0000   0.0000

     No symmetry found

   Cartesian axes

     site n.     atom                  positions (alat units)
         1           O0  tau(   1) = (   0.0000000   0.0000000   1.6077125  )
         2           O0  tau(   2) = (   0.0000000   0.5172566   1.7060138  )
         3           Rh1 tau(   3) = (   0.2500000   0.5172566   1.9233561  )
         4           Rh1 tau(   4) = (   0.0000000   0.0000000   1.9242061  )
         5           O0  tau(   5) = (   0.2500000   0.8379556   1.9221236  )
         6           O0  tau(   6) = (   0.2500000   0.1965575   1.9218261  )
         7           O0  tau(   7) = (   0.0000000   0.5172566   2.1180887  )
         8           O0  tau(   8) = (   0.0000000   0.0000000   2.2452046  )
         9           Rh1 tau(   9) = (   0.2500000   0.0000000   2.4467796  )
        10           Rh1 tau(  10) = (   0.0000000   0.5172566   2.4248074  )
        11           O0  tau(  11) = (   0.2500000   0.7138141   2.4490746  )
        12           O0  tau(  12) = (   0.2500000   0.3206991   2.4494996  )
        13           O0  tau(  13) = (   0.0000000   0.0000000   2.6392597  )
        14           O0  tau(  14) = (   0.5000000   0.0000000   1.6071175  )
        15           O0  tau(  15) = (   0.5000000   0.5172566   1.7046963  )
        16           Rh1 tau(  16) = (   0.7500000   0.5172566   1.9233561  )
        17           Rh1 tau(  17) = (   0.5000000   0.0000000   1.9236961  )
        18           O0  tau(  18) = (   0.7500000   0.8379556   1.9222086  )
        19           O0  tau(  19) = (   0.7500000   0.1965575   1.9219111  )
        20           O0  tau(  20) = (   0.5000000   0.5172566   2.1234861  )
        21           O0  tau(  21) = (   0.5000000   0.0000000   2.2446521  )
        22           Rh1 tau(  22) = (   0.7500000   0.0000000   2.4466946  )
        23           Rh1 tau(  23) = (   0.5000000   0.5172566   2.4467371  )
        24           O0  tau(  24) = (   0.7500000   0.7138141   2.4449521  )
        25           O0  tau(  25) = (   0.7500000   0.3206991   2.4452921  )
        26           O0  tau(  26) = (   0.5000000   0.0000000   2.6379847  )
        27           H2  tau(  27) = (  -0.0000100   0.6596573   1.6332972  )
        28           H2  tau(  28) = (   0.4999400   0.6612505   1.6349547  )
        29           H2  tau(  29) = (   0.1484100   0.0351631   1.5627056  )
        30           H2  tau(  30) = (   0.6482100   0.0356700   1.5619406  )
        31           O0  tau(  31) = (   0.5154200   0.5168841   2.7565583  )
        32           H2  tau(  32) = (   0.3686900   0.5167083   2.8162275  )

     number of k points=    10  Methfessel-Paxton smearing, width (Ry)=  0.0100
                       cart. coord. in units 2pi/alat
        k(    1) = (   0.0000000   0.0000000   0.0000000), wk =   0.1250000
        k(    2) = (   0.0000000   0.2416596   0.0000000), wk =   0.2500000
        k(    3) = (   0.0000000  -0.4833191   0.0000000), wk =   0.1250000
        k(    4) = (   0.2500000   0.0000000   0.0000000), wk =   0.2500000
        k(    5) = (   0.2500000   0.2416596   0.0000000), wk =   0.2500000
        k(    6) = (   0.2500000  -0.4833191   0.0000000), wk =   0.2500000
        k(    7) = (  -0.5000000   0.0000000   0.0000000), wk =   0.1250000
        k(    8) = (  -0.5000000   0.2416596   0.0000000), wk =   0.2500000
        k(    9) = (  -0.5000000  -0.4833191   0.0000000), wk =   0.1250000
        k(   10) = (  -0.2500000   0.2416596   0.0000000), wk =   0.2500000

     Largest allocated arrays     est. size (Mb)     dimensions
     Largest temporary arrays     est. size (Mb)     dimensions

     Check: negative/imaginary core charge=   -0.000003    0.000000

     Initial potential from superposition of free atoms
     Check: negative starting charge=   -0.644969

     starting charge  234.99914, renormalised to  239.00000

     negative rho (up, down):  0.656E+00 0.000E+00
     Number of +U iterations with fixed ns =  0
     Starting occupations:
 --- enter write_ns ---
 LDA+U parameters:
U( 2)     =  7.50000000
alpha( 2) =  0.00000000
atom    3   Tr[ns(na)] =   7.00000
    eigenvalues:
  0.700  0.700  0.700  0.700  0.700
    eigenvectors:
  1.000  0.000  0.000  0.000  0.000
  0.000  1.000  0.000  0.000  0.000
  0.000  0.000  1.000  0.000  0.000
  0.000  0.000  0.000  1.000  0.000
  0.000  0.000  0.000  0.000  1.000
    occupations:
  0.700  0.000  0.000  0.000  0.000
  0.000  0.700  0.000  0.000  0.000
  0.000  0.000  0.700  0.000  0.000
  0.000  0.000  0.000  0.700  0.000
  0.000  0.000  0.000  0.000  0.700
atom    4   Tr[ns(na)] =   7.00000
    eigenvalues:
  0.700  0.700  0.700  0.700  0.700
    eigenvectors:
  1.000  0.000  0.000  0.000  0.000
  0.000  1.000  0.000  0.000  0.000
  0.000  0.000  1.000  0.000  0.000
  0.000  0.000  0.000  1.000  0.000
  0.000  0.000  0.000  0.000  1.000
    occupations:
  0.700  0.000  0.000  0.000  0.000
  0.000  0.700  0.000  0.000  0.000
  0.000  0.000  0.700  0.000  0.000
  0.000  0.000  0.000  0.700  0.000
  0.000  0.000  0.000  0.000  0.700
atom    9   Tr[ns(na)] =   7.00000
    eigenvalues:
  0.700  0.700  0.700  0.700  0.700
    eigenvectors:
  1.000  0.000  0.000  0.000  0.000
  0.000  1.000  0.000  0.000  0.000
  0.000  0.000  1.000  0.000  0.000
  0.000  0.000  0.000  1.000  0.000
  0.000  0.000  0.000  0.000  1.000
    occupations:
  0.700  0.000  0.000  0.000  0.000
  0.000  0.700  0.000  0.000  0.000
  0.000  0.000  0.700  0.000  0.000
  0.000  0.000  0.000  0.700  0.000
  0.000  0.000  0.000  0.000  0.700
atom   10   Tr[ns(na)] =   7.00000
    eigenvalues:
  0.700  0.700  0.700  0.700  0.700
    eigenvectors:
  1.000  0.000  0.000  0.000  0.000
  0.000  1.000  0.000  0.000  0.000
  0.000  0.000  1.000  0.000  0.000
  0.000  0.000  0.000  1.000  0.000
  0.000  0.000  0.000  0.000  1.000
    occupations:
  0.700  0.000  0.000  0.000  0.000
  0.000  0.700  0.000  0.000  0.000
  0.000  0.000  0.700  0.000  0.000
  0.000  0.000  0.000  0.700  0.000
  0.000  0.000  0.000  0.000  0.700
atom   16   Tr[ns(na)] =   7.00000
    eigenvalues:
  0.700  0.700  0.700  0.700  0.700
    eigenvectors:
  1.000  0.000  0.000  0.000  0.000
  0.000  1.000  0.000  0.000  0.000
  0.000  0.000  1.000  0.000  0.000
  0.000  0.000  0.000  1.000  0.000
  0.000  0.000  0.000  0.000  1.000
    occupations:
  0.700  0.000  0.000  0.000  0.000
  0.000  0.700  0.000  0.000  0.000
  0.000  0.000  0.700  0.000  0.000
  0.000  0.000  0.000  0.700  0.000
  0.000  0.000  0.000  0.000  0.700
atom   17   Tr[ns(na)] =   7.00000
    eigenvalues:
  0.700  0.700  0.700  0.700  0.700
    eigenvectors:
  1.000  0.000  0.000  0.000  0.000
  0.000  1.000  0.000  0.000  0.000
  0.000  0.000  1.000  0.000  0.000
  0.000  0.000  0.000  1.000  0.000
  0.000  0.000  0.000  0.000  1.000
    occupations:
  0.700  0.000  0.000  0.000  0.000
  0.000  0.700  0.000  0.000  0.000
  0.000  0.000  0.700  0.000  0.000
  0.000  0.000  0.000  0.700  0.000
  0.000  0.000  0.000  0.000  0.700
atom   22   Tr[ns(na)] =   7.00000
    eigenvalues:
  0.700  0.700  0.700  0.700  0.700
    eigenvectors:
  1.000  0.000  0.000  0.000  0.000
  0.000  1.000  0.000  0.000  0.000
  0.000  0.000  1.000  0.000  0.000
  0.000  0.000  0.000  1.000  0.000
[...]
  0.652 -0.004 -0.001  0.029  0.001
 -0.004  0.937  0.010  0.001 -0.001
 -0.001  0.010  0.900 -0.000  0.001
  0.029  0.001 -0.000  0.979  0.000
  0.001 -0.001  0.001  0.000  0.595
atom    9   Tr[ns(na)] =   8.13341
    eigenvalues:
  0.633  0.640  0.891  0.920  0.983
    eigenvectors:
  0.006  0.147  0.000  0.000  0.846
  0.961  0.039  0.000  0.000  0.000
  0.000  0.000  0.992  0.008  0.000
  0.033  0.814  0.000  0.000  0.154
  0.000  0.000  0.008  0.992  0.000
    occupations:
  0.930  0.001 -0.000 -0.124 -0.000
  0.001  0.634  0.001  0.001 -0.000
 -0.000  0.001  0.891 -0.000 -0.003
 -0.124  0.001 -0.000  0.692  0.001
 -0.000 -0.000 -0.003  0.001  0.920
atom   10   Tr[ns(na)] =   8.10215
    eigenvalues:
  0.587  0.593  0.942  0.947  0.983
    eigenvectors:
  0.992  0.000  0.000  0.000  0.008
  0.000  0.000  1.000  0.000  0.000
  0.000  0.000  0.000  1.000  0.000
  0.008  0.000  0.000  0.000  0.992
  0.000  1.000  0.000  0.000  0.000
    occupations:
  0.591 -0.003  0.001  0.036 -0.000
 -0.003  0.942  0.000  0.000 -0.000
  0.001  0.000  0.947  0.000  0.003
  0.036  0.000  0.000  0.979  0.000
 -0.000 -0.000  0.003  0.000  0.593
atom   16   Tr[ns(na)] =   8.11092
    eigenvalues:
  0.577  0.599  0.927  0.971  0.982
    eigenvectors:
  0.007  0.194  0.003  0.001  0.796
  0.973  0.026  0.000  0.000  0.000
  0.000  0.000  0.971  0.027  0.002
  0.020  0.779  0.000  0.000  0.201
  0.000  0.000  0.027  0.972  0.001
    occupations:
  0.905  0.006  0.001 -0.154  0.001
  0.006  0.578  0.001  0.001 -0.005
  0.001  0.001  0.928 -0.004 -0.007
 -0.154  0.001 -0.004  0.676  0.000
  0.001 -0.005 -0.007  0.000  0.969
atom   17   Tr[ns(na)] =   8.12895
    eigenvalues:
  0.594  0.648  0.901  0.940  0.982
    eigenvectors:
  0.001  0.991  0.000  0.000  0.008
  0.000  0.000  0.096  0.904  0.000
  0.000  0.000  0.904  0.096  0.000
  0.000  0.008  0.000  0.000  0.992
  0.999  0.001  0.000  0.000  0.000
    occupations:
  0.651 -0.004 -0.001  0.029  0.002
 -0.004  0.936  0.011  0.001 -0.001
 -0.001  0.011  0.904 -0.000  0.001
  0.029  0.001 -0.000  0.979  0.000
  0.002 -0.001  0.001  0.000  0.594
atom   22   Tr[ns(na)] =   8.13039
    eigenvalues:
  0.634  0.641  0.884  0.923  0.983
    eigenvectors:
  0.000  0.152  0.000  0.000  0.848
  0.997  0.003  0.000  0.000  0.000
  0.000  0.000  0.995  0.005  0.000
  0.003  0.845  0.000  0.000  0.152
  0.000  0.000  0.005  0.995  0.000
    occupations:
  0.931  0.000 -0.000 -0.123 -0.000
  0.000  0.634  0.001 -0.001 -0.000
 -0.000  0.001  0.884 -0.000  0.003
 -0.123 -0.001 -0.000  0.693  0.001
 -0.000 -0.000  0.003  0.001  0.922
atom   23   Tr[ns(na)] =   8.12019
    eigenvalues:
  0.601  0.653  0.879  0.946  0.982
    eigenvectors:
  0.000  0.991  0.000  0.000  0.009
  0.000  0.000  0.000  0.999  0.000
  0.000  0.000  1.000  0.000  0.000
  0.000  0.009  0.000  0.000  0.991
  1.000  0.000  0.000  0.000  0.000
    occupations:
  0.656  0.006 -0.000  0.030 -0.000
  0.006  0.946 -0.000 -0.000 -0.000
 -0.000 -0.000  0.879  0.000 -0.002
  0.030 -0.000  0.000  0.979  0.000
 -0.000 -0.000 -0.002  0.000  0.601
N of occupied +U levels =  64.9656896
 --- exit write_ns ---

     Threshold (ethr) on eigenvalues was too large:
     Diagonalizing with lowered threshold

     Davidson diagonalization with overlap
     ethr =  2.38E-08,  avg # of iterations =  3.0

[...]

     total energy              =   -1978.69548283 Ry
     Harris-Foulkes estimate   =   -1978.69548283 Ry
     estimated scf accuracy    <       0.00000002 Ry

     iteration # 17     ecut=    40.00 Ry     beta=0.70
     Davidson diagonalization with overlap
     ethr =  7.15E-12,  avg # of iterations =  1.0

     negative rho (up, down):  0.689E+00 0.000E+00

     End of self-consistent calculation
 --- enter write_ns ---
 LDA+U parameters:
U( 2)     =  7.50000000
alpha( 2) =  0.00000000
atom    3   Tr[ns(na)] =   8.11037
    eigenvalues:
  0.576  0.599  0.927  0.971  0.982
    eigenvectors:
  0.006  0.195  0.003  0.000  0.796
  0.977  0.023  0.000  0.000  0.000
  0.000  0.000  0.965  0.033  0.002
  0.017  0.782  0.000  0.000  0.201
  0.000  0.000  0.032  0.966  0.001
    occupations:
  0.905 -0.006  0.001 -0.154 -0.001
 -0.006  0.577 -0.002 -0.001 -0.005
  0.001 -0.002  0.928 -0.004  0.008
 -0.154 -0.001 -0.004  0.676 -0.001
 -0.001 -0.005  0.008 -0.001  0.969
atom    4   Tr[ns(na)] =   8.12836
    eigenvalues:
  0.595  0.650  0.897  0.940  0.982
    eigenvectors:
  0.001  0.991  0.000  0.000  0.008
  0.000  0.000  0.065  0.935  0.000
  0.000  0.000  0.935  0.065  0.000
  0.000  0.008  0.000  0.000  0.992
  0.999  0.001  0.000  0.000  0.000
    occupations:
  0.652 -0.004 -0.001  0.029  0.001
 -0.004  0.937  0.011  0.001 -0.001
 -0.001  0.011  0.900 -0.000  0.001
  0.029  0.001 -0.000  0.979  0.000
  0.001 -0.001  0.001  0.000  0.596
atom    9   Tr[ns(na)] =   8.13346
    eigenvalues:
  0.633  0.640  0.891  0.920  0.983
    eigenvectors:
  0.006  0.148  0.000  0.000  0.846
  0.962  0.038  0.000  0.000  0.000
  0.000  0.000  0.992  0.008  0.000
  0.032  0.814  0.000  0.000  0.154
  0.000  0.000  0.008  0.992  0.000
    occupations:
  0.930  0.001 -0.000 -0.124 -0.000
  0.001  0.634  0.001  0.001 -0.000
 -0.000  0.001  0.891 -0.000 -0.003
 -0.124  0.001 -0.000  0.692  0.001
 -0.000 -0.000 -0.003  0.001  0.920
atom   10   Tr[ns(na)] =   8.10236
    eigenvalues:
  0.587  0.593  0.942  0.947  0.983
    eigenvectors:
  0.992  0.000  0.000  0.000  0.008
  0.000  0.000  1.000  0.000  0.000
  0.000  0.000  0.000  1.000  0.000
  0.008  0.000  0.000  0.000  0.992
  0.000  1.000  0.000  0.000  0.000
    occupations:
  0.591 -0.003  0.001  0.036 -0.000
 -0.003  0.942  0.000  0.000 -0.000
  0.001  0.000  0.947  0.000  0.003
  0.036  0.000  0.000  0.979  0.000
 -0.000 -0.000  0.003  0.000  0.593
atom   16   Tr[ns(na)] =   8.11045
    eigenvalues:
  0.577  0.599  0.927  0.971  0.982
    eigenvectors:
  0.007  0.194  0.003  0.001  0.796
  0.974  0.026  0.000  0.000  0.000
  0.000  0.000  0.971  0.027  0.002
  0.019  0.780  0.000  0.000  0.201
  0.000  0.000  0.026  0.972  0.001
    occupations:
  0.905  0.006  0.001 -0.154  0.001
  0.006  0.578  0.001  0.001 -0.005
  0.001  0.001  0.928 -0.004 -0.007
 -0.154  0.001 -0.004  0.676  0.000
  0.001 -0.005 -0.007  0.000  0.969
atom   17   Tr[ns(na)] =   8.12846
    eigenvalues:
  0.594  0.648  0.900  0.939  0.982
    eigenvectors:
  0.001  0.991  0.000  0.000  0.008
  0.000  0.000  0.096  0.904  0.000
  0.000  0.000  0.904  0.096  0.000
  0.000  0.008  0.000  0.000  0.992
  0.999  0.001  0.000  0.000  0.000
    occupations:
  0.651 -0.004 -0.001  0.029  0.002
 -0.004  0.936  0.012  0.001 -0.001
 -0.001  0.012  0.904 -0.000  0.001
  0.029  0.001 -0.000  0.979  0.000
  0.002 -0.001  0.001  0.000  0.594
atom   22   Tr[ns(na)] =   8.13057
    eigenvalues:
  0.634  0.641  0.884  0.923  0.983
    eigenvectors:
  0.000  0.152  0.000  0.000  0.848
  0.997  0.003  0.000  0.000  0.000
  0.000  0.000  0.995  0.005  0.000
  0.002  0.846  0.000  0.000  0.152
  0.000  0.000  0.005  0.995  0.000
    occupations:
  0.931  0.000 -0.000 -0.123 -0.000
  0.000  0.634  0.001 -0.000 -0.000
 -0.000  0.001  0.884 -0.000  0.003
 -0.123 -0.000 -0.000  0.693  0.001
 -0.000 -0.000  0.003  0.001  0.922
atom   23   Tr[ns(na)] =   8.12184
    eigenvalues:
  0.601  0.653  0.879  0.946  0.982
    eigenvectors:
  0.000  0.991  0.000  0.000  0.009
  0.000  0.000  0.000  0.999  0.000
  0.000  0.000  1.000  0.000  0.000
  0.000  0.009  0.000  0.000  0.991
  1.000  0.000  0.000  0.000  0.000
    occupations:
  0.656  0.006 -0.000  0.030 -0.000
  0.006  0.946 -0.000 -0.000 -0.000
 -0.000 -0.000  0.879  0.000 -0.002
  0.030 -0.000  0.000  0.979  0.000
 -0.000 -0.000 -0.002  0.000  0.601
N of occupied +U levels =  64.9658901
 --- exit write_ns ---

[...]

          k = 0.2500-0.4833 0.0000 ( 30510 PWs)   bands (ev):

[...]

          k =-0.2500 0.2417 0.0000 ( 30481 PWs)   bands (ev):

   -48.4409 -48.4310 -48.3933 -48.3531 -48.3423 -48.3326 -48.3046 -48.2771
   -48.2619 -48.2392 -48.2240 -48.2132 -48.1411 -48.1360 -48.1125 -48.0633
   -48.0391 -48.0223 -48.0175 -47.9612 -47.9304 -47.9244 -47.9106 -47.8909
   -21.2589 -20.9780 -20.9613 -20.8537 -20.5694 -20.4740 -20.4400 -20.4064
   -20.3352 -20.2549 -20.1266 -20.1055 -20.0520 -20.0394 -19.8633 -19.8527
   -19.8052 -19.1521 -19.0044 -10.5767 -10.4692 -10.2418 -10.1500 -10.0222
    -9.8789  -9.7956  -9.7334  -9.4589  -8.9491  -8.8675  -8.7902  -8.7556
    -8.6501  -8.5659  -8.3842  -8.3038  -8.2711  -8.1449  -7.9178  -7.8359
    -7.7470  -7.6326  -7.5414  -7.3728  -7.2999  -7.2205  -7.1498  -7.0361
    -6.9560  -6.9111  -6.8506  -6.7840  -6.7278  -6.6433  -6.5775  -6.5328
    -6.4464  -6.3555  -6.2657  -6.1593  -5.9203  -5.6690  -5.5064  -5.2949
    -5.1603  -5.1424  -4.9623  -4.8845  -4.8217  -4.6616  -4.6239  -4.5577
    -4.4778  -4.4336  -4.2073  -4.1399  -4.0118  -3.9418  -3.7726  -3.7523
    -3.6670  -3.5928  -3.5393  -3.5186  -3.4456  -3.3919  -3.3049  -3.2039
    -3.1630  -3.0831  -2.7645  -2.5667  -2.4982  -2.3157  -2.1909  -2.1482
    -2.1313  -1.9419  -1.8404  -1.7528  -0.7182  -0.1519  -0.0514   0.2174
     0.4682   0.7615   1.0199   1.2613   1.5068   1.5803   1.7419   1.7979
     1.9006   1.9665   2.0640   2.4084   3.6956   3.8590   4.5456   4.9366
     5.3430   5.5158   5.5530   5.8478   6.1112   6.3131   6.4352   6.4635
     6.5219   6.7531   6.8427   7.0509   7.2539   7.4312   7.5480   7.7017
     7.8646   8.0056   8.0822   8.1758   8.2981   8.3075   8.4527   8.5557
     8.7155   8.8643   8.9475   9.0266   9.1135   9.2402   9.4469   9.5990
     9.6624   9.7406   9.8339   9.9030   9.9615  10.0340  10.1857  10.2201
    10.3364  10.3660  10.4643  10.6033  10.6927  10.7346  10.8505  10.9663
    11.0713  11.1266  11.2264  11.2778  11.3825  11.4548  11.5146  11.5462
    11.6132  11.6995  11.8040  11.8639  11.9334  12.0365  12.1721  12.2076
    12.2530  12.3148  12.4230  12.4866  12.5174  12.5484  12.6537  12.7090
    12.7849  12.8425  12.9304  13.0159  13.1550  13.2078  13.2752  13.3053
    13.4336  13.5087  13.5722  13.6317  13.7698  13.8136  13.8935  13.9568
    14.0779  14.1273  14.2033  14.2898  14.3094  14.3636  14.4353  14.4909
    14.6154  14.7259  14.7447  14.8474  15.0047  15.0819  15.2276  15.3462
    15.3795  15.4201  15.5028  15.5455  15.6007  15.6221  15.7009  15.7828
    15.8200  15.8692  15.9101  16.0337  16.0919  16.1505  16.1824  16.3259
    16.3865  16.4441  16.4970  16.5222  16.5663  16.6041  16.6588  16.7414
    16.8270  16.9147  16.9637  17.0539  17.0992  17.1984  17.2328  17.2543
    17.3565  17.4017  17.4507  17.5251  17.5946  17.6604  17.7406  17.8219
    17.8888  17.9521  18.0227  18.0691  18.0952  18.2198  18.2999  18.3340
    18.4487  18.5290  18.5967  18.6584  18.7340  18.8270  18.8764  18.9296
    18.9778  19.0476  19.1496  19.1793  19.2704  19.2977  19.3828  19.4775
    19.5351  19.6462  19.6862  19.7878  19.8216  19.9357  19.9702  20.0613
    20.1882  20.2369  20.3520  20.4119  20.5000  20.5334  20.6344  20.6689
    20.7550  20.7965  20.8674  20.9280  20.9726  21.0900  21.1610  21.1923
    21.2422  21.2747  21.3517  21.4076  21.4834  21.5114  21.5746  21.6655
    21.7144  21.7754  21.8128  21.8624  21.9681  21.9964  22.0834  22.1364
    22.2439  22.2888  22.3896  22.4061  22.5125  22.5931

     the Fermi energy is    -2.1862 ev

!    total energy              =   -1978.69548283 Ry
     Harris-Foulkes estimate   =   -1978.69548283 Ry
     estimated scf accuracy    <          3.1E-09 Ry

     The total energy is the sum of the following terms:

     one-electron contribution =  -23374.78953462 Ry
     hartree contribution      =   11739.11258916 Ry
     xc contribution           =    -373.14070104 Ry
     ewald contribution        =   10027.35904500 Ry
     Hubbard energy            =       2.76499882 Ry
     smearing contrib. (-TS)   =      -0.00188015 Ry

     convergence has been achieved in  17 iterations

     Forces acting on atoms (Ry/au):

     negative rho (up, down):  0.689E+00 0.000E+00
     atom    1 type  1   force =    -0.00667197   -0.01160242    0.00019220
     atom    2 type  1   force =     0.00024470    0.00228010   -0.00047958
     atom    3 type  2   force =     0.02835410    0.00882475    0.00033403
     atom    4 type  2   force =     0.00799561    0.00846510   -0.00001655
     atom    5 type  1   force =    -0.00428451   -0.02628570   -0.00007602
     atom    6 type  1   force =     0.00338675    0.02275815    0.00004389
     atom    7 type  1   force =     0.00195948   -0.00223410   -0.00012485
     atom    8 type  1   force =    -0.00176169   -0.00092840   -0.00035384
     atom    9 type  2   force =     0.00279538   -0.00007926   -0.00006538
     atom   10 type  2   force =    -0.00609636   -0.00134315    0.00001555
     atom   11 type  1   force =    -0.00697480    0.01687879    0.00015415
     atom   12 type  1   force =    -0.00720596   -0.01681951    0.00009858
     atom   13 type  1   force =    -0.00125253   -0.00005560   -0.00015225
     atom   14 type  1   force =    -0.00658890   -0.01184612    0.00017403
     atom   15 type  1   force =     0.00025639    0.00239808   -0.00036614
     atom   16 type  2   force =    -0.02925420    0.00714845    0.00033428
     atom   17 type  2   force =     0.00796978    0.00855341    0.00011444
     atom   18 type  1   force =    -0.00191997   -0.02601224   -0.00005387
     atom   19 type  1   force =     0.00538680    0.02369039    0.00004355
     atom   20 type  1   force =    -0.00170714   -0.00547299    0.00037512
     atom   21 type  1   force =    -0.00372339   -0.00056390   -0.00035198
     atom   22 type  2   force =     0.00012007    0.00071147   -0.00012048
     atom   23 type  2   force =     0.00243113    0.00077401    0.00031936
     atom   24 type  1   force =     0.00757388    0.02191256   -0.00011547
     atom   25 type  1   force =     0.00884005   -0.02227593   -0.00015463
     atom   26 type  1   force =    -0.00048916   -0.00017594    0.00011884
     atom   27 type  3   force =    -0.00000096    0.00052203    0.00008330
     atom   28 type  3   force =     0.00001265    0.00056157    0.00028062
     atom   29 type  3   force =    -0.00010241    0.00016590    0.00006815
     atom   30 type  3   force =    -0.00017052    0.00032981   -0.00005327
     atom   31 type  1   force =     0.00068471   -0.00017262   -0.00016286
     atom   32 type  3   force =     0.00019297   -0.00010665   -0.00010292

     Total force =     0.001660     Total SCF correction =     0.000114

     bfgs converged in  10 scf cycles and   9 bfgs steps
     (criteria: energy < 0.10E-03, force < 0.10E-02)

     End of BFGS Geometry Optimization

     Final energy   =   -1978.6954828276 Ry
Begin final coordinates

ATOMIC_POSITIONS (crystal)
O0       0.000000000   0.000000000   0.378510156    0   0   1
O0       0.000000000   0.500000000   0.402200806    0   0   1
Rh1      0.250000000   0.500000000   0.452758059    0   0   1
Rh1      0.000000000   0.000000000   0.452747583    0   0   1
O0       0.250000000   0.810000000   0.452495334    0   0   1
O0       0.250000000   0.190000000   0.452237350    0   0   1
O0       0.000000000   0.500000000   0.499439332    0   0   1
O0       0.000000000   0.000000000   0.528086702    0   0   1
Rh1      0.250000000   0.000000000   0.575359194    0   0   1
Rh1      0.000000000   0.500000000   0.570933695    0   0   1
O0       0.250000000   0.690000000   0.575671481    0   0   1
O0       0.250000000   0.310000000   0.575733401    0   0   1
O0       0.000000000   0.000000000   0.620828358    0   0   1
O0       0.500000000   0.000000000   0.378220287    0   0   1
O0       0.500000000   0.500000000   0.401738475    0   0   1
Rh1      0.750000000   0.500000000   0.452752258    0   0   1
Rh1      0.500000000   0.000000000   0.452439853    0   0   1
O0       0.750000000   0.810000000   0.452494931    0   0   1
O0       0.750000000   0.190000000   0.452248541    0   0   1
O0       0.500000000   0.500000000   0.500296620    0   0   1
O0       0.500000000   0.000000000   0.527993090    0   0   1
Rh1      0.750000000   0.000000000   0.575294491    0   0   1
Rh1      0.500000000   0.500000000   0.575104443    0   0   1
O0       0.750000000   0.690000000   0.574707137    0   0   1
O0       0.750000000   0.310000000   0.574771413    0   0   1
O0       0.500000000   0.000000000   0.620710014    0   0   1
H2      -0.000241552   0.635812559   0.384530185
H2       0.499750790   0.637908219   0.385010697
H2       0.148215607   0.034553707   0.367826386
H2       0.648041238   0.035471617   0.367590754
O0       0.516597921   0.499106196   0.647972452
H2       0.370541496   0.499282368   0.662416522
End final coordinates

     General routines

     Parallel routines
     Hubbard U routines

   This run was terminated on:  11: 9:32   1May2014

   JOB DONE.