     Program PWSCF v.5.0.2 (svn rev. 9656) starts on 17Apr2014 at 15:50:38

     Current dimensions of program PWSCF are:
     Max number of different atomic species (ntypx) = 10
     Max number of k-points (npk) =  40000
     Max angular momentum in pseudopotentials (lmaxx) =  3
     Reading input from pwscf.in
Warning: card &CELL ignored
Warning: card / ignored

     Subspace diagonalization in iterative solution of the eigenvalue problem:
     a serial algorithm will be used

     bravais-lattice index     =            0
     lattice parameter (alat)  =      12.2076  a.u.
     unit-cell volume          =   10244.9005 (a.u.)^3
     number of atoms/cell      =           50
     number of atomic types    =            3
     number of electrons       =       455.00
     number of Kohn-Sham states=          682
     kinetic-energy cutoff     =      40.0000  Ry
     charge density cutoff     =     500.0000  Ry
     convergence threshold     =      1.0E-06
     mixing beta               =       0.3000
     number of iterations used =            8  plain     mixing
     Exchange-correlation      = SLA  PW   PBE  PBE ( 1 4 3 4 0)
     EXX-fraction              =        0.00
     nstep                     =           50

     celldm(1)=  12.207631  celldm(2)=   0.000000  celldm(3)=   0.000000
     celldm(4)=   0.000000  celldm(5)=   0.000000  celldm(6)=   0.000000

     crystal axes: (cart. coord. in units of alat)
               a(1) = (   1.000000   0.000000   0.000000 )
               a(2) = (   0.000000   1.004836   0.000000 )
               a(3) = (   0.000000   0.000000   5.604262 )

     reciprocal axes: (cart. coord. in units 2 pi/alat)
               b(1) = (  1.000000  0.000000  0.000000 )
               b(2) = (  0.000000  0.995187  0.000000 )
               b(3) = (  0.000000  0.000000  0.178436 )

     PseudoPot. # 1 for O  read from file:
     /home/camp/zhonxu/pseudo/o_pbe_v1.01.uspp.F.UPF
     MD5 check sum: 2bcb18d16ea4b960afae9ec6d52f22d2
     Pseudo is Ultrasoft + core correction, Zval =  6.0
     Generated by new atomic code, or converted to UPF format
     Using radial grid of  737 points,  5 beta functions with:
                l(1) =   0
                l(2) =   0
                l(3) =   1
                l(4) =   1
                l(5) =   2
     Q(r) pseudized with  8 coefficients,  rinner =    0.900   0.900   0.900
                                                       0.900   0.900

     PseudoPot. # 2 for Pt read from file:
     /home/camp/zhonxu/pseudo/pt_pbe_v1.uspp.F.UPF
     MD5 check sum: 4c71d6ad5ef119f1eb26a4d0b7884226
     Pseudo is Ultrasoft + core correction, Zval = 16.0
     Generated by new atomic code, or converted to UPF format
     Using radial grid of  985 points,  6 beta functions with:
                l(1) =   0
                l(2) =   0
                l(3) =   1
                l(4) =   1
                l(5) =   2
                l(6) =   2
     Q(r) pseudized with  8 coefficients,  rinner =    1.300   1.300   1.300
                                                       1.300   1.300

     PseudoPot. # 3 for H  read from file:
     /home/camp/zhonxu/pseudo/h_pbe_v1.uspp.F.UPF
     MD5 check sum: 3408e3ff4ec8b0a4e358431e7e038a48
     Pseudo is Ultrasoft, Zval =  1.0
     Generated by new atomic code, or converted to UPF format
     Using radial grid of  615 points,  2 beta functions with:
                l(1) =   0
                l(2) =   0
     Q(r) pseudized with  8 coefficients,  rinner =    0.700

     atomic species   valence    mass     pseudopotential
        O0             6.00    15.99940     O ( 1.00)
        Pt1           16.00   195.08000     Pt( 1.00)
        H2             1.00     1.00794     H ( 1.00)

      2 Sym. Ops. (no inversion) found

   Cartesian axes

     site n.     atom                  positions (alat units)
         1           O0  tau(   1) = (   0.0000000   0.5024180   1.8575886  )
         2           Pt1 tau(   2) = (   0.2500000   0.5024180   2.0485258  )
         3           Pt1 tau(   3) = (   0.0000000   0.0000000   2.0485258  )
         4           O0  tau(   4) = (   0.2500000   0.8139171   2.0485258  )
         5           O0  tau(   5) = (   0.2500000   0.1909188   2.0485258  )
         6           O0  tau(   6) = (   0.0000000   0.5024180   2.2394070  )
         7           O0  tau(   7) = (   0.0000000   0.0000000   2.3600107  )
         8           Pt1 tau(   8) = (   0.2500000   0.0000000   2.5509479  )
         9           Pt1 tau(   9) = (   0.0000000   0.5024180   2.5509479  )
        10           O0  tau(  10) = (   0.2500000   0.6933368   2.5509479  )
        11           O0  tau(  11) = (   0.2500000   0.3114991   2.5509479  )
        12           O0  tau(  12) = (   0.0000000   0.0000000   2.7418291  )
        13           O0  tau(  13) = (   0.0000000   0.5024180   2.8577252  )
        14           Pt1 tau(  14) = (   0.2500000   0.5024180   3.0464207  )
        15           Pt1 tau(  15) = (   0.0000000   0.0000000   3.0519689  )
        16           O0  tau(  16) = (   0.2500000   0.8129525   3.0573490  )
        17           O0  tau(  17) = (   0.2500000   0.1918835   3.0573490  )
        18           O0  tau(  18) = (   0.0000000   0.5024180   3.2388711  )
        19           O0  tau(  19) = (   0.0000000   0.0000000   3.3644626  )
        20           Pt1 tau(  20) = (   0.2500000   0.0000000   3.5576415  )
        21           Pt1 tau(  21) = (   0.0000000   0.5024180   3.5547273  )
        22           O0  tau(  22) = (   0.2500000   0.6920004   3.5920516  )
        23           O0  tau(  23) = (   0.2500000   0.3128356   3.5920516  )
        24           O0  tau(  24) = (   0.0000000   0.0000000   3.7444315  )
        25           O0  tau(  25) = (   0.5000000   0.5024180   1.8575886  )
        26           Pt1 tau(  26) = (   0.7500000   0.5024180   2.0485258  )
        27           Pt1 tau(  27) = (   0.5000000   0.0000000   2.0485258  )
        28           O0  tau(  28) = (   0.7500000   0.8139171   2.0485258  )
        29           O0  tau(  29) = (   0.7500000   0.1909188   2.0485258  )
        30           O0  tau(  30) = (   0.5000000   0.5024180   2.2394070  )
        31           O0  tau(  31) = (   0.5000000   0.0000000   2.3600107  )
        32           Pt1 tau(  32) = (   0.7500000   0.0000000   2.5509479  )
        33           Pt1 tau(  33) = (   0.5000000   0.5024180   2.5509479  )
        34           O0  tau(  34) = (   0.7500000   0.6933368   2.5509479  )
        35           O0  tau(  35) = (   0.7500000   0.3114991   2.5509479  )
        36           O0  tau(  36) = (   0.5000000   0.0000000   2.7418291  )
        37           O0  tau(  37) = (   0.5000000   0.5024180   2.8577252  )
        38           Pt1 tau(  38) = (   0.7500000   0.5024180   3.0464207  )
        39           Pt1 tau(  39) = (   0.5000000   0.0000000   3.0519689  )
        40           O0  tau(  40) = (   0.7500000   0.8129525   3.0573490  )
        41           O0  tau(  41) = (   0.7500000   0.1918835   3.0573490  )
        42           O0  tau(  42) = (   0.5000000   0.5024180   3.2388711  )
        43           O0  tau(  43) = (   0.5000000   0.0000000   3.3644626  )
        44           Pt1 tau(  44) = (   0.7500000   0.0000000   3.5576415  )
        45           Pt1 tau(  45) = (   0.5000000   0.5024180   3.5547273  )
        46           O0  tau(  46) = (   0.7500000   0.6920004   3.5920516  )
        47           O0  tau(  47) = (   0.7500000   0.3128356   3.5920516  )
        48           O0  tau(  48) = (   0.5000000   0.0000000   3.7444315  )
        49           O0  tau(  49) = (   0.5127400   0.5024180   3.8591508  )
        50           H2  tau(  50) = (   0.3682800   0.5024180   3.9080760  )

     number of k points=     9  Methfessel-Paxton smearing, width (Ry)=  0.0100
                       cart. coord. in units 2pi/alat
        k(    1) = (   0.0000000   0.0000000   0.0000000), wk =   0.1250000
        k(    2) = (   0.0000000   0.2487968   0.0000000), wk =   0.2500000
        k(    3) = (   0.0000000  -0.4975937   0.0000000), wk =   0.1250000
        k(    4) = (   0.2500000   0.0000000   0.0000000), wk =   0.2500000
        k(    5) = (   0.2500000   0.2487968   0.0000000), wk =   0.5000000
        k(    6) = (   0.2500000  -0.4975937   0.0000000), wk =   0.2500000
        k(    7) = (  -0.5000000   0.0000000   0.0000000), wk =   0.1250000
        k(    8) = (  -0.5000000   0.2487968   0.0000000), wk =   0.2500000
        k(    9) = (  -0.5000000  -0.4975937   0.0000000), wk =   0.1250000

     Largest allocated arrays     est. size (Mb)     dimensions
     Largest temporary arrays     est. size (Mb)     dimensions

     Check: negative/imaginary core charge=   -0.000003    0.000000

     Initial potential from superposition of free atoms
     Check: negative starting charge=   -3.073680

     starting charge  446.99976, renormalised to  455.00000

     negative rho (up, down):  0.313E+01 0.000E+00
     Starting wfc are  325 randomized atomic wfcs

     Self-consistent Calculation

     iteration #  1     ecut=    40.00 Ry     beta=0.30
     Davidson diagonalization with overlap
     ethr =  1.00E-02,  avg # of iterations =  6.6

     negative rho (up, down):  0.308E+01 0.000E+00

     total energy              =   -4374.26789079 Ry
     Harris-Foulkes estimate   =   -4404.54067028 Ry
     estimated scf accuracy    <      63.74340189 Ry

[...]

     End of self-consistent calculation

          k = 0.0000 0.0000 0.0000 ( 43825 PWs)   bands (ev):

   -54.3235 -54.2811 -54.2730 -54.2669 -54.2359 -54.2271 -54.2182 -54.2171
   -54.1819 -54.1635 -54.1585 -54.1467 -54.1432 -54.1258 -54.1178 -54.1076
   -54.1032 -54.0599 -54.0587 -54.0563 -54.0517 -54.0505 -54.0237 -54.0043
   -54.0033 -54.0022 -53.9960 -53.9321 -53.9207 -53.8949 -53.8924 -53.8924
   -53.8874 -53.8852 -53.8574 -53.8167 -53.8067 -53.8031 -53.8010 -53.7454
   -53.7378 -53.6100 -53.5059 -53.4971 -53.3382 -53.3043 -53.2991 -53.1736
   -20.0756 -19.8151 -19.6152 -19.5107 -19.4243 -19.1205 -18.9696 -18.8989
   -18.8605 -18.8578 -18.8216 -18.8055 -18.8003 -18.7393 -18.7109 -18.6513
   -18.6469 -18.6097 -18.5695 -18.5111 -18.4414 -18.4337 -18.3389 -18.2771
   -18.2255 -18.1845 -18.1262 -18.0425 -18.0115 -17.2779 -17.1833 -17.1784
   -17.1160  -8.9939  -8.9787  -8.9376  -8.6415  -8.6082  -8.5252  -7.7445
    -7.6823  -7.6078  -7.5992  -7.5507  -7.5471  -7.5285  -7.4507  -7.4425
    -7.4343  -7.4200  -7.4178  -7.3700  -7.3621  -7.3443  -7.1982  -7.1873
    -7.0852  -7.0670  -7.0103  -6.9756  -6.8907  -6.8546  -6.7785  -6.7740
    -6.7674  -6.7378  -6.5277  -6.5127  -6.3771  -6.3757  -6.2254  -6.0679
    -5.8938  -5.5989  -5.5818  -5.4088  -5.3571  -5.3298  -5.2552  -5.2480
    -5.2147  -5.1579  -5.1425  -5.0187  -5.0097  -4.7082  -4.7033  -4.6755
    -4.6582  -4.5785  -4.5460  -4.5081  -4.4353  -4.2533  -4.2087  -4.1267
    -4.0904  -4.0226  -3.9979  -3.9472  -3.9410  -3.8479  -3.7652  -3.7321
    -3.7189  -3.7024  -3.6905  -3.6703  -3.6044  -3.5091  -3.4978  -3.4417
    -3.3113  -3.2996  -3.2256  -3.2029  -3.1755  -3.1674  -3.1452  -3.1236
    -3.1056  -3.1028  -3.0988  -3.0484  -3.0398  -3.0374  -2.9388  -2.8944
[...]
Pt1      0.250000000   0.500000000   0.365530000    0   0   0
Pt1      0.000000000   0.000000000   0.365530000    0   0   0
O0       0.250000000   0.810000000   0.365530000    0   0   0
O0       0.250000000   0.190000000   0.365530000    0   0   0
O0       0.000000000   0.500000000   0.399590000    0   0   0
O0       0.000000000   0.000000000   0.421110000    0   0   0
Pt1      0.250000000   0.000000000   0.455180000    0   0   0
Pt1      0.000000000   0.500000000   0.455180000    0   0   0
O0       0.250000000   0.690000000   0.455180000    0   0   0
O0       0.250000000   0.310000000   0.455180000    0   0   0
O0       0.000000000   0.000000000   0.489240000    0   0   0
O0       0.000373694   0.500000000   0.510421514
Pt1      0.251018365   0.500000000   0.544063614
Pt1      0.000198949   0.000000000   0.544546638
O0       0.250464934   0.809170116   0.545250068
O0       0.250464934   0.190829884   0.545250068
O0       0.000602787   0.500000000   0.577934955
O0       0.000060351   0.000000000   0.600051678
Pt1      0.249674315   0.000000000   0.634335267
Pt1     -0.001999279   0.500000000   0.633467575
O0       0.246896108   0.689387444   0.639100840
O0       0.246896108   0.310612556   0.639100840
O0      -0.000219839   0.000000000   0.667660266
O0       0.500000000   0.500000000   0.331460000    0   0   0
Pt1      0.750000000   0.500000000   0.365530000    0   0   0
Pt1      0.500000000   0.000000000   0.365530000    0   0   0
O0       0.750000000   0.810000000   0.365530000    0   0   0
O0       0.750000000   0.190000000   0.365530000    0   0   0
O0       0.500000000   0.500000000   0.399590000    0   0   0
O0       0.500000000   0.000000000   0.421110000    0   0   0
Pt1      0.750000000   0.000000000   0.455180000    0   0   0
Pt1      0.500000000   0.500000000   0.455180000    0   0   0
O0       0.750000000   0.690000000   0.455180000    0   0   0
O0       0.750000000   0.310000000   0.455180000    0   0   0
O0       0.500000000   0.000000000   0.489240000    0   0   0
O0       0.500293679   0.500000000   0.509928810
Pt1      0.749603562   0.500000000   0.544096886
Pt1      0.500207538   0.000000000   0.544579817
O0       0.750015348   0.809180815   0.545004601
O0       0.750015348   0.190819185   0.545004601
O0       0.499928872   0.500000000   0.578555070
O0       0.500010768   0.000000000   0.600017032
Pt1      0.749963671   0.000000000   0.634268812
Pt1      0.498691093   0.500000000   0.635796097
O0       0.750869791   0.690039362   0.638170043
O0       0.750869791   0.309960638   0.638170043
O0       0.499819285   0.000000000   0.667443461
O0       0.513212152   0.500000000   0.689859139
H2       0.369590748   0.500000000   0.699021175

     Check: negative starting charge=   -3.073266
     NEW-OLD atomic charge density approx. for the potential

     Check: negative/imaginary core charge=   -0.000003    0.000000
     Check: negative starting charge=   -3.073130

[...]

     Self-consistent Calculation

[...]

     total energy              =   -4392.53833499 Ry
     Harris-Foulkes estimate   =   -4392.53833499 Ry
     estimated scf accuracy    <       0.00000001 Ry

     iteration # 19     ecut=    40.00 Ry     beta=0.30
     Davidson diagonalization with overlap
     ethr =  2.74E-12,  avg # of iterations =  1.0

     negative rho (up, down):  0.316E+01 0.000E+00

     End of self-consistent calculation

[...]

          k = 0.2500-0.4976 0.0000 ( 43762 PWs)   bands (ev):

[...]

          k =-0.5000-0.4976 0.0000 ( 43684 PWs)   bands (ev):

   -54.2599 -54.2566 -54.2350 -54.2292 -54.2228 -54.2035 -54.1991 -54.1942
   -54.1766 -54.1765 -54.1355 -54.1122 -54.1119 -54.1106 -54.0998 -54.0960
   -54.0901 -54.0848 -54.0704 -54.0110 -54.0044 -54.0030 -54.0022 -53.9748
   -53.9744 -53.9738 -53.9680 -53.9014 -53.8909 -53.8820 -53.8677 -53.8666
   -53.8566 -53.8564 -53.8471 -53.8289 -53.8099 -53.7982 -53.7969 -53.7221
   -53.7136 -53.7124 -53.4714 -53.4673 -53.4392 -53.2865 -53.2719 -53.2682
   -19.3620 -19.2755 -19.2666 -19.2541 -19.0609 -19.0607 -19.0543 -18.9992
   -18.8856 -18.8818 -18.8759 -18.8502 -18.8038 -18.7905 -18.7610 -18.7494
   -18.6105 -18.5967 -18.5841 -18.5703 -18.5678 -18.5203 -18.5105 -18.4871
   -18.4778 -18.4149 -18.3965 -18.3343 -18.0602 -17.2853 -17.2673 -17.1876
   -17.1828  -8.0691  -8.0234  -8.0033  -7.9864  -7.4558  -7.4517  -7.4263
    -7.4256  -7.3685  -7.3677  -7.3630  -7.3023  -7.2741  -7.2658  -7.2620
    -7.2269  -7.0215  -7.0150  -7.0022  -6.9949  -6.9334  -6.9318  -6.9252
    -6.9224  -6.8400  -6.8396  -6.8390  -6.8004  -6.7120  -6.6812  -6.6808
    -6.6647  -6.6096  -6.5584  -6.5559  -6.5127  -6.4322  -6.3927  -6.3854
    -6.3841  -6.0940  -5.9505  -5.9026  -5.9010  -5.8037  -5.5527  -5.5382
    -5.5059  -5.4160  -5.2816  -5.2737  -5.2713  -5.2662  -5.2303  -5.2178
    -5.2031  -5.1851  -5.1272  -5.1153  -5.1069  -5.0543  -5.0383  -4.9995
    -4.9828  -4.8266  -4.6978  -4.6737  -4.6484  -4.6086  -4.5944  -4.5752
    -4.5677  -4.3536  -4.2248  -4.1711  -4.1165  -4.0787  -3.7130  -3.5949
    -3.5892  -3.5638  -3.4312  -3.4027  -3.3988  -3.3900  -3.3594  -3.2492
    -3.2406  -3.1818  -3.1756  -3.1419  -3.1368  -3.0975  -2.8574  -2.8271
    -2.7741  -2.7021  -2.3485  -2.0745  -2.0431  -2.0344  -1.9071  -1.8985
    -1.8901  -1.8588  -1.8339  -1.7964  -1.7656  -1.7591  -1.7589  -1.6752
    -1.6419  -1.6352  -1.6231  -1.5507  -1.4940  -1.4850  -1.4059  -1.3957
    -1.3882  -1.3558  -1.3025  -1.2410  -0.9504  -0.9491  -0.9390  -0.9078
    -0.8380  -0.6604  -0.6540  -0.6496  -0.6396  -0.6346  -0.5227  -0.4921
    -0.4841  -0.4820  -0.4562  -0.4156  -0.3764  -0.3732  -0.3138  -0.3122
    -0.3063  -0.2834  -0.1671  -0.0377   0.4866   0.4908   0.6211   0.9607
     0.9822   1.0032   1.0064   1.0894   1.1454   1.1468   1.2814   1.4236
     1.4573   1.5106   1.5151   2.0051   2.2119   2.2972   2.3106   2.4535
     2.6373   2.6415   2.6785   2.9492   3.1415   3.1637   3.1936   3.2654
     3.3818   3.3900   3.4263   3.4291   5.9057   5.9058   6.1777   6.9917
     7.3154   7.3289   7.3968   7.4294   7.6466   7.8156   7.8383   7.9578
     8.0367   8.0811   8.1354   8.1575   8.1701   8.1882   8.1961   8.2133
     8.4650   8.4920   8.5111   8.5496   8.6509   8.6664   8.7179   8.7192
     9.0837   9.1298   9.1518   9.2052   9.2405   9.2930   9.3080   9.3676
     9.7716   9.8473   9.9047   9.9286  10.0458  10.1821  10.2216  10.2861
    10.5042  10.5192  10.5831  10.5937  10.6973  10.7254  10.7262  10.7471
    10.7602  10.7758  10.7906  10.9532  10.9602  11.1197  11.1287  11.1422
    11.5494  11.5967  11.6023  11.6399  11.8923  11.9033  11.9913  12.0768
    12.2437  12.3390  12.3823  12.4345  12.7786  12.8921  12.9032  12.9569
    12.9915  13.1955  13.2025  13.2223  13.2633  13.3062  13.3254  13.5062
    13.5170  13.6987  13.7522  13.7567  13.8306  13.8686  13.9954  14.0499
    14.0534  14.1294  14.1730  14.1804  14.2049  14.2430  14.2570  14.3153
    14.3977  14.4030  14.4808  14.4996  14.5595  14.5808  14.6396  14.7683
    14.7906  14.8277  14.9525  14.9678  15.0408  15.0870  15.1342  15.1482
    15.1765  15.1851  15.2514  15.2581  15.2739  15.2818  15.2996  15.3134
    15.3687  15.3785  15.4194  15.4361  15.4923  15.5186  15.5416  15.5458
    15.5595  15.5605  15.6135  15.6477  15.6501  15.6787  15.6926  15.7588
    15.8304  15.8392  15.8754  15.9428  16.0175  16.0307  16.0628  16.0833
    16.0913  16.1514  16.1623  16.1728  16.2442  16.2703  16.2876  16.3608
    16.3730  16.3982  16.4295  16.5020  16.5906  16.5966  16.6162  16.6864
    16.7191  16.7803  16.7913  16.8247  16.8421  16.8770  16.8911  16.9148
    16.9367  16.9961  17.1306  17.1424  17.1434  17.2415  17.2491  17.2936
    17.3402  17.3792  17.4002  17.4662  17.5012  17.5834  17.5932  17.6419
    17.6794  17.7241  17.7395  17.7523  17.9834  17.9850  17.9953  18.0236
    18.0487  18.0504  18.0559  18.0647  18.0665  18.1276  18.1360  18.1576
    18.1809  18.2327  18.2729  18.3120  18.3181  18.3224  18.3459  18.3665
    18.4123  18.4236  18.4494  18.4909  18.5340  18.6351  18.7337  18.7397
[...]
    23.1036  23.2095  23.2245  23.2742  23.2971  23.3454  23.3525  23.3573
    23.3602  23.3651  23.4201  23.4303  23.4856  23.5145  23.5214  23.6225
    23.6444  23.6831  23.7472  23.7643  23.7844  23.8748  23.8804  23.9213
    23.9457  24.0322  24.1010  24.1053  24.1505  24.1611  24.2029  24.2836
    24.2899  24.3858  24.4094  24.4611  24.4949  24.4998  24.5997  24.6331
    24.6987  24.7594  24.7952  24.8534  24.9544  24.9914  25.0763  25.1384
    25.1477  25.1988  25.2104  25.2142  25.2260  25.2745  25.3009  25.3065
    25.3201  25.4020  25.4070  25.5243  25.5321  25.5638  25.5847  25.6481
    25.6911  25.7180  25.7948  25.8065  25.8306  25.8700  25.8908  25.9191
    26.0196  26.0227  26.0546  26.1010  26.1311  26.2777  26.3010  26.3525
    26.3922  26.4305  26.4390  26.4985  26.5623  26.5888  26.6626  26.7031
    26.7076  26.9098  26.9272  26.9610  27.0170  27.0402  27.0474  27.1436
    27.2639  27.2742  27.2896  27.2991  27.3355  27.6057  27.6826  27.8075
    27.8207  27.8747  27.8898  27.8931  27.9292  27.9403  27.9603  28.0460
    28.1165  28.1318

     the Fermi energy is     0.1779 ev

!    total energy              =   -4392.53833499 Ry
     Harris-Foulkes estimate   =   -4392.53833499 Ry
     estimated scf accuracy    <          3.4E-09 Ry

     The total energy is the sum of the following terms:

     one-electron contribution =  -82156.14606302 Ry
     hartree contribution      =   41175.82592702 Ry
     xc contribution           =   -1104.17620171 Ry
     ewald contribution        =   37691.95877147 Ry
     smearing contrib. (-TS)   =      -0.00076874 Ry

     convergence has been achieved in  19 iterations

     Forces acting on atoms (Ry/au):

     negative rho (up, down):  0.316E+01 0.000E+00
     atom    1 type  1   force =    -0.00002517    0.00000000    0.01457067
     atom    2 type  2   force =     0.00196100    0.00000000   -0.00501859
     atom    3 type  2   force =    -0.00001515    0.00000000    0.00492744
     atom    4 type  1   force =    -0.00004650   -0.00054918   -0.02894624
     atom    5 type  1   force =    -0.00004650    0.00054918   -0.02894624
     atom    6 type  1   force =    -0.00014591    0.00000000    0.01115246
     atom    7 type  1   force =     0.00004039    0.00000000    0.02308269
     atom    8 type  2   force =     0.00046180    0.00000000    0.01509477
     atom    9 type  2   force =     0.00038527    0.00000000   -0.01634217
     atom   10 type  1   force =     0.00029228    0.00589353    0.00047937
     atom   11 type  1   force =     0.00029228   -0.00589353    0.00047937
     atom   12 type  1   force =     0.00056711    0.00000000    0.01286178
     atom   13 type  1   force =    -0.00017243    0.00000000    0.00081517
     atom   14 type  2   force =    -0.00014356    0.00000000    0.00033702
     atom   15 type  2   force =    -0.00010547    0.00000000    0.00031887
     atom   16 type  1   force =    -0.00019353    0.00004669   -0.00014309
     atom   17 type  1   force =    -0.00019353   -0.00004669   -0.00014309
     atom   18 type  1   force =    -0.00021266    0.00000000    0.00017797
     atom   19 type  1   force =    -0.00051421    0.00000000    0.00026071
     atom   20 type  2   force =    -0.00014929    0.00000000    0.00007194
     atom   21 type  2   force =     0.00048320    0.00000000    0.00026206
     atom   22 type  1   force =     0.00054792    0.00040203   -0.00008048
     atom   23 type  1   force =     0.00054792   -0.00040203   -0.00008048
     atom   24 type  1   force =    -0.00056493    0.00000000   -0.00055943
     atom   25 type  1   force =    -0.00002993    0.00000000    0.01348127
     atom   26 type  2   force =    -0.00186320    0.00000000   -0.00501116
     atom   27 type  2   force =    -0.00001375    0.00000000    0.00504324
     atom   28 type  1   force =     0.00005965   -0.00057078   -0.02896994
     atom   29 type  1   force =     0.00005965    0.00057078   -0.02896994
     atom   30 type  1   force =    -0.00016933    0.00000000    0.00448887
     atom   31 type  1   force =     0.00005400    0.00000000    0.02372737
     atom   32 type  2   force =    -0.00064551    0.00000000    0.01534094
     atom   33 type  2   force =     0.00055426    0.00000000   -0.01532212
     atom   34 type  1   force =    -0.00023960    0.00582039    0.00033046
     atom   35 type  1   force =    -0.00023960   -0.00582039    0.00033046
     atom   36 type  1   force =    -0.00002590    0.00000000    0.01296685
     atom   37 type  1   force =    -0.00011507    0.00000000   -0.00020820
     atom   38 type  2   force =    -0.00027294    0.00000000    0.00046528
     atom   39 type  2   force =    -0.00009811    0.00000000   -0.00013010
     atom   40 type  1   force =     0.00001176    0.00005388   -0.00050571
     atom   41 type  1   force =     0.00001176   -0.00005388   -0.00050571
     atom   42 type  1   force =    -0.00012463    0.00000000    0.00024458
     atom   43 type  1   force =    -0.00046017    0.00000000   -0.00006586
     atom   44 type  2   force =    -0.00053948    0.00000000    0.00005232
     atom   45 type  2   force =     0.00046774    0.00000000    0.00002678
     atom   46 type  1   force =     0.00027881    0.00055030   -0.00035294
     atom   47 type  1   force =     0.00027881   -0.00055030   -0.00035294
     atom   48 type  1   force =    -0.00044244    0.00000000    0.00070326
     atom   49 type  1   force =    -0.00003370    0.00000000   -0.00096526
     atom   50 type  3   force =     0.00048660    0.00000000   -0.00047426

     Total force =     0.002857     Total SCF correction =     0.000187

     bfgs converged in  16 scf cycles and  15 bfgs steps
     (criteria: energy < 0.10E-03, force < 0.10E-02)

     End of BFGS Geometry Optimization

     Final energy   =   -4392.5383349914 Ry
Begin final coordinates

ATOMIC_POSITIONS (crystal)
O0       0.000000000   0.500000000   0.331460000    0   0   0
Pt1      0.250000000   0.500000000   0.365530000    0   0   0
Pt1      0.000000000   0.000000000   0.365530000    0   0   0
O0       0.250000000   0.810000000   0.365530000    0   0   0
O0       0.250000000   0.190000000   0.365530000    0   0   0
O0       0.000000000   0.500000000   0.399590000    0   0   0
O0       0.000000000   0.000000000   0.421110000    0   0   0
Pt1      0.250000000   0.000000000   0.455180000    0   0   0
Pt1      0.000000000   0.500000000   0.455180000    0   0   0
O0       0.250000000   0.690000000   0.455180000    0   0   0
O0       0.250000000   0.310000000   0.455180000    0   0   0
O0       0.000000000   0.000000000   0.489240000    0   0   0
O0       0.000373694   0.500000000   0.510421514
Pt1      0.251018365   0.500000000   0.544063614
Pt1      0.000198949   0.000000000   0.544546638
O0       0.250464934   0.809170116   0.545250068
O0       0.250464934   0.190829884   0.545250068
O0       0.000602787   0.500000000   0.577934955
O0       0.000060351   0.000000000   0.600051678
Pt1      0.249674315   0.000000000   0.634335267
Pt1     -0.001999279   0.500000000   0.633467575
O0       0.246896108   0.689387444   0.639100840
O0       0.246896108   0.310612556   0.639100840
O0      -0.000219839   0.000000000   0.667660266
O0       0.500000000   0.500000000   0.331460000    0   0   0
Pt1      0.750000000   0.500000000   0.365530000    0   0   0
Pt1      0.500000000   0.000000000   0.365530000    0   0   0
O0       0.750000000   0.810000000   0.365530000    0   0   0
O0       0.750000000   0.190000000   0.365530000    0   0   0
O0       0.500000000   0.500000000   0.399590000    0   0   0
O0       0.500000000   0.000000000   0.421110000    0   0   0
Pt1      0.750000000   0.000000000   0.455180000    0   0   0
Pt1      0.500000000   0.500000000   0.455180000    0   0   0
O0       0.750000000   0.690000000   0.455180000    0   0   0
O0       0.750000000   0.310000000   0.455180000    0   0   0
O0       0.500000000   0.000000000   0.489240000    0   0   0
O0       0.500293679   0.500000000   0.509928810
Pt1      0.749603562   0.500000000   0.544096886
Pt1      0.500207538   0.000000000   0.544579817
O0       0.750015348   0.809180815   0.545004601
O0       0.750015348   0.190819185   0.545004601
O0       0.499928872   0.500000000   0.578555070
O0       0.500010768   0.000000000   0.600017032
Pt1      0.749963671   0.000000000   0.634268812
Pt1      0.498691093   0.500000000   0.635796097
O0       0.750869791   0.690039362   0.638170043
O0       0.750869791   0.309960638   0.638170043
O0       0.499819285   0.000000000   0.667443461
O0       0.513212152   0.500000000   0.689859139
H2       0.369590748   0.500000000   0.699021175
End final coordinates

     General routines

     Parallel routines

   This run was terminated on:  20:13:58  18Apr2014

   JOB DONE.