     Program PWSCF v.5.0.2 (svn rev. 9656) starts on 30Apr2014 at  3:20:41

     Current dimensions of program PWSCF are:
     Max number of different atomic species (ntypx) = 10
     Max number of k-points (npk) =  40000
     Max angular momentum in pseudopotentials (lmaxx) =  3
     Reading input from pwscf.in
Warning: card &CELL ignored
Warning: card / ignored

     Subspace diagonalization in iterative solution of the eigenvalue problem:
     a serial algorithm will be used

     bravais-lattice index     =            0
     lattice parameter (alat)  =      11.2250  a.u.
     unit-cell volume          =    7005.5484 (a.u.)^3
     number of atoms/cell      =           32
     number of atomic types    =            3
     number of electrons       =       215.00
     number of Kohn-Sham states=          310
     kinetic-energy cutoff     =      40.0000  Ry
     charge density cutoff     =     500.0000  Ry
     convergence threshold     =      1.0E-06
     mixing beta               =       0.7000
     number of iterations used =            8  plain     mixing
     Exchange-correlation      = SLA  PW   PBE  PBE ( 1 4 3 4 0)
     EXX-fraction              =        0.00
     nstep                     =           50

     celldm(1)=  11.224973  celldm(2)=   0.000000  celldm(3)=   0.000000
     celldm(4)=   0.000000  celldm(5)=   0.000000  celldm(6)=   0.000000

     crystal axes: (cart. coord. in units of alat)
               a(1) = (   1.000000   0.000000   0.000000 )
               a(2) = (   0.000000   1.107086   0.000000 )
               a(3) = (   0.000000   0.000000   4.474090 )

     reciprocal axes: (cart. coord. in units 2 pi/alat)
               b(1) = (  1.000000  0.000000  0.000000 )
               b(2) = (  0.000000  0.903272  0.000000 )
               b(3) = (  0.000000  0.000000  0.223509 )

     PseudoPot. # 1 for O  read from file:
     /home/camp/zhonxu/pseudo/o_pbe_v1.01.uspp.F.UPF
     MD5 check sum: 2bcb18d16ea4b960afae9ec6d52f22d2
     Pseudo is Ultrasoft + core correction, Zval =  6.0
     Generated by new atomic code, or converted to UPF format
     Using radial grid of  737 points,  5 beta functions with:
                l(1) =   0
                l(2) =   0
                l(3) =   1
                l(4) =   1
                l(5) =   2
     Q(r) pseudized with  8 coefficients,  rinner =    0.900   0.900   0.900
                                                       0.900   0.900

     PseudoPot. # 2 for Ti read from file:
     /home/camp/zhonxu/pseudo/ti_pbe_v1.uspp.F.UPF
     MD5 check sum: bcc8f6961b3b91f0cac3ca967d22d0fb
     Pseudo is Ultrasoft + core correction, Zval = 12.0
     Generated by new atomic code, or converted to UPF format
     Using radial grid of  851 points,  6 beta functions with:
                l(1) =   0
                l(2) =   0
                l(3) =   1
                l(4) =   1
                l(5) =   2
                l(6) =   2
     Q(r) pseudized with  6 coefficients,  rinner =    1.000   1.000   1.000
                                                       1.000   1.000

     PseudoPot. # 3 for H  read from file:
     /home/camp/zhonxu/pseudo/h_pbe_v1.uspp.F.UPF
     MD5 check sum: 3408e3ff4ec8b0a4e358431e7e038a48
     Pseudo is Ultrasoft, Zval =  1.0
     Generated by new atomic code, or converted to UPF format
     Using radial grid of  615 points,  2 beta functions with:
                l(1) =   0
                l(2) =   0
     Q(r) pseudized with  8 coefficients,  rinner =    0.700

     atomic species   valence    mass     pseudopotential
        O0             6.00    15.99940     O ( 1.00)
        Ti1           12.00    47.88000     Ti( 1.00)
        H2             1.00     1.00794     H ( 1.00)

     Simplified LDA+U calculation (l_max = 2) with parameters (eV):
     atomic species    L          U    alpha       J0     beta
        Ti1            2     6.0000   0.0000   0.0000   0.0000

     No symmetry found

   Cartesian axes

     site n.     atom                  positions (alat units)
         1           O0  tau(   1) = (   0.0000000   0.0000000   1.6864186  )
         2           O0  tau(   2) = (   0.0000000   0.5535432   1.7740213  )
         3           Ti1 tau(   3) = (   0.2500000   0.5535432   2.0074793  )
         4           Ti1 tau(   4) = (   0.0000000   0.0000000   2.0324447  )
         5           O0  tau(   5) = (   0.2500000   0.8967400   2.0044817  )
         6           O0  tau(   6) = (   0.2500000   0.2103464   2.0092242  )
         7           O0  tau(   7) = (   0.0000000   0.5535432   2.2196854  )
         8           O0  tau(   8) = (   0.0000000   0.0000000   2.3507315  )
         9           Ti1 tau(   9) = (   0.2500000   0.0000000   2.6021753  )
        10           Ti1 tau(  10) = (   0.0000000   0.5535432   2.5345718  )
        11           O0  tau(  11) = (   0.2500000   0.7638896   2.5931377  )
        12           O0  tau(  12) = (   0.2500000   0.3431968   2.5930482  )
        13           O0  tau(  13) = (   0.0000000   0.0000000   2.7844945  )
        14           O0  tau(  14) = (   0.5000000   0.0000000   1.6873582  )
        15           O0  tau(  15) = (   0.5000000   0.5535432   1.7709789  )
        16           Ti1 tau(  16) = (   0.7500000   0.5535432   2.0079715  )
        17           Ti1 tau(  17) = (   0.5000000   0.0000000   2.0352187  )
        18           O0  tau(  18) = (   0.7500000   0.8967400   2.0040790  )
        19           O0  tau(  19) = (   0.7500000   0.2103464   2.0094479  )
        20           O0  tau(  20) = (   0.5000000   0.5535432   2.1971360  )
        21           O0  tau(  21) = (   0.5000000   0.0000000   2.3514026  )
        22           Ti1 tau(  22) = (   0.7500000   0.0000000   2.6024885  )
        23           Ti1 tau(  23) = (   0.5000000   0.5535432   2.6568935  )
        24           O0  tau(  24) = (   0.7500000   0.7638896   2.5904532  )
        25           O0  tau(  25) = (   0.7500000   0.3431968   2.5901848  )
        26           O0  tau(  26) = (   0.5000000   0.0000000   2.7844945  )
        27           H2  tau(  27) = (  -0.0007700   0.6889399   1.6773810  )
        28           H2  tau(  28) = (   0.4993300   0.6850208   1.6695513  )
        29           H2  tau(  29) = (   0.1496500   0.0435638   1.6275396  )
        30           H2  tau(  30) = (   0.6495100   0.0435638   1.6281213  )
        31           O0  tau(  31) = (   0.5047900   0.5534214   2.9586261  )
        32           H2  tau(  32) = (   0.3766100   0.5530007   3.0621118  )

     number of k points=    10  Methfessel-Paxton smearing, width (Ry)=  0.0100
                       cart. coord. in units 2pi/alat
        k(    1) = (   0.0000000   0.0000000   0.0000000), wk =   0.1250000
        k(    2) = (   0.0000000   0.2258180   0.0000000), wk =   0.2500000
        k(    3) = (   0.0000000  -0.4516359   0.0000000), wk =   0.1250000
        k(    4) = (   0.2500000   0.0000000   0.0000000), wk =   0.2500000
        k(    5) = (   0.2500000   0.2258180   0.0000000), wk =   0.2500000
        k(    6) = (   0.2500000  -0.4516359   0.0000000), wk =   0.2500000
        k(    7) = (  -0.5000000   0.0000000   0.0000000), wk =   0.1250000
        k(    8) = (  -0.5000000   0.2258180   0.0000000), wk =   0.2500000
        k(    9) = (  -0.5000000  -0.4516359   0.0000000), wk =   0.1250000
        k(   10) = (  -0.2500000   0.2258180   0.0000000), wk =   0.2500000

     Largest allocated arrays     est. size (Mb)     dimensions
     Largest temporary arrays     est. size (Mb)     dimensions

     Check: negative/imaginary core charge=   -0.000006    0.000000

     Initial potential from superposition of free atoms
     Check: negative starting charge=   -0.102331

     starting charge  206.99957, renormalised to  215.00000

     negative rho (up, down):  0.106E+00 0.000E+00
     Number of +U iterations with fixed ns =  0
     Starting occupations:
 --- enter write_ns ---
 LDA+U parameters:
U( 2)     =  6.00000000
alpha( 2) =  0.00000000
atom    3   Tr[ns(na)] =   2.00000
    eigenvalues:
  0.200  0.200  0.200  0.200  0.200
    eigenvectors:
  1.000  0.000  0.000  0.000  0.000
  0.000  1.000  0.000  0.000  0.000
  0.000  0.000  1.000  0.000  0.000
  0.000  0.000  0.000  1.000  0.000
  0.000  0.000  0.000  0.000  1.000
    occupations:
  0.200  0.000  0.000  0.000  0.000
  0.000  0.200  0.000  0.000  0.000
  0.000  0.000  0.200  0.000  0.000
  0.000  0.000  0.000  0.200  0.000
  0.000  0.000  0.000  0.000  0.200
atom    4   Tr[ns(na)] =   2.00000
    eigenvalues:
  0.200  0.200  0.200  0.200  0.200
    eigenvectors:
  1.000  0.000  0.000  0.000  0.000
  0.000  1.000  0.000  0.000  0.000
  0.000  0.000  1.000  0.000  0.000
  0.000  0.000  0.000  1.000  0.000
  0.000  0.000  0.000  0.000  1.000
    occupations:
  0.200  0.000  0.000  0.000  0.000
  0.000  0.200  0.000  0.000  0.000
  0.000  0.000  0.200  0.000  0.000
  0.000  0.000  0.000  0.200  0.000
  0.000  0.000  0.000  0.000  0.200
atom    9   Tr[ns(na)] =   2.00000
    eigenvalues:
  0.200  0.200  0.200  0.200  0.200
    eigenvectors:
  1.000  0.000  0.000  0.000  0.000
  0.000  1.000  0.000  0.000  0.000
  0.000  0.000  1.000  0.000  0.000
  0.000  0.000  0.000  1.000  0.000
  0.000  0.000  0.000  0.000  1.000
    occupations:
  0.200  0.000  0.000  0.000  0.000
  0.000  0.200  0.000  0.000  0.000
  0.000  0.000  0.200  0.000  0.000
  0.000  0.000  0.000  0.200  0.000
  0.000  0.000  0.000  0.000  0.200
atom   10   Tr[ns(na)] =   2.00000
    eigenvalues:
  0.200  0.200  0.200  0.200  0.200
    eigenvectors:
  1.000  0.000  0.000  0.000  0.000
  0.000  1.000  0.000  0.000  0.000
  0.000  0.000  1.000  0.000  0.000
  0.000  0.000  0.000  1.000  0.000
  0.000  0.000  0.000  0.000  1.000
    occupations:
  0.200  0.000  0.000  0.000  0.000
  0.000  0.200  0.000  0.000  0.000
  0.000  0.000  0.200  0.000  0.000
  0.000  0.000  0.000  0.200  0.000
  0.000  0.000  0.000  0.000  0.200
atom   16   Tr[ns(na)] =   2.00000
    eigenvalues:
  0.200  0.200  0.200  0.200  0.200
    eigenvectors:
  1.000  0.000  0.000  0.000  0.000
  0.000  1.000  0.000  0.000  0.000
  0.000  0.000  1.000  0.000  0.000
  0.000  0.000  0.000  1.000  0.000
  0.000  0.000  0.000  0.000  1.000
    occupations:
  0.200  0.000  0.000  0.000  0.000
  0.000  0.200  0.000  0.000  0.000
  0.000  0.000  0.200  0.000  0.000
  0.000  0.000  0.000  0.200  0.000
  0.000  0.000  0.000  0.000  0.200
atom   17   Tr[ns(na)] =   2.00000
    eigenvalues:
  0.200  0.200  0.200  0.200  0.200
    eigenvectors:
  1.000  0.000  0.000  0.000  0.000
  0.000  1.000  0.000  0.000  0.000
  0.000  0.000  1.000  0.000  0.000
  0.000  0.000  0.000  1.000  0.000
  0.000  0.000  0.000  0.000  1.000
    occupations:
  0.200  0.000  0.000  0.000  0.000
  0.000  0.200  0.000  0.000  0.000
  0.000  0.000  0.200  0.000  0.000
  0.000  0.000  0.000  0.200  0.000
  0.000  0.000  0.000  0.000  0.200
atom   22   Tr[ns(na)] =   2.00000
    eigenvalues:
  0.200  0.200  0.200  0.200  0.200
    eigenvectors:
  1.000  0.000  0.000  0.000  0.000
  0.000  1.000  0.000  0.000  0.000
  0.000  0.000  1.000  0.000  0.000
  0.000  0.000  0.000  1.000  0.000
  0.000  0.000  0.000  0.000  1.000
[...]
  0.133  0.160  0.173  0.437  0.444
    eigenvectors:
  0.007  0.002  0.000  0.001  0.990
  0.002  0.763  0.233  0.000  0.002
  0.001  0.232  0.767  0.000  0.000
  0.990  0.003  0.000  0.000  0.007
  0.000  0.000  0.000  0.999  0.001
    occupations:
  0.441  0.013  0.005 -0.025 -0.000
  0.013  0.164 -0.005 -0.000 -0.003
  0.005 -0.005  0.170  0.001 -0.000
 -0.025 -0.000  0.001  0.135 -0.000
 -0.000 -0.003 -0.000 -0.000  0.437
atom    9   Tr[ns(na)] =   2.68505
    eigenvalues:
  0.130  0.176  0.189  0.390  0.457
    eigenvectors:
  0.000  0.000  0.901  0.099  0.000
  0.000  0.000  0.000  0.000  1.000
  1.000  0.000  0.000  0.000  0.000
  0.000  0.000  0.099  0.901  0.000
  0.000  1.000  0.000  0.000  0.000
    occupations:
  0.209  0.001 -0.000  0.060  0.000
  0.001  0.457  0.000 -0.002 -0.000
 -0.000  0.000  0.130 -0.000 -0.000
  0.060 -0.002 -0.000  0.370  0.000
  0.000 -0.000 -0.000  0.000  0.176
atom   10   Tr[ns(na)] =   2.61327
    eigenvalues:
  0.133  0.187  0.199  0.327  0.460
    eigenvectors:
  0.022  0.000  0.000  0.978  0.000
  0.000  0.000  1.000  0.000  0.000
  0.000  1.000  0.000  0.000  0.000
  0.978  0.000  0.000  0.022  0.000
  0.000  0.000  0.000  0.000  1.000
    occupations:
  0.323  0.001 -0.001 -0.028 -0.000
  0.001  0.199 -0.000 -0.000  0.000
 -0.001 -0.000  0.187 -0.000 -0.001
 -0.028 -0.000 -0.000  0.137  0.000
 -0.000  0.000 -0.001  0.000  0.460
atom   16   Tr[ns(na)] =   2.61066
    eigenvalues:
  0.133  0.148  0.169  0.403  0.453
    eigenvectors:
  0.063  0.709  0.048  0.163  0.018
  0.003  0.003  0.002  0.210  0.782
  0.599  0.006  0.395  0.000  0.000
  0.017  0.150  0.008  0.626  0.198
  0.318  0.133  0.547  0.001  0.002
    occupations:
  0.195 -0.011 -0.004  0.100 -0.002
 -0.011  0.440 -0.002  0.028  0.013
 -0.004 -0.002  0.147  0.007  0.016
  0.100  0.028  0.007  0.368  0.001
 -0.002  0.013  0.016  0.001  0.155
atom   17   Tr[ns(na)] =   2.69205
    eigenvalues:
  0.131  0.163  0.174  0.432  0.446
    eigenvectors:
  0.007  0.002  0.000  0.000  0.991
  0.001  0.790  0.207  0.000  0.002
  0.001  0.206  0.793  0.000  0.000
  0.991  0.002  0.000  0.000  0.007
  0.000  0.000  0.000  0.999  0.000
    occupations:
  0.444  0.012  0.005 -0.026 -0.000
  0.012  0.166 -0.004 -0.000 -0.003
  0.005 -0.004  0.172  0.001 -0.000
 -0.026 -0.000  0.001  0.133 -0.000
 -0.000 -0.003 -0.000 -0.000  0.432
atom   22   Tr[ns(na)] =   2.68331
    eigenvalues:
  0.131  0.175  0.189  0.390  0.457
    eigenvectors:
  0.000  0.000  0.899  0.101  0.000
  0.000  0.000  0.000  0.000  1.000
  1.000  0.000  0.000  0.000  0.000
  0.000  0.000  0.101  0.899  0.000
  0.000  1.000  0.000  0.000  0.000
    occupations:
  0.209 -0.001 -0.000  0.061  0.000
 -0.001  0.457 -0.000  0.002 -0.000
 -0.000 -0.000  0.131 -0.000  0.000
  0.061  0.002 -0.000  0.370  0.000
  0.000 -0.000  0.000  0.000  0.175
atom   23   Tr[ns(na)] =   2.64610
    eigenvalues:
  0.113  0.185  0.222  0.386  0.416
    eigenvectors:
  0.012  0.021  0.000  0.966  0.000
  0.001  0.977  0.000  0.023  0.000
  0.000  0.000  1.000  0.000  0.000
  0.987  0.002  0.000  0.011  0.000
  0.000  0.000  0.000  0.000  1.000
    occupations:
  0.379  0.030  0.000 -0.029 -0.000
  0.030  0.190 -0.000 -0.001  0.000
  0.000 -0.000  0.222  0.000 -0.000
 -0.029 -0.001  0.000  0.116 -0.000
 -0.000  0.000 -0.000 -0.000  0.416
N of occupied +U levels =  21.2357366
 --- exit write_ns ---

[...]

     total energy              =   -1564.98892457 Ry
     Harris-Foulkes estimate   =   -1564.98892459 Ry
     estimated scf accuracy    <       0.00000024 Ry

     iteration # 12     ecut=    40.00 Ry     beta=0.70
     Davidson diagonalization with overlap
     ethr =  7.22E-11,  avg # of iterations =  1.0

     negative rho (up, down):  0.107E+00 0.000E+00

     End of self-consistent calculation
 --- enter write_ns ---
 LDA+U parameters:
U( 2)     =  6.00000000
alpha( 2) =  0.00000000
atom    3   Tr[ns(na)] =   2.60976
    eigenvalues:
  0.132  0.147  0.169  0.403  0.453
    eigenvectors:
  0.066  0.704  0.049  0.164  0.018
  0.003  0.003  0.002  0.208  0.784
  0.596  0.006  0.398  0.000  0.000
  0.018  0.151  0.008  0.627  0.196
  0.318  0.137  0.543  0.000  0.002
    occupations:
  0.195  0.011 -0.004  0.100  0.002
  0.011  0.440  0.003 -0.028  0.013
 -0.004  0.003  0.147  0.007 -0.016
  0.100 -0.028  0.007  0.368 -0.002
  0.002  0.013 -0.016 -0.002  0.155
atom    4   Tr[ns(na)] =   2.69584
    eigenvalues:
  0.133  0.161  0.173  0.437  0.444
    eigenvectors:
  0.007  0.002  0.000  0.001  0.990
  0.002  0.766  0.230  0.000  0.002
  0.001  0.229  0.770  0.000  0.000
  0.990  0.003  0.000  0.000  0.007
  0.000  0.000  0.000  0.999  0.001
    occupations:
  0.441  0.013  0.005 -0.025 -0.000
  0.013  0.164 -0.005 -0.000 -0.003
  0.005 -0.005  0.170  0.001 -0.000
 -0.025 -0.000  0.001  0.135 -0.000
 -0.000 -0.003 -0.000 -0.000  0.437
atom    9   Tr[ns(na)] =   2.68440
    eigenvalues:
  0.131  0.175  0.189  0.390  0.457
    eigenvectors:
  0.000  0.000  0.901  0.099  0.000
  0.000  0.000  0.000  0.000  1.000
  1.000  0.000  0.000  0.000  0.000
  0.000  0.000  0.099  0.900  0.000
  0.000  1.000  0.000  0.000  0.000
    occupations:
  0.209  0.001 -0.000  0.060  0.000
  0.001  0.457  0.000 -0.002 -0.000
 -0.000  0.000  0.131 -0.000 -0.000
  0.060 -0.002 -0.000  0.370  0.000
  0.000 -0.000 -0.000  0.000  0.175
atom   10   Tr[ns(na)] =   2.61395
    eigenvalues:
  0.133  0.188  0.199  0.328  0.460
    eigenvectors:
  0.022  0.000  0.000  0.978  0.000
  0.000  0.000  1.000  0.000  0.000
  0.000  1.000  0.000  0.000  0.000
  0.978  0.000  0.000  0.022  0.000
  0.000  0.000  0.000  0.000  1.000
    occupations:
  0.323  0.001 -0.001 -0.028 -0.000
  0.001  0.199 -0.000 -0.000  0.000
 -0.001 -0.000  0.188 -0.000 -0.001
 -0.028 -0.000 -0.000  0.137  0.000
 -0.000  0.000 -0.001  0.000  0.460
atom   16   Tr[ns(na)] =   2.60997
    eigenvalues:
  0.133  0.148  0.169  0.403  0.453
    eigenvectors:
  0.062  0.709  0.048  0.163  0.018
  0.003  0.003  0.002  0.210  0.782
  0.599  0.006  0.395  0.000  0.000
  0.017  0.151  0.008  0.626  0.198
  0.319  0.133  0.546  0.001  0.002
    occupations:
  0.195 -0.011 -0.004  0.100 -0.002
 -0.011  0.440 -0.002  0.028  0.013
 -0.004 -0.002  0.147  0.007  0.016
  0.100  0.028  0.007  0.368  0.001
 -0.002  0.013  0.016  0.001  0.155
atom   17   Tr[ns(na)] =   2.69325
    eigenvalues:
  0.131  0.163  0.174  0.432  0.446
    eigenvectors:
  0.007  0.002  0.000  0.000  0.991
  0.001  0.791  0.206  0.000  0.002
  0.001  0.205  0.794  0.000  0.000
  0.991  0.002  0.000  0.000  0.007
  0.000  0.000  0.000  0.999  0.000
    occupations:
  0.444  0.012  0.005 -0.026 -0.000
  0.012  0.166 -0.004 -0.000 -0.003
  0.005 -0.004  0.172  0.001 -0.000
 -0.026 -0.000  0.001  0.133 -0.000
 -0.000 -0.003 -0.000 -0.000  0.432
atom   22   Tr[ns(na)] =   2.68259
    eigenvalues:
  0.131  0.175  0.188  0.390  0.457
    eigenvectors:
  0.000  0.000  0.899  0.101  0.000
  0.000  0.000  0.000  0.000  1.000
  1.000  0.000  0.000  0.000  0.000
  0.000  0.000  0.101  0.898  0.000
  0.000  1.000  0.000  0.000  0.000
    occupations:
  0.209 -0.001 -0.000  0.061  0.000
 -0.001  0.457 -0.000  0.002 -0.000
 -0.000 -0.000  0.131 -0.000  0.000
  0.061  0.002 -0.000  0.370  0.000
  0.000 -0.000  0.000  0.000  0.175
atom   23   Tr[ns(na)] =   2.64784
    eigenvalues:
  0.113  0.186  0.222  0.387  0.416
    eigenvectors:
  0.012  0.022  0.000  0.966  0.000
  0.001  0.976  0.000  0.023  0.000
  0.000  0.000  1.000  0.000  0.000
  0.987  0.002  0.000  0.011  0.000
  0.000  0.000  0.000  0.000  1.000
    occupations:
  0.379  0.030  0.000 -0.029 -0.000
  0.030  0.190 -0.000 -0.001  0.000
  0.000 -0.000  0.222  0.000 -0.000
 -0.029 -0.001  0.000  0.116 -0.000
 -0.000  0.000 -0.000 -0.000  0.416
N of occupied +U levels =  21.2375945
 --- exit write_ns ---

[...]

          k = 0.2500-0.4516 0.0000 ( 29882 PWs)   bands (ev):

[...]

          k =-0.2500 0.2258 0.0000 ( 29912 PWs)   bands (ev):

   -61.4042 -61.3791 -61.2504 -60.7407 -60.4435 -60.4141 -59.9760 -59.9491
   -37.7823 -37.6043 -37.5701 -37.5503 -37.5341 -37.5129 -37.4546 -37.3955
   -37.3671 -36.9742 -36.9183 -36.9120 -36.8990 -36.7257 -36.6569 -36.6142
   -36.4958 -36.4680 -36.2672 -36.2589 -36.2353 -36.1644 -36.1011 -35.9741
   -21.5673 -21.3363 -20.5442 -20.3184 -20.2291 -19.8966 -19.6936 -19.6358
   -19.5578 -19.4627 -19.3814 -19.3320 -19.2837 -19.2190 -19.1939 -18.7222
   -18.4847 -18.0690 -18.0523  -9.2351  -8.9958  -8.0999  -7.7790  -7.6859
    -7.5135  -7.2413  -7.2134  -7.0909  -6.9141  -6.8803  -6.8058  -6.7645
    -6.6898  -6.6247  -6.5224  -6.4179  -6.3838  -6.2375  -6.1607  -5.9541
    -5.9104  -5.7470  -5.6434  -5.4288  -5.3064  -5.2940  -5.1718  -5.1094
    -5.0585  -4.9909  -4.9633  -4.8931  -4.8600  -4.7276  -4.7192  -4.6895
    -4.5860  -4.4837  -4.3391  -4.2706  -4.2233  -4.1698  -3.9587  -3.8495
    -3.7139  -3.5946  -3.5231  -3.4332  -3.3873  -3.2882  -3.1797  -3.0591
    -2.9512  -2.9167  -2.8457  -2.7106  -0.0961   0.0939   0.2067   0.2829
     0.3026   0.4981   0.5903   0.6422   0.7267   0.8012   0.9213   1.0232
     1.1219   1.1489   1.2262   1.2735   1.2967   1.3655   1.4641   1.5810
     1.5987   1.7028   1.7299   1.7903   1.8471   1.9084   1.9369   2.0236
     2.0816   2.2276   2.4478   2.6029   2.6622   2.8565   3.0614   3.0972
     3.3467   3.3907   3.5107   3.5826   3.6961   3.8553   4.2190   4.6463
     5.0582   5.2475   5.3053   5.6293   5.8555   5.9667   6.1684   6.2341
     6.3081   6.5495   6.5984   6.9079   7.0017   7.2941   7.3306   7.4766
     7.7045   7.7536   7.8669   7.9678   7.9984   8.1152   8.1956   8.3983
     8.4999   8.5907   8.7696   8.7875   8.8980   8.9632   9.2587   9.3800
     9.4015   9.4498   9.5666   9.6244   9.6962   9.8469   9.9837  10.0583
    10.1291  10.2576  10.3130  10.4476  10.5243  10.6298  10.7652  10.8047
    10.8371  10.9497  11.0382  11.1380  11.1802  11.2373  11.3073  11.4422
    11.4813  11.5305  11.5787  11.6868  11.7705  11.7982  11.8978  11.9534
    12.0315  12.0970  12.2082  12.2676  12.3693  12.4182  12.4732  12.5425
    12.6216  12.7283  12.8187  12.8525  12.8747  12.9548  13.0263  13.0543
    13.2340  13.3332  13.3936  13.4905  13.5459  13.5979  13.7100  13.7586
    13.7981  13.8734  13.9362  14.0051  14.1270  14.1561  14.2719  14.3470
    14.4021  14.4748  14.5583  14.6058  14.6570  14.7102  14.8500  14.9384
    14.9673  15.0825  15.1913  15.2262  15.3181  15.3803  15.4073  15.4687
    15.5282  15.6742  15.7333  15.7731  15.8257  15.8917  15.9361  16.0625
    16.0992  16.1871  16.2977  16.3330  16.4039  16.5590  16.6155  16.6771
    16.7329  16.7785  16.8071  16.9022  16.9069  17.0023  17.0836  17.0992
    17.1805  17.2455  17.3588  17.3790  17.4698  17.5020  17.5589  17.6078
    17.7220  17.7799  17.9088  17.9326  18.0511  18.1150  18.1939  18.2556
    18.3905  18.4807  18.5070  18.5667  18.6377  18.7085

     the Fermi energy is    -2.7208 ev

!    total energy              =   -1564.98892458 Ry
     Harris-Foulkes estimate   =   -1564.98892458 Ry
     estimated scf accuracy    <          5.1E-09 Ry

     The total energy is the sum of the following terms:

     one-electron contribution =  -18436.93126274 Ry
     hartree contribution      =    9234.26284494 Ry
     xc contribution           =    -277.31591664 Ry
     ewald contribution        =    7911.86066716 Ry
     Hubbard energy            =       3.13383152 Ry
     smearing contrib. (-TS)   =       0.00091120 Ry

     convergence has been achieved in  12 iterations

     Forces acting on atoms (Ry/au):

     negative rho (up, down):  0.107E+00 0.000E+00
     atom    1 type  1   force =    -0.00244341   -0.01292731    0.00065510
     atom    2 type  1   force =    -0.00006439    0.01486470    0.00014080
     atom    3 type  2   force =     0.05898301   -0.00656490    0.00024671
     atom    4 type  2   force =     0.00103020    0.00824083   -0.00068311
     atom    5 type  1   force =    -0.00351920   -0.07418088    0.00016645
     atom    6 type  1   force =    -0.00545093    0.07302190   -0.00043393
     atom    7 type  1   force =     0.00155747    0.00036413    0.00002722
     atom    8 type  1   force =     0.00145374   -0.00180759    0.00003864
     atom    9 type  2   force =     0.00299760    0.00004172   -0.00021011
     atom   10 type  2   force =    -0.00423796   -0.00011666   -0.00065500
     atom   11 type  1   force =    -0.01664061   -0.02318926   -0.00017148
     atom   12 type  1   force =    -0.01683184    0.02315788   -0.00012378
     atom   13 type  1   force =     0.00039091    0.00005564   -0.00021294
     atom   14 type  1   force =    -0.00424872   -0.01304296    0.00017014
     atom   15 type  1   force =     0.00024345    0.01428838    0.00006403
     atom   16 type  2   force =    -0.05891956   -0.00720430    0.00021073
     atom   17 type  2   force =     0.00132106    0.00777235   -0.00042710
     atom   18 type  1   force =     0.00646286   -0.07388819    0.00020949
     atom   19 type  1   force =     0.00597366    0.07336449   -0.00048533
     atom   20 type  1   force =    -0.00091434    0.00004125   -0.00016268
     atom   21 type  1   force =    -0.00018594   -0.00164166    0.00020717
     atom   22 type  2   force =    -0.00277704    0.00019039    0.00014298
     atom   23 type  2   force =     0.00037043   -0.00007257    0.00033667
     atom   24 type  1   force =     0.01800667   -0.02065859    0.00071773
     atom   25 type  1   force =     0.01766348    0.02065414    0.00073156
     atom   26 type  1   force =    -0.00027839   -0.00001664    0.00011065
     atom   27 type  3   force =    -0.00003524   -0.00019502   -0.00015244
     atom   28 type  3   force =    -0.00002755   -0.00038734   -0.00054142
     atom   29 type  3   force =    -0.00031566   -0.00003733    0.00018948
     atom   30 type  3   force =    -0.00011374   -0.00007700    0.00004058
     atom   31 type  1   force =     0.00022702    0.00000286   -0.00026335
     atom   32 type  3   force =     0.00032296   -0.00005246    0.00011655

     Total force =     0.002114     Total SCF correction =     0.000085

     bfgs converged in  20 scf cycles and  19 bfgs steps
     (criteria: energy < 0.10E-03, force < 0.10E-02)

     End of BFGS Geometry Optimization

     Final energy   =   -1564.9889245795 Ry
Begin final coordinates

ATOMIC_POSITIONS (crystal)
O0       0.000000000   0.000000000   0.374967027    0   0   1
O0       0.000000000   0.500000000   0.395230077    0   0   1
Ti1      0.250000000   0.500000000   0.448127514    0   0   1
Ti1      0.000000000   0.000000000   0.449863375    0   0   1
O0       0.250000000   0.810000000   0.447523000    0   0   1
O0       0.250000000   0.190000000   0.448621936    0   0   1
O0       0.000000000   0.500000000   0.496497390    0   0   1
O0       0.000000000   0.000000000   0.525674868    0   0   1
Ti1      0.250000000   0.000000000   0.580292429    0   0   1
Ti1      0.000000000   0.500000000   0.568140374    0   0   1
O0       0.250000000   0.690000000   0.581391368    0   0   1
O0       0.250000000   0.310000000   0.581406889    0   0   1
O0       0.000000000   0.000000000   0.623649739    0   0   1
O0       0.500000000   0.000000000   0.375685137    0   0   1
O0       0.500000000   0.500000000   0.394778092    0   0   1
Ti1      0.750000000   0.500000000   0.448202634    0   0   1
Ti1      0.500000000   0.000000000   0.451294607    0   0   1
O0       0.750000000   0.810000000   0.447465088    0   0   1
O0       0.750000000   0.190000000   0.448682214    0   0   1
O0       0.500000000   0.500000000   0.492424556    0   0   1
O0       0.500000000   0.000000000   0.525706285    0   0   1
Ti1      0.750000000   0.000000000   0.580265003    0   0   1
Ti1      0.500000000   0.500000000   0.596273968    0   0   1
O0       0.750000000   0.690000000   0.580375181    0   0   1
O0       0.750000000   0.310000000   0.580344399    0   0   1
O0       0.500000000   0.000000000   0.623210010    0   0   1
H2      -0.000350937   0.627436846   0.375359741
H2       0.499842650   0.629008550   0.375512809
H2       0.150997677   0.035030085   0.361902472
H2       0.649963148   0.036619004   0.362374164
O0       0.510604082   0.500066431   0.665100517
H2       0.374574770   0.499184418   0.685907137
End final coordinates

     General routines

     Parallel routines
     Hubbard U routines

   This run was terminated on:  19: 2:27  30Apr2014

   JOB DONE.
Running PBS batch system epilogue script
Job id: 340530.audhumbla.fysik.dtu.dk
Username: zhonxu
Groupname: campgst
Jobname: TiO2/Eads-2-layers/OH-U-6.0
Sessionid: 14558
Queuename: verylong
Accounting:
This job has allocated the following 16 nodes:
d105 d105 d105 d105 d105 d105 d105 d105 d082 d082 d082 d082 d082 d082 d082 d082
Finished epilogue job 340530.audhumbla.fysik.dtu.dk for zhonxu