     Program PWSCF v.5.0.2 (svn rev. 9656) starts on  9Feb2014 at  0:37:17

     Current dimensions of program PWSCF are:
     Max number of different atomic species (ntypx) = 10
     Max number of k-points (npk) =  40000
     Max angular momentum in pseudopotentials (lmaxx) =  3
     Reading input from NbO2-2-pert.in
Warning: card &IONS ignored
Warning: card / ignored
Warning: card &CELL ignored
Warning: card / ignored

     Subspace diagonalization in iterative solution of the eigenvalue problem:
     a serial algorithm will be used

     bravais-lattice index     =            0
     lattice parameter (alat)  =      18.6705  a.u.
     unit-cell volume          =    3899.7090 (a.u.)^3
     number of atoms/cell      =           48
     number of atomic types    =            3
     number of electrons       =       400.00
     number of Kohn-Sham states=          600
     kinetic-energy cutoff     =      40.0000  Ry
     charge density cutoff     =     500.0000  Ry
     convergence threshold     =      1.0E-06
     mixing beta               =       0.7000
     number of iterations used =            8  plain     mixing
     Exchange-correlation      = SLA  PW   PBE  PBE ( 1 4 3 4 0)
     EXX-fraction              =        0.00

     celldm(1)=  18.670494  celldm(2)=   0.000000  celldm(3)=   0.000000
     celldm(4)=   0.000000  celldm(5)=   0.000000  celldm(6)=   0.000000

     crystal axes: (cart. coord. in units of alat)
               a(1) = (   1.000000   0.000000   0.000000 )
               a(2) = (   0.000000   1.000000   0.000000 )
               a(3) = (   0.000000   0.000000   0.599190 )

     reciprocal axes: (cart. coord. in units 2 pi/alat)
               b(1) = (  1.000000  0.000000  0.000000 )
               b(2) = (  0.000000  1.000000  0.000000 )
               b(3) = (  0.000000  0.000000  1.668919 )

     PseudoPot. # 1 for Nb read from file:
     /home/camp/zhonxu/pseudo/nb_pbe_v1.uspp.F.UPF
     MD5 check sum: 573aab8a2fa660278ed4a62cd769473f
     Pseudo is Ultrasoft + core correction, Zval = 13.0
     Generated by new atomic code, or converted to UPF format
     Using radial grid of  887 points,  6 beta functions with:
                l(1) =   0
                l(2) =   0
                l(3) =   1
                l(4) =   1
                l(5) =   2
                l(6) =   2
     Q(r) pseudized with  6 coefficients,  rinner =    1.000   1.000   1.000
                                                       1.000   1.000

     PseudoPot. # 2 for O  read from file:
     /home/camp/zhonxu/pseudo/o_pbe_v1.01.uspp.F.UPF
     MD5 check sum: 2bcb18d16ea4b960afae9ec6d52f22d2
     Pseudo is Ultrasoft + core correction, Zval =  6.0
     Generated by new atomic code, or converted to UPF format
     Using radial grid of  737 points,  5 beta functions with:
                l(1) =   0
                l(2) =   0
                l(3) =   1
                l(4) =   1
                l(5) =   2
     Q(r) pseudized with  8 coefficients,  rinner =    0.900   0.900   0.900
                                                       0.900   0.900

     PseudoPot. # 3 for O  read from file:
     /home/camp/zhonxu/pseudo/o_pbe_v1.01.uspp.F.UPF
     MD5 check sum: 2bcb18d16ea4b960afae9ec6d52f22d2
     Pseudo is Ultrasoft + core correction, Zval =  6.0
     Generated by new atomic code, or converted to UPF format
     Using radial grid of  737 points,  5 beta functions with:
                l(1) =   0
                l(2) =   0
                l(3) =   1
                l(4) =   1
                l(5) =   2
     Q(r) pseudized with  8 coefficients,  rinner =    0.900   0.900   0.900
                                                       0.900   0.900

     atomic species   valence    mass     pseudopotential
        Nb0           13.00    92.90640     Nb( 1.00)
        O1             6.00    15.99940     O ( 1.00)
        O2             6.00    15.99940     O ( 1.00)

     Starting magnetic structure
     atomic species   magnetization
        Nb0          0.000
        O1           0.000
        O2           0.000

     Simplified LDA+U calculation (l_max = 2) with parameters (eV):
     atomic species    L          U    alpha       J0     beta
        Nb0            2     0.0000   0.0000   0.0000   0.0000
        O1             1     0.0000   0.0000   0.0000   0.0000
        O2             1     0.0000   0.0000   0.0000   0.0000

      4 Sym. Ops. (no inversion) found

   Cartesian axes

     site n.     atom                  positions (alat units)
         1           Nb0 tau(   1) = (  -0.1450000  -0.1450000   0.0000000  )
         2           Nb0 tau(   2) = (   0.1050000   0.1050000   0.1497976  )
         3           Nb0 tau(   3) = (  -0.1450000  -0.1450000   0.2995951  )
         4           Nb0 tau(   4) = (   0.1050000   0.1050000   0.4493927  )
         5           Nb0 tau(   5) = (  -0.1450000   0.3550000   0.0000000  )
         6           Nb0 tau(   6) = (   0.1050000   0.6050000   0.1497976  )
         7           Nb0 tau(   7) = (  -0.1450000   0.3550000   0.2995951  )
         8           Nb0 tau(   8) = (   0.1050000   0.6050000   0.4493927  )
         9           Nb0 tau(   9) = (   0.3550000  -0.1450000   0.0000000  )
        10           Nb0 tau(  10) = (   0.6050000   0.1050000   0.1497976  )
        11           Nb0 tau(  11) = (   0.3550000  -0.1450000   0.2995951  )
        12           Nb0 tau(  12) = (   0.6050000   0.1050000   0.4493927  )
        13           Nb0 tau(  13) = (   0.3550000   0.3550000   0.0000000  )
        14           Nb0 tau(  14) = (   0.6050000   0.6050000   0.1497976  )
        15           Nb0 tau(  15) = (   0.3550000   0.3550000   0.2995951  )
        16           Nb0 tau(  16) = (   0.6050000   0.6050000   0.4493927  )
        17           O1  tau(  17) = (   0.0000000   0.0000000   0.0000000  )
        18           O2  tau(  18) = (  -0.2900000  -0.2900000   0.0000000  )
        19           O2  tau(  19) = (   0.2500000  -0.0400000   0.1497976  )
        20           O2  tau(  20) = (  -0.0400000   0.2500000   0.1497976  )
        21           O2  tau(  21) = (   0.0000000   0.0000000   0.2995951  )
        22           O2  tau(  22) = (  -0.2900000  -0.2900000   0.2995951  )
        23           O2  tau(  23) = (   0.2500000  -0.0400000   0.4493927  )
        24           O2  tau(  24) = (  -0.0400000   0.2500000   0.4493927  )
        25           O2  tau(  25) = (   0.0000000   0.5000000   0.0000000  )
        26           O2  tau(  26) = (  -0.2900000   0.2100000   0.0000000  )
        27           O2  tau(  27) = (   0.2500000   0.4600000   0.1497976  )
        28           O2  tau(  28) = (  -0.0400000   0.7500000   0.1497976  )
        29           O2  tau(  29) = (   0.0000000   0.5000000   0.2995951  )
        30           O2  tau(  30) = (  -0.2900000   0.2100000   0.2995951  )
        31           O2  tau(  31) = (   0.2500000   0.4600000   0.4493927  )
        32           O2  tau(  32) = (  -0.0400000   0.7500000   0.4493927  )
        33           O2  tau(  33) = (   0.5000000   0.0000000   0.0000000  )
        34           O2  tau(  34) = (   0.2100000  -0.2900000   0.0000000  )
        35           O2  tau(  35) = (   0.7500000  -0.0400000   0.1497976  )
        36           O2  tau(  36) = (   0.4600000   0.2500000   0.1497976  )
        37           O2  tau(  37) = (   0.5000000   0.0000000   0.2995951  )
        38           O2  tau(  38) = (   0.2100000  -0.2900000   0.2995951  )
        39           O2  tau(  39) = (   0.7500000  -0.0400000   0.4493927  )
        40           O2  tau(  40) = (   0.4600000   0.2500000   0.4493927  )
        41           O2  tau(  41) = (   0.5000000   0.5000000   0.0000000  )
        42           O2  tau(  42) = (   0.2100000   0.2100000   0.0000000  )
        43           O2  tau(  43) = (   0.7500000   0.4600000   0.1497976  )
        44           O2  tau(  44) = (   0.4600000   0.7500000   0.1497976  )
        45           O2  tau(  45) = (   0.5000000   0.5000000   0.2995951  )
        46           O2  tau(  46) = (   0.2100000   0.2100000   0.2995951  )
        47           O2  tau(  47) = (   0.7500000   0.4600000   0.4493927  )
        48           O2  tau(  48) = (   0.4600000   0.7500000   0.4493927  )

     number of k points=    42  Methfessel-Paxton smearing, width (Ry)=  0.0100
                       cart. coord. in units 2pi/alat
        k(    1) = (   0.0000000   0.0000000   0.0000000), wk =   0.0156250
        k(    2) = (   0.0000000   0.0000000   0.4172297), wk =   0.0312500
        k(    3) = (   0.0000000   0.0000000  -0.8344595), wk =   0.0156250
        k(    4) = (   0.0000000   0.2500000   0.0000000), wk =   0.0625000
        k(    5) = (   0.0000000   0.2500000   0.4172297), wk =   0.1250000
        k(    6) = (   0.0000000   0.2500000  -0.8344595), wk =   0.0625000
        k(    7) = (   0.0000000  -0.5000000   0.0000000), wk =   0.0312500
        k(    8) = (   0.0000000  -0.5000000   0.4172297), wk =   0.0625000
        k(    9) = (   0.0000000  -0.5000000  -0.8344595), wk =   0.0312500
        k(   10) = (   0.2500000   0.2500000   0.0000000), wk =   0.0312500
        k(   11) = (   0.2500000   0.2500000   0.4172297), wk =   0.0625000
        k(   12) = (   0.2500000   0.2500000  -0.8344595), wk =   0.0312500
        k(   13) = (   0.2500000  -0.5000000   0.0000000), wk =   0.0625000
        k(   14) = (   0.2500000  -0.5000000   0.4172297), wk =   0.1250000
        k(   15) = (   0.2500000  -0.5000000  -0.8344595), wk =   0.0625000
        k(   16) = (  -0.5000000  -0.5000000   0.0000000), wk =   0.0156250
        k(   17) = (  -0.5000000  -0.5000000   0.4172297), wk =   0.0312500
        k(   18) = (  -0.5000000  -0.5000000  -0.8344595), wk =   0.0156250
        k(   19) = (   0.2500000  -0.2500000   0.0000000), wk =   0.0312500
        k(   20) = (   0.2500000  -0.2500000   0.4172297), wk =   0.0625000
        k(   21) = (   0.2500000  -0.2500000  -0.8344595), wk =   0.0312500
        k(   22) = (   0.0000000   0.0000000   0.0000000), wk =   0.0156250
        k(   23) = (   0.0000000   0.0000000   0.4172297), wk =   0.0312500
        k(   24) = (   0.0000000   0.0000000  -0.8344595), wk =   0.0156250
        k(   25) = (   0.0000000   0.2500000   0.0000000), wk =   0.0625000
        k(   26) = (   0.0000000   0.2500000   0.4172297), wk =   0.1250000
        k(   27) = (   0.0000000   0.2500000  -0.8344595), wk =   0.0625000
        k(   28) = (   0.0000000  -0.5000000   0.0000000), wk =   0.0312500
        k(   29) = (   0.0000000  -0.5000000   0.4172297), wk =   0.0625000
        k(   30) = (   0.0000000  -0.5000000  -0.8344595), wk =   0.0312500
        k(   31) = (   0.2500000   0.2500000   0.0000000), wk =   0.0312500
        k(   32) = (   0.2500000   0.2500000   0.4172297), wk =   0.0625000
        k(   33) = (   0.2500000   0.2500000  -0.8344595), wk =   0.0312500
        k(   34) = (   0.2500000  -0.5000000   0.0000000), wk =   0.0625000
        k(   35) = (   0.2500000  -0.5000000   0.4172297), wk =   0.1250000
        k(   36) = (   0.2500000  -0.5000000  -0.8344595), wk =   0.0625000
[...]
  0.913  0.916  0.917
    eigenvectors:
  0.000  0.000  1.000
  0.500  0.500  0.000
  0.500  0.500  0.000
    occupations:
  0.917 -0.000 -0.000
 -0.000  0.914  0.002
 -0.000  0.002  0.914
   spin  2
    eigenvalues:
  0.913  0.916  0.917
    eigenvectors:
  0.000  0.000  1.000
  0.500  0.500  0.000
  0.500  0.500  0.000
    occupations:
  0.917 -0.000 -0.000
 -0.000  0.914  0.002
 -0.000  0.002  0.914
atomic mag. moment =     0.000000
atom   42   Tr[ns(na)] (up, down, total) =   2.74571  2.74571  5.49142
   spin  1
    eigenvalues:
  0.913  0.916  0.917
    eigenvectors:
  0.000  0.000  1.000
  0.500  0.500  0.000
  0.500  0.500  0.000
    occupations:
  0.917 -0.000 -0.000
 -0.000  0.914  0.002
 -0.000  0.002  0.914
   spin  2
    eigenvalues:
  0.913  0.916  0.917
    eigenvectors:
  0.000  0.000  1.000
  0.500  0.500  0.000
  0.500  0.500  0.000
    occupations:
  0.917 -0.000 -0.000
 -0.000  0.914  0.002
 -0.000  0.002  0.914
atomic mag. moment =    -0.000000
atom   43   Tr[ns(na)] (up, down, total) =   2.74575  2.74575  5.49150
   spin  1
    eigenvalues:
  0.913  0.916  0.917
    eigenvectors:
  0.000  0.000  1.000
  0.500  0.500  0.000
  0.500  0.500  0.000
    occupations:
  0.917 -0.000  0.000
 -0.000  0.914 -0.002
  0.000 -0.002  0.914
   spin  2
    eigenvalues:
  0.913  0.916  0.917
    eigenvectors:
  0.000  0.000  1.000
  0.500  0.500  0.000
  0.500  0.500  0.000
    occupations:
  0.917 -0.000  0.000
 -0.000  0.914 -0.002
  0.000 -0.002  0.914
atomic mag. moment =    -0.000000
atom   44   Tr[ns(na)] (up, down, total) =   2.74575  2.74575  5.49150
   spin  1
    eigenvalues:
  0.913  0.916  0.917
    eigenvectors:
  0.000  0.000  1.000
  0.500  0.500  0.000
  0.500  0.500  0.000
    occupations:
  0.917  0.000 -0.000
  0.000  0.914 -0.002
 -0.000 -0.002  0.914
   spin  2
    eigenvalues:
  0.913  0.916  0.917
    eigenvectors:
  0.000  0.000  1.000
  0.500  0.500  0.000
  0.500  0.500  0.000
    occupations:
  0.917  0.000 -0.000
  0.000  0.914 -0.002
 -0.000 -0.002  0.914
atomic mag. moment =    -0.000000
atom   45   Tr[ns(na)] (up, down, total) =   2.74568  2.74568  5.49136
   spin  1
    eigenvalues:
  0.913  0.916  0.917
    eigenvectors:
  0.000  0.000  1.000
  0.500  0.500  0.000
  0.500  0.500  0.000
    occupations:
  0.917 -0.000 -0.000
 -0.000  0.914  0.002
 -0.000  0.002  0.914
   spin  2
    eigenvalues:
  0.913  0.916  0.917
    eigenvectors:
  0.000  0.000  1.000
  0.500  0.500  0.000
  0.500  0.500  0.000
    occupations:
  0.917 -0.000 -0.000
 -0.000  0.914  0.002
 -0.000  0.002  0.914
atomic mag. moment =     0.000000
atom   46   Tr[ns(na)] (up, down, total) =   2.74572  2.74572  5.49145
   spin  1
    eigenvalues:
  0.913  0.916  0.917
    eigenvectors:
  0.000  0.000  1.000
  0.500  0.500  0.000
  0.500  0.500  0.000
    occupations:
  0.917 -0.000 -0.000
 -0.000  0.914  0.002
 -0.000  0.002  0.914
   spin  2
    eigenvalues:
  0.913  0.916  0.917
    eigenvectors:
  0.000  0.000  1.000
  0.500  0.500  0.000
  0.500  0.500  0.000
    occupations:
  0.917 -0.000 -0.000
 -0.000  0.914  0.002
 -0.000  0.002  0.914
atomic mag. moment =    -0.000000
atom   47   Tr[ns(na)] (up, down, total) =   2.74575  2.74575  5.49150
   spin  1
    eigenvalues:
  0.913  0.916  0.917
    eigenvectors:
  0.000  0.000  1.000
  0.500  0.500  0.000
  0.500  0.500  0.000
    occupations:
  0.917  0.000 -0.000
  0.000  0.914 -0.002
 -0.000 -0.002  0.914
   spin  2
    eigenvalues:
  0.913  0.916  0.917
    eigenvectors:
  0.000  0.000  1.000
  0.500  0.500  0.000
  0.500  0.500  0.000
    occupations:
  0.917  0.000 -0.000
  0.000  0.914 -0.002
 -0.000 -0.002  0.914
atomic mag. moment =    -0.000000
atom   48   Tr[ns(na)] (up, down, total) =   2.74575  2.74575  5.49150
   spin  1
    eigenvalues:
  0.913  0.916  0.917
    eigenvectors:
  0.000  0.000  1.000
  0.500  0.500  0.000
  0.500  0.500  0.000
    occupations:
  0.917 -0.000  0.000
 -0.000  0.914 -0.002
  0.000 -0.002  0.914
   spin  2
    eigenvalues:
  0.913  0.916  0.917
    eigenvectors:
  0.000  0.000  1.000
  0.500  0.500  0.000
  0.500  0.500  0.000
    occupations:
  0.917 -0.000  0.000
 -0.000  0.914 -0.002
  0.000 -0.002  0.914
atomic mag. moment =    -0.000000
N of occupied +U levels = 259.8472452
 --- exit write_ns ---

 ------ SPIN UP ------------

          k = 0.0000 0.0000 0.0000 ( 16699 PWs)   bands (ev):

   -44.1428 -44.1347 -44.1343 -44.1343 -44.1342 -44.1341 -44.1341 -44.1257
   -44.0561 -44.0558 -44.0556 -44.0555 -44.0555 -44.0554 -44.0554 -44.0553
   -20.7425 -20.7420 -20.7420 -20.7420 -20.7214 -20.7211 -20.7205 -20.7203
   -20.4902 -20.4901 -20.4773 -20.4772 -20.4285 -20.4281 -20.4281 -20.4281
   -20.3520 -20.3518 -20.3496 -20.3495 -20.3278 -20.3274 -20.3274 -20.3273
   -20.1855 -20.1850 -20.1850 -20.1850 -20.1285 -20.1283 -20.1205 -20.1203
   -19.9712 -19.9710 -19.9697 -19.9695 -19.9694 -19.9690 -19.9689 -19.9689
   -19.8885 -19.8682 -19.8678 -19.8677 -19.8676 -19.8676 -19.8675 -19.8470
    -7.7327  -7.3736  -7.3734  -7.2301  -7.2301  -7.2300  -7.2297  -7.1357
    -7.0263  -7.0261  -7.0259  -7.0258  -6.8327  -6.8324  -6.7841  -6.7839
    -6.5807  -6.5805  -6.5803  -6.5802  -6.5222  -6.5220  -6.4622  -6.4619
    -6.1660  -6.1658  -6.1006  -6.1003  -6.0023  -6.0023  -6.0022  -6.0019
     4.2584   4.3391   4.3393   4.4515   4.9229   4.9230   4.9230   4.9231
     5.0451   5.1627   5.1628   5.1628   5.1630   5.4180   5.4181   5.4182
     5.4184   5.4691   5.4692   5.5484   5.5484   5.7964   5.7965   6.2076
     6.2077   6.2654   6.2655   6.2952   6.2953   6.2953   6.2955   6.5388
     6.5391   6.5763   6.5765   6.5766   6.5766   6.5820   6.5821   6.5911
     6.5914   6.6700   6.6702   6.7033   6.7035   6.7296   6.7297   6.7298
     6.7300   7.1666   7.1667   7.1667   7.1669   7.4510   7.4511   7.4580
     7.4582   7.5733   7.5734   7.6046   7.6046   7.8795   7.8795   7.8796
     7.8797   8.0332   8.0332   8.0333   8.0335   8.3868   8.3870   8.4108
     8.4108   8.4109   8.4111   8.4234   8.4236   8.4404   8.6762   8.6763
     8.7486   8.7487   8.7487   8.7489   8.8188   8.8190   9.0235   9.0235
     9.1135   9.1138   9.1140   9.1141   9.1375   9.1820   9.1820   9.8059
    11.3533  11.4065  11.4066  11.6109  12.0976  12.0976  12.0977  12.0978
    12.1753  12.1756  12.1756  12.1757  12.7949  13.3240  13.3242  13.3278
    13.3279  13.4980  13.4981  13.5428  13.5429  13.7317  13.7318  13.7608
    13.7609  14.2269  14.2271  14.2271  14.2272  14.4213  14.4216  14.4216
    14.4216  14.4546  14.4546  14.4547  14.4547  14.7421  14.7423  15.3200
    15.3202  15.3384  15.3387  15.3388  15.3388  15.3479  15.3481  15.8761
    15.9971  16.4047  16.5475  16.5476  16.5477  16.5477  17.0601  17.0601
    17.2719  17.2722  17.2722  17.2724  17.3342  17.3343  17.3377  17.3379
    17.3380  17.3380  17.8838  17.8840  17.9067  17.9069  17.9090  17.9092
    18.0230  18.0231  18.0571  18.0573  19.1880  19.1881  19.1883  19.1883
    19.5888  19.5889  19.5889  19.5889  19.8350  20.1360  20.1361  20.5009
    20.5009  20.9902  20.9902  21.1785  21.1785  21.1786  21.1786  21.7325
    21.7325  21.9622  21.9622  21.9712  21.9713  22.5178  22.5178  22.5178
    22.5179  23.0041  23.0041  23.6548  23.6548  23.6549  23.6549  23.7223
    23.7645  23.7646  23.7646  23.7646  24.0464  24.0464  24.4404  24.4405
    24.4405  24.4406  24.8622  24.8623  25.0884  25.2602  25.2602  25.4464
    25.8547  25.8547  26.1730  26.1731  26.3705  26.3706  26.3852  26.3853
    26.3853  26.3853  26.4262  26.4263  26.4263  26.4263  27.1557  27.3592
    27.3592  27.3593  27.3593  27.3643  27.3644  27.5212  27.5212  27.7348
    27.7348  28.3927  28.3927  28.3929  28.3929  28.5201  28.5928  28.5928
    29.0229  29.0229  29.0230  29.0230  29.9299  29.9300  29.9309  29.9310
    30.4149  30.4150  30.4150  30.4150  30.6871  30.6871  30.6874  30.6874
    30.8129  30.8130  31.3030  31.3031  31.3511  31.3512  31.4050  31.4051
    31.4880  31.7166  31.7166  32.0941  32.4874  32.4875  32.5182  32.5183
    32.5183  32.5184  32.5518  32.5519  32.5726  32.5726  32.9985  33.1517
    33.1517  33.1517  33.1518  33.4529  33.4529  33.4530  33.4530  33.6435
    33.6436  33.8969  33.8970  34.2447  34.2448  34.2448  34.2448  34.2713
    34.2713  34.2988  34.2989  34.5796  34.5797  34.9065  34.9066  34.9066
    34.9067  35.3371  35.3371  36.1878  36.1879  36.1879  36.1879  36.1932
    36.1933  36.4330  36.4330  36.4330  36.4330  36.4777  36.6411  36.6411
    36.7656  36.7657  36.9829  37.1539  37.1539  37.1540  37.1540  37.2139
    37.2139  37.7220  37.7221  38.0877  38.0877  38.0877  38.0878  38.2165
    38.5406  38.5407  38.5407  38.5407  39.2296  39.2296  39.2298  39.2298
    39.3103  39.3104  39.3605  39.3605  39.6952  39.6952  39.6953  39.6953
    39.7121  39.7122  39.7653  39.7654  39.8231  40.1645  40.2540  40.2540
    40.2924  40.2925  40.6098  40.6099  40.6099  40.6099  40.8500  40.8500
    40.8500  40.8501  40.9230  40.9230  41.2431  41.2432  41.4319  41.4320
    41.5699  41.5699  41.8971  41.9098  41.9098  41.9099  41.9099  41.9352
    41.9353  42.0184  42.1250  42.1250  42.1250  42.1251  42.1571  42.3230
    42.3231  42.3416  42.3418  42.3418  42.3419  42.3621  42.3621  42.3677
    42.3677  42.3677  42.3678  42.3746  42.3747  42.6822  42.6822  42.7123
    42.7123  42.8451  42.8451  42.9676  42.9676  43.0973  43.1874  43.1874
    43.2325  43.2327  43.7216  43.7216  43.7216  43.7216  43.7267  43.7267
    43.7268  43.7268  43.7289  43.7290  43.7290  43.7291  43.8790  43.8790
    44.1220  44.1221  44.3299  44.3299  44.5074  44.5074  44.5074  44.5074
    44.8538  44.8538  45.1255  45.3173  45.3174  45.3248  45.3248  45.8285
    45.8285  45.8290  45.8290  45.8290  45.8290  46.2943  46.2943  46.2944
    46.2944  46.5338  46.5339  46.5340  46.5340  46.6935  46.6936  46.8261
    46.8261  46.8262  46.8262  46.8654  46.9123  46.9124  46.9125  46.9125
    46.9585  46.9585  47.0463  47.0464  47.1011  47.1011  47.1011  47.1012
    47.3129  47.3129  47.5844  47.5844  47.9141  48.2491  48.2491  48.2491

[...]

          k =-0.5000-0.5000 0.0000 ( 16684 PWs)   bands (ev):

[...]

 ------ SPIN DOWN ----------

[...]

          k =-0.5000-0.5000-0.8345 ( 16640 PWs)   bands (ev):

[...]

          k = 0.2500-0.2500-0.8345 ( 16644 PWs)   bands (ev):

   -44.1004 -44.1004 -44.0975 -44.0974 -44.0972 -44.0971 -44.0960 -44.0960
   -44.0942 -44.0942 -44.0931 -44.0931 -44.0929 -44.0928 -44.0900 -44.0899
   -20.4293 -20.4292 -20.4290 -20.4289 -20.4247 -20.4247 -20.4219 -20.4219
   -20.4219 -20.4219 -20.4204 -20.4204 -20.4178 -20.4178 -20.4124 -20.4123
   -20.3130 -20.3130 -20.3106 -20.3106 -20.2920 -20.2918 -20.2916 -20.2914
   -20.2894 -20.2894 -20.2863 -20.2862 -20.2696 -20.2696 -20.2695 -20.2695
   -20.0774 -20.0774 -20.0774 -20.0774 -20.0650 -20.0649 -20.0639 -20.0638
   -20.0635 -20.0633 -20.0624 -20.0623 -20.0525 -20.0525 -20.0502 -20.0502
    -7.1501  -7.1501  -7.0255  -7.0255  -7.0253  -7.0253  -6.9561  -6.9561
    -6.8946  -6.8946  -6.8780  -6.8780  -6.8778  -6.8778  -6.7874  -6.7874
    -6.4883  -6.4883  -6.4817  -6.4817  -6.4643  -6.4643  -6.4642  -6.4642
    -6.4560  -6.4560  -6.4557  -6.4557  -6.4486  -6.4486  -6.4414  -6.4414
     5.0918   5.0918   5.1767   5.1767   5.1918   5.1918   5.1919   5.1919
     5.2333   5.2333   5.2458   5.2458   5.2459   5.2459   5.3083   5.3083
     5.6017   5.6017   5.6599   5.6599   5.8570   5.8570   5.8572   5.8572
     5.9013   5.9013   6.1009   6.1009   6.1010   6.1010   6.1275   6.1275
     6.1457   6.1457   6.4842   6.4842   6.4843   6.4843   6.7376   6.7376
     6.7679   6.7679   6.7683   6.7683   6.7684   6.7684   6.9662   6.9662
     6.9662   6.9662   7.1813   7.1813   7.1853   7.1853   7.2333   7.2333
     7.7023   7.7023   7.7025   7.7025   7.8705   7.8705   7.8941   7.8941
     7.8944   7.8944   7.9181   7.9181   8.0171   8.0171   8.0356   8.0356
     8.0530   8.0530   8.1620   8.1620   8.1622   8.1622   8.3901   8.3901
     8.5443   8.5443   8.6339   8.6339   8.8058   8.8058   8.8061   8.8061
     8.9362   8.9362   9.1668   9.1668   9.1672   9.1672   9.3550   9.3550
    12.6438  12.6438  12.7578  12.7578  12.7578  12.7578  12.8693  12.8693
    12.9792  12.9792  13.0515  13.0515  13.1039  13.1039  13.1040  13.1040
    13.1761  13.1761  13.2525  13.2525  13.2913  13.2914  13.2915  13.2916
    13.5418  13.5418  13.5884  13.5884  13.7270  13.7270  13.7376  13.7377
    13.7377  13.7377  14.0797  14.0797  14.2796  14.2796  14.2797  14.2797
    14.3824  14.3824  14.7522  14.7522  14.7523  14.7524  15.1665  15.1665
    16.3620  16.3620  16.3620  16.3620  16.7702  16.7702  16.9123  16.9123
    16.9244  16.9244  16.9246  16.9247  17.2720  17.2720  17.5824  17.5824
    17.6945  17.6945  17.7865  17.7865  17.9274  17.9274  17.9276  17.9276
    18.2782  18.2783  18.6970  18.6970  18.6971  18.6971  18.7392  18.7392
    19.3684  19.3684  20.0224  20.0224  20.0226  20.0226  20.5006  20.5006
    21.0780  21.0780  21.2467  21.2467  21.2469  21.2469  22.3526  22.3526
    22.5123  22.5123  22.7985  22.7985  22.9755  22.9755  23.3136  23.3136
    23.3138  23.3138  23.9800  23.9800  23.9801  23.9801  24.6394  24.6394
    24.7436  24.7436  24.7928  24.7928  24.7928  24.7928  24.8325  24.8325
    24.9207  24.9207  24.9466  24.9466  25.1188  25.1188  25.1191  25.1191
    25.7643  25.7643  25.7644  25.7644  25.7891  25.7891  26.0613  26.0613
    26.1158  26.1158  26.1159  26.1160  26.3763  26.3763  26.7345  26.7345
    26.9678  26.9678  26.9678  26.9678  27.4207  27.4207  27.9160  27.9160
    28.1347  28.1347  28.4182  28.4182  28.4834  28.4834  28.4835  28.4835
    28.6092  28.6092  28.6602  28.6602  29.6721  29.6721  29.6722  29.6722
    29.7663  29.7663  30.2855  30.2855  30.2855  30.2856  30.9419  30.9419
    30.9420  30.9420  31.0543  31.0543  31.4142  31.4142  31.4867  31.4867
    32.1349  32.1349  32.1818  32.1818  32.3881  32.3881  32.3882  32.3882
    32.6564  32.6564  33.0899  33.0899  33.0899  33.0900  33.2280  33.2280
    33.3134  33.3134  33.4503  33.4503  33.6016  33.6016  33.6017  33.6017
    33.9426  33.9426  33.9427  33.9427  34.2533  34.2533  34.2534  34.2534
    34.4898  34.4898  34.8093  34.8093  34.9870  34.9870  35.3161  35.3161
    35.4555  35.4555  35.7123  35.7123  35.7124  35.7124  35.7696  35.7696
    35.8011  35.8012  35.8451  35.8451  35.8451  35.8451  36.1375  36.1375
    36.3542  36.3542  36.7763  36.7763  36.8297  36.8297  36.8298  36.8298
    36.9865  36.9865  37.1697  37.1697  37.1697  37.1697  38.1611  38.1611
    38.2207  38.2207  38.2501  38.2501  38.2904  38.2904  38.5318  38.5318
    38.5318  38.5318  38.6125  38.6125  39.0706  39.0707  39.0707  39.0707
    39.0975  39.0975  39.5991  39.5991  40.3540  40.3540  40.3540  40.3540
    40.4986  40.4986  40.5764  40.5764  40.6162  40.6162  40.6163  40.6163
    40.9379  40.9379  40.9953  40.9953  41.0062  41.0062  41.0062  41.0063
    41.1739  41.1739  41.3929  41.3929  41.6226  41.6226  41.6226  41.6226
    41.6617  41.6617  41.6618  41.6618  41.8699  41.8699  42.0584  42.0584
    42.1970  42.1970  42.1970  42.1970  42.8106  42.8106  43.0102  43.0102
    43.0256  43.0256  43.0521  43.0521  43.2450  43.2450  43.3568  43.3568
    43.3568  43.3569  43.4178  43.4178  43.6294  43.6294  43.9473  43.9473
    43.9474  43.9474  44.1129  44.1129  44.2899  44.2899  44.3346  44.3346
    44.3347  44.3347  44.3977  44.3977  44.3977  44.3977  44.7482  44.7482
    44.8000  44.8000  44.8000  44.8000  44.8003  44.8003  44.8739  44.8739
    45.0858  45.0858  45.1446  45.1446  45.1447  45.1447  45.1711  45.1711
    45.2402  45.2402  45.6795  45.6795  45.6796  45.6796  45.7342  45.7342
    45.8540  45.8540  45.9052  45.9052  45.9053  45.9053  45.9151  45.9151
    46.4017  46.4017  46.4187  46.4187  46.4187  46.4187  46.6247  46.6247
    47.0423  47.0423  47.0423  47.0423  47.0589  47.0589  47.2897  47.2898
    47.2898  47.2898  47.4479  47.4479  47.5033  47.5033  47.8498  47.8498

     the Fermi energy is    12.5579 ev

!    total energy              =   -2922.40012743 Ry
     Harris-Foulkes estimate   =   -2922.40012819 Ry
     estimated scf accuracy    <       0.00000084 Ry

     The total energy is the sum of the following terms:

     one-electron contribution =    -784.88589123 Ry
     hartree contribution      =     606.82114473 Ry
     xc contribution           =    -525.15540089 Ry
     ewald contribution        =   -2219.17932603 Ry
     Hubbard energy            =       0.00000000 Ry
     smearing contrib. (-TS)   =      -0.00065401 Ry

     total magnetization       =    -0.00 Bohr mag/cell
     absolute magnetization    =     0.00 Bohr mag/cell

     convergence has been achieved in  13 iterations

     Writing output data file pwscf.save

     General routines

     Parallel routines
     Hubbard U routines

   This run was terminated on:   7:28:53   9Feb2014

   JOB DONE.