     Program PWSCF v.5.0.2 (svn rev. 9656) starts on 30Apr2014 at 21: 1:21

     Current dimensions of program PWSCF are:
     Max number of different atomic species (ntypx) = 10
     Max number of k-points (npk) =  40000
     Max angular momentum in pseudopotentials (lmaxx) =  3
     Reading input from pwscf.in
Warning: card &CELL ignored
Warning: card / ignored

     Subspace diagonalization in iterative solution of the eigenvalue problem:
     a serial algorithm will be used

     bravais-lattice index     =            0
     lattice parameter (alat)  =      11.1872  a.u.
     unit-cell volume          =    7531.8600 (a.u.)^3
     number of atoms/cell      =           31
     number of atomic types    =            3
     number of electrons       =       222.00
     number of Kohn-Sham states=          333
     kinetic-energy cutoff     =      40.0000  Ry
     charge density cutoff     =     500.0000  Ry
     convergence threshold     =      1.0E-06
     mixing beta               =       0.7000
     number of iterations used =            8  plain     mixing
     Exchange-correlation      = SLA  PW   PBE  PBE ( 1 4 3 4 0)
     EXX-fraction              =        0.00
     nstep                     =           50

     celldm(1)=  11.187179  celldm(2)=   0.000000  celldm(3)=   0.000000
     celldm(4)=   0.000000  celldm(5)=   0.000000  celldm(6)=   0.000000

     crystal axes: (cart. coord. in units of alat)
               a(1) = (   1.000000   0.000000   0.000000 )
               a(2) = (   0.000000   1.180104   0.000000 )
               a(3) = (   0.000000   0.000000   4.558482 )

     reciprocal axes: (cart. coord. in units 2 pi/alat)
               b(1) = (  1.000000  0.000000  0.000000 )
               b(2) = (  0.000000  0.847383  0.000000 )
               b(3) = (  0.000000  0.000000  0.219371 )

     PseudoPot. # 1 for O  read from file:
     /home/camp/zhonxu/pseudo/o_pbe_v1.01.uspp.F.UPF
     MD5 check sum: 2bcb18d16ea4b960afae9ec6d52f22d2
     Pseudo is Ultrasoft + core correction, Zval =  6.0
     Generated by new atomic code, or converted to UPF format
     Using radial grid of  737 points,  5 beta functions with:
                l(1) =   0
                l(2) =   0
                l(3) =   1
                l(4) =   1
                l(5) =   2
     Q(r) pseudized with  8 coefficients,  rinner =    0.900   0.900   0.900
                                                       0.900   0.900

     PseudoPot. # 2 for Nb read from file:
     /home/camp/zhonxu/pseudo/nb_pbe_v1.uspp.F.UPF
     MD5 check sum: 573aab8a2fa660278ed4a62cd769473f
     Pseudo is Ultrasoft + core correction, Zval = 13.0
     Generated by new atomic code, or converted to UPF format
     Using radial grid of  887 points,  6 beta functions with:
                l(1) =   0
                l(2) =   0
                l(3) =   1
                l(4) =   1
                l(5) =   2
                l(6) =   2
     Q(r) pseudized with  6 coefficients,  rinner =    1.000   1.000   1.000
                                                       1.000   1.000

     PseudoPot. # 3 for H  read from file:
     /home/camp/zhonxu/pseudo/h_pbe_v1.uspp.F.UPF
     MD5 check sum: 3408e3ff4ec8b0a4e358431e7e038a48
     Pseudo is Ultrasoft, Zval =  1.0
     Generated by new atomic code, or converted to UPF format
     Using radial grid of  615 points,  2 beta functions with:
                l(1) =   0
                l(2) =   0
     Q(r) pseudized with  8 coefficients,  rinner =    0.700

     atomic species   valence    mass     pseudopotential
        O0             6.00    15.99940     O ( 1.00)
        Nb1           13.00    92.90640     Nb( 1.00)
        H2             1.00     1.00794     H ( 1.00)

     Simplified LDA+U calculation (l_max = 2) with parameters (eV):
     atomic species    L          U    alpha       J0     beta
        Nb1            2     0.5000   0.0000   0.0000   0.0000

     No symmetry found

   Cartesian axes

     site n.     atom                  positions (alat units)
         1           O0  tau(   1) = (   0.0000000   0.0000000   1.6934306  )
         2           O0  tau(   2) = (   0.0000000   0.5900519   1.7719732  )
         3           Nb1 tau(   3) = (   0.2500000   0.5900519   2.0266100  )
         4           Nb1 tau(   4) = (   0.0000000   0.0000000   2.0234647  )
         5           O0  tau(   5) = (   0.2500000   0.9322821   2.0339492  )
         6           O0  tau(   6) = (   0.2500000   0.2478218   2.0339492  )
         7           O0  tau(   7) = (   0.0000000   0.5900519   2.2822497  )
         8           O0  tau(   8) = (   0.0000000   0.0000000   2.3837671  )
         9           Nb1 tau(   9) = (   0.2500000   0.0000000   2.6303810  )
        10           Nb1 tau(  10) = (   0.0000000   0.5900519   2.5986084  )
        11           O0  tau(  11) = (   0.2500000   0.8378738   2.6271901  )
        12           O0  tau(  12) = (   0.2500000   0.3422301   2.6272357  )
        13           O0  tau(  13) = (   0.0000000   0.0000000   2.8322306  )
        14           O0  tau(  14) = (   0.5000000   0.0000000   1.6959377  )
        15           O0  tau(  15) = (   0.5000000   0.5900519   1.7815005  )
        16           Nb1 tau(  16) = (   0.7500000   0.5900519   2.0269291  )
        17           Nb1 tau(  17) = (   0.5000000   0.0000000   2.0281143  )
        18           O0  tau(  18) = (   0.7500000   0.9322821   2.0339492  )
        19           O0  tau(  19) = (   0.7500000   0.2478218   2.0339492  )
        20           O0  tau(  20) = (   0.5000000   0.5900519   2.2572692  )
        21           O0  tau(  21) = (   0.5000000   0.0000000   2.3822628  )
        22           Nb1 tau(  22) = (   0.7500000   0.0000000   2.6309736  )
        23           Nb1 tau(  23) = (   0.5000000   0.5900519   2.6831227  )
        24           O0  tau(  24) = (   0.7500000   0.8378738   2.6265975  )
        25           O0  tau(  25) = (   0.7500000   0.3422301   2.6265975  )
        26           O0  tau(  26) = (   0.5000000   0.0000000   2.8320027  )
        27           H2  tau(  27) = (  -0.0004900   0.5918693   1.6065459  )
        28           H2  tau(  28) = (   0.4994900   0.5917631   1.6163466  )
        29           H2  tau(  29) = (   0.1504600   0.0004366   1.6207228  )
        30           H2  tau(  30) = (   0.6496400   0.0004366   1.6219536  )
        31           O0  tau(  31) = (   0.5000300   0.5900519   2.9731333  )

     number of k points=    10  Methfessel-Paxton smearing, width (Ry)=  0.0100
                       cart. coord. in units 2pi/alat
        k(    1) = (   0.0000000   0.0000000   0.0000000), wk =   0.1250000
        k(    2) = (   0.0000000   0.2118458   0.0000000), wk =   0.2500000
        k(    3) = (   0.0000000  -0.4236915   0.0000000), wk =   0.1250000
        k(    4) = (   0.2500000   0.0000000   0.0000000), wk =   0.2500000
        k(    5) = (   0.2500000   0.2118458   0.0000000), wk =   0.2500000
        k(    6) = (   0.2500000  -0.4236915   0.0000000), wk =   0.2500000
        k(    7) = (  -0.5000000   0.0000000   0.0000000), wk =   0.1250000
        k(    8) = (  -0.5000000   0.2118458   0.0000000), wk =   0.2500000
        k(    9) = (  -0.5000000  -0.4236915   0.0000000), wk =   0.1250000
        k(   10) = (  -0.2500000   0.2118458   0.0000000), wk =   0.2500000

     Largest allocated arrays     est. size (Mb)     dimensions
     Largest temporary arrays     est. size (Mb)     dimensions

     Check: negative/imaginary core charge=   -0.000003    0.000000

     Initial potential from superposition of free atoms
     Check: negative starting charge=   -0.003810

     starting charge  221.97807, renormalised to  222.00000

     negative rho (up, down):  0.381E-02 0.000E+00
     Number of +U iterations with fixed ns =  0
     Starting occupations:
 --- enter write_ns ---
 LDA+U parameters:
U( 2)     =  0.50000000
alpha( 2) =  0.00000000
atom    3   Tr[ns(na)] =   3.00000
    eigenvalues:
  0.300  0.300  0.300  0.300  0.300
    eigenvectors:
  1.000  0.000  0.000  0.000  0.000
  0.000  1.000  0.000  0.000  0.000
  0.000  0.000  1.000  0.000  0.000
  0.000  0.000  0.000  1.000  0.000
  0.000  0.000  0.000  0.000  1.000
    occupations:
  0.300  0.000  0.000  0.000  0.000
  0.000  0.300  0.000  0.000  0.000
  0.000  0.000  0.300  0.000  0.000
  0.000  0.000  0.000  0.300  0.000
  0.000  0.000  0.000  0.000  0.300
atom    4   Tr[ns(na)] =   3.00000
    eigenvalues:
  0.300  0.300  0.300  0.300  0.300
    eigenvectors:
  1.000  0.000  0.000  0.000  0.000
  0.000  1.000  0.000  0.000  0.000
  0.000  0.000  1.000  0.000  0.000
  0.000  0.000  0.000  1.000  0.000
  0.000  0.000  0.000  0.000  1.000
    occupations:
  0.300  0.000  0.000  0.000  0.000
  0.000  0.300  0.000  0.000  0.000
  0.000  0.000  0.300  0.000  0.000
  0.000  0.000  0.000  0.300  0.000
  0.000  0.000  0.000  0.000  0.300
atom    9   Tr[ns(na)] =   3.00000
    eigenvalues:
  0.300  0.300  0.300  0.300  0.300
    eigenvectors:
  1.000  0.000  0.000  0.000  0.000
  0.000  1.000  0.000  0.000  0.000
  0.000  0.000  1.000  0.000  0.000
  0.000  0.000  0.000  1.000  0.000
  0.000  0.000  0.000  0.000  1.000
    occupations:
  0.300  0.000  0.000  0.000  0.000
  0.000  0.300  0.000  0.000  0.000
  0.000  0.000  0.300  0.000  0.000
  0.000  0.000  0.000  0.300  0.000
  0.000  0.000  0.000  0.000  0.300
atom   10   Tr[ns(na)] =   3.00000
    eigenvalues:
  0.300  0.300  0.300  0.300  0.300
    eigenvectors:
  1.000  0.000  0.000  0.000  0.000
  0.000  1.000  0.000  0.000  0.000
  0.000  0.000  1.000  0.000  0.000
  0.000  0.000  0.000  1.000  0.000
  0.000  0.000  0.000  0.000  1.000
    occupations:
  0.300  0.000  0.000  0.000  0.000
  0.000  0.300  0.000  0.000  0.000
  0.000  0.000  0.300  0.000  0.000
  0.000  0.000  0.000  0.300  0.000
  0.000  0.000  0.000  0.000  0.300
atom   16   Tr[ns(na)] =   3.00000
    eigenvalues:
  0.300  0.300  0.300  0.300  0.300
    eigenvectors:
  1.000  0.000  0.000  0.000  0.000
  0.000  1.000  0.000  0.000  0.000
  0.000  0.000  1.000  0.000  0.000
  0.000  0.000  0.000  1.000  0.000
  0.000  0.000  0.000  0.000  1.000
    occupations:
  0.300  0.000  0.000  0.000  0.000
  0.000  0.300  0.000  0.000  0.000
  0.000  0.000  0.300  0.000  0.000
  0.000  0.000  0.000  0.300  0.000
  0.000  0.000  0.000  0.000  0.300
atom   17   Tr[ns(na)] =   3.00000
    eigenvalues:
  0.300  0.300  0.300  0.300  0.300
    eigenvectors:
  1.000  0.000  0.000  0.000  0.000
  0.000  1.000  0.000  0.000  0.000
  0.000  0.000  1.000  0.000  0.000
  0.000  0.000  0.000  1.000  0.000
  0.000  0.000  0.000  0.000  1.000
    occupations:
  0.300  0.000  0.000  0.000  0.000
  0.000  0.300  0.000  0.000  0.000
  0.000  0.000  0.300  0.000  0.000
  0.000  0.000  0.000  0.300  0.000
  0.000  0.000  0.000  0.000  0.300
atom   22   Tr[ns(na)] =   3.00000
    eigenvalues:
  0.300  0.300  0.300  0.300  0.300
    eigenvectors:
  1.000  0.000  0.000  0.000  0.000
  0.000  1.000  0.000  0.000  0.000
  0.000  0.000  1.000  0.000  0.000
  0.000  0.000  0.000  1.000  0.000
  0.000  0.000  0.000  0.000  1.000
    occupations:
  0.300  0.000  0.000  0.000  0.000
  0.000  0.300  0.000  0.000  0.000
[...]
    eigenvalues:
  0.419  0.452  0.549  0.577  0.625
    eigenvectors:
  0.000  0.005  0.000  0.994  0.001
  0.000  0.994  0.000  0.005  0.001
  1.000  0.000  0.000  0.000  0.000
  0.000  0.001  0.000  0.001  0.999
  0.000  0.000  1.000  0.000  0.000
    occupations:
  0.576  0.009  0.000  0.001  0.000
  0.009  0.453 -0.000 -0.004 -0.000
  0.000 -0.000  0.419  0.000  0.001
  0.001 -0.004  0.000  0.625  0.000
  0.000 -0.000  0.001  0.000  0.549
atom    9   Tr[ns(na)] =   5.26896
    eigenvalues:
  0.464  0.466  0.492  0.604  0.608
    eigenvectors:
  0.000  0.874  0.000  0.120  0.007
  0.000  0.000  0.000  0.051  0.949
  0.572  0.000  0.428  0.000  0.000
  0.000  0.126  0.000  0.829  0.044
  0.428  0.000  0.572  0.000  0.000
    occupations:
  0.484 -0.001 -0.000  0.046 -0.000
 -0.001  0.608 -0.000 -0.001  0.000
 -0.000 -0.000  0.476  0.000  0.014
  0.046 -0.001  0.000  0.587 -0.000
 -0.000  0.000  0.014 -0.000  0.480
atom   10   Tr[ns(na)] =   5.07504
    eigenvalues:
  0.392  0.486  0.514  0.549  0.597
    eigenvectors:
  0.000  0.000  0.975  0.000  0.025
  0.000  0.999  0.000  0.000  0.001
  1.000  0.000  0.000  0.000  0.000
  0.000  0.001  0.025  0.000  0.975
  0.000  0.000  0.000  1.000  0.000
    occupations:
  0.516  0.000  0.000  0.013 -0.000
  0.000  0.486  0.000  0.003 -0.000
  0.000  0.000  0.392 -0.000 -0.000
  0.013  0.003 -0.000  0.595 -0.000
 -0.000 -0.000 -0.000 -0.000  0.549
atom   16   Tr[ns(na)] =   5.24107
    eigenvalues:
  0.407  0.447  0.533  0.578  0.655
    eigenvectors:
  0.000  0.000  0.061  0.421  0.517
  0.000  0.000  0.904  0.094  0.003
  0.070  0.930  0.000  0.000  0.000
  0.000  0.000  0.035  0.485  0.480
  0.930  0.070  0.000  0.000  0.000
    occupations:
  0.615  0.013  0.000 -0.040  0.000
  0.013  0.538  0.000  0.005  0.000
  0.000  0.000  0.444 -0.000  0.010
 -0.040  0.005 -0.000  0.614 -0.000
  0.000  0.000  0.010 -0.000  0.410
atom   17   Tr[ns(na)] =   5.23858
    eigenvalues:
  0.423  0.459  0.548  0.580  0.610
    eigenvectors:
  0.000  0.005  0.000  0.995  0.000
  0.000  0.994  0.000  0.005  0.001
  1.000  0.000  0.000  0.000  0.000
  0.000  0.001  0.000  0.000  0.999
  0.000  0.000  1.000  0.000  0.000
    occupations:
  0.579  0.008  0.000  0.001  0.000
  0.008  0.460 -0.000 -0.004 -0.000
  0.000 -0.000  0.423  0.000  0.001
  0.001 -0.004  0.000  0.610 -0.000
  0.000 -0.000  0.001 -0.000  0.548
atom   22   Tr[ns(na)] =   5.27039
    eigenvalues:
  0.464  0.467  0.492  0.604  0.608
    eigenvectors:
  0.000  0.876  0.000  0.118  0.006
  0.000  0.000  0.000  0.043  0.957
  0.568  0.000  0.432  0.000  0.000
  0.000  0.124  0.000  0.839  0.037
  0.432  0.000  0.568  0.000  0.000
    occupations:
  0.484  0.001 -0.000  0.045 -0.000
  0.001  0.608 -0.000  0.001  0.000
 -0.000 -0.000  0.476  0.000 -0.014
  0.045  0.001  0.000  0.587  0.000
 -0.000  0.000 -0.014  0.000  0.480
atom   23   Tr[ns(na)] =   5.32898
    eigenvalues:
  0.495  0.513  0.521  0.535  0.600
    eigenvectors:
  0.000  0.000  0.000  0.007  0.993
  0.000  0.000  0.998  0.002  0.000
  1.000  0.000  0.000  0.000  0.000
  0.000  0.000  0.002  0.992  0.007
  0.000  1.000  0.000  0.000  0.000
    occupations:
  0.600 -0.000 -0.000 -0.005 -0.000
 -0.000  0.521 -0.000 -0.001 -0.000
 -0.000 -0.000  0.495  0.000  0.000
 -0.005 -0.001  0.000  0.536 -0.000
 -0.000 -0.000  0.000 -0.000  0.513
N of occupied +U levels =  41.9060303
 --- exit write_ns ---

     Threshold (ethr) on eigenvalues was too large:
     Diagonalizing with lowered threshold

     Davidson diagonalization with overlap
     ethr =  5.15E-09,  avg # of iterations =  3.0

[...]

     total energy              =   -1562.18997290 Ry
     Harris-Foulkes estimate   =   -1562.18997291 Ry
     estimated scf accuracy    <       0.00000006 Ry

     iteration #  9     ecut=    40.00 Ry     beta=0.70
     Davidson diagonalization with overlap
     ethr =  2.75E-11,  avg # of iterations =  1.0

     negative rho (up, down):  0.344E-02 0.000E+00

     End of self-consistent calculation
 --- enter write_ns ---
 LDA+U parameters:
U( 2)     =  0.50000000
alpha( 2) =  0.00000000
atom    3   Tr[ns(na)] =   5.24060
    eigenvalues:
  0.404  0.448  0.534  0.578  0.657
    eigenvectors:
  0.000  0.000  0.061  0.420  0.519
  0.000  0.000  0.905  0.092  0.003
  0.118  0.882  0.000  0.000  0.000
  0.000  0.000  0.034  0.488  0.478
  0.882  0.118  0.000  0.000  0.000
    occupations:
  0.616 -0.013  0.000 -0.041 -0.000
 -0.013  0.538 -0.000 -0.005  0.000
  0.000 -0.000  0.443 -0.000 -0.014
 -0.041 -0.005 -0.000  0.614  0.000
 -0.000  0.000 -0.014  0.000  0.409
atom    4   Tr[ns(na)] =   5.24297
    eigenvalues:
  0.419  0.452  0.549  0.577  0.625
    eigenvectors:
  0.000  0.005  0.000  0.994  0.001
  0.000  0.994  0.000  0.005  0.001
  1.000  0.000  0.000  0.000  0.000
  0.000  0.001  0.000  0.001  0.999
  0.000  0.000  1.000  0.000  0.000
    occupations:
  0.576  0.009  0.000  0.001  0.000
  0.009  0.453 -0.000 -0.005 -0.000
  0.000 -0.000  0.419  0.000  0.001
  0.001 -0.005  0.000  0.625  0.000
  0.000 -0.000  0.001  0.000  0.549
atom    9   Tr[ns(na)] =   5.26889
    eigenvalues:
  0.464  0.466  0.492  0.604  0.608
    eigenvectors:
  0.000  0.874  0.000  0.120  0.007
  0.000  0.000  0.000  0.051  0.949
  0.572  0.000  0.428  0.000  0.000
  0.000  0.126  0.000  0.829  0.044
  0.428  0.000  0.572  0.000  0.000
    occupations:
  0.484 -0.001 -0.000  0.046 -0.000
 -0.001  0.608 -0.000 -0.001  0.000
 -0.000 -0.000  0.476  0.000  0.014
  0.046 -0.001  0.000  0.587 -0.000
 -0.000  0.000  0.014 -0.000  0.480
atom   10   Tr[ns(na)] =   5.07383
    eigenvalues:
  0.392  0.485  0.514  0.549  0.597
    eigenvectors:
  0.000  0.000  0.975  0.000  0.025
  0.000  0.999  0.000  0.000  0.001
  1.000  0.000  0.000  0.000  0.000
  0.000  0.001  0.025  0.000  0.975
  0.000  0.000  0.000  1.000  0.000
    occupations:
  0.516  0.000  0.000  0.013 -0.000
  0.000  0.485  0.000  0.003 -0.000
  0.000  0.000  0.392 -0.000 -0.000
  0.013  0.003 -0.000  0.595 -0.000
 -0.000 -0.000 -0.000 -0.000  0.549
atom   16   Tr[ns(na)] =   5.24155
    eigenvalues:
  0.407  0.447  0.533  0.578  0.655
    eigenvectors:
  0.000  0.000  0.061  0.421  0.517
  0.000  0.000  0.904  0.094  0.003
  0.070  0.930  0.000  0.000  0.000
  0.000  0.000  0.035  0.485  0.480
  0.930  0.070  0.000  0.000  0.000
    occupations:
  0.615  0.013  0.000 -0.040  0.000
  0.013  0.538  0.000  0.005  0.000
  0.000  0.000  0.444 -0.000  0.010
 -0.040  0.005 -0.000  0.614 -0.000
  0.000  0.000  0.010 -0.000  0.410
atom   17   Tr[ns(na)] =   5.23917
    eigenvalues:
  0.423  0.459  0.548  0.580  0.611
    eigenvectors:
  0.000  0.005  0.000  0.995  0.000
  0.000  0.994  0.000  0.005  0.001
  1.000  0.000  0.000  0.000  0.000
  0.000  0.001  0.000  0.000  0.999
  0.000  0.000  1.000  0.000  0.000
    occupations:
  0.579  0.008  0.000  0.001  0.000
  0.008  0.460 -0.000 -0.004 -0.000
  0.000 -0.000  0.423  0.000  0.001
  0.001 -0.004  0.000  0.610 -0.000
  0.000 -0.000  0.001 -0.000  0.548
atom   22   Tr[ns(na)] =   5.27012
    eigenvalues:
  0.464  0.467  0.492  0.604  0.608
    eigenvectors:
  0.000  0.876  0.000  0.118  0.006
  0.000  0.000  0.000  0.043  0.957
  0.569  0.000  0.431  0.000  0.000
  0.000  0.124  0.000  0.839  0.037
  0.431  0.000  0.569  0.000  0.000
    occupations:
  0.484  0.001 -0.000  0.045 -0.000
  0.001  0.608 -0.000  0.001  0.000
 -0.000 -0.000  0.476  0.000 -0.014
  0.045  0.001  0.000  0.587  0.000
 -0.000  0.000 -0.014  0.000  0.480
atom   23   Tr[ns(na)] =   5.32791
    eigenvalues:
  0.495  0.513  0.521  0.535  0.600
    eigenvectors:
  0.000  0.000  0.000  0.007  0.993
  0.000  0.000  0.998  0.002  0.000
  1.000  0.000  0.000  0.000  0.000
  0.000  0.000  0.002  0.992  0.007
  0.000  1.000  0.000  0.000  0.000
    occupations:
  0.600 -0.000 -0.000 -0.005 -0.000
 -0.000  0.521 -0.000 -0.001 -0.000
 -0.000 -0.000  0.495  0.000  0.000
 -0.005 -0.001  0.000  0.535 -0.000
 -0.000 -0.000  0.000 -0.000  0.513
N of occupied +U levels =  41.9050374
 --- exit write_ns ---

[...]

          k = 0.2500-0.4237 0.0000 ( 32188 PWs)   bands (ev):

[...]

          k =-0.2500 0.2118 0.0000 ( 32165 PWs)   bands (ev):

   -56.8337 -56.7696 -56.4492 -56.3391 -56.2819 -56.2720 -56.2153 -55.6363
   -33.6107 -33.0334 -32.9652 -32.9324 -32.8755 -32.8750 -32.8191 -32.7809
   -32.7386 -32.6564 -32.6360 -32.6041 -32.5840 -32.5584 -32.4295 -32.3617
   -32.2746 -32.2319 -32.2209 -32.1801 -32.1619 -32.0723 -31.7627 -31.6870
   -20.9997 -20.5329 -19.8306 -19.5401 -19.4418 -19.3178 -19.2694 -19.1915
   -19.1154 -19.0907 -19.0865 -18.5772 -18.5055 -18.4778 -18.4195 -18.3568
   -18.2138 -18.0553 -16.8116  -9.4198  -8.8667  -8.0738  -7.4899  -7.2461
    -7.1496  -7.0379  -6.9794  -6.8139  -6.7138  -6.6544  -6.5957  -6.4448
    -6.3419  -6.3238  -6.2763  -6.0794  -6.0325  -5.9592  -5.8284  -5.6458
    -5.5328  -5.4383  -5.3006  -5.1484  -4.9911  -4.9017  -4.8238  -4.7469
    -4.6707  -4.6334  -4.5062  -4.4735  -4.4641  -4.3922  -4.3684  -4.3143
    -4.1553  -4.0916  -4.0173  -3.9527  -3.8642  -3.7687  -3.6978  -3.6315
    -3.5364  -3.4603  -3.3959  -3.2981  -3.2740  -3.1929  -3.0762  -2.9936
    -2.9678  -2.8237  -2.7233  -2.4793  -0.1935   0.0597   0.2209   0.4692
     0.5340   0.7730   1.1653   1.2184   1.2740   1.5352   1.6006   1.6616
     1.7848   1.9411   2.0427   2.0942   2.1680   2.2479   2.3223   2.4196
     2.5420   2.6255   2.8012   2.8533   3.2379   3.5460   4.0916   4.1628
     4.4217   4.6046   4.6633   4.6884   4.8876   4.9848   5.0903   5.1129
     5.2349   5.2861   5.4093   5.6212   5.6613   5.7556   5.9829   6.1079
     6.2210   6.2770   6.5294   6.5585   6.5818   6.6155   6.7924   6.9053
     6.9135   7.0713   7.1979   7.2972   7.4279   7.4907   7.7946   7.9195
     8.0037   8.0290   8.1194   8.1744   8.2524   8.5069   8.6331   8.6939
     8.8099   8.8921   9.0045   9.0734   9.1611   9.2555   9.2693   9.4710
     9.5375   9.5932   9.7427   9.8553   9.9046  10.0046  10.0644  10.1457
    10.2581  10.3718  10.5609  10.7194  10.7589  10.8933  10.9676  10.9958
    11.1164  11.1436  11.2078  11.2765  11.3935  11.4387  11.4981  11.5425
    11.6439  11.7552  11.8922  11.8968  12.0031  12.1076  12.1296  12.1966
    12.2542  12.3438  12.3802  12.4651  12.6004  12.6618  12.6886  12.7351
    12.7581  12.8570  12.9543  12.9836  13.0356  13.0904  13.2204  13.2761
    13.3482  13.3803  13.5098  13.6177  13.6987  13.7426  13.7878  13.8454
    13.9109  13.9407  13.9974  14.1228  14.1515  14.2876  14.3757  14.3967
    14.4740  14.5814  14.6563  14.7708  14.9023  14.9197  15.0254  15.0966
    15.1909  15.2507  15.2901  15.3177  15.3828  15.4409  15.5238  15.5672
    15.6444  15.6936  15.7879  15.8568  15.9090  15.9949  16.0313  16.0789
    16.1979  16.2643  16.3593  16.3920  16.4601  16.4892  16.5668  16.6709
    16.7193  16.7697  16.8517  16.9352  17.0119  17.1032  17.1373  17.2116
    17.2800  17.3421  17.3637  17.4195  17.4668  17.5735  17.6138  17.7029
    17.7484  17.8469  17.9457  17.9667  18.0746  18.1374  18.1888  18.3787
    18.3849  18.4284  18.4665  18.5348  18.6107  18.6502  18.6930  18.7705
    18.8550  18.9173  18.9652  19.0769  19.1356  19.1682  19.2180  19.3212
    19.3561  19.3968  19.4848  19.5186  19.5875  19.6414  19.6540  19.6862
    19.7527  19.8788  19.9045  19.9957  20.0640

     the Fermi energy is     0.4277 ev

!    total energy              =   -1562.18997290 Ry
     Harris-Foulkes estimate   =   -1562.18997290 Ry
     estimated scf accuracy    <          5.7E-09 Ry

     The total energy is the sum of the following terms:

     one-electron contribution =  -18849.73524073 Ry
     hartree contribution      =    9450.32063372 Ry
     xc contribution           =    -286.81380460 Ry
     ewald contribution        =    8123.67941227 Ry
     Hubbard energy            =       0.35890557 Ry
     smearing contrib. (-TS)   =       0.00012086 Ry

     convergence has been achieved in   9 iterations

     Forces acting on atoms (Ry/au):

     negative rho (up, down):  0.344E-02 0.000E+00
     atom    1 type  1   force =     0.00203119   -0.00004212    0.00007833
     atom    2 type  1   force =    -0.00047290    0.00026484    0.00034369
     atom    3 type  2   force =    -0.03042036   -0.00025740    0.00010125
     atom    4 type  2   force =    -0.00491035    0.00005615    0.00009439
     atom    5 type  1   force =    -0.00730064   -0.01123474    0.00019061
     atom    6 type  1   force =    -0.00731601    0.01120574    0.00018969
     atom    7 type  1   force =     0.00000005    0.00005570   -0.00041273
     atom    8 type  1   force =     0.00221439    0.00000544   -0.00030808
     atom    9 type  2   force =    -0.00387322    0.00000366   -0.00008419
     atom   10 type  2   force =    -0.00042822   -0.00000805   -0.00027631
     atom   11 type  1   force =    -0.01907053   -0.02198504    0.00024364
     atom   12 type  1   force =    -0.01907144    0.02198936    0.00023573
     atom   13 type  1   force =     0.00082289   -0.00000480    0.00005198
     atom   14 type  1   force =     0.00020227   -0.00004773   -0.00002454
     atom   15 type  1   force =    -0.00051707    0.00017942   -0.00013570
     atom   16 type  2   force =     0.03107904   -0.00024672    0.00017783
     atom   17 type  2   force =    -0.00427318    0.00006845    0.00019663
     atom   18 type  1   force =     0.00856277   -0.01083439    0.00018087
     atom   19 type  1   force =     0.00843779    0.01080270    0.00018058
     atom   20 type  1   force =     0.00032150    0.00011522   -0.00001944
     atom   21 type  1   force =     0.00170350    0.00000231   -0.00007579
     atom   22 type  2   force =     0.00324543    0.00001452    0.00025011
     atom   23 type  2   force =     0.00093504   -0.00000189   -0.00053853
     atom   24 type  1   force =     0.01905719   -0.02200074   -0.00007701
     atom   25 type  1   force =     0.01904588    0.02198674   -0.00007395
     atom   26 type  1   force =    -0.00018925   -0.00000100   -0.00006331
     atom   27 type  3   force =     0.00000468   -0.00004971   -0.00046895
     atom   28 type  3   force =    -0.00000840   -0.00003825    0.00026050
     atom   29 type  3   force =     0.00004763    0.00000114   -0.00013119
     atom   30 type  3   force =     0.00014172    0.00000157   -0.00022442
     atom   31 type  1   force =    -0.00000140   -0.00000039    0.00013831

     Total force =     0.001270     Total SCF correction =     0.000139
     SCF correction compared to forces is large: reduce conv_thr to get better values

     bfgs converged in   5 scf cycles and   4 bfgs steps
     (criteria: energy < 0.10E-03, force < 0.10E-02)

     End of BFGS Geometry Optimization

     Final energy   =   -1562.1899728997 Ry
Begin final coordinates

ATOMIC_POSITIONS (crystal)
O0       0.000000000   0.000000000   0.371523637    0   0   1
O0       0.000000000   0.500000000   0.388576869    0   0   1
Nb1      0.250000000   0.500000000   0.444606095    0   0   1
Nb1      0.000000000   0.000000000   0.443906918    0   0   1
O0       0.250000000   0.790000000   0.446271791    0   0   1
O0       0.250000000   0.210000000   0.446272108    0   0   1
O0       0.000000000   0.500000000   0.500901151    0   0   1
O0       0.000000000   0.000000000   0.522924804    0   0   1
Nb1      0.250000000   0.000000000   0.576938726    0   0   1
Nb1      0.000000000   0.500000000   0.570182818    0   0   1
O0       0.250000000   0.710000000   0.576390703    0   0   1
O0       0.250000000   0.290000000   0.576394235    0   0   1
O0       0.000000000   0.000000000   0.621223278    0   0   1
O0       0.500000000   0.000000000   0.372105276    0   0   1
O0       0.500000000   0.500000000   0.390792696    0   0   1
Nb1      0.750000000   0.500000000   0.444659805    0   0   1
Nb1      0.500000000   0.000000000   0.444914814    0   0   1
O0       0.750000000   0.790000000   0.446271136    0   0   1
O0       0.750000000   0.210000000   0.446271259    0   0   1
O0       0.500000000   0.500000000   0.495141567    0   0   1
O0       0.500000000   0.000000000   0.522584804    0   0   1
Nb1      0.750000000   0.000000000   0.577122279    0   0   1
Nb1      0.500000000   0.500000000   0.588480911    0   0   1
O0       0.750000000   0.710000000   0.576207861    0   0   1
O0       0.750000000   0.290000000   0.576207633    0   0   1
O0       0.500000000   0.000000000   0.621183780    0   0   1
H2      -0.000487154   0.501502343   0.352291743
H2       0.499487502   0.501423194   0.354550801
H2       0.150286971   0.000371659   0.355519642
H2       0.649371615   0.000371646   0.355784493
O0       0.500031143   0.500004208   0.652086367
End final coordinates

     General routines

     Parallel routines
     Hubbard U routines

   This run was terminated on:   0:16:21   1May2014

   JOB DONE.