     Program PWSCF v.5.0.2 (svn rev. 9656) starts on  5May2014 at 19:43: 3

     Current dimensions of program PWSCF are:
     Max number of different atomic species (ntypx) = 10
     Max number of k-points (npk) =  40000
     Max angular momentum in pseudopotentials (lmaxx) =  3
     Reading input from pwscf.in
Warning: card &CELL ignored
Warning: card / ignored

     Subspace diagonalization in iterative solution of the eigenvalue problem:
     a serial algorithm will be used

     bravais-lattice index     =            0
     lattice parameter (alat)  =      12.0187  a.u.
     unit-cell volume          =    7280.5819 (a.u.)^3
     number of atoms/cell      =           30
     number of atomic types    =            3
     number of electrons       =       232.00
     number of Kohn-Sham states=          348
     kinetic-energy cutoff     =      40.0000  Ry
     charge density cutoff     =     500.0000  Ry
     convergence threshold     =      1.0E-06
     mixing beta               =       0.7000
     number of iterations used =            8  plain     mixing
     Exchange-correlation      = SLA  PW   PBE  PBE ( 1 4 3 4 0)
     EXX-fraction              =        0.00
     nstep                     =           50

     celldm(1)=  12.018658  celldm(2)=   0.000000  celldm(3)=   0.000000
     celldm(4)=   0.000000  celldm(5)=   0.000000  celldm(6)=   0.000000

     crystal axes: (cart. coord. in units of alat)
               a(1) = (   1.000000   0.000000   0.000000 )
               a(2) = (   0.000000   1.009517   0.000000 )
               a(3) = (   0.000000   0.000000   4.154171 )

     reciprocal axes: (cart. coord. in units 2 pi/alat)
               b(1) = (  1.000000  0.000000  0.000000 )
               b(2) = (  0.000000  0.990572  0.000000 )
               b(3) = (  0.000000  0.000000  0.240722 )

     PseudoPot. # 1 for O  read from file:
     /home/camp/zhonxu/pseudo/o_pbe_v1.01.uspp.F.UPF
     MD5 check sum: 2bcb18d16ea4b960afae9ec6d52f22d2
     Pseudo is Ultrasoft + core correction, Zval =  6.0
     Generated by new atomic code, or converted to UPF format
     Using radial grid of  737 points,  5 beta functions with:
                l(1) =   0
                l(2) =   0
                l(3) =   1
                l(4) =   1
                l(5) =   2
     Q(r) pseudized with  8 coefficients,  rinner =    0.900   0.900   0.900
                                                       0.900   0.900

     PseudoPot. # 2 for Ir read from file:
     /home/camp/zhonxu/pseudo/ir_pbe_v1.uspp.F.UPF
     MD5 check sum: abf987a9674477536ede83817f8f8b70
     Pseudo is Ultrasoft + core correction, Zval = 15.0
     Generated by new atomic code, or converted to UPF format
     Using radial grid of  983 points,  7 beta functions with:
                l(1) =   0
                l(2) =   0
                l(3) =   1
                l(4) =   1
                l(5) =   1
                l(6) =   2
                l(7) =   2
     Q(r) pseudized with  8 coefficients,  rinner =    1.350   1.350   1.350
                                                       1.350   1.350

     PseudoPot. # 3 for H  read from file:
     /home/camp/zhonxu/pseudo/h_pbe_v1.uspp.F.UPF
     MD5 check sum: 3408e3ff4ec8b0a4e358431e7e038a48
     Pseudo is Ultrasoft, Zval =  1.0
     Generated by new atomic code, or converted to UPF format
     Using radial grid of  615 points,  2 beta functions with:
                l(1) =   0
                l(2) =   0
     Q(r) pseudized with  8 coefficients,  rinner =    0.700

     atomic species   valence    mass     pseudopotential
        O0             6.00    15.99940     O ( 1.00)
        Ir1           15.00   192.22000     Ir( 1.00)
        H2             1.00     1.00794     H ( 1.00)

     Simplified LDA+U calculation (l_max = 2) with parameters (eV):
     atomic species    L          U    alpha       J0     beta
        Ir1            2     1.5000   0.0000   0.0000   0.0000

     No symmetry found

   Cartesian axes

     site n.     atom                  positions (alat units)
         1           O0  tau(   1) = (   0.0000000   0.0000000   1.5730185  )
         2           O0  tau(   2) = (   0.0000000   0.5047586   1.6673182  )
         3           Ir1 tau(   3) = (   0.2500000   0.5047586   1.8780178  )
         4           Ir1 tau(   4) = (   0.0000000   0.0000000   1.8842906  )
         5           O0  tau(   5) = (   0.2500000   0.8177090   1.8825458  )
         6           O0  tau(   6) = (   0.2500000   0.1918083   1.8810503  )
         7           O0  tau(   7) = (   0.0000000   0.5047586   2.0695666  )
         8           O0  tau(   8) = (   0.0000000   0.0000000   2.1991352  )
         9           Ir1 tau(   9) = (   0.2500000   0.0000000   2.3955860  )
        10           Ir1 tau(  10) = (   0.0000000   0.5047586   2.3764768  )
        11           O0  tau(  11) = (   0.2500000   0.6965669   2.3975800  )
        12           O0  tau(  12) = (   0.2500000   0.3129503   2.3977461  )
        13           O0  tau(  13) = (   0.0000000   0.0000000   2.5806958  )
        14           O0  tau(  14) = (   0.5000000   0.0000000   1.5730185  )
        15           O0  tau(  15) = (   0.5000000   0.5047586   1.6673182  )
        16           Ir1 tau(  16) = (   0.7500000   0.5047586   1.8780178  )
        17           Ir1 tau(  17) = (   0.5000000   0.0000000   1.8842906  )
        18           O0  tau(  18) = (   0.7500000   0.8177090   1.8825458  )
        19           O0  tau(  19) = (   0.7500000   0.1918083   1.8810503  )
        20           O0  tau(  20) = (   0.5000000   0.5047586   2.0695666  )
        21           O0  tau(  21) = (   0.5000000   0.0000000   2.1991352  )
        22           Ir1 tau(  22) = (   0.7500000   0.0000000   2.3955860  )
        23           Ir1 tau(  23) = (   0.5000000   0.5047586   2.3764768  )
        24           O0  tau(  24) = (   0.7500000   0.6965669   2.3975800  )
        25           O0  tau(  25) = (   0.7500000   0.3129503   2.3977461  )
        26           O0  tau(  26) = (   0.5000000   0.0000000   2.5807374  )
        27           H2  tau(  27) = (  -0.0000500   0.6423962   1.5933324  )
        28           H2  tau(  28) = (   0.4999500   0.6423962   1.5933324  )
        29           H2  tau(  29) = (   0.1436500   0.0338188   1.5249132  )
        30           H2  tau(  30) = (   0.6436500   0.0338188   1.5249132  )

     number of k points=    10  Methfessel-Paxton smearing, width (Ry)=  0.0100
                       cart. coord. in units 2pi/alat
        k(    1) = (   0.0000000   0.0000000   0.0000000), wk =   0.1250000
        k(    2) = (   0.0000000   0.2476431   0.0000000), wk =   0.2500000
        k(    3) = (   0.0000000  -0.4952862   0.0000000), wk =   0.1250000
        k(    4) = (   0.2500000   0.0000000   0.0000000), wk =   0.2500000
        k(    5) = (   0.2500000   0.2476431   0.0000000), wk =   0.2500000
        k(    6) = (   0.2500000  -0.4952862   0.0000000), wk =   0.2500000
        k(    7) = (  -0.5000000   0.0000000   0.0000000), wk =   0.1250000
        k(    8) = (  -0.5000000   0.2476431   0.0000000), wk =   0.2500000
        k(    9) = (  -0.5000000  -0.4952862   0.0000000), wk =   0.1250000
        k(   10) = (  -0.2500000   0.2476431   0.0000000), wk =   0.2500000

     Largest allocated arrays     est. size (Mb)     dimensions
     Largest temporary arrays     est. size (Mb)     dimensions

     Check: negative/imaginary core charge=   -0.000003    0.000000

     Initial potential from superposition of free atoms
     Check: negative starting charge=   -3.334716

     starting charge  227.99968, renormalised to  232.00000

     negative rho (up, down):  0.339E+01 0.000E+00
     Number of +U iterations with fixed ns =  0
     Starting occupations:
 --- enter write_ns ---
 LDA+U parameters:
U( 2)     =  1.50000000
alpha( 2) =  0.00000000
atom    3   Tr[ns(na)] =   7.00000
    eigenvalues:
  0.700  0.700  0.700  0.700  0.700
    eigenvectors:
  1.000  0.000  0.000  0.000  0.000
  0.000  1.000  0.000  0.000  0.000
  0.000  0.000  1.000  0.000  0.000
  0.000  0.000  0.000  1.000  0.000
  0.000  0.000  0.000  0.000  1.000
    occupations:
  0.700  0.000  0.000  0.000  0.000
  0.000  0.700  0.000  0.000  0.000
  0.000  0.000  0.700  0.000  0.000
  0.000  0.000  0.000  0.700  0.000
  0.000  0.000  0.000  0.000  0.700
atom    4   Tr[ns(na)] =   7.00000
    eigenvalues:
  0.700  0.700  0.700  0.700  0.700
    eigenvectors:
  1.000  0.000  0.000  0.000  0.000
  0.000  1.000  0.000  0.000  0.000
  0.000  0.000  1.000  0.000  0.000
  0.000  0.000  0.000  1.000  0.000
  0.000  0.000  0.000  0.000  1.000
    occupations:
  0.700  0.000  0.000  0.000  0.000
  0.000  0.700  0.000  0.000  0.000
  0.000  0.000  0.700  0.000  0.000
  0.000  0.000  0.000  0.700  0.000
  0.000  0.000  0.000  0.000  0.700
atom    9   Tr[ns(na)] =   7.00000
    eigenvalues:
  0.700  0.700  0.700  0.700  0.700
    eigenvectors:
  1.000  0.000  0.000  0.000  0.000
  0.000  1.000  0.000  0.000  0.000
  0.000  0.000  1.000  0.000  0.000
  0.000  0.000  0.000  1.000  0.000
  0.000  0.000  0.000  0.000  1.000
    occupations:
  0.700  0.000  0.000  0.000  0.000
  0.000  0.700  0.000  0.000  0.000
  0.000  0.000  0.700  0.000  0.000
  0.000  0.000  0.000  0.700  0.000
  0.000  0.000  0.000  0.000  0.700
atom   10   Tr[ns(na)] =   7.00000
    eigenvalues:
  0.700  0.700  0.700  0.700  0.700
    eigenvectors:
  1.000  0.000  0.000  0.000  0.000
  0.000  1.000  0.000  0.000  0.000
  0.000  0.000  1.000  0.000  0.000
  0.000  0.000  0.000  1.000  0.000
  0.000  0.000  0.000  0.000  1.000
    occupations:
  0.700  0.000  0.000  0.000  0.000
  0.000  0.700  0.000  0.000  0.000
  0.000  0.000  0.700  0.000  0.000
  0.000  0.000  0.000  0.700  0.000
  0.000  0.000  0.000  0.000  0.700
atom   16   Tr[ns(na)] =   7.00000
    eigenvalues:
  0.700  0.700  0.700  0.700  0.700
    eigenvectors:
  1.000  0.000  0.000  0.000  0.000
  0.000  1.000  0.000  0.000  0.000
  0.000  0.000  1.000  0.000  0.000
  0.000  0.000  0.000  1.000  0.000
  0.000  0.000  0.000  0.000  1.000
    occupations:
  0.700  0.000  0.000  0.000  0.000
  0.000  0.700  0.000  0.000  0.000
  0.000  0.000  0.700  0.000  0.000
  0.000  0.000  0.000  0.700  0.000
  0.000  0.000  0.000  0.000  0.700
atom   17   Tr[ns(na)] =   7.00000
    eigenvalues:
  0.700  0.700  0.700  0.700  0.700
    eigenvectors:
  1.000  0.000  0.000  0.000  0.000
  0.000  1.000  0.000  0.000  0.000
  0.000  0.000  1.000  0.000  0.000
  0.000  0.000  0.000  1.000  0.000
  0.000  0.000  0.000  0.000  1.000
    occupations:
  0.700  0.000  0.000  0.000  0.000
  0.000  0.700  0.000  0.000  0.000
  0.000  0.000  0.700  0.000  0.000
  0.000  0.000  0.000  0.700  0.000
  0.000  0.000  0.000  0.000  0.700
atom   22   Tr[ns(na)] =   7.00000
    eigenvalues:
  0.700  0.700  0.700  0.700  0.700
    eigenvectors:
  1.000  0.000  0.000  0.000  0.000
  0.000  1.000  0.000  0.000  0.000
  0.000  0.000  1.000  0.000  0.000
  0.000  0.000  0.000  1.000  0.000
  0.000  0.000  0.000  0.000  1.000
    occupations:
  0.700  0.000  0.000  0.000  0.000
  0.000  0.700  0.000  0.000  0.000
  0.000  0.000  0.700  0.000  0.000
[...]
  0.000 -0.006  0.001 -0.000  0.963
atom    4   Tr[ns(na)] =   8.06494
    eigenvalues:
  0.618  0.665  0.858  0.911  0.980
    eigenvectors:
  0.000  0.990  0.000  0.000  0.010
  0.000  0.000  0.046  0.954  0.000
  0.000  0.000  0.954  0.046  0.000
  0.000  0.010  0.000  0.000  0.990
  1.000  0.000  0.000  0.000  0.000
    occupations:
  0.668 -0.003 -0.001  0.031  0.001
 -0.003  0.908  0.011  0.000 -0.001
 -0.001  0.011  0.861 -0.000  0.000
  0.031  0.000 -0.000  0.977  0.000
  0.001 -0.001  0.000  0.000  0.618
atom    9   Tr[ns(na)] =   8.04405
    eigenvalues:
  0.649  0.665  0.846  0.885  0.978
    eigenvectors:
  0.000  0.145  0.000  0.000  0.855
  1.000  0.000  0.000  0.000  0.000
  0.000  0.000  1.000  0.000  0.000
  0.000  0.855  0.000  0.000  0.145
  0.000  0.000  0.000  1.000  0.000
    occupations:
  0.933  0.000 -0.000 -0.110 -0.001
  0.000  0.649  0.000  0.000 -0.000
 -0.000  0.000  0.846 -0.000 -0.000
 -0.110  0.000 -0.000  0.710  0.001
 -0.001 -0.000 -0.000  0.001  0.885
atom   10   Tr[ns(na)] =   8.04574
    eigenvalues:
  0.595  0.608  0.918  0.924  0.977
    eigenvectors:
  0.995  0.000  0.000  0.000  0.005
  0.000  0.000  1.000  0.000  0.000
  0.000  0.000  0.000  1.000  0.000
  0.005  0.000  0.000  0.000  0.995
  0.000  1.000  0.000  0.000  0.000
    occupations:
  0.597  0.000  0.002  0.027 -0.000
  0.000  0.918 -0.000  0.000 -0.000
  0.002 -0.000  0.924  0.000  0.000
  0.027  0.000  0.000  0.976  0.000
 -0.000 -0.000  0.000  0.000  0.608
atom   16   Tr[ns(na)] =   8.09523
    eigenvalues:
  0.604  0.627  0.887  0.963  0.967
    eigenvectors:
  0.000  0.194  0.003  0.002  0.801
  1.000  0.000  0.000  0.000  0.000
  0.000  0.000  0.996  0.000  0.004
  0.000  0.806  0.000  0.000  0.193
  0.000  0.000  0.000  0.998  0.002
    occupations:
  0.901 -0.000  0.003 -0.134  0.000
 -0.000  0.604 -0.000 -0.000 -0.006
  0.003 -0.000  0.887 -0.004  0.001
 -0.134 -0.000 -0.004  0.693 -0.000
  0.000 -0.006  0.001 -0.000  0.963
atom   17   Tr[ns(na)] =   8.06530
    eigenvalues:
  0.618  0.665  0.858  0.911  0.980
    eigenvectors:
  0.000  0.990  0.000  0.000  0.010
  0.000  0.000  0.046  0.954  0.000
  0.000  0.000  0.954  0.046  0.000
  0.000  0.010  0.000  0.000  0.990
  1.000  0.000  0.000  0.000  0.000
    occupations:
  0.668 -0.003 -0.001  0.031  0.001
 -0.003  0.909  0.011  0.000 -0.001
 -0.001  0.011  0.861 -0.000  0.000
  0.031  0.000 -0.000  0.977  0.000
  0.001 -0.001  0.000  0.000  0.618
atom   22   Tr[ns(na)] =   8.04451
    eigenvalues:
  0.649  0.665  0.846  0.885  0.978
    eigenvectors:
  0.000  0.145  0.000  0.000  0.855
  1.000  0.000  0.000  0.000  0.000
  0.000  0.000  1.000  0.000  0.000
  0.000  0.855  0.000  0.000  0.145
  0.000  0.000  0.000  1.000  0.000
    occupations:
  0.933  0.000 -0.000 -0.110 -0.001
  0.000  0.649  0.000  0.000 -0.000
 -0.000  0.000  0.846 -0.000 -0.000
 -0.110  0.000 -0.000  0.710  0.001
 -0.001 -0.000 -0.000  0.001  0.885
atom   23   Tr[ns(na)] =   8.04608
    eigenvalues:
  0.595  0.608  0.918  0.924  0.977
    eigenvectors:
  0.995  0.000  0.000  0.000  0.005
  0.000  0.000  1.000  0.000  0.000
  0.000  0.000  0.000  1.000  0.000
  0.005  0.000  0.000  0.000  0.995
  0.000  1.000  0.000  0.000  0.000
    occupations:
  0.597  0.000  0.002  0.027 -0.000
  0.000  0.918 -0.000  0.000 -0.000
  0.002 -0.000  0.924  0.000  0.000
  0.027  0.000  0.000  0.976  0.000
 -0.000 -0.000  0.000  0.000  0.608
N of occupied +U levels =  64.5010075
 --- exit write_ns ---

     Threshold (ethr) on eigenvalues was too large:
     Diagonalizing with lowered threshold

     Davidson diagonalization with overlap
     ethr =  1.85E-08,  avg # of iterations =  2.0

[...]

     total energy              =   -2073.40701263 Ry
     Harris-Foulkes estimate   =   -2073.40701264 Ry
     estimated scf accuracy    <       0.00000014 Ry

     iteration # 14     ecut=    40.00 Ry     beta=0.70
     Davidson diagonalization with overlap
     ethr =  2.35E-11,  avg # of iterations =  1.0

     negative rho (up, down):  0.313E+01 0.000E+00

     End of self-consistent calculation
 --- enter write_ns ---
 LDA+U parameters:
U( 2)     =  1.50000000
alpha( 2) =  0.00000000
atom    3   Tr[ns(na)] =   8.09427
    eigenvalues:
  0.604  0.627  0.886  0.963  0.967
    eigenvectors:
  0.000  0.194  0.003  0.002  0.801
  1.000  0.000  0.000  0.000  0.000
  0.000  0.000  0.996  0.000  0.004
  0.000  0.806  0.000  0.000  0.193
  0.000  0.000  0.000  0.998  0.002
    occupations:
  0.900 -0.000  0.003 -0.134  0.000
 -0.000  0.604 -0.000 -0.000 -0.006
  0.003 -0.000  0.886 -0.004  0.001
 -0.134 -0.000 -0.004  0.693 -0.000
  0.000 -0.006  0.001 -0.000  0.963
atom    4   Tr[ns(na)] =   8.06428
    eigenvalues:
  0.618  0.665  0.858  0.911  0.980
    eigenvectors:
  0.000  0.990  0.000  0.000  0.010
  0.000  0.000  0.045  0.954  0.000
  0.000  0.000  0.955  0.045  0.000
  0.000  0.010  0.000  0.000  0.990
  1.000  0.000  0.000  0.000  0.000
    occupations:
  0.668 -0.003 -0.001  0.031  0.001
 -0.003  0.908  0.011  0.000 -0.001
 -0.001  0.011  0.861 -0.000  0.000
  0.031  0.000 -0.000  0.977  0.000
  0.001 -0.001  0.000  0.000  0.618
atom    9   Tr[ns(na)] =   8.04496
    eigenvalues:
  0.649  0.665  0.846  0.885  0.978
    eigenvectors:
  0.000  0.145  0.000  0.000  0.855
  1.000  0.000  0.000  0.000  0.000
  0.000  0.000  1.000  0.000  0.000
  0.000  0.854  0.000  0.000  0.145
  0.000  0.000  0.000  1.000  0.000
    occupations:
  0.933  0.000 -0.000 -0.110 -0.001
  0.000  0.649  0.000  0.000 -0.000
 -0.000  0.000  0.846 -0.000 -0.000
 -0.110  0.000 -0.000  0.710  0.001
 -0.001 -0.000 -0.000  0.001  0.885
atom   10   Tr[ns(na)] =   8.04727
    eigenvalues:
  0.595  0.608  0.919  0.924  0.977
    eigenvectors:
  0.995  0.000  0.000  0.000  0.005
  0.000  0.000  1.000  0.000  0.000
  0.000  0.000  0.000  1.000  0.000
  0.005  0.000  0.000  0.000  0.995
  0.000  1.000  0.000  0.000  0.000
    occupations:
  0.597  0.000  0.002  0.027 -0.000
  0.000  0.919 -0.000  0.000 -0.000
  0.002 -0.000  0.924  0.000  0.000
  0.027  0.000  0.000  0.976  0.000
 -0.000 -0.000  0.000  0.000  0.608
atom   16   Tr[ns(na)] =   8.09425
    eigenvalues:
  0.604  0.627  0.886  0.963  0.967
    eigenvectors:
  0.000  0.194  0.003  0.002  0.801
  1.000  0.000  0.000  0.000  0.000
  0.000  0.000  0.996  0.000  0.004
  0.000  0.806  0.000  0.000  0.193
  0.000  0.000  0.000  0.998  0.002
    occupations:
  0.900 -0.000  0.003 -0.134  0.000
 -0.000  0.604 -0.000 -0.000 -0.006
  0.003 -0.000  0.886 -0.004  0.001
 -0.134 -0.000 -0.004  0.693 -0.000
  0.000 -0.006  0.001 -0.000  0.963
atom   17   Tr[ns(na)] =   8.06429
    eigenvalues:
  0.618  0.665  0.858  0.911  0.980
    eigenvectors:
  0.000  0.990  0.000  0.000  0.010
  0.000  0.000  0.045  0.954  0.000
  0.000  0.000  0.955  0.045  0.000
  0.000  0.010  0.000  0.000  0.990
  1.000  0.000  0.000  0.000  0.000
    occupations:
  0.668 -0.003 -0.001  0.031  0.001
 -0.003  0.908  0.011  0.000 -0.001
 -0.001  0.011  0.861 -0.000  0.000
  0.031  0.000 -0.000  0.977  0.000
  0.001 -0.001  0.000  0.000  0.618
atom   22   Tr[ns(na)] =   8.04490
    eigenvalues:
  0.649  0.665  0.846  0.885  0.978
    eigenvectors:
  0.000  0.145  0.000  0.000  0.855
  1.000  0.000  0.000  0.000  0.000
  0.000  0.000  1.000  0.000  0.000
  0.000  0.854  0.000  0.000  0.145
  0.000  0.000  0.000  1.000  0.000
    occupations:
  0.933  0.000 -0.000 -0.110 -0.001
  0.000  0.649  0.000  0.000 -0.000
 -0.000  0.000  0.846 -0.000 -0.000
 -0.110  0.000 -0.000  0.710  0.001
 -0.001 -0.000 -0.000  0.001  0.885
atom   23   Tr[ns(na)] =   8.04725
    eigenvalues:
  0.595  0.608  0.919  0.924  0.977
    eigenvectors:
  0.995  0.000  0.000  0.000  0.005
  0.000  0.000  1.000  0.000  0.000
  0.000  0.000  0.000  1.000  0.000
  0.005  0.000  0.000  0.000  0.995
  0.000  1.000  0.000  0.000  0.000
    occupations:
  0.597  0.000  0.002  0.027 -0.000
  0.000  0.919 -0.000  0.000 -0.000
  0.002 -0.000  0.924  0.000  0.000
  0.027  0.000  0.000  0.976  0.000
 -0.000 -0.000  0.000  0.000  0.608
N of occupied +U levels =  64.5014738
 --- exit write_ns ---

[...]

          k = 0.2500-0.4953 0.0000 ( 31088 PWs)   bands (ev):

[...]

          k =-0.2500 0.2476 0.0000 ( 31099 PWs)   bands (ev):

   -50.9442 -50.9397 -50.9300 -50.8834 -50.8763 -50.8561 -50.7987 -50.7263
   -50.7152 -50.7054 -50.6837 -50.6604 -50.6562 -50.6118 -50.6100 -50.6071
   -50.6037 -50.5447 -50.5376 -50.5294 -50.4535 -50.4430 -50.3356 -50.3249
   -21.4872 -21.1004 -21.0395 -20.9647 -20.6300 -20.4714 -20.4526 -20.4227
   -20.2733 -20.1865 -20.0847 -19.9831 -19.9005 -19.8589 -19.7253 -19.5519
   -18.6747 -18.5805  -9.8805  -9.7044  -9.6772  -9.3281  -8.8748  -8.8373
    -8.7996  -8.7032  -8.6458  -8.5635  -8.4811  -8.4743  -8.3853  -8.3499
    -8.0778  -7.9965  -7.9727  -7.7196  -7.4632  -7.3888  -7.3227  -7.1231
    -7.1001  -6.7712  -6.6292  -6.5147  -6.3952  -6.2836  -6.1847  -6.1761
    -6.0615  -6.0127  -5.9128  -5.8389  -5.8273  -5.6854  -5.5288  -5.5009
    -5.2531  -5.1515  -5.0150  -4.8398  -4.8157  -4.6447  -4.5642  -4.5067
    -4.3274  -4.1853  -4.1066  -3.7286  -3.6853  -3.4211  -3.3269  -3.1556
    -3.1309  -3.0023  -2.7517  -2.7211  -2.6540  -2.5790  -2.5326  -2.4510
    -2.4304  -2.3483  -2.3024  -2.1601  -2.0284  -1.9422  -1.7679  -1.5698
    -1.2379  -1.1119  -1.1080  -0.9029  -0.8902  -0.6538  -0.4742  -0.3440
    -0.1218   0.0668   0.9536   1.1196   1.5556   1.6582   1.7744   2.1475
     2.3626   2.6436   2.8372   2.8689   3.1637   3.2010   3.3256   3.4136
     3.7624   4.3233   4.7684   5.1796   5.4062   5.5756   5.6860   5.8815
     6.1412   6.2943   6.5497   6.5870   6.6432   6.8303   7.0598   7.0940
     7.2920   7.3700   7.4404   7.6216   7.6777   7.8722   7.9851   8.0651
     8.1580   8.3587   8.4411   8.4443   8.5657   8.7349   8.8074   8.8507
     8.9137   9.0300   9.0300   9.1138   9.1321   9.1447   9.1450   9.2305
     9.2389   9.2416   9.2532   9.2572   9.3269   9.5172   9.6194   9.6884
     9.7340   9.8831  10.0028  10.0910  10.1809  10.3094  10.3123  10.3979
    10.4217  10.4653  10.5762  10.7541  10.8073  10.8180  10.9315  11.0188
    11.0271  11.2272  11.3353  11.4138  11.5433  11.5682  11.6941  11.7383
    11.7908  11.9338  12.0513  12.1409  12.1725  12.2628  12.2912  12.3832
    12.5250  12.6031  12.6172  12.6683  12.7219  12.7935  12.8243  12.9067
    13.0534  13.0798  13.1322  13.1999  13.2780  13.3342  13.4407  13.5677
    13.5749  13.7303  13.8536  13.8688  13.9740  13.9781  14.0449  14.1276
    14.2515  14.3408  14.4056  14.4909  14.5516  14.7389  14.7396  14.8618
    14.8631  15.1846  15.1865  15.3554  15.3562  15.4787  15.5432  15.5699
    15.6177  15.7558  15.7698  15.8246  15.8689  15.9112  15.9775  16.0538
    16.0580  16.1117  16.1468  16.2540  16.3387  16.3557  16.4293  16.4299
    16.5654  16.6481  16.7038  16.7466  16.7882  16.8254  17.0810  17.1495
    17.1839  17.3475  17.3678  17.4424  17.4446  17.4832  17.5659  17.5858
    17.6552  17.7276  17.7316  17.8447  17.9050  17.9266  17.9690  17.9754
    18.1847  18.2244  18.3106  18.3755  18.4484  18.4915  18.5748  18.6142
    18.7729  18.8426  18.9235  18.9419  19.0467  19.1078  19.1312  19.1914
    19.2645  19.2826  19.3498  19.4326  19.5573  19.6103  19.7096  19.7358
    19.8323  19.9179  19.9591  20.0556  20.1116  20.2745  20.3413  20.3418
    20.4381  20.5218  20.5794  20.6237  20.6502  20.7668  20.7938  20.8577
    20.8740  20.9491  21.0022  21.1157  21.1237  21.2746  21.3283  21.3475
    21.3543  21.4195  21.4769  21.5424

     the Fermi energy is    -0.9019 ev

!    total energy              =   -2073.40701263 Ry
     Harris-Foulkes estimate   =   -2073.40701263 Ry
     estimated scf accuracy    <          4.3E-09 Ry

     The total energy is the sum of the following terms:

     one-electron contribution =  -22019.94313092 Ry
     hartree contribution      =   11051.39588806 Ry
     xc contribution           =    -569.30864623 Ry
     ewald contribution        =    9463.86074690 Ry
     Hubbard energy            =       0.58947643 Ry
     smearing contrib. (-TS)   =      -0.00134688 Ry

     convergence has been achieved in  14 iterations

     Forces acting on atoms (Ry/au):

     negative rho (up, down):  0.313E+01 0.000E+00
     atom    1 type  1   force =    -0.00749288   -0.01389983   -0.00006192
     atom    2 type  1   force =     0.00010231    0.00572120   -0.00019684
     atom    3 type  2   force =     0.00000813    0.00473322   -0.00037851
     atom    4 type  2   force =     0.00930993    0.00785835   -0.00033008
     atom    5 type  1   force =    -0.00279302   -0.01651881   -0.00010632
     atom    6 type  1   force =     0.00402750    0.01463020   -0.00006029
     atom    7 type  1   force =    -0.00035730   -0.00154221    0.00070964
     atom    8 type  1   force =    -0.00328832   -0.00048548    0.00001542
     atom    9 type  2   force =     0.00121114    0.00010391   -0.00021326
     atom   10 type  2   force =     0.00000743   -0.00146968   -0.00063098
     atom   11 type  1   force =    -0.00009645    0.00898871    0.00042177
     atom   12 type  1   force =     0.00021511   -0.00849284    0.00043380
     atom   13 type  1   force =    -0.00089205   -0.00012206   -0.00008368
     atom   14 type  1   force =    -0.00748694   -0.01389906   -0.00006367
     atom   15 type  1   force =     0.00010685    0.00572274   -0.00019683
     atom   16 type  2   force =     0.00000567    0.00473369   -0.00037877
     atom   17 type  2   force =     0.00931180    0.00785810   -0.00032754
     atom   18 type  1   force =    -0.00279172   -0.01651973   -0.00010511
     atom   19 type  1   force =     0.00402865    0.01463116   -0.00005821
     atom   20 type  1   force =    -0.00034742   -0.00154217    0.00070320
     atom   21 type  1   force =    -0.00326333   -0.00048545    0.00002501
     atom   22 type  2   force =     0.00120327    0.00010411   -0.00021162
     atom   23 type  2   force =     0.00001575   -0.00146973   -0.00062295
     atom   24 type  1   force =    -0.00010355    0.00899767    0.00041804
     atom   25 type  1   force =     0.00020794   -0.00850178    0.00042996
     atom   26 type  1   force =    -0.00086931   -0.00012199   -0.00011030
     atom   27 type  3   force =     0.00001683    0.00025638    0.00055836
     atom   28 type  3   force =     0.00001741    0.00025515    0.00055883
     atom   29 type  3   force =    -0.00000546    0.00023846   -0.00006684
     atom   30 type  3   force =    -0.00000800    0.00023776   -0.00007032

     Total force =     0.002029     Total SCF correction =     0.000131

     bfgs converged in   8 scf cycles and   7 bfgs steps
     (criteria: energy < 0.10E-03, force < 0.10E-02)

     End of BFGS Geometry Optimization

     Final energy   =   -2073.4070126291 Ry
Begin final coordinates

ATOMIC_POSITIONS (crystal)
O0       0.000000000   0.000000000   0.378793991    0   0   1
O0       0.000000000   0.500000000   0.401770751    0   0   1
Ir1      0.250000000   0.500000000   0.452378255    0   0   1
Ir1      0.000000000   0.000000000   0.453577905    0   0   1
O0       0.250000000   0.810000000   0.453297554    0   0   1
O0       0.250000000   0.190000000   0.452901956    0   0   1
O0       0.000000000   0.500000000   0.498603033    0   0   1
O0       0.000000000   0.000000000   0.529203949    0   0   1
Ir1      0.250000000   0.000000000   0.576280980    0   0   1
Ir1      0.000000000   0.500000000   0.572046378    0   0   1
O0       0.250000000   0.690000000   0.576591525    0   0   1
O0       0.250000000   0.310000000   0.576632491    0   0   1
O0       0.000000000   0.000000000   0.620885348    0   0   1
O0       0.500000000   0.000000000   0.378794139    0   0   1
O0       0.500000000   0.500000000   0.401770767    0   0   1
Ir1      0.750000000   0.500000000   0.452378299    0   0   1
Ir1      0.500000000   0.000000000   0.453577956    0   0   1
O0       0.750000000   0.810000000   0.453297725    0   0   1
O0       0.750000000   0.190000000   0.452902031    0   0   1
O0       0.500000000   0.500000000   0.498603298    0   0   1
O0       0.500000000   0.000000000   0.529203944    0   0   1
Ir1      0.750000000   0.000000000   0.576281074    0   0   1
Ir1      0.500000000   0.500000000   0.572046127    0   0   1
O0       0.750000000   0.690000000   0.576591780    0   0   1
O0       0.750000000   0.310000000   0.576632751    0   0   1
O0       0.500000000   0.000000000   0.620886824    0   0   1
H2      -0.000124527   0.636280788   0.383989103
H2       0.499875049   0.636281070   0.383989191
H2       0.143528936   0.034097233   0.367229853
H2       0.643530514   0.034097384   0.367231026
End final coordinates

     General routines

     Parallel routines
     Hubbard U routines

   This run was terminated on:   3: 9:27   6May2014

   JOB DONE.