     Program PWSCF v.5.0.2 (svn rev. 9656) starts on 24Jan2014 at 15:38:58

     Current dimensions of program PWSCF are:
     Max number of different atomic species (ntypx) = 10
     Max number of k-points (npk) =  40000
     Max angular momentum in pseudopotentials (lmaxx) =  3
     Reading input from SnO2-v-1.05.in

     Subspace diagonalization in iterative solution of the eigenvalue problem:
     a serial algorithm will be used

     bravais-lattice index     =            0
     lattice parameter (alat)  =       9.4074  a.u.
     unit-cell volume          =     536.5260 (a.u.)^3
     number of atoms/cell      =            6
     number of atomic types    =            2
     number of electrons       =        52.00
     number of Kohn-Sham states=           75
     kinetic-energy cutoff     =      40.0000  Ry
     charge density cutoff     =     500.0000  Ry
     convergence threshold     =      1.0E-06
     mixing beta               =       0.3000
     number of iterations used =            8  plain     mixing
     Exchange-correlation      = SLA  PW   PBE  PBE ( 1 4 3 4 0)
     EXX-fraction              =        0.00
     nstep                     =           50

     celldm(1)=   9.407374  celldm(2)=   0.000000  celldm(3)=   0.000000
     celldm(4)=   0.000000  celldm(5)=   0.000000  celldm(6)=   0.000000

     crystal axes: (cart. coord. in units of alat)
               a(1) = (   1.000000   0.000000   0.000000 )
               a(2) = (   0.000000   1.000000   0.000000 )
               a(3) = (   0.000000   0.000000   0.644444 )

     reciprocal axes: (cart. coord. in units 2 pi/alat)
               b(1) = (  1.000000  0.000000  0.000000 )
               b(2) = (  0.000000  1.000000  0.000000 )
               b(3) = (  0.000000  0.000000  1.551724 )

     PseudoPot. # 1 for Sn read from file:
     /home/camp/zhonxu/pseudo/sn_pbe_v1.uspp.F.UPF
     MD5 check sum: 4cf58ce39ec5d5d420df3dd08604eb00
     Pseudo is Ultrasoft + core correction, Zval = 14.0
     Generated by new atomic code, or converted to UPF format
     Using radial grid of  891 points,  6 beta functions with:
                l(1) =   0
                l(2) =   0
                l(3) =   1
                l(4) =   1
                l(5) =   2
                l(6) =   2
     Q(r) pseudized with  6 coefficients,  rinner =    1.200   1.200   1.200
                                                       1.200   1.200

     PseudoPot. # 2 for O  read from file:
     /home/camp/zhonxu/pseudo/o_pbe_v1.01.uspp.F.UPF
     MD5 check sum: 2bcb18d16ea4b960afae9ec6d52f22d2
     Pseudo is Ultrasoft + core correction, Zval =  6.0
     Generated by new atomic code, or converted to UPF format
     Using radial grid of  737 points,  5 beta functions with:
                l(1) =   0
                l(2) =   0
                l(3) =   1
                l(4) =   1
                l(5) =   2
     Q(r) pseudized with  8 coefficients,  rinner =    0.900   0.900   0.900
                                                       0.900   0.900

     atomic species   valence    mass     pseudopotential
        Sn0           14.00   118.71000     Sn( 1.00)
        O1             6.00    15.99940     O ( 1.00)

     Starting magnetic structure
     atomic species   magnetization
        Sn0          0.600
        O1           0.000

      8 Sym. Ops., with inversion, found
          (note:  8 additional sym.ops. were found but ignored
           their fractional translations are incommensurate with FFT grid)

   Cartesian axes

     site n.     atom                  positions (alat units)
         1           Sn0 tau(   1) = (   0.0000000   0.0000000   0.0000000  )
         2           Sn0 tau(   2) = (   0.5000000   0.5000000   0.3222222  )
         3           O1  tau(   3) = (   0.3050000   0.3050000   0.0000000  )
         4           O1  tau(   4) = (  -0.3050000  -0.3050000   0.0000000  )
         5           O1  tau(   5) = (   0.8050000   0.1950000   0.3222222  )
         6           O1  tau(   6) = (   0.1950000   0.8050000   0.3222222  )

     number of k points=    54  Methfessel-Paxton smearing, width (Ry)=  0.0100
                       cart. coord. in units 2pi/alat
        k(    1) = (   0.0000000   0.0000000   0.0000000), wk =   0.0080000
        k(    2) = (   0.0000000   0.0000000   0.3103448), wk =   0.0160000
        k(    3) = (   0.0000000   0.0000000   0.6206897), wk =   0.0160000
        k(    4) = (   0.0000000   0.2000000   0.0000000), wk =   0.0320000
        k(    5) = (   0.0000000   0.2000000   0.3103448), wk =   0.0640000
        k(    6) = (   0.0000000   0.2000000   0.6206897), wk =   0.0640000
        k(    7) = (   0.0000000   0.4000000   0.0000000), wk =   0.0320000
        k(    8) = (   0.0000000   0.4000000   0.3103448), wk =   0.0640000
        k(    9) = (   0.0000000   0.4000000   0.6206897), wk =   0.0640000
        k(   10) = (   0.2000000   0.2000000   0.0000000), wk =   0.0160000
        k(   11) = (   0.2000000   0.2000000   0.3103448), wk =   0.0320000
        k(   12) = (   0.2000000   0.2000000   0.6206897), wk =   0.0320000
        k(   13) = (   0.2000000   0.4000000   0.0000000), wk =   0.0320000
        k(   14) = (   0.2000000   0.4000000   0.3103448), wk =   0.0640000
        k(   15) = (   0.2000000   0.4000000   0.6206897), wk =   0.0640000
        k(   16) = (   0.4000000   0.4000000   0.0000000), wk =   0.0160000
        k(   17) = (   0.4000000   0.4000000   0.3103448), wk =   0.0320000
        k(   18) = (   0.4000000   0.4000000   0.6206897), wk =   0.0320000
        k(   19) = (  -0.2000000   0.2000000   0.0000000), wk =   0.0160000
        k(   20) = (  -0.2000000   0.2000000  -0.3103448), wk =   0.0320000
        k(   21) = (  -0.2000000   0.2000000  -0.6206897), wk =   0.0320000
        k(   22) = (  -0.2000000   0.4000000   0.0000000), wk =   0.0320000
        k(   23) = (  -0.2000000   0.4000000  -0.3103448), wk =   0.0640000
        k(   24) = (  -0.2000000   0.4000000  -0.6206897), wk =   0.0640000
        k(   25) = (  -0.4000000   0.4000000   0.0000000), wk =   0.0160000
        k(   26) = (  -0.4000000   0.4000000  -0.3103448), wk =   0.0320000
        k(   27) = (  -0.4000000   0.4000000  -0.6206897), wk =   0.0320000
        k(   28) = (   0.0000000   0.0000000   0.0000000), wk =   0.0080000
        k(   29) = (   0.0000000   0.0000000   0.3103448), wk =   0.0160000
        k(   30) = (   0.0000000   0.0000000   0.6206897), wk =   0.0160000
        k(   31) = (   0.0000000   0.2000000   0.0000000), wk =   0.0320000
        k(   32) = (   0.0000000   0.2000000   0.3103448), wk =   0.0640000
        k(   33) = (   0.0000000   0.2000000   0.6206897), wk =   0.0640000
        k(   34) = (   0.0000000   0.4000000   0.0000000), wk =   0.0320000
        k(   35) = (   0.0000000   0.4000000   0.3103448), wk =   0.0640000
        k(   36) = (   0.0000000   0.4000000   0.6206897), wk =   0.0640000
        k(   37) = (   0.2000000   0.2000000   0.0000000), wk =   0.0160000
        k(   38) = (   0.2000000   0.2000000   0.3103448), wk =   0.0320000
        k(   39) = (   0.2000000   0.2000000   0.6206897), wk =   0.0320000
        k(   40) = (   0.2000000   0.4000000   0.0000000), wk =   0.0320000
        k(   41) = (   0.2000000   0.4000000   0.3103448), wk =   0.0640000
        k(   42) = (   0.2000000   0.4000000   0.6206897), wk =   0.0640000
        k(   43) = (   0.4000000   0.4000000   0.0000000), wk =   0.0160000
        k(   44) = (   0.4000000   0.4000000   0.3103448), wk =   0.0320000
        k(   45) = (   0.4000000   0.4000000   0.6206897), wk =   0.0320000
        k(   46) = (  -0.2000000   0.2000000   0.0000000), wk =   0.0160000
        k(   47) = (  -0.2000000   0.2000000  -0.3103448), wk =   0.0320000
        k(   48) = (  -0.2000000   0.2000000  -0.6206897), wk =   0.0320000
        k(   49) = (  -0.2000000   0.4000000   0.0000000), wk =   0.0320000
        k(   50) = (  -0.2000000   0.4000000  -0.3103448), wk =   0.0640000
        k(   51) = (  -0.2000000   0.4000000  -0.6206897), wk =   0.0640000
        k(   52) = (  -0.4000000   0.4000000   0.0000000), wk =   0.0160000
        k(   53) = (  -0.4000000   0.4000000  -0.3103448), wk =   0.0320000
        k(   54) = (  -0.4000000   0.4000000  -0.6206897), wk =   0.0320000

     Largest allocated arrays     est. size (Mb)     dimensions
     Largest temporary arrays     est. size (Mb)     dimensions

     Check: negative/imaginary core charge=   -0.000005    0.000000

     Initial potential from superposition of free atoms

     starting charge   49.99990, renormalised to   52.00000
     Starting wfc are   34 randomized atomic wfcs

     Self-consistent Calculation

     iteration #  1     ecut=    40.00 Ry     beta=0.30
     Davidson diagonalization with overlap
     ethr =  1.00E-02,  avg # of iterations =  5.1

     total energy              =    -454.70388488 Ry
     Harris-Foulkes estimate   =    -454.86478014 Ry
     estimated scf accuracy    <       3.58605609 Ry

     total magnetization       =    -0.00 Bohr mag/cell
     absolute magnetization    =     0.91 Bohr mag/cell

[...]

     End of self-consistent calculation

 ------ SPIN UP ------------

          k = 0.0000 0.0000 0.0000 (  2297 PWs)   bands (ev):

   -12.9918 -12.4844 -12.2856 -12.2433 -12.2433 -12.1781 -12.1775 -12.1258
   -12.1072 -12.1072 -10.3555  -8.8149  -8.8147  -7.5470   0.1068   4.1472
     4.1473   4.6616   5.2994   5.8981   6.2228   6.8594   6.8596   7.3082
     7.3083   8.0415   8.3130  13.6082  14.0719  14.0720  17.9057  18.1039
    18.8001  18.8001  19.7696  19.9721  21.9364  25.1398  25.9671  26.0171
    26.9930  26.9930  27.1818  27.1818  27.7925  27.7925  28.1738  28.1755
    28.6804  29.4515  29.6438  30.6490  32.3948  32.3949  34.2141  34.2142
    34.3503  35.5484  36.4654  36.6846  36.6846  38.2572  38.4738  38.6319
    39.5383  39.9732  39.9732  40.1906  40.1906  40.7545  42.4455  42.5102
    43.5268  43.5268  44.3270

[...]

          k =-0.2000 0.2000 0.0000 (  2293 PWs)   bands (ev):

[...]

 ------ SPIN DOWN ----------

[...]

     the Fermi energy is     8.1666 ev

!    total energy              =    -455.50431564 Ry
     Harris-Foulkes estimate   =    -455.50430927 Ry
     estimated scf accuracy    <       0.00000010 Ry

     The total energy is the sum of the following terms:

     one-electron contribution =    -147.56606378 Ry
     hartree contribution      =     112.04380662 Ry
     xc contribution           =    -124.30152604 Ry
     ewald contribution        =    -295.68055503 Ry
     smearing contrib. (-TS)   =       0.00002259 Ry

[...]

     convergence has been achieved in   9 iterations

     Forces acting on atoms (Ry/au):

     atom    1 type  1   force =     0.00000000    0.00000000    0.00000000
     atom    2 type  1   force =     0.00000000    0.00000000    0.00000000
     atom    3 type  2   force =     0.00949430    0.00949430    0.00000000
     atom    4 type  2   force =    -0.00949430   -0.00949430    0.00000000
     atom    5 type  2   force =     0.00949319   -0.00949319    0.00000000
     atom    6 type  2   force =    -0.00949319    0.00949319    0.00000000

[...]
        k(    2) = (   0.0000000   0.0000000   0.3048325), wk =   0.0160000
        k(    3) = (   0.0000000   0.0000000   0.6096651), wk =   0.0160000
        k(    4) = (  -0.0000001   0.2018002   0.0000000), wk =   0.0320000
        k(    5) = (  -0.0000001   0.2018002   0.3048325), wk =   0.0640000
        k(    6) = (  -0.0000001   0.2018002   0.6096651), wk =   0.0640000
        k(    7) = (  -0.0000002   0.4036004   0.0000000), wk =   0.0320000
        k(    8) = (  -0.0000002   0.4036004   0.3048325), wk =   0.0640000
        k(    9) = (  -0.0000002   0.4036004   0.6096651), wk =   0.0640000
        k(   10) = (   0.2018001   0.2018001   0.0000000), wk =   0.0160000
        k(   11) = (   0.2018001   0.2018001   0.3048325), wk =   0.0320000
        k(   12) = (   0.2018001   0.2018001   0.6096651), wk =   0.0320000
        k(   13) = (   0.2018000   0.4036003   0.0000000), wk =   0.0320000
        k(   14) = (   0.2018000   0.4036003   0.3048325), wk =   0.0640000
        k(   15) = (   0.2018000   0.4036003   0.6096651), wk =   0.0640000
        k(   16) = (   0.4036002   0.4036002   0.0000000), wk =   0.0160000
        k(   17) = (   0.4036002   0.4036002   0.3048325), wk =   0.0320000
        k(   18) = (   0.4036002   0.4036002   0.6096651), wk =   0.0320000
        k(   19) = (  -0.2018003   0.2018003   0.0000000), wk =   0.0160000
        k(   20) = (  -0.2018003   0.2018003  -0.3048325), wk =   0.0320000
        k(   21) = (  -0.2018003   0.2018003  -0.6096651), wk =   0.0320000
        k(   22) = (  -0.2018004   0.4036005   0.0000000), wk =   0.0320000
        k(   23) = (  -0.2018004   0.4036005  -0.3048325), wk =   0.0640000
        k(   24) = (  -0.2018004   0.4036005  -0.6096651), wk =   0.0640000
        k(   25) = (  -0.4036006   0.4036006   0.0000000), wk =   0.0160000
        k(   26) = (  -0.4036006   0.4036006  -0.3048325), wk =   0.0320000
        k(   27) = (  -0.4036006   0.4036006  -0.6096651), wk =   0.0320000
        k(   28) = (   0.0000000   0.0000000   0.0000000), wk =   0.0080000
        k(   29) = (   0.0000000   0.0000000   0.3048325), wk =   0.0160000
        k(   30) = (   0.0000000   0.0000000   0.6096651), wk =   0.0160000
        k(   31) = (  -0.0000001   0.2018002   0.0000000), wk =   0.0320000
        k(   32) = (  -0.0000001   0.2018002   0.3048325), wk =   0.0640000
        k(   33) = (  -0.0000001   0.2018002   0.6096651), wk =   0.0640000
        k(   34) = (  -0.0000002   0.4036004   0.0000000), wk =   0.0320000
        k(   35) = (  -0.0000002   0.4036004   0.3048325), wk =   0.0640000
        k(   36) = (  -0.0000002   0.4036004   0.6096651), wk =   0.0640000
        k(   37) = (   0.2018001   0.2018001   0.0000000), wk =   0.0160000
        k(   38) = (   0.2018001   0.2018001   0.3048325), wk =   0.0320000
        k(   39) = (   0.2018001   0.2018001   0.6096651), wk =   0.0320000
        k(   40) = (   0.2018000   0.4036003   0.0000000), wk =   0.0320000
        k(   41) = (   0.2018000   0.4036003   0.3048325), wk =   0.0640000
        k(   42) = (   0.2018000   0.4036003   0.6096651), wk =   0.0640000
        k(   43) = (   0.4036002   0.4036002   0.0000000), wk =   0.0160000
        k(   44) = (   0.4036002   0.4036002   0.3048325), wk =   0.0320000
        k(   45) = (   0.4036002   0.4036002   0.6096651), wk =   0.0320000
        k(   46) = (  -0.2018003   0.2018003   0.0000000), wk =   0.0160000
        k(   47) = (  -0.2018003   0.2018003  -0.3048325), wk =   0.0320000
        k(   48) = (  -0.2018003   0.2018003  -0.6096651), wk =   0.0320000
        k(   49) = (  -0.2018004   0.4036005   0.0000000), wk =   0.0320000
        k(   50) = (  -0.2018004   0.4036005  -0.3048325), wk =   0.0640000
        k(   51) = (  -0.2018004   0.4036005  -0.6096651), wk =   0.0640000
        k(   52) = (  -0.4036006   0.4036006   0.0000000), wk =   0.0160000
        k(   53) = (  -0.4036006   0.4036006  -0.3048325), wk =   0.0320000
        k(   54) = (  -0.4036006   0.4036006  -0.6096651), wk =   0.0320000

[...]

     Volume is kept fixed: isostatic pressure set to zero

     bfgs converged in   6 scf cycles and   5 bfgs steps
     (criteria: energy < 0.10E-03, force < 0.10E-02, cell < 0.50E+00)

     End of BFGS Geometry Optimization

     Final enthalpy =    -455.5069482925 Ry
Begin final coordinates
     new unit-cell volume =    536.52600 a.u.^3 (    79.50495 Ang^3 )

CELL_PARAMETERS (alat=  9.40737444)
   0.991079284   0.000000482   0.000000000
   0.000000482   0.991079284   0.000000000
   0.000000000   0.000000000   0.656097960

ATOMIC_POSITIONS (crystal)
Sn0      0.000000000   0.000000000   0.000000000    0   0   0
Sn0      0.500000000   0.500000000   0.500000000    0   0   0
O1       0.307908312   0.307908312   0.000000000    1   1   0
O1      -0.307908312  -0.307908312   0.000000000    1   1   0
O1       0.807908301   0.192091699   0.500000000    1   1   0
O1       0.192091699   0.807908301   0.500000000    1   1   0
End final coordinates

     A final scf calculation at the relaxed structure.
     The G-vectors are recalculated for the final unit cell
     Results may differ from those at the preceding step.

     bravais-lattice index     =            0
     lattice parameter (alat)  =       9.4074  a.u.
     unit-cell volume          =     536.5260 (a.u.)^3
     number of atoms/cell      =            6
     number of atomic types    =            2
     number of electrons       =        52.00
     number of Kohn-Sham states=           75
     kinetic-energy cutoff     =      40.0000  Ry
     charge density cutoff     =     500.0000  Ry
     convergence threshold     =      1.0E-08
     mixing beta               =       0.3000
     number of iterations used =            8  plain     mixing
     Exchange-correlation      = SLA  PW   PBE  PBE ( 1 4 3 4 0)
     EXX-fraction              =        0.00

     celldm(1)=   9.407374  celldm(2)=   0.000000  celldm(3)=   0.000000
     celldm(4)=   0.000000  celldm(5)=   0.000000  celldm(6)=   0.000000

     crystal axes: (cart. coord. in units of alat)
               a(1) = (   0.991079   0.000000   0.000000 )
               a(2) = (   0.000000   0.991079   0.000000 )
               a(3) = (   0.000000   0.000000   0.656098 )

     reciprocal axes: (cart. coord. in units 2 pi/alat)
               b(1) = (  1.009001 -0.000000  0.000000 )
               b(2) = ( -0.000000  1.009001  0.000000 )
               b(3) = (  0.000000  0.000000  1.524163 )

     PseudoPot. # 1 for Sn read from file:
     /home/camp/zhonxu/pseudo/sn_pbe_v1.uspp.F.UPF
     MD5 check sum: 4cf58ce39ec5d5d420df3dd08604eb00
     Pseudo is Ultrasoft + core correction, Zval = 14.0
     Generated by new atomic code, or converted to UPF format
     Using radial grid of  891 points,  6 beta functions with:
                l(1) =   0
                l(2) =   0
                l(3) =   1
                l(4) =   1
                l(5) =   2
                l(6) =   2
     Q(r) pseudized with  6 coefficients,  rinner =    1.200   1.200   1.200
                                                       1.200   1.200

     PseudoPot. # 2 for O  read from file:
     /home/camp/zhonxu/pseudo/o_pbe_v1.01.uspp.F.UPF
     MD5 check sum: 2bcb18d16ea4b960afae9ec6d52f22d2
     Pseudo is Ultrasoft + core correction, Zval =  6.0
     Generated by new atomic code, or converted to UPF format
     Using radial grid of  737 points,  5 beta functions with:
                l(1) =   0
                l(2) =   0
                l(3) =   1
                l(4) =   1
                l(5) =   2
     Q(r) pseudized with  8 coefficients,  rinner =    0.900   0.900   0.900
                                                       0.900   0.900

     atomic species   valence    mass     pseudopotential
        Sn0           14.00   118.71000     Sn( 1.00)
        O1             6.00    15.99940     O ( 1.00)

     Starting magnetic structure
     atomic species   magnetization
        Sn0          0.600
        O1           0.000

      8 Sym. Ops., with inversion, found
          (note:  8 additional sym.ops. were found but ignored
           their fractional translations are incommensurate with FFT grid)

   Cartesian axes

     site n.     atom                  positions (alat units)
         1           Sn0 tau(   1) = (   0.0000000   0.0000000   0.0000000  )
         2           Sn0 tau(   2) = (   0.4955399   0.4955399   0.3280490  )
         3           O1  tau(   3) = (   0.3051617   0.3051617   0.0000000  )
         4           O1  tau(   4) = (  -0.3051617  -0.3051617   0.0000000  )
         5           O1  tau(   5) = (   0.8007013   0.1903785   0.3280490  )
         6           O1  tau(   6) = (   0.1903785   0.8007013   0.3280490  )

     number of k points=    54  Methfessel-Paxton smearing, width (Ry)=  0.0100
                       cart. coord. in units 2pi/alat
        k(    1) = (   0.0000000   0.0000000   0.0000000), wk =   0.0080000
        k(    2) = (   0.0000000   0.0000000   0.3048325), wk =   0.0160000
        k(    3) = (   0.0000000   0.0000000   0.6096651), wk =   0.0160000
        k(    4) = (  -0.0000001   0.2018002   0.0000000), wk =   0.0320000
        k(    5) = (  -0.0000001   0.2018002   0.3048325), wk =   0.0640000
        k(    6) = (  -0.0000001   0.2018002   0.6096651), wk =   0.0640000
        k(    7) = (  -0.0000002   0.4036004   0.0000000), wk =   0.0320000
        k(    8) = (  -0.0000002   0.4036004   0.3048325), wk =   0.0640000
        k(    9) = (  -0.0000002   0.4036004   0.6096651), wk =   0.0640000
        k(   10) = (   0.2018001   0.2018001   0.0000000), wk =   0.0160000
        k(   11) = (   0.2018001   0.2018001   0.3048325), wk =   0.0320000
        k(   12) = (   0.2018001   0.2018001   0.6096651), wk =   0.0320000
        k(   13) = (   0.2018000   0.4036003   0.0000000), wk =   0.0320000
        k(   14) = (   0.2018000   0.4036003   0.3048325), wk =   0.0640000
        k(   15) = (   0.2018000   0.4036003   0.6096651), wk =   0.0640000
        k(   16) = (   0.4036002   0.4036002   0.0000000), wk =   0.0160000
        k(   17) = (   0.4036002   0.4036002   0.3048325), wk =   0.0320000
        k(   18) = (   0.4036002   0.4036002   0.6096651), wk =   0.0320000
        k(   19) = (  -0.2018003   0.2018003   0.0000000), wk =   0.0160000
        k(   20) = (  -0.2018003   0.2018003  -0.3048325), wk =   0.0320000
        k(   21) = (  -0.2018003   0.2018003  -0.6096651), wk =   0.0320000
        k(   22) = (  -0.2018004   0.4036005   0.0000000), wk =   0.0320000
        k(   23) = (  -0.2018004   0.4036005  -0.3048325), wk =   0.0640000
        k(   24) = (  -0.2018004   0.4036005  -0.6096651), wk =   0.0640000
        k(   25) = (  -0.4036006   0.4036006   0.0000000), wk =   0.0160000
        k(   26) = (  -0.4036006   0.4036006  -0.3048325), wk =   0.0320000
        k(   27) = (  -0.4036006   0.4036006  -0.6096651), wk =   0.0320000
        k(   28) = (   0.0000000   0.0000000   0.0000000), wk =   0.0080000
        k(   29) = (   0.0000000   0.0000000   0.3048325), wk =   0.0160000
        k(   30) = (   0.0000000   0.0000000   0.6096651), wk =   0.0160000
        k(   31) = (  -0.0000001   0.2018002   0.0000000), wk =   0.0320000
        k(   32) = (  -0.0000001   0.2018002   0.3048325), wk =   0.0640000
        k(   33) = (  -0.0000001   0.2018002   0.6096651), wk =   0.0640000
        k(   34) = (  -0.0000002   0.4036004   0.0000000), wk =   0.0320000
        k(   35) = (  -0.0000002   0.4036004   0.3048325), wk =   0.0640000
        k(   36) = (  -0.0000002   0.4036004   0.6096651), wk =   0.0640000
        k(   37) = (   0.2018001   0.2018001   0.0000000), wk =   0.0160000
        k(   38) = (   0.2018001   0.2018001   0.3048325), wk =   0.0320000
        k(   39) = (   0.2018001   0.2018001   0.6096651), wk =   0.0320000
        k(   40) = (   0.2018000   0.4036003   0.0000000), wk =   0.0320000
        k(   41) = (   0.2018000   0.4036003   0.3048325), wk =   0.0640000
        k(   42) = (   0.2018000   0.4036003   0.6096651), wk =   0.0640000
        k(   43) = (   0.4036002   0.4036002   0.0000000), wk =   0.0160000
        k(   44) = (   0.4036002   0.4036002   0.3048325), wk =   0.0320000
        k(   45) = (   0.4036002   0.4036002   0.6096651), wk =   0.0320000
        k(   46) = (  -0.2018003   0.2018003   0.0000000), wk =   0.0160000
        k(   47) = (  -0.2018003   0.2018003  -0.3048325), wk =   0.0320000
        k(   48) = (  -0.2018003   0.2018003  -0.6096651), wk =   0.0320000
        k(   49) = (  -0.2018004   0.4036005   0.0000000), wk =   0.0320000
        k(   50) = (  -0.2018004   0.4036005  -0.3048325), wk =   0.0640000
        k(   51) = (  -0.2018004   0.4036005  -0.6096651), wk =   0.0640000
        k(   52) = (  -0.4036006   0.4036006   0.0000000), wk =   0.0160000
        k(   53) = (  -0.4036006   0.4036006  -0.3048325), wk =   0.0320000
        k(   54) = (  -0.4036006   0.4036006  -0.6096651), wk =   0.0320000

     Largest allocated arrays     est. size (Mb)     dimensions
     Largest temporary arrays     est. size (Mb)     dimensions

     Check: negative/imaginary core charge=   -0.000005    0.000000

     Initial potential from superposition of free atoms

     starting charge   49.99990, renormalised to   52.00000
     Starting wfc are   34 randomized atomic wfcs

     Self-consistent Calculation

[...]

     total energy              =    -455.50694691 Ry
     Harris-Foulkes estimate   =    -455.50694529 Ry
     estimated scf accuracy    <       0.00000002 Ry

[...]

     iteration # 11     ecut=    40.00 Ry     beta=0.30
     Davidson diagonalization with overlap
     ethr =  3.43E-11,  avg # of iterations =  2.0

     End of self-consistent calculation

 ------ SPIN UP ------------

[...]

 ------ SPIN DOWN ----------

[...]

          k = 0.4036 0.4036 0.6097 (  2297 PWs)   bands (ev):

[...]

          k =-0.4036 0.4036-0.6097 (  2297 PWs)   bands (ev):

   -12.8106 -12.7622 -12.4326 -12.3630 -12.1468 -12.1466 -12.1216 -12.1197
   -12.0861 -12.0846  -8.9587  -8.8228  -7.7523  -7.6674   0.7340   0.8627
     3.7231   3.7341   4.4111   5.4590   5.4683   6.4386   7.0874   7.1121
     7.2713   7.3264  12.1557  12.2755  16.0815  16.5250  17.8117  18.1357
    18.2098  18.6134  20.3209  20.5704  21.8543  22.1258  22.4313  24.1056
    24.9110  25.0797  26.1389  27.1334  28.1954  28.1957  29.5725  30.0736
    31.2152  31.3964  32.1809  32.7509  33.4422  33.8589  34.2296  34.8546
    35.1191  36.5128  37.0095  37.4016  38.5416  38.8415  39.6829  40.1196
    40.2655  40.4921  40.9007  41.4801  41.6554  42.7055  42.7384  43.5887
    44.0536  44.2864  45.0908

     the Fermi energy is     8.1526 ev

!    total energy              =    -455.50694846 Ry
     Harris-Foulkes estimate   =    -455.50694692 Ry
     estimated scf accuracy    <          1.6E-09 Ry

     The total energy is the sum of the following terms:

     one-electron contribution =    -146.67496760 Ry
     hartree contribution      =     111.64454256 Ry
     xc contribution           =    -124.29371209 Ry
     ewald contribution        =    -296.18283251 Ry
     smearing contrib. (-TS)   =       0.00002118 Ry

     total magnetization       =    -0.00 Bohr mag/cell
     absolute magnetization    =     0.00 Bohr mag/cell

     convergence has been achieved in  11 iterations

     Forces acting on atoms (Ry/au):

     atom    1 type  1   force =     0.00000000    0.00000000    0.00000000
     atom    2 type  1   force =     0.00000000    0.00000000    0.00000000
     atom    3 type  2   force =    -0.00003721   -0.00003721    0.00000000
     atom    4 type  2   force =     0.00003721    0.00003721    0.00000000
     atom    5 type  2   force =    -0.00003715    0.00003715    0.00000000
     atom    6 type  2   force =     0.00003715   -0.00003715    0.00000000

     Total force =     0.000105     Total SCF correction =     0.000040
     SCF correction compared to forces is large: reduce conv_thr to get better values

     entering subroutine stress ...

          total   stress  (Ry/bohr**3)                   (kbar)     P=  -78.37
  -0.00053260  -0.00000001   0.00000000        -78.35     -0.00      0.00
  -0.00000001  -0.00053260   0.00000000         -0.00    -78.35      0.00
   0.00000000   0.00000000  -0.00053303          0.00      0.00    -78.41

     General routines

     Parallel routines

   This run was terminated on:  16:28:45  24Jan2014

   JOB DONE.
Running PBS batch system epilogue script
Job id: 251916.audhumbla.fysik.dtu.dk
Username: zhonxu
Groupname: campgst
Jobname: SnO2/fine-EOS/ferro/SnO2-v-1.05
Sessionid: 9909
Queuename: verylong
Accounting:
This job has allocated the following 4 nodes:
q003 q003 q003 q003
Finished epilogue job 251916.audhumbla.fysik.dtu.dk for zhonxu