     Program PWSCF v.5.0.2 (svn rev. 9656) starts on  5May2014 at 10:48:22

     Current dimensions of program PWSCF are:
     Max number of different atomic species (ntypx) = 10
     Max number of k-points (npk) =  40000
     Max angular momentum in pseudopotentials (lmaxx) =  3
     Reading input from pwscf.in
Warning: card &CELL ignored
Warning: card / ignored

     Subspace diagonalization in iterative solution of the eigenvalue problem:
     a serial algorithm will be used

     Found symmetry operation: I + ( -0.5000  0.0000  0.0000)
     This is a supercell, fractional translations are disabled

     bravais-lattice index     =            0
     lattice parameter (alat)  =      10.3179  a.u.
     unit-cell volume          =    6964.3238 (a.u.)^3
     number of atoms/cell      =           30
     number of atomic types    =            3
     number of electrons       =       224.00
     number of Kohn-Sham states=          336
     kinetic-energy cutoff     =      40.0000  Ry
     charge density cutoff     =     500.0000  Ry
     convergence threshold     =      1.0E-06
     mixing beta               =       0.7000
     number of iterations used =            8  plain     mixing
     Exchange-correlation      = SLA  PW   PBE  PBE ( 1 4 3 4 0)
     EXX-fraction              =        0.00
     nstep                     =           50

     celldm(1)=  10.317905  celldm(2)=   0.000000  celldm(3)=   0.000000
     celldm(4)=   0.000000  celldm(5)=   0.000000  celldm(6)=   0.000000

     crystal axes: (cart. coord. in units of alat)
               a(1) = (   1.000000   0.000000   0.000000 )
               a(2) = (   0.000000   1.282117   0.000000 )
               a(3) = (   0.000000   0.000000   4.945120 )

     reciprocal axes: (cart. coord. in units 2 pi/alat)
               b(1) = (  1.000000  0.000000  0.000000 )
               b(2) = (  0.000000  0.779960  0.000000 )
               b(3) = (  0.000000  0.000000  0.202220 )

     PseudoPot. # 1 for O  read from file:
     /home/camp/zhonxu/pseudo/o_pbe_v1.01.uspp.F.UPF
     MD5 check sum: 2bcb18d16ea4b960afae9ec6d52f22d2
     Pseudo is Ultrasoft + core correction, Zval =  6.0
     Generated by new atomic code, or converted to UPF format
     Using radial grid of  737 points,  5 beta functions with:
                l(1) =   0
                l(2) =   0
                l(3) =   1
                l(4) =   1
                l(5) =   2
     Q(r) pseudized with  8 coefficients,  rinner =    0.900   0.900   0.900
                                                       0.900   0.900

     PseudoPot. # 2 for Mo read from file:
     /home/camp/zhonxu/pseudo/mo_pbe_v1.uspp.F.UPF
     MD5 check sum: 30c4dcd161f5d35cd49bb5239c51a633
     Pseudo is Ultrasoft + core correction, Zval = 14.0
     Generated by new atomic code, or converted to UPF format
     Using radial grid of  889 points,  6 beta functions with:
                l(1) =   0
                l(2) =   0
                l(3) =   1
                l(4) =   1
                l(5) =   2
                l(6) =   2
     Q(r) pseudized with  6 coefficients,  rinner =    1.000   1.000   1.000
                                                       1.000   1.000

     PseudoPot. # 3 for H  read from file:
     /home/camp/zhonxu/pseudo/h_pbe_v1.uspp.F.UPF
     MD5 check sum: 3408e3ff4ec8b0a4e358431e7e038a48
     Pseudo is Ultrasoft, Zval =  1.0
     Generated by new atomic code, or converted to UPF format
     Using radial grid of  615 points,  2 beta functions with:
                l(1) =   0
                l(2) =   0
     Q(r) pseudized with  8 coefficients,  rinner =    0.700

     atomic species   valence    mass     pseudopotential
        O0             6.00    15.99940     O ( 1.00)
        Mo1           14.00    95.94000     Mo( 1.00)
        H2             1.00     1.00794     H ( 1.00)

     Simplified LDA+U calculation (l_max = 2) with parameters (eV):
     atomic species    L          U    alpha       J0     beta
        Mo1            2     2.0000   0.0000   0.0000   0.0000

     No symmetry found

   Cartesian axes

     site n.     atom                  positions (alat units)
         1           O0  tau(   1) = (   0.0000000   0.0000000   1.8465574  )
         2           O0  tau(   2) = (   0.0000000   0.6410583   1.8808271  )
         3           Mo1 tau(   3) = (   0.2500000   0.6410583   2.1650231  )
         4           Mo1 tau(   4) = (   0.0000000   0.0000000   2.2064633  )
         5           O0  tau(   5) = (   0.2500000   1.0000510   2.1927158  )
         6           O0  tau(   6) = (   0.2500000   0.2820657   2.1921224  )
         7           O0  tau(   7) = (   0.0000000   0.6410583   2.4520379  )
         8           O0  tau(   8) = (   0.0000000   0.0000000   2.5658746  )
         9           Mo1 tau(   9) = (   0.2500000   0.0000000   2.8596642  )
        10           Mo1 tau(  10) = (   0.0000000   0.6410583   2.7884050  )
        11           O0  tau(  11) = (   0.2500000   0.9231240   2.8369661  )
        12           O0  tau(  12) = (   0.2500000   0.3589927   2.8372628  )
        13           O0  tau(  13) = (   0.0000000   0.0000000   3.1104807  )
        14           O0  tau(  14) = (   0.5000000   0.0000000   1.8465574  )
        15           O0  tau(  15) = (   0.5000000   0.6410583   1.8808271  )
        16           Mo1 tau(  16) = (   0.7500000   0.6410583   2.1650231  )
        17           Mo1 tau(  17) = (   0.5000000   0.0000000   2.2064633  )
        18           O0  tau(  18) = (   0.7500000   1.0000510   2.1927158  )
        19           O0  tau(  19) = (   0.7500000   0.2820657   2.1921224  )
        20           O0  tau(  20) = (   0.5000000   0.6410583   2.4520379  )
        21           O0  tau(  21) = (   0.5000000   0.0000000   2.5658746  )
        22           Mo1 tau(  22) = (   0.7500000   0.0000000   2.8596642  )
        23           Mo1 tau(  23) = (   0.5000000   0.6410583   2.7884050  )
        24           O0  tau(  24) = (   0.7500000   0.9231240   2.8369661  )
        25           O0  tau(  25) = (   0.7500000   0.3589927   2.8372628  )
        26           O0  tau(  26) = (   0.5000000   0.0000000   3.1104807  )
        27           H2  tau(  27) = (  -0.0004900   0.7868222   1.7746059  )
        28           H2  tau(  28) = (   0.4995100   0.7868222   1.7746059  )
        29           H2  tau(  29) = (   0.1657500   0.0265270   1.7749026  )
        30           H2  tau(  30) = (   0.6657500   0.0265270   1.7749026  )

     number of k points=    10  Methfessel-Paxton smearing, width (Ry)=  0.0100
                       cart. coord. in units 2pi/alat
        k(    1) = (   0.0000000   0.0000000   0.0000000), wk =   0.1250000
        k(    2) = (   0.0000000   0.1949901   0.0000000), wk =   0.2500000
        k(    3) = (   0.0000000  -0.3899801   0.0000000), wk =   0.1250000
        k(    4) = (   0.2500000   0.0000000   0.0000000), wk =   0.2500000
        k(    5) = (   0.2500000   0.1949901   0.0000000), wk =   0.2500000
        k(    6) = (   0.2500000  -0.3899801   0.0000000), wk =   0.2500000
        k(    7) = (  -0.5000000   0.0000000   0.0000000), wk =   0.1250000
        k(    8) = (  -0.5000000   0.1949901   0.0000000), wk =   0.2500000
        k(    9) = (  -0.5000000  -0.3899801   0.0000000), wk =   0.1250000
        k(   10) = (  -0.2500000   0.1949901   0.0000000), wk =   0.2500000

     Largest allocated arrays     est. size (Mb)     dimensions
     Largest temporary arrays     est. size (Mb)     dimensions

     Check: negative/imaginary core charge=   -0.000003    0.000000

     Initial potential from superposition of free atoms
     Check: negative starting charge=   -0.002478

     starting charge  223.99143, renormalised to  224.00000

     negative rho (up, down):  0.248E-02 0.000E+00
     Number of +U iterations with fixed ns =  0
     Starting occupations:
 --- enter write_ns ---
 LDA+U parameters:
U( 2)     =  2.00000000
alpha( 2) =  0.00000000
atom    3   Tr[ns(na)] =   5.00000
    eigenvalues:
  0.500  0.500  0.500  0.500  0.500
    eigenvectors:
  1.000  0.000  0.000  0.000  0.000
  0.000  1.000  0.000  0.000  0.000
  0.000  0.000  1.000  0.000  0.000
  0.000  0.000  0.000  1.000  0.000
  0.000  0.000  0.000  0.000  1.000
    occupations:
  0.500  0.000  0.000  0.000  0.000
  0.000  0.500  0.000  0.000  0.000
  0.000  0.000  0.500  0.000  0.000
  0.000  0.000  0.000  0.500  0.000
  0.000  0.000  0.000  0.000  0.500
atom    4   Tr[ns(na)] =   5.00000
    eigenvalues:
  0.500  0.500  0.500  0.500  0.500
    eigenvectors:
  1.000  0.000  0.000  0.000  0.000
  0.000  1.000  0.000  0.000  0.000
  0.000  0.000  1.000  0.000  0.000
  0.000  0.000  0.000  1.000  0.000
  0.000  0.000  0.000  0.000  1.000
    occupations:
  0.500  0.000  0.000  0.000  0.000
  0.000  0.500  0.000  0.000  0.000
  0.000  0.000  0.500  0.000  0.000
  0.000  0.000  0.000  0.500  0.000
  0.000  0.000  0.000  0.000  0.500
atom    9   Tr[ns(na)] =   5.00000
    eigenvalues:
  0.500  0.500  0.500  0.500  0.500
    eigenvectors:
  1.000  0.000  0.000  0.000  0.000
  0.000  1.000  0.000  0.000  0.000
  0.000  0.000  1.000  0.000  0.000
  0.000  0.000  0.000  1.000  0.000
  0.000  0.000  0.000  0.000  1.000
    occupations:
  0.500  0.000  0.000  0.000  0.000
  0.000  0.500  0.000  0.000  0.000
  0.000  0.000  0.500  0.000  0.000
  0.000  0.000  0.000  0.500  0.000
  0.000  0.000  0.000  0.000  0.500
atom   10   Tr[ns(na)] =   5.00000
    eigenvalues:
  0.500  0.500  0.500  0.500  0.500
    eigenvectors:
  1.000  0.000  0.000  0.000  0.000
  0.000  1.000  0.000  0.000  0.000
  0.000  0.000  1.000  0.000  0.000
  0.000  0.000  0.000  1.000  0.000
  0.000  0.000  0.000  0.000  1.000
    occupations:
  0.500  0.000  0.000  0.000  0.000
  0.000  0.500  0.000  0.000  0.000
  0.000  0.000  0.500  0.000  0.000
  0.000  0.000  0.000  0.500  0.000
  0.000  0.000  0.000  0.000  0.500
atom   16   Tr[ns(na)] =   5.00000
    eigenvalues:
  0.500  0.500  0.500  0.500  0.500
    eigenvectors:
  1.000  0.000  0.000  0.000  0.000
  0.000  1.000  0.000  0.000  0.000
  0.000  0.000  1.000  0.000  0.000
  0.000  0.000  0.000  1.000  0.000
  0.000  0.000  0.000  0.000  1.000
    occupations:
  0.500  0.000  0.000  0.000  0.000
  0.000  0.500  0.000  0.000  0.000
  0.000  0.000  0.500  0.000  0.000
  0.000  0.000  0.000  0.500  0.000
  0.000  0.000  0.000  0.000  0.500
atom   17   Tr[ns(na)] =   5.00000
    eigenvalues:
  0.500  0.500  0.500  0.500  0.500
    eigenvectors:
  1.000  0.000  0.000  0.000  0.000
  0.000  1.000  0.000  0.000  0.000
  0.000  0.000  1.000  0.000  0.000
  0.000  0.000  0.000  1.000  0.000
  0.000  0.000  0.000  0.000  1.000
    occupations:
  0.500  0.000  0.000  0.000  0.000
  0.000  0.500  0.000  0.000  0.000
  0.000  0.000  0.500  0.000  0.000
  0.000  0.000  0.000  0.500  0.000
  0.000  0.000  0.000  0.000  0.500
atom   22   Tr[ns(na)] =   5.00000
    eigenvalues:
  0.500  0.500  0.500  0.500  0.500
    eigenvectors:
  1.000  0.000  0.000  0.000  0.000
  0.000  1.000  0.000  0.000  0.000
  0.000  0.000  1.000  0.000  0.000
  0.000  0.000  0.000  1.000  0.000
  0.000  0.000  0.000  0.000  1.000
    occupations:
[...]
  0.005  0.613  0.005 -0.001 -0.000
  0.001  0.005  0.468 -0.002  0.000
 -0.005 -0.001 -0.002  0.727  0.000
  0.000 -0.000  0.000  0.000  0.523
atom    9   Tr[ns(na)] =   5.82924
    eigenvalues:
  0.520  0.527  0.580  0.587  0.700
    eigenvectors:
  0.000  0.000  0.243  0.000  0.757
  0.000  0.000  0.000  1.000  0.000
  0.000  0.999  0.000  0.000  0.000
  0.000  0.000  0.757  0.000  0.243
  0.999  0.000  0.000  0.000  0.000
    occupations:
  0.671  0.000  0.002 -0.052 -0.001
  0.000  0.587 -0.000  0.000 -0.001
  0.002 -0.000  0.527 -0.001  0.000
 -0.052  0.000 -0.001  0.609  0.001
 -0.001 -0.001  0.000  0.001  0.520
atom   10   Tr[ns(na)] =   5.78679
    eigenvalues:
  0.498  0.503  0.506  0.639  0.748
    eigenvectors:
  0.810  0.183  0.000  0.000  0.006
  0.000  0.000  0.000  1.000  0.000
  0.185  0.815  0.000  0.000  0.000
  0.005  0.001  0.000  0.000  0.994
  0.000  0.000  1.000  0.000  0.000
    occupations:
  0.500  0.000 -0.002 -0.020 -0.000
  0.000  0.639 -0.001  0.000 -0.000
 -0.002 -0.001  0.502 -0.000 -0.000
 -0.020  0.000 -0.000  0.746  0.000
 -0.000 -0.000 -0.000  0.000  0.506
atom   16   Tr[ns(na)] =   5.83686
    eigenvalues:
  0.498  0.501  0.558  0.617  0.745
    eigenvectors:
  0.000  0.014  0.351  0.000  0.635
  0.997  0.003  0.000  0.000  0.000
  0.003  0.983  0.006  0.000  0.008
  0.000  0.000  0.643  0.000  0.357
  0.000  0.000  0.000  1.000  0.000
    occupations:
  0.676  0.000  0.021 -0.089  0.000
  0.000  0.498 -0.000 -0.000 -0.002
  0.021 -0.000  0.503 -0.010 -0.000
 -0.089 -0.000 -0.010  0.625  0.000
  0.000 -0.002 -0.000  0.000  0.617
atom   17   Tr[ns(na)] =   5.82692
    eigenvalues:
  0.468  0.523  0.582  0.614  0.728
    eigenvectors:
  0.000  0.000  0.979  0.020  0.001
  0.001  0.000  0.020  0.979  0.000
  0.999  0.000  0.000  0.001  0.000
  0.000  0.000  0.001  0.000  0.999
  0.000  1.000  0.000  0.000  0.000
    occupations:
  0.583  0.005  0.001 -0.005  0.000
  0.005  0.613  0.005 -0.001 -0.000
  0.001  0.005  0.468 -0.002  0.000
 -0.005 -0.001 -0.002  0.727  0.000
  0.000 -0.000  0.000  0.000  0.523
atom   22   Tr[ns(na)] =   5.82944
    eigenvalues:
  0.520  0.527  0.580  0.587  0.700
    eigenvectors:
  0.000  0.000  0.243  0.000  0.757
  0.000  0.000  0.000  1.000  0.000
  0.000  0.999  0.000  0.000  0.000
  0.000  0.000  0.757  0.000  0.243
  0.999  0.000  0.000  0.000  0.000
    occupations:
  0.671  0.000  0.002 -0.052 -0.001
  0.000  0.587 -0.000  0.000 -0.001
  0.002 -0.000  0.527 -0.001  0.000
 -0.052  0.000 -0.001  0.609  0.001
 -0.001 -0.001  0.000  0.001  0.520
atom   23   Tr[ns(na)] =   5.78683
    eigenvalues:
  0.498  0.503  0.506  0.639  0.748
    eigenvectors:
  0.810  0.184  0.000  0.000  0.006
  0.000  0.000  0.000  1.000  0.000
  0.185  0.815  0.000  0.000  0.000
  0.005  0.001  0.000  0.000  0.994
  0.000  0.000  1.000  0.000  0.000
    occupations:
  0.500  0.000 -0.002 -0.020 -0.000
  0.000  0.639 -0.001  0.000 -0.000
 -0.002 -0.001  0.502 -0.000 -0.000
 -0.020  0.000 -0.000  0.746  0.000
 -0.000 -0.000 -0.000  0.000  0.506
N of occupied +U levels =  46.5600074
 --- exit write_ns ---

     Threshold (ethr) on eigenvalues was too large:
     Diagonalizing with lowered threshold

     Davidson diagonalization with overlap
     ethr =  2.03E-09,  avg # of iterations =  3.0

[...]

     total energy              =   -1698.83626888 Ry
     Harris-Foulkes estimate   =   -1698.83626888 Ry
     estimated scf accuracy    <       0.00000001 Ry

     iteration # 11     ecut=    40.00 Ry     beta=0.70
     Davidson diagonalization with overlap
     ethr =  5.91E-12,  avg # of iterations =  1.0

     negative rho (up, down):  0.352E-02 0.000E+00

     End of self-consistent calculation
 --- enter write_ns ---
 LDA+U parameters:
U( 2)     =  2.00000000
alpha( 2) =  0.00000000
atom    3   Tr[ns(na)] =   5.83710
    eigenvalues:
  0.498  0.501  0.558  0.617  0.745
    eigenvectors:
  0.000  0.014  0.351  0.000  0.635
  0.997  0.003  0.000  0.000  0.000
  0.003  0.983  0.006  0.000  0.008
  0.000  0.000  0.643  0.000  0.357
  0.000  0.000  0.000  1.000  0.000
    occupations:
  0.676  0.000  0.021 -0.089  0.000
  0.000  0.498 -0.000 -0.000 -0.002
  0.021 -0.000  0.503 -0.010 -0.000
 -0.089 -0.000 -0.010  0.625  0.000
  0.000 -0.002 -0.000  0.000  0.617
atom    4   Tr[ns(na)] =   5.82672
    eigenvalues:
  0.468  0.523  0.582  0.614  0.728
    eigenvectors:
  0.000  0.000  0.979  0.020  0.001
  0.001  0.000  0.020  0.979  0.000
  0.999  0.000  0.000  0.001  0.000
  0.000  0.000  0.001  0.000  0.999
  0.000  1.000  0.000  0.000  0.000
    occupations:
  0.583  0.005  0.001 -0.005  0.000
  0.005  0.613  0.005 -0.001 -0.000
  0.001  0.005  0.468 -0.002  0.000
 -0.005 -0.001 -0.002  0.727  0.000
  0.000 -0.000  0.000  0.000  0.523
atom    9   Tr[ns(na)] =   5.82940
    eigenvalues:
  0.520  0.527  0.580  0.587  0.700
    eigenvectors:
  0.000  0.000  0.243  0.000  0.757
  0.000  0.000  0.000  1.000  0.000
  0.000  0.999  0.000  0.000  0.000
  0.000  0.000  0.757  0.000  0.243
  0.999  0.000  0.000  0.000  0.000
    occupations:
  0.671  0.000  0.002 -0.052 -0.001
  0.000  0.587 -0.000  0.000 -0.001
  0.002 -0.000  0.527 -0.001  0.000
 -0.052  0.000 -0.001  0.609  0.001
 -0.001 -0.001  0.000  0.001  0.520
atom   10   Tr[ns(na)] =   5.78675
    eigenvalues:
  0.498  0.503  0.506  0.639  0.748
    eigenvectors:
  0.812  0.181  0.000  0.000  0.006
  0.000  0.000  0.000  1.000  0.000
  0.183  0.817  0.000  0.000  0.000
  0.005  0.001  0.000  0.000  0.994
  0.000  0.000  1.000  0.000  0.000
    occupations:
  0.500  0.000 -0.002 -0.020 -0.000
  0.000  0.639 -0.001  0.000 -0.000
 -0.002 -0.001  0.502 -0.000 -0.000
 -0.020  0.000 -0.000  0.746  0.000
 -0.000 -0.000 -0.000  0.000  0.506
atom   16   Tr[ns(na)] =   5.83710
    eigenvalues:
  0.498  0.501  0.558  0.617  0.745
    eigenvectors:
  0.000  0.014  0.351  0.000  0.635
  0.997  0.003  0.000  0.000  0.000
  0.003  0.983  0.006  0.000  0.008
  0.000  0.000  0.643  0.000  0.357
  0.000  0.000  0.000  1.000  0.000
    occupations:
  0.676  0.000  0.021 -0.089  0.000
  0.000  0.498 -0.000 -0.000 -0.002
  0.021 -0.000  0.503 -0.010 -0.000
 -0.089 -0.000 -0.010  0.625  0.000
  0.000 -0.002 -0.000  0.000  0.617
atom   17   Tr[ns(na)] =   5.82670
    eigenvalues:
  0.468  0.523  0.582  0.614  0.728
    eigenvectors:
  0.000  0.000  0.978  0.020  0.001
  0.001  0.000  0.020  0.979  0.000
  0.999  0.000  0.000  0.001  0.000
  0.000  0.000  0.001  0.000  0.999
  0.000  1.000  0.000  0.000  0.000
    occupations:
  0.583  0.005  0.001 -0.005  0.000
  0.005  0.613  0.005 -0.001 -0.000
  0.001  0.005  0.468 -0.002  0.000
 -0.005 -0.001 -0.002  0.727  0.000
  0.000 -0.000  0.000  0.000  0.523
atom   22   Tr[ns(na)] =   5.82935
    eigenvalues:
  0.520  0.527  0.580  0.587  0.700
    eigenvectors:
  0.000  0.000  0.243  0.000  0.757
  0.000  0.000  0.000  1.000  0.000
  0.000  0.999  0.000  0.000  0.000
  0.000  0.000  0.757  0.000  0.243
  0.999  0.000  0.000  0.000  0.000
    occupations:
  0.671  0.000  0.002 -0.052 -0.001
  0.000  0.587 -0.000  0.000 -0.001
  0.002 -0.000  0.527 -0.001  0.000
 -0.052  0.000 -0.001  0.609  0.001
 -0.001 -0.001  0.000  0.001  0.520
atom   23   Tr[ns(na)] =   5.78675
    eigenvalues:
  0.498  0.503  0.506  0.639  0.748
    eigenvectors:
  0.812  0.182  0.000  0.000  0.006
  0.000  0.000  0.000  1.000  0.000
  0.183  0.817  0.000  0.000  0.000
  0.005  0.001  0.000  0.000  0.994
  0.000  0.000  1.000  0.000  0.000
    occupations:
  0.500  0.000 -0.002 -0.020 -0.000
  0.000  0.639 -0.001  0.000 -0.000
 -0.002 -0.001  0.502 -0.000 -0.000
 -0.020  0.000 -0.000  0.746  0.000
 -0.000 -0.000 -0.000  0.000  0.506
N of occupied +U levels =  46.5598856
 --- exit write_ns ---

[...]

          k = 0.2500-0.3900 0.0000 ( 29726 PWs)   bands (ev):

[...]

          k =-0.2500 0.1950 0.0000 ( 29746 PWs)   bands (ev):

   -62.3009 -62.2641 -62.2145 -62.1826 -62.1572 -62.0998 -62.0751 -62.0175
   -36.8520 -36.7721 -36.6940 -36.6866 -36.6143 -36.5236 -36.5200 -36.4538
   -36.4229 -36.4116 -36.3589 -36.3403 -36.3072 -36.2855 -36.2601 -36.2307
   -36.2247 -36.1513 -36.1286 -36.0745 -36.0651 -35.8075 -35.7820 -35.7252
   -20.7714 -20.5232 -19.9026 -19.6959 -19.6527 -19.5953 -19.4444 -19.3701
   -19.2608 -19.1044 -19.0443 -18.8651 -18.8039 -18.8036 -18.6477 -18.5778
   -18.0985 -17.9470  -8.7894  -8.6405  -8.0353  -7.7918  -7.6447  -7.6402
    -7.5404  -7.4370  -7.3347  -7.2588  -7.1765  -7.1053  -6.9063  -6.8992
    -6.6630  -6.3071  -6.2223  -6.1235  -6.0974  -5.9488  -5.8517  -5.8400
    -5.7060  -5.5749  -5.4414  -5.3416  -5.2660  -5.2236  -5.0207  -4.9222
    -4.7501  -4.6244  -4.5989  -4.4841  -4.3996  -4.3352  -4.3052  -4.2225
    -4.1685  -4.1281  -4.0556  -3.8973  -3.8021  -3.6970  -3.4919  -3.3564
    -3.3347  -3.2646  -3.1894  -3.0407  -2.9940  -2.7573  -2.6521  -2.4582
    -1.8783  -1.7079  -1.5043  -0.7220  -0.5897  -0.4103  -0.3148   0.1288
     0.1847   0.5350   0.7763   0.7855   0.9792   1.0670   1.1757   1.3972
     1.4744   1.4980   1.5931   1.6510   1.8268   1.8781   2.0092   2.0173
     2.3405   2.4835   3.3329   3.4733   3.7122   3.7170   3.9157   4.0607
     4.3336   4.3767   4.5599   4.6172   4.7104   4.8431   4.9483   5.1801
     5.5345   5.6821   5.7621   5.8949   5.9237   6.0896   6.3110   6.4084
     6.5586   6.6634   6.9666   6.9978   7.1086   7.2723   7.5167   7.6027
     7.9248   7.9359   8.1848   8.2801   8.2854   8.4756   8.6431   8.6542
     8.9116   8.9963   9.0671   9.2932   9.3949   9.4244   9.5052   9.5503
     9.5710   9.6050   9.8336   9.9767  10.0329  10.1828  10.2298  10.2738
    10.4766  10.4914  10.6287  10.7210  10.7344  10.9376  11.0635  11.0859
    11.0880  11.2470  11.5295  11.6044  11.6123  11.7385  11.8037  11.9133
    11.9566  12.0786  12.2693  12.3110  12.3428  12.3666  12.4502  12.5997
    12.6786  12.7477  12.8596  12.8922  12.9719  13.0746  13.1092  13.1899
    13.3222  13.4243  13.4324  13.4971  13.5113  13.6297  13.6653  13.7246
    13.8573  13.8854  13.9625  13.9884  14.1252  14.1527  14.2458  14.3476
    14.3932  14.4494  14.5048  14.5660  14.6086  14.7331  14.8398  14.8485
    14.9511  15.0454  15.0507  15.2092  15.2926  15.4012  15.4931  15.5430
    15.6425  15.6584  15.7549  15.8266  15.8899  15.9531  16.0421  16.0959
    16.1934  16.2718  16.2883  16.3395  16.3744  16.4469  16.5798  16.6986
    16.7139  16.7713  16.7725  16.8883  17.0062  17.0939  17.1824  17.1918
    17.2228  17.3093  17.3451  17.4063  17.4964  17.6797  17.6894  17.7931
    17.9001  17.9138  18.0947  18.0963  18.1828  18.2353  18.3321  18.3612
    18.4179  18.4335  18.5256  18.5572  18.6113  18.7877  18.8663  19.0088
    19.0627  19.1178  19.1414  19.2521  19.2996  19.4959  19.5654  19.5993
    19.7086  19.7755  19.8034  19.9036  19.9638  20.0634  20.1444  20.1502
    20.1992  20.2592  20.3372  20.3722  20.4089  20.4245  20.5142  20.5146
    20.6510  20.6945  20.7380  20.8175  20.9279  20.9648  21.0245  21.0674
    21.1131  21.1972  21.2110  21.2977  21.4254  21.4730  21.5539  21.6423

     the Fermi energy is     0.1122 ev

!    total energy              =   -1698.83626887 Ry
     Harris-Foulkes estimate   =   -1698.83626888 Ry
     estimated scf accuracy    <          6.2E-09 Ry

     The total energy is the sum of the following terms:

     one-electron contribution =  -21422.78847400 Ry
     hartree contribution      =   10733.06681744 Ry
     xc contribution           =    -286.61722337 Ry
     ewald contribution        =    9276.11777038 Ry
     Hubbard energy            =       1.38584117 Ry
     smearing contrib. (-TS)   =      -0.00100050 Ry

     convergence has been achieved in  11 iterations

     Forces acting on atoms (Ry/au):

     negative rho (up, down):  0.352E-02 0.000E+00
     atom    1 type  1   force =    -0.00233741   -0.00523137   -0.00029458
     atom    2 type  1   force =    -0.00005891    0.00999627    0.00027049
     atom    3 type  2   force =    -0.00028982   -0.00577769    0.00057793
     atom    4 type  2   force =    -0.00080635    0.00304300   -0.00018857
     atom    5 type  1   force =     0.00166652   -0.00417634   -0.00004112
     atom    6 type  1   force =     0.00001226    0.00183506   -0.00003946
     atom    7 type  1   force =     0.00021862    0.00059537   -0.00021994
     atom    8 type  1   force =     0.00314571    0.00077595    0.00031485
     atom    9 type  2   force =    -0.00195186   -0.00044662   -0.00006577
     atom   10 type  2   force =     0.00000548    0.00080789    0.00038850
     atom   11 type  1   force =    -0.00021306   -0.04433525    0.00005335
     atom   12 type  1   force =     0.00028487    0.04345684    0.00005277
     atom   13 type  1   force =    -0.00014495    0.00021444   -0.00035885
     atom   14 type  1   force =    -0.00233331   -0.00523159   -0.00030047
     atom   15 type  1   force =    -0.00005927    0.00999782    0.00026320
     atom   16 type  2   force =    -0.00030944   -0.00577761    0.00057805
     atom   17 type  2   force =    -0.00080783    0.00304333   -0.00018588
     atom   18 type  1   force =     0.00166807   -0.00417655   -0.00003948
     atom   19 type  1   force =     0.00001090    0.00183427   -0.00003802
     atom   20 type  1   force =     0.00022009    0.00059497   -0.00023815
     atom   21 type  1   force =     0.00315358    0.00077667    0.00032247
     atom   22 type  2   force =    -0.00196688   -0.00044661   -0.00006311
     atom   23 type  2   force =     0.00000553    0.00080768    0.00039409
     atom   24 type  1   force =    -0.00020595   -0.04433076    0.00005451
     atom   25 type  1   force =     0.00029402    0.04345191    0.00005380
     atom   26 type  1   force =    -0.00013393    0.00021346   -0.00036091
     atom   27 type  3   force =    -0.00000329   -0.00037502   -0.00062933
     atom   28 type  3   force =    -0.00000330   -0.00037944   -0.00062551
     atom   29 type  3   force =     0.00047080   -0.00038005    0.00018220
     atom   30 type  3   force =     0.00046911   -0.00038002    0.00018294

     Total force =     0.001956     Total SCF correction =     0.000261
     SCF correction compared to forces is large: reduce conv_thr to get better values

     bfgs converged in   5 scf cycles and   4 bfgs steps
     (criteria: energy < 0.10E-03, force < 0.10E-02)

     End of BFGS Geometry Optimization

     Final energy   =   -1698.8362688728 Ry
Begin final coordinates

ATOMIC_POSITIONS (crystal)
O0       0.000000000   0.000000000   0.373468512    0   0   1
O0       0.000000000   0.500000000   0.380376304    0   0   1
Mo1      0.250000000   0.500000000   0.437763705    0   0   1
Mo1      0.000000000   0.000000000   0.446125194    0   0   1
O0       0.250000000   0.780000000   0.443438834    0   0   1
O0       0.250000000   0.220000000   0.443319917    0   0   1
O0       0.000000000   0.500000000   0.496057036    0   0   1
O0       0.000000000   0.000000000   0.518502696    0   0   1
Mo1      0.250000000   0.000000000   0.578326850    0   0   1
Mo1      0.000000000   0.500000000   0.563832062    0   0   1
O0       0.250000000   0.720000000   0.573712937    0   0   1
O0       0.250000000   0.280000000   0.573772225    0   0   1
O0       0.000000000   0.000000000   0.629047574    0   0   1
O0       0.500000000   0.000000000   0.373469749    0   0   1
O0       0.500000000   0.500000000   0.380375149    0   0   1
Mo1      0.750000000   0.500000000   0.437763674    0   0   1
Mo1      0.500000000   0.000000000   0.446125520    0   0   1
O0       0.750000000   0.780000000   0.443438711    0   0   1
O0       0.750000000   0.220000000   0.443319746    0   0   1
O0       0.500000000   0.500000000   0.496058244    0   0   1
O0       0.500000000   0.000000000   0.518502228    0   0   1
Mo1      0.750000000   0.000000000   0.578326656    0   0   1
Mo1      0.500000000   0.500000000   0.563832606    0   0   1
O0       0.750000000   0.720000000   0.573712761    0   0   1
O0       0.750000000   0.280000000   0.573771977    0   0   1
O0       0.500000000   0.000000000   0.629048784    0   0   1
H2      -0.000490965   0.613328750   0.358789563
H2       0.499508952   0.613331154   0.358789046
H2       0.165972133   0.020452841   0.359005838
H2       0.665969845   0.020452631   0.359005903
End final coordinates

     General routines

     Parallel routines
     Hubbard U routines

   This run was terminated on:  14:54:46   5May2014

   JOB DONE.
Running PBS batch system epilogue script
Job id: 340744.audhumbla.fysik.dtu.dk
Username: zhonxu
Groupname: campgst
Jobname: MoO2/Eads-2-layers/bare-U-2.0
Sessionid: 14741
Queuename: verylong
Accounting:
This job has allocated the following 16 nodes:
d088 d088 d088 d088 d088 d088 d088 d088 d066 d066 d066 d066 d066 d066 d066 d066
Finished epilogue job 340744.audhumbla.fysik.dtu.dk for zhonxu