     Program PWSCF v.5.0.2 (svn rev. 9656) starts on  8May2014 at 23:14:56

     Current dimensions of program PWSCF are:
     Max number of different atomic species (ntypx) = 10
     Max number of k-points (npk) =  40000
     Max angular momentum in pseudopotentials (lmaxx) =  3
     Reading input from pwscf.in
Warning: card &CELL ignored
Warning: card / ignored

     Subspace diagonalization in iterative solution of the eigenvalue problem:
     a serial algorithm will be used

     bravais-lattice index     =            0
     lattice parameter (alat)  =      11.7541  a.u.
     unit-cell volume          =    7139.8207 (a.u.)^3
     number of atoms/cell      =           30
     number of atomic types    =            3
     number of electrons       =       232.00
     number of Kohn-Sham states=          348
     kinetic-energy cutoff     =      40.0000  Ry
     charge density cutoff     =     500.0000  Ry
     convergence threshold     =      1.0E-06
     mixing beta               =       0.7000
     number of iterations used =            8  plain     mixing
     Exchange-correlation      = SLA  PW   PBE  PBE ( 1 4 3 4 0)
     EXX-fraction              =        0.00
     nstep                     =           50

     celldm(1)=  11.754097  celldm(2)=   0.000000  celldm(3)=   0.000000
     celldm(4)=   0.000000  celldm(5)=   0.000000  celldm(6)=   0.000000

     crystal axes: (cart. coord. in units of alat)
               a(1) = (   1.000000   0.000000   0.000000 )
               a(2) = (   0.000000   1.034513   0.000000 )
               a(3) = (   0.000000   0.000000   4.249947 )

     reciprocal axes: (cart. coord. in units 2 pi/alat)
               b(1) = (  1.000000  0.000000  0.000000 )
               b(2) = (  0.000000  0.966638  0.000000 )
               b(3) = (  0.000000  0.000000  0.235297 )

     PseudoPot. # 1 for O  read from file:
     /home/camp/zhonxu/pseudo/o_pbe_v1.01.uspp.F.UPF
     MD5 check sum: 2bcb18d16ea4b960afae9ec6d52f22d2
     Pseudo is Ultrasoft + core correction, Zval =  6.0
     Generated by new atomic code, or converted to UPF format
     Using radial grid of  737 points,  5 beta functions with:
                l(1) =   0
                l(2) =   0
                l(3) =   1
                l(4) =   1
                l(5) =   2
     Q(r) pseudized with  8 coefficients,  rinner =    0.900   0.900   0.900
                                                       0.900   0.900

     PseudoPot. # 2 for Rh read from file:
     /home/camp/zhonxu/pseudo/rh_pbe_v1.uspp.F.UPF
     MD5 check sum: 37b626987ad0dd8ec6bf4cc9ef289918
     Pseudo is Ultrasoft + core correction, Zval = 15.0
     Generated by new atomic code, or converted to UPF format
     Using radial grid of  969 points,  7 beta functions with:
                l(1) =   0
                l(2) =   0
                l(3) =   1
                l(4) =   1
                l(5) =   2
                l(6) =   2
                l(7) =   2
     Q(r) pseudized with  6 coefficients,  rinner =    1.050   1.050   1.050
                                                       1.050   1.050

     PseudoPot. # 3 for H  read from file:
     /home/camp/zhonxu/pseudo/h_pbe_v1.uspp.F.UPF
     MD5 check sum: 3408e3ff4ec8b0a4e358431e7e038a48
     Pseudo is Ultrasoft, Zval =  1.0
     Generated by new atomic code, or converted to UPF format
     Using radial grid of  615 points,  2 beta functions with:
                l(1) =   0
                l(2) =   0
     Q(r) pseudized with  8 coefficients,  rinner =    0.700

     atomic species   valence    mass     pseudopotential
        O0             6.00    15.99940     O ( 1.00)
        Rh1           15.00   102.90550     Rh( 1.00)
        H2             1.00     1.00794     H ( 1.00)

     Simplified LDA+U calculation (l_max = 2) with parameters (eV):
     atomic species    L          U    alpha       J0     beta
        Rh1            2     1.5000   0.0000   0.0000   0.0000

     No symmetry found

   Cartesian axes

     site n.     atom                  positions (alat units)
         1           O0  tau(   1) = (   0.0000000   0.0000000   1.6092425  )
         2           O0  tau(   2) = (   0.0000000   0.5172566   1.7020614  )
         3           Rh1 tau(   3) = (   0.2500000   0.5172566   1.9209336  )
         4           Rh1 tau(   4) = (   0.0000000   0.0000000   1.9260761  )
         5           O0  tau(   5) = (   0.2500000   0.8379556   1.9243336  )
         6           O0  tau(   6) = (   0.2500000   0.1965575   1.9234411  )
         7           O0  tau(   7) = (   0.0000000   0.5172566   2.1185137  )
         8           O0  tau(   8) = (   0.0000000   0.0000000   2.2473721  )
         9           Rh1 tau(   9) = (   0.2500000   0.0000000   2.4498821  )
        10           Rh1 tau(  10) = (   0.0000000   0.5172566   2.4276124  )
        11           O0  tau(  11) = (   0.2500000   0.7138141   2.4560020  )
        12           O0  tau(  12) = (   0.2500000   0.3206991   2.4560870  )
        13           O0  tau(  13) = (   0.0000000   0.0000000   2.6421072  )
        14           O0  tau(  14) = (   0.5000000   0.0000000   1.6092425  )
        15           O0  tau(  15) = (   0.5000000   0.5172566   1.7020614  )
        16           Rh1 tau(  16) = (   0.7500000   0.5172566   1.9209336  )
        17           Rh1 tau(  17) = (   0.5000000   0.0000000   1.9260761  )
        18           O0  tau(  18) = (   0.7500000   0.8379556   1.9243336  )
        19           O0  tau(  19) = (   0.7500000   0.1965575   1.9234411  )
        20           O0  tau(  20) = (   0.5000000   0.5172566   2.1185137  )
        21           O0  tau(  21) = (   0.5000000   0.0000000   2.2473721  )
        22           Rh1 tau(  22) = (   0.7500000   0.0000000   2.4498821  )
        23           Rh1 tau(  23) = (   0.5000000   0.5172566   2.4276124  )
        24           O0  tau(  24) = (   0.7500000   0.7138141   2.4560020  )
        25           O0  tau(  25) = (   0.7500000   0.3206991   2.4560870  )
        26           O0  tau(  26) = (   0.5000000   0.0000000   2.6421072  )
        27           H2  tau(  27) = (  -0.0000700   0.6610229   1.6318947  )
        28           H2  tau(  28) = (   0.4999300   0.6610125   1.6318947  )
        29           H2  tau(  29) = (   0.1484400   0.0336527   1.5632581  )
        30           H2  tau(  30) = (   0.6484400   0.0336527   1.5632581  )

     number of k points=    10  Methfessel-Paxton smearing, width (Ry)=  0.0100
                       cart. coord. in units 2pi/alat
        k(    1) = (   0.0000000   0.0000000   0.0000000), wk =   0.1250000
        k(    2) = (   0.0000000   0.2416596   0.0000000), wk =   0.2500000
        k(    3) = (   0.0000000  -0.4833191   0.0000000), wk =   0.1250000
        k(    4) = (   0.2500000   0.0000000   0.0000000), wk =   0.2500000
        k(    5) = (   0.2500000   0.2416596   0.0000000), wk =   0.2500000
        k(    6) = (   0.2500000  -0.4833191   0.0000000), wk =   0.2500000
        k(    7) = (  -0.5000000   0.0000000   0.0000000), wk =   0.1250000
        k(    8) = (  -0.5000000   0.2416596   0.0000000), wk =   0.2500000
        k(    9) = (  -0.5000000  -0.4833191   0.0000000), wk =   0.1250000
        k(   10) = (  -0.2500000   0.2416596   0.0000000), wk =   0.2500000

     Largest allocated arrays     est. size (Mb)     dimensions
     Largest temporary arrays     est. size (Mb)     dimensions

     Check: negative/imaginary core charge=   -0.000002    0.000000

     Initial potential from superposition of free atoms
     Check: negative starting charge=   -0.642992

     starting charge  227.99915, renormalised to  232.00000

     negative rho (up, down):  0.654E+00 0.000E+00
     Number of +U iterations with fixed ns =  0
     Starting occupations:
 --- enter write_ns ---
 LDA+U parameters:
U( 2)     =  1.50000000
alpha( 2) =  0.00000000
atom    3   Tr[ns(na)] =   7.00000
    eigenvalues:
  0.700  0.700  0.700  0.700  0.700
    eigenvectors:
  1.000  0.000  0.000  0.000  0.000
  0.000  1.000  0.000  0.000  0.000
  0.000  0.000  1.000  0.000  0.000
  0.000  0.000  0.000  1.000  0.000
  0.000  0.000  0.000  0.000  1.000
    occupations:
  0.700  0.000  0.000  0.000  0.000
  0.000  0.700  0.000  0.000  0.000
  0.000  0.000  0.700  0.000  0.000
  0.000  0.000  0.000  0.700  0.000
  0.000  0.000  0.000  0.000  0.700
atom    4   Tr[ns(na)] =   7.00000
    eigenvalues:
  0.700  0.700  0.700  0.700  0.700
    eigenvectors:
  1.000  0.000  0.000  0.000  0.000
  0.000  1.000  0.000  0.000  0.000
  0.000  0.000  1.000  0.000  0.000
  0.000  0.000  0.000  1.000  0.000
  0.000  0.000  0.000  0.000  1.000
    occupations:
  0.700  0.000  0.000  0.000  0.000
  0.000  0.700  0.000  0.000  0.000
  0.000  0.000  0.700  0.000  0.000
  0.000  0.000  0.000  0.700  0.000
  0.000  0.000  0.000  0.000  0.700
atom    9   Tr[ns(na)] =   7.00000
    eigenvalues:
  0.700  0.700  0.700  0.700  0.700
    eigenvectors:
  1.000  0.000  0.000  0.000  0.000
  0.000  1.000  0.000  0.000  0.000
  0.000  0.000  1.000  0.000  0.000
  0.000  0.000  0.000  1.000  0.000
  0.000  0.000  0.000  0.000  1.000
    occupations:
  0.700  0.000  0.000  0.000  0.000
  0.000  0.700  0.000  0.000  0.000
  0.000  0.000  0.700  0.000  0.000
  0.000  0.000  0.000  0.700  0.000
  0.000  0.000  0.000  0.000  0.700
atom   10   Tr[ns(na)] =   7.00000
    eigenvalues:
  0.700  0.700  0.700  0.700  0.700
    eigenvectors:
  1.000  0.000  0.000  0.000  0.000
  0.000  1.000  0.000  0.000  0.000
  0.000  0.000  1.000  0.000  0.000
  0.000  0.000  0.000  1.000  0.000
  0.000  0.000  0.000  0.000  1.000
    occupations:
  0.700  0.000  0.000  0.000  0.000
  0.000  0.700  0.000  0.000  0.000
  0.000  0.000  0.700  0.000  0.000
  0.000  0.000  0.000  0.700  0.000
  0.000  0.000  0.000  0.000  0.700
atom   16   Tr[ns(na)] =   7.00000
    eigenvalues:
  0.700  0.700  0.700  0.700  0.700
    eigenvectors:
  1.000  0.000  0.000  0.000  0.000
  0.000  1.000  0.000  0.000  0.000
  0.000  0.000  1.000  0.000  0.000
  0.000  0.000  0.000  1.000  0.000
  0.000  0.000  0.000  0.000  1.000
    occupations:
  0.700  0.000  0.000  0.000  0.000
  0.000  0.700  0.000  0.000  0.000
  0.000  0.000  0.700  0.000  0.000
  0.000  0.000  0.000  0.700  0.000
  0.000  0.000  0.000  0.000  0.700
atom   17   Tr[ns(na)] =   7.00000
    eigenvalues:
  0.700  0.700  0.700  0.700  0.700
    eigenvectors:
  1.000  0.000  0.000  0.000  0.000
  0.000  1.000  0.000  0.000  0.000
  0.000  0.000  1.000  0.000  0.000
  0.000  0.000  0.000  1.000  0.000
  0.000  0.000  0.000  0.000  1.000
    occupations:
  0.700  0.000  0.000  0.000  0.000
  0.000  0.700  0.000  0.000  0.000
  0.000  0.000  0.700  0.000  0.000
  0.000  0.000  0.000  0.700  0.000
  0.000  0.000  0.000  0.000  0.700
atom   22   Tr[ns(na)] =   7.00000
    eigenvalues:
  0.700  0.700  0.700  0.700  0.700
    eigenvectors:
  1.000  0.000  0.000  0.000  0.000
  0.000  1.000  0.000  0.000  0.000
  0.000  0.000  1.000  0.000  0.000
  0.000  0.000  0.000  1.000  0.000
  0.000  0.000  0.000  0.000  1.000
    occupations:
  0.700  0.000  0.000  0.000  0.000
  0.000  0.700  0.000  0.000  0.000
  0.000  0.000  0.700  0.000  0.000
[...]
 -0.001  0.011  0.861 -0.001  0.001
  0.027  0.001 -0.001  0.971  0.000
  0.001 -0.001  0.001  0.000  0.603
atom    9   Tr[ns(na)] =   7.97812
    eigenvalues:
  0.636  0.649  0.850  0.878  0.976
    eigenvectors:
  0.000  0.155  0.000  0.000  0.845
  0.999  0.001  0.000  0.000  0.000
  0.000  0.000  1.000  0.000  0.000
  0.001  0.844  0.000  0.000  0.155
  0.000  0.000  0.000  1.000  0.000
    occupations:
  0.925  0.000 -0.000 -0.118 -0.001
  0.000  0.636  0.000  0.000 -0.000
 -0.000  0.000  0.850 -0.000 -0.000
 -0.118  0.000 -0.000  0.700  0.001
 -0.001 -0.000 -0.000  0.001  0.878
atom   10   Tr[ns(na)] =   7.98771
    eigenvalues:
  0.596  0.607  0.907  0.913  0.970
    eigenvectors:
  0.000  0.995  0.000  0.000  0.005
  0.000  0.000  0.001  0.999  0.000
  0.000  0.000  0.999  0.001  0.000
  0.000  0.005  0.000  0.000  0.995
  1.000  0.000  0.000  0.000  0.000
    occupations:
  0.609  0.000  0.002  0.025 -0.000
  0.000  0.913 -0.000  0.000 -0.001
  0.002 -0.000  0.907  0.000  0.000
  0.025  0.000  0.000  0.969  0.000
 -0.000 -0.001  0.000  0.000  0.596
atom   16   Tr[ns(na)] =   8.00534
    eigenvalues:
  0.588  0.605  0.892  0.954  0.964
    eigenvectors:
  0.000  0.210  0.003  0.000  0.787
  1.000  0.000  0.000  0.000  0.000
  0.000  0.000  0.997  0.000  0.003
  0.000  0.790  0.000  0.000  0.210
  0.000  0.000  0.000  0.999  0.000
    occupations:
  0.888 -0.000  0.002 -0.146 -0.000
 -0.000  0.588 -0.000 -0.000 -0.007
  0.002 -0.000  0.892 -0.005  0.001
 -0.146 -0.000 -0.005  0.681 -0.000
 -0.000 -0.007  0.001 -0.000  0.953
atom   17   Tr[ns(na)] =   7.98592
    eigenvalues:
  0.603  0.651  0.858  0.908  0.973
    eigenvectors:
  0.001  0.992  0.000  0.000  0.007
  0.000  0.000  0.049  0.951  0.000
  0.000  0.000  0.951  0.049  0.000
  0.000  0.007  0.000  0.000  0.993
  0.999  0.001  0.000  0.000  0.000
    occupations:
  0.653 -0.004 -0.001  0.027  0.001
 -0.004  0.906  0.011  0.001 -0.001
 -0.001  0.011  0.861 -0.001  0.001
  0.027  0.001 -0.001  0.971  0.000
  0.001 -0.001  0.001  0.000  0.603
atom   22   Tr[ns(na)] =   7.97812
    eigenvalues:
  0.636  0.649  0.850  0.878  0.976
    eigenvectors:
  0.000  0.155  0.000  0.000  0.845
  0.999  0.001  0.000  0.000  0.000
  0.000  0.000  1.000  0.000  0.000
  0.001  0.844  0.000  0.000  0.155
  0.000  0.000  0.000  1.000  0.000
    occupations:
  0.925  0.001 -0.000 -0.118 -0.001
  0.001  0.636  0.000  0.000 -0.000
 -0.000  0.000  0.850 -0.000 -0.000
 -0.118  0.000 -0.000  0.700  0.001
 -0.001 -0.000 -0.000  0.001  0.878
atom   23   Tr[ns(na)] =   7.98763
    eigenvalues:
  0.596  0.607  0.907  0.913  0.970
    eigenvectors:
  0.000  0.995  0.000  0.000  0.005
  0.000  0.000  0.001  0.999  0.000
  0.000  0.000  0.999  0.001  0.000
  0.000  0.005  0.000  0.000  0.995
  1.000  0.000  0.000  0.000  0.000
    occupations:
  0.609  0.000  0.002  0.025 -0.000
  0.000  0.913 -0.000  0.000 -0.001
  0.002 -0.000  0.907  0.000  0.000
  0.025  0.000  0.000  0.969  0.000
 -0.000 -0.001  0.000  0.000  0.596
N of occupied +U levels =  63.9143298
 --- exit write_ns ---

     Threshold (ethr) on eigenvalues was too large:
     Diagonalizing with lowered threshold

     Davidson diagonalization with overlap
     ethr =  3.67E-08,  avg # of iterations =  2.0

[...]

     total energy              =   -1947.63783520 Ry
     Harris-Foulkes estimate   =   -1947.63783521 Ry
     estimated scf accuracy    <       0.00000002 Ry

     iteration # 16     ecut=    40.00 Ry     beta=0.70
     Davidson diagonalization with overlap
     ethr =  6.20E-12,  avg # of iterations =  1.0

     negative rho (up, down):  0.689E+00 0.000E+00

     End of self-consistent calculation
 --- enter write_ns ---
 LDA+U parameters:
U( 2)     =  1.50000000
alpha( 2) =  0.00000000
atom    3   Tr[ns(na)] =   8.00441
    eigenvalues:
  0.588  0.605  0.892  0.953  0.964
    eigenvectors:
  0.000  0.210  0.003  0.000  0.787
  1.000  0.000  0.000  0.000  0.000
  0.000  0.000  0.997  0.000  0.003
  0.000  0.790  0.000  0.000  0.210
  0.000  0.000  0.000  0.999  0.000
    occupations:
  0.888 -0.000  0.002 -0.146 -0.000
 -0.000  0.588 -0.000 -0.000 -0.007
  0.002 -0.000  0.892 -0.005  0.001
 -0.146 -0.000 -0.005  0.681 -0.000
 -0.000 -0.007  0.001 -0.000  0.953
atom    4   Tr[ns(na)] =   7.98474
    eigenvalues:
  0.603  0.650  0.858  0.908  0.973
    eigenvectors:
  0.001  0.992  0.000  0.000  0.007
  0.000  0.000  0.048  0.952  0.000
  0.000  0.000  0.952  0.048  0.000
  0.000  0.007  0.000  0.000  0.993
  0.999  0.001  0.000  0.000  0.000
    occupations:
  0.653 -0.004 -0.001  0.027  0.001
 -0.004  0.905  0.011  0.001 -0.001
 -0.001  0.011  0.860 -0.001  0.001
  0.027  0.001 -0.001  0.971  0.000
  0.001 -0.001  0.001  0.000  0.603
atom    9   Tr[ns(na)] =   7.97929
    eigenvalues:
  0.636  0.649  0.851  0.878  0.976
    eigenvectors:
  0.000  0.155  0.000  0.000  0.845
  0.999  0.001  0.000  0.000  0.000
  0.000  0.000  1.000  0.000  0.000
  0.001  0.844  0.000  0.000  0.155
  0.000  0.000  0.000  1.000  0.000
    occupations:
  0.925  0.000 -0.000 -0.118 -0.001
  0.000  0.636  0.000  0.000 -0.000
 -0.000  0.000  0.851 -0.000 -0.000
 -0.118  0.000 -0.000  0.700  0.001
 -0.001 -0.000 -0.000  0.001  0.878
atom   10   Tr[ns(na)] =   7.98882
    eigenvalues:
  0.596  0.607  0.908  0.913  0.970
    eigenvectors:
  0.000  0.995  0.000  0.000  0.005
  0.000  0.000  0.001  0.999  0.000
  0.000  0.000  0.999  0.001  0.000
  0.000  0.005  0.000  0.000  0.995
  1.000  0.000  0.000  0.000  0.000
    occupations:
  0.609  0.000  0.002  0.025 -0.000
  0.000  0.913 -0.000  0.000 -0.001
  0.002 -0.000  0.908  0.000  0.000
  0.025  0.000  0.000  0.969  0.000
 -0.000 -0.001  0.000  0.000  0.596
atom   16   Tr[ns(na)] =   8.00440
    eigenvalues:
  0.588  0.605  0.892  0.953  0.964
    eigenvectors:
  0.000  0.210  0.003  0.000  0.787
  1.000  0.000  0.000  0.000  0.000
  0.000  0.000  0.997  0.000  0.003
  0.000  0.790  0.000  0.000  0.210
  0.000  0.000  0.000  0.999  0.000
    occupations:
  0.888 -0.000  0.002 -0.146 -0.000
 -0.000  0.588 -0.000 -0.000 -0.007
  0.002 -0.000  0.892 -0.005  0.001
 -0.146 -0.000 -0.005  0.681 -0.000
 -0.000 -0.007  0.001 -0.000  0.953
atom   17   Tr[ns(na)] =   7.98475
    eigenvalues:
  0.603  0.650  0.858  0.908  0.973
    eigenvectors:
  0.001  0.992  0.000  0.000  0.007
  0.000  0.000  0.048  0.952  0.000
  0.000  0.000  0.952  0.048  0.000
  0.000  0.007  0.000  0.000  0.993
  0.999  0.001  0.000  0.000  0.000
    occupations:
  0.653 -0.004 -0.001  0.027  0.001
 -0.004  0.905  0.011  0.001 -0.001
 -0.001  0.011  0.860 -0.001  0.001
  0.027  0.001 -0.001  0.971  0.000
  0.001 -0.001  0.001  0.000  0.603
atom   22   Tr[ns(na)] =   7.97929
    eigenvalues:
  0.636  0.649  0.851  0.878  0.976
    eigenvectors:
  0.000  0.155  0.000  0.000  0.845
  0.999  0.001  0.000  0.000  0.000
  0.000  0.000  1.000  0.000  0.000
  0.001  0.844  0.000  0.000  0.155
  0.000  0.000  0.000  1.000  0.000
    occupations:
  0.925  0.001 -0.000 -0.118 -0.001
  0.001  0.636  0.000  0.000 -0.000
 -0.000  0.000  0.851 -0.000 -0.000
 -0.118  0.000 -0.000  0.700  0.001
 -0.001 -0.000 -0.000  0.001  0.878
atom   23   Tr[ns(na)] =   7.98880
    eigenvalues:
  0.596  0.607  0.908  0.913  0.970
    eigenvectors:
  0.000  0.995  0.000  0.000  0.005
  0.000  0.000  0.001  0.999  0.000
  0.000  0.000  0.999  0.001  0.000
  0.000  0.005  0.000  0.000  0.995
  1.000  0.000  0.000  0.000  0.000
    occupations:
  0.609  0.000  0.002  0.025 -0.000
  0.000  0.913 -0.000  0.000 -0.001
  0.002 -0.000  0.908  0.000  0.000
  0.025  0.000  0.000  0.969  0.000
 -0.000 -0.001  0.000  0.000  0.596
N of occupied +U levels =  63.9144960
 --- exit write_ns ---

[...]

          k = 0.2500-0.4833 0.0000 ( 30510 PWs)   bands (ev):

[...]

          k =-0.2500 0.2417 0.0000 ( 30481 PWs)   bands (ev):

   -49.2277 -49.1920 -49.1823 -49.1774 -49.1723 -49.1459 -49.0577 -49.0493
   -49.0470 -49.0203 -49.0171 -49.0113 -48.9664 -48.9379 -48.8936 -48.8883
   -48.8739 -48.8263 -48.8152 -48.7969 -48.7563 -48.7436 -48.7382 -48.7256
   -21.4383 -21.1540 -20.9310 -20.8175 -20.5852 -20.4844 -20.3699 -20.3596
   -20.2045 -20.1791 -20.0755 -20.0219 -19.9823 -19.8864 -19.8067 -19.7453
   -18.9448 -18.8400  -9.6558  -9.4506  -9.3978  -9.2009  -8.8093  -8.7189
    -8.6501  -8.6401  -8.5948  -8.4657  -8.4481  -8.3822  -8.3704  -8.1789
    -8.0552  -8.0222  -7.8445  -7.7790  -7.4624  -7.4036  -7.2627  -7.2363
    -7.0607  -6.7684  -6.7530  -6.5888  -6.5591  -6.3290  -6.3191  -6.1918
    -6.1786  -6.1055  -6.0145  -5.9765  -5.8384  -5.7982  -5.7339  -5.6891
    -5.4552  -5.3480  -5.2927  -5.1196  -5.0399  -4.8573  -4.8129  -4.7725
    -4.6240  -4.5220  -4.4047  -4.2420  -4.0377  -3.9205  -3.7971  -3.6795
    -3.6193  -3.5088  -3.5035  -3.3779  -3.3377  -3.2676  -3.2152  -3.1511
    -3.1078  -2.9977  -2.9145  -2.8469  -2.7469  -2.7147  -2.4953  -2.3081
    -2.0146  -1.9598  -1.9187  -1.8407  -1.8053  -1.6078  -1.4360  -1.3841
    -1.0253  -0.7601  -0.3670  -0.1874   0.3528   0.4728   0.5073   0.8269
     1.0353   1.3041   1.4583   1.5362   1.7119   1.7606   1.8670   2.0831
     3.6183   3.9726   4.5105   4.9063   5.2786   5.4344   5.5084   5.7634
     5.9641   6.2160   6.3395   6.4050   6.4148   6.6672   6.8125   6.9647
     7.1961   7.3567   7.4278   7.6203   7.6939   7.8377   8.0210   8.0253
     8.0711   8.2479   8.3820   8.3972   8.6297   8.7630   8.7981   8.8673
     8.8980   9.1790   9.3374   9.4080   9.5314   9.6398   9.6672   9.7100
     9.8414   9.9037  10.1234  10.1617  10.2523  10.2799  10.3429  10.4981
    10.5852  10.6374  10.7684  10.8184  10.8670  10.9804  11.0114  11.1658
    11.3118  11.3121  11.4091  11.4590  11.5053  11.5872  11.6921  11.6922
    11.8143  12.0002  12.0865  12.1161  12.1536  12.2157  12.2175  12.3555
    12.4269  12.5080  12.5824  12.6038  12.7027  12.7796  12.8755  12.9905
    13.0289  13.0943  13.2030  13.2238  13.2987  13.3592  13.4272  13.5347
    13.6246  13.7002  13.7886  13.8181  13.8477  14.0507  14.0587  14.1014
    14.1618  14.2653  14.3594  14.4601  14.5465  14.5727  14.6464  14.7062
    14.7794  15.0434  15.2188  15.2853  15.3530  15.4178  15.4639  15.4835
    15.5239  15.6126  15.6860  15.7031  15.7886  15.7997  15.9625  15.9879
    16.0573  16.0649  16.1841  16.2587  16.3134  16.3611  16.3867  16.4803
    16.5293  16.5686  16.5994  16.6166  16.7210  16.8080  16.9781  16.9836
    17.1316  17.2086  17.2244  17.3194  17.3300  17.4249  17.4869  17.5345
    17.5679  17.6248  17.7441  17.7694  17.8731  17.8816  18.0597  18.0671
    18.0940  18.1487  18.2440  18.3504  18.4135  18.4815  18.5006  18.6583
    18.7046  18.8496  18.8711  18.9190  18.9797  19.0308  19.0580  19.1311
    19.2050  19.2142  19.2996  19.4425  19.4534  19.5568  19.6581  19.7212
    19.7418  19.8982  19.9008  20.0327  20.1347  20.2102  20.2952  20.3294
    20.4579  20.5318  20.6050  20.6486  20.6671  20.7334  20.8292  20.8907
    20.9371  21.0191  21.1043  21.1230  21.1706  21.2563  21.3160  21.3397
    21.3927  21.4361  21.5573  21.6411  21.6661  21.7192  21.7946  21.8369
    21.8508  21.9150  22.0082  22.0926

     the Fermi energy is    -1.8162 ev

!    total energy              =   -1947.63783520 Ry
     Harris-Foulkes estimate   =   -1947.63783521 Ry
     estimated scf accuracy    <          7.5E-09 Ry

     The total energy is the sum of the following terms:

     one-electron contribution =  -22601.06215901 Ry
     hartree contribution      =   11346.34538369 Ry
     xc contribution           =    -365.08166898 Ry
     ewald contribution        =    9671.55668971 Ry
     Hubbard energy            =       0.60506156 Ry
     smearing contrib. (-TS)   =      -0.00114217 Ry

     convergence has been achieved in  16 iterations

     Forces acting on atoms (Ry/au):

     negative rho (up, down):  0.689E+00 0.000E+00
     atom    1 type  1   force =    -0.00685822   -0.01348631    0.00013648
     atom    2 type  1   force =     0.00010987    0.00567417   -0.00005146
     atom    3 type  2   force =    -0.00015934    0.00421701   -0.00099332
     atom    4 type  2   force =     0.00832264    0.00886278   -0.00025862
     atom    5 type  1   force =    -0.00127408   -0.03019900    0.00018890
     atom    6 type  1   force =     0.00236420    0.02716122    0.00016938
     atom    7 type  1   force =    -0.00027244   -0.00049897    0.00075733
     atom    8 type  1   force =    -0.00287378   -0.00063703    0.00009427
     atom    9 type  2   force =     0.00124286   -0.00019465   -0.00066435
     atom   10 type  2   force =     0.00002700   -0.00194203   -0.00030792
     atom   11 type  1   force =    -0.00014442    0.00585540    0.00025749
     atom   12 type  1   force =     0.00030188   -0.00516662    0.00028090
     atom   13 type  1   force =    -0.00075391   -0.00004286   -0.00022701
     atom   14 type  1   force =    -0.00685644   -0.01348620    0.00014539
     atom   15 type  1   force =     0.00011217    0.00566333   -0.00004020
     atom   16 type  2   force =    -0.00016409    0.00421730   -0.00099342
     atom   17 type  2   force =     0.00832355    0.00886248   -0.00026721
     atom   18 type  1   force =    -0.00127334   -0.03019985    0.00018770
     atom   19 type  1   force =     0.00236506    0.02716169    0.00016836
     atom   20 type  1   force =    -0.00027054   -0.00049874    0.00076879
     atom   21 type  1   force =    -0.00287532   -0.00063695    0.00007034
     atom   22 type  2   force =     0.00125463   -0.00019545   -0.00066094
     atom   23 type  2   force =     0.00002664   -0.00194166   -0.00032350
     atom   24 type  1   force =    -0.00014895    0.00585528    0.00025759
     atom   25 type  1   force =     0.00029759   -0.00516652    0.00028082
     atom   26 type  1   force =    -0.00075370   -0.00004287   -0.00020183
     atom   27 type  3   force =     0.00000922    0.00009243    0.00067075
     atom   28 type  3   force =     0.00000942    0.00010359    0.00066564
     atom   29 type  3   force =    -0.00004286    0.00030479   -0.00005492
     atom   30 type  3   force =    -0.00004530    0.00030424   -0.00005544

     Total force =     0.002456     Total SCF correction =     0.000132

     bfgs converged in   8 scf cycles and   7 bfgs steps
     (criteria: energy < 0.10E-03, force < 0.10E-02)

     End of BFGS Geometry Optimization

     Final energy   =   -1947.6378351995 Ry
Begin final coordinates

ATOMIC_POSITIONS (crystal)
O0       0.000000000   0.000000000   0.378703788    0   0   1
O0       0.000000000   0.500000000   0.400991948    0   0   1
Rh1      0.250000000   0.500000000   0.452321107    0   0   1
Rh1      0.000000000   0.000000000   0.453152461    0   0   1
O0       0.250000000   0.810000000   0.452768960    0   0   1
O0       0.250000000   0.190000000   0.452602958    0   0   1
O0       0.000000000   0.500000000   0.498904876    0   0   1
O0       0.000000000   0.000000000   0.528687003    0   0   1
Rh1      0.250000000   0.000000000   0.576180825    0   0   1
Rh1      0.000000000   0.500000000   0.571293266    0   0   1
O0       0.250000000   0.690000000   0.577244070    0   0   1
O0       0.250000000   0.310000000   0.577258479    0   0   1
O0       0.000000000   0.000000000   0.621524359    0   0   1
O0       0.500000000   0.000000000   0.378703542    0   0   1
O0       0.500000000   0.500000000   0.400991520    0   0   1
Rh1      0.750000000   0.500000000   0.452321147    0   0   1
Rh1      0.500000000   0.000000000   0.453152937    0   0   1
O0       0.750000000   0.810000000   0.452769117    0   0   1
O0       0.750000000   0.190000000   0.452603075    0   0   1
O0       0.500000000   0.500000000   0.498904832    0   0   1
O0       0.500000000   0.000000000   0.528688102    0   0   1
Rh1      0.750000000   0.000000000   0.576180650    0   0   1
Rh1      0.500000000   0.500000000   0.571293694    0   0   1
O0       0.750000000   0.690000000   0.577243923    0   0   1
O0       0.750000000   0.310000000   0.577258352    0   0   1
O0       0.500000000   0.000000000   0.621523048    0   0   1
H2      -0.000142852   0.638457056   0.384303612
H2       0.499857065   0.638456503   0.384303495
H2       0.148433885   0.033267612   0.367992259
H2       0.648434667   0.033268010   0.367992593
End final coordinates

     General routines

     Parallel routines
     Hubbard U routines

   This run was terminated on:   8:39:55   9May2014

   JOB DONE.
Running PBS batch system epilogue script
Job id: 340828.audhumbla.fysik.dtu.dk
Username: zhonxu
Groupname: campgst
Jobname: RhO2/Eads-2-layers/bare-U-1.5
Sessionid: 23439
Queuename: verylong
Accounting:
This job has allocated the following 16 nodes:
d116 d116 d116 d116 d116 d116 d116 d116 d108 d108 d108 d108 d108 d108 d108 d108
Finished epilogue job 340828.audhumbla.fysik.dtu.dk for zhonxu