     Program PWSCF v.5.0.2 (svn rev. 9656) starts on  9May2014 at 19: 2:55

     Current dimensions of program PWSCF are:
     Max number of different atomic species (ntypx) = 10
     Max number of k-points (npk) =  40000
     Max angular momentum in pseudopotentials (lmaxx) =  3
     Reading input from pwscf.in
Warning: card &CELL ignored
Warning: card / ignored

     Subspace diagonalization in iterative solution of the eigenvalue problem:
     a serial algorithm will be used

     bravais-lattice index     =            0
     lattice parameter (alat)  =      10.9604  a.u.
     unit-cell volume          =    6350.6732 (a.u.)^3
     number of atoms/cell      =           30
     number of atomic types    =            3
     number of electrons       =       224.00 (up: 120.00, down: 104.00)
     number of Kohn-Sham states=          324
     kinetic-energy cutoff     =      40.0000  Ry
     charge density cutoff     =     500.0000  Ry
     convergence threshold     =      1.0E-06
     mixing beta               =       0.7000
     number of iterations used =            8  plain     mixing
     Exchange-correlation      = SLA  PW   PBE  PBE ( 1 4 3 4 0)
     EXX-fraction              =        0.00
     nstep                     =           50

     celldm(1)=  10.960412  celldm(2)=   0.000000  celldm(3)=   0.000000
     celldm(4)=   0.000000  celldm(5)=   0.000000  celldm(6)=   0.000000

     crystal axes: (cart. coord. in units of alat)
               a(1) = (   1.000000   0.000000   0.000000 )
               a(2) = (   0.000000   1.067975   0.000000 )
               a(3) = (   0.000000   0.000000   4.516251 )

     reciprocal axes: (cart. coord. in units 2 pi/alat)
               b(1) = (  1.000000  0.000000  0.000000 )
               b(2) = (  0.000000  0.936351  0.000000 )
               b(3) = (  0.000000  0.000000  0.221423 )

     PseudoPot. # 1 for O  read from file:
     /home/camp/zhonxu/pseudo/o_pbe_v1.01.uspp.F.UPF
     MD5 check sum: 2bcb18d16ea4b960afae9ec6d52f22d2
     Pseudo is Ultrasoft + core correction, Zval =  6.0
     Generated by new atomic code, or converted to UPF format
     Using radial grid of  737 points,  5 beta functions with:
                l(1) =   0
                l(2) =   0
                l(3) =   1
                l(4) =   1
                l(5) =   2
     Q(r) pseudized with  8 coefficients,  rinner =    0.900   0.900   0.900
                                                       0.900   0.900

     PseudoPot. # 2 for Cr read from file:
     /home/camp/zhonxu/pseudo/cr_pbe_v1.uspp.F.UPF
     MD5 check sum: 68b6f918d1762dccfb11451fe85b0e0e
     Pseudo is Ultrasoft + core correction, Zval = 14.0
     Generated by new atomic code, or converted to UPF format
     Using radial grid of  857 points,  6 beta functions with:
                l(1) =   0
                l(2) =   0
                l(3) =   1
                l(4) =   1
                l(5) =   2
                l(6) =   2
     Q(r) pseudized with  6 coefficients,  rinner =    1.000   1.000   1.000
                                                       1.000   1.000

     PseudoPot. # 3 for H  read from file:
     /home/camp/zhonxu/pseudo/h_pbe_v1.uspp.F.UPF
     MD5 check sum: 3408e3ff4ec8b0a4e358431e7e038a48
     Pseudo is Ultrasoft, Zval =  1.0
     Generated by new atomic code, or converted to UPF format
     Using radial grid of  615 points,  2 beta functions with:
                l(1) =   0
                l(2) =   0
     Q(r) pseudized with  8 coefficients,  rinner =    0.700

     atomic species   valence    mass     pseudopotential
        O0             6.00    15.99940     O ( 1.00)
        Cr1           14.00    51.99600     Cr( 1.00)
        H2             1.00     1.00794     H ( 1.00)

     Starting magnetic structure
     atomic species   magnetization
        O0           0.000
        Cr1          0.600
        H2           0.000

     Simplified LDA+U calculation (l_max = 2) with parameters (eV):
     atomic species    L          U    alpha       J0     beta
        Cr1            2     1.5000   0.0000   0.0000   0.0000

     No symmetry found

   Cartesian axes

     site n.     atom                  positions (alat units)
         1           O0  tau(   1) = (   0.0000000   0.0000000   1.7181625  )
         2           O0  tau(   2) = (   0.0000000   0.5339875   1.8008551  )
         3           Cr1 tau(   3) = (   0.2500000   0.5339875   2.0300096  )
         4           Cr1 tau(   4) = (   0.0000000   0.0000000   2.0413454  )
         5           O0  tau(   5) = (   0.2500000   0.8543801   2.0369195  )
         6           O0  tau(   6) = (   0.2500000   0.2135950   2.0378227  )
         7           O0  tau(   7) = (   0.0000000   0.5339875   2.2471058  )
         8           O0  tau(   8) = (   0.0000000   0.0000000   2.3700833  )
         9           Cr1 tau(   9) = (   0.2500000   0.0000000   2.6079543  )
        10           Cr1 tau(  10) = (   0.0000000   0.5339875   2.5535334  )
        11           O0  tau(  11) = (   0.2500000   0.7475825   2.5983798  )
        12           O0  tau(  12) = (   0.2500000   0.3203925   2.5982895  )
        13           O0  tau(  13) = (   0.0000000   0.0000000   2.7910882  )
        14           O0  tau(  14) = (   0.5000000   0.0000000   1.7181625  )
        15           O0  tau(  15) = (   0.5000000   0.5339875   1.8008551  )
        16           Cr1 tau(  16) = (   0.7500000   0.5339875   2.0300096  )
        17           Cr1 tau(  17) = (   0.5000000   0.0000000   2.0413454  )
        18           O0  tau(  18) = (   0.7500000   0.8543801   2.0369195  )
        19           O0  tau(  19) = (   0.7500000   0.2135950   2.0378227  )
        20           O0  tau(  20) = (   0.5000000   0.5339875   2.2471058  )
        21           O0  tau(  21) = (   0.5000000   0.0000000   2.3700833  )
        22           Cr1 tau(  22) = (   0.7500000   0.0000000   2.6079543  )
        23           Cr1 tau(  23) = (   0.5000000   0.5339875   2.5535334  )
        24           O0  tau(  24) = (   0.7500000   0.7475825   2.5983798  )
        25           O0  tau(  25) = (   0.7500000   0.3203925   2.5982895  )
        26           O0  tau(  26) = (   0.5000000   0.0000000   2.7910882  )
        27           H2  tau(  27) = (  -0.0006900   0.6851274   1.7196980  )
        28           H2  tau(  28) = (   0.4993100   0.6851274   1.7196980  )
        29           H2  tau(  29) = (   0.1573400   0.0316548   1.6594512  )
        30           H2  tau(  30) = (   0.6573500   0.0316548   1.6594512  )

     number of k points=    20  Methfessel-Paxton smearing, width (Ry)=  0.0100
                       cart. coord. in units 2pi/alat
        k(    1) = (   0.0000000   0.0000000   0.0000000), wk =   0.0625000
        k(    2) = (   0.0000000   0.2340879   0.0000000), wk =   0.1250000
        k(    3) = (   0.0000000  -0.4681757   0.0000000), wk =   0.0625000
        k(    4) = (   0.2500000   0.0000000   0.0000000), wk =   0.1250000
        k(    5) = (   0.2500000   0.2340879   0.0000000), wk =   0.1250000
        k(    6) = (   0.2500000  -0.4681757   0.0000000), wk =   0.1250000
        k(    7) = (  -0.5000000   0.0000000   0.0000000), wk =   0.0625000
        k(    8) = (  -0.5000000   0.2340879   0.0000000), wk =   0.1250000
        k(    9) = (  -0.5000000  -0.4681757   0.0000000), wk =   0.0625000
        k(   10) = (  -0.2500000   0.2340879   0.0000000), wk =   0.1250000
        k(   11) = (   0.0000000   0.0000000   0.0000000), wk =   0.0625000
        k(   12) = (   0.0000000   0.2340879   0.0000000), wk =   0.1250000
        k(   13) = (   0.0000000  -0.4681757   0.0000000), wk =   0.0625000
        k(   14) = (   0.2500000   0.0000000   0.0000000), wk =   0.1250000
        k(   15) = (   0.2500000   0.2340879   0.0000000), wk =   0.1250000
        k(   16) = (   0.2500000  -0.4681757   0.0000000), wk =   0.1250000
        k(   17) = (  -0.5000000   0.0000000   0.0000000), wk =   0.0625000
        k(   18) = (  -0.5000000   0.2340879   0.0000000), wk =   0.1250000
        k(   19) = (  -0.5000000  -0.4681757   0.0000000), wk =   0.0625000
        k(   20) = (  -0.2500000   0.2340879   0.0000000), wk =   0.1250000

     Largest allocated arrays     est. size (Mb)     dimensions
     Largest temporary arrays     est. size (Mb)     dimensions

     Check: negative/imaginary core charge=   -0.000012    0.000000

     Initial potential from superposition of free atoms
     Check: negative starting charge=(component1):   -0.001590
     Check: negative starting charge=(component2):   -0.000511

     starting charge  215.99984, renormalised to  224.00000

     negative rho (up, down):  0.165E-02 0.530E-03
     Number of +U iterations with fixed ns =  0
     Starting occupations:
 --- enter write_ns ---
 LDA+U parameters:
U( 2)     =  1.50000000
alpha( 2) =  0.00000000
atom    3   Tr[ns(na)] (up, down, total) =   5.00000  0.00000  5.00000
   spin  1
    eigenvalues:
  1.000  1.000  1.000  1.000  1.000
    eigenvectors:
  1.000  0.000  0.000  0.000  0.000
  0.000  1.000  0.000  0.000  0.000
  0.000  0.000  1.000  0.000  0.000
  0.000  0.000  0.000  1.000  0.000
  0.000  0.000  0.000  0.000  1.000
    occupations:
  1.000  0.000  0.000  0.000  0.000
  0.000  1.000  0.000  0.000  0.000
  0.000  0.000  1.000  0.000  0.000
  0.000  0.000  0.000  1.000  0.000
  0.000  0.000  0.000  0.000  1.000
   spin  2
    eigenvalues:
  0.000  0.000  0.000  0.000  0.000
    eigenvectors:
  1.000  0.000  0.000  0.000  0.000
  0.000  1.000  0.000  0.000  0.000
  0.000  0.000  1.000  0.000  0.000
  0.000  0.000  0.000  1.000  0.000
  0.000  0.000  0.000  0.000  1.000
    occupations:
  0.000  0.000  0.000  0.000  0.000
  0.000  0.000  0.000  0.000  0.000
  0.000  0.000  0.000  0.000  0.000
  0.000  0.000  0.000  0.000  0.000
  0.000  0.000  0.000  0.000  0.000
atomic mag. moment =     5.000000
atom    4   Tr[ns(na)] (up, down, total) =   5.00000  0.00000  5.00000
   spin  1
    eigenvalues:
  1.000  1.000  1.000  1.000  1.000
    eigenvectors:
  1.000  0.000  0.000  0.000  0.000
  0.000  1.000  0.000  0.000  0.000
  0.000  0.000  1.000  0.000  0.000
  0.000  0.000  0.000  1.000  0.000
  0.000  0.000  0.000  0.000  1.000
    occupations:
  1.000  0.000  0.000  0.000  0.000
  0.000  1.000  0.000  0.000  0.000
  0.000  0.000  1.000  0.000  0.000
  0.000  0.000  0.000  1.000  0.000
  0.000  0.000  0.000  0.000  1.000
   spin  2
    eigenvalues:
  0.000  0.000  0.000  0.000  0.000
    eigenvectors:
  1.000  0.000  0.000  0.000  0.000
  0.000  1.000  0.000  0.000  0.000
  0.000  0.000  1.000  0.000  0.000
  0.000  0.000  0.000  1.000  0.000
  0.000  0.000  0.000  0.000  1.000
    occupations:
  0.000  0.000  0.000  0.000  0.000
  0.000  0.000  0.000  0.000  0.000
  0.000  0.000  0.000  0.000  0.000
  0.000  0.000  0.000  0.000  0.000
  0.000  0.000  0.000  0.000  0.000
atomic mag. moment =     5.000000
atom    9   Tr[ns(na)] (up, down, total) =   5.00000  0.00000  5.00000
   spin  1
    eigenvalues:
  1.000  1.000  1.000  1.000  1.000
    eigenvectors:
  1.000  0.000  0.000  0.000  0.000
  0.000  1.000  0.000  0.000  0.000
  0.000  0.000  1.000  0.000  0.000
[...]
  0.759  0.000  0.017  0.000  0.224
  0.000  0.003  0.000  0.997  0.000
  0.018  0.000  0.981  0.000  0.001
  0.223  0.000  0.002  0.000  0.775
  0.000  0.997  0.000  0.003  0.000
    occupations:
  0.168 -0.000 -0.005  0.112 -0.000
 -0.000  0.345 -0.000 -0.000  0.011
 -0.005 -0.000  0.164  0.008  0.000
  0.112 -0.000  0.008  0.315 -0.000
 -0.000  0.011  0.000 -0.000  0.132
atomic mag. moment =     2.423041
atom    4   Tr[ns(na)] (up, down, total) =   3.41787  1.26514  4.68302
   spin  1
    eigenvalues:
  0.483  0.529  0.602  0.822  0.982
    eigenvectors:
  0.001  0.994  0.001  0.001  0.003
  0.000  0.001  0.013  0.986  0.000
  0.000  0.001  0.986  0.013  0.000
  0.000  0.003  0.000  0.000  0.997
  0.999  0.001  0.000  0.000  0.000
    occupations:
  0.531 -0.009 -0.003  0.026  0.001
 -0.009  0.819  0.025  0.001  0.000
 -0.003  0.025  0.605  0.001  0.000
  0.026  0.001  0.001  0.980  0.000
  0.001  0.000  0.000  0.000  0.483
   spin  2
    eigenvalues:
  0.117  0.156  0.203  0.379  0.410
    eigenvectors:
  0.002  0.003  0.000  0.000  0.994
  0.001  0.963  0.033  0.000  0.003
  0.000  0.033  0.967  0.000  0.000
  0.996  0.001  0.000  0.000  0.002
  0.000  0.000  0.000  1.000  0.000
    occupations:
  0.408  0.015  0.003 -0.014  0.001
  0.015  0.158 -0.008  0.001 -0.000
  0.003 -0.008  0.201  0.000 -0.000
 -0.014  0.001  0.000  0.118 -0.000
  0.001 -0.000 -0.000 -0.000  0.379
atomic mag. moment =     2.152731
atom    9   Tr[ns(na)] (up, down, total) =   3.35678  1.39146  4.74824
   spin  1
    eigenvalues:
  0.524  0.535  0.686  0.792  0.820
    eigenvectors:
  0.001  0.171  0.001  0.817  0.010
  0.994  0.006  0.000  0.000  0.000
  0.000  0.000  0.998  0.001  0.000
  0.004  0.823  0.000  0.170  0.002
  0.000  0.000  0.000  0.012  0.988
    occupations:
  0.748  0.001 -0.004 -0.097  0.003
  0.001  0.524  0.002  0.000  0.000
 -0.004  0.002  0.686  0.001 -0.000
 -0.097  0.000  0.001  0.579 -0.001
  0.003  0.000 -0.000 -0.001  0.819
   spin  2
    eigenvalues:
  0.186  0.190  0.193  0.409  0.413
    eigenvectors:
  0.844  0.005  0.001  0.149  0.000
  0.000  0.000  0.000  0.003  0.997
  0.006  0.994  0.000  0.000  0.000
  0.149  0.001  0.000  0.848  0.002
  0.001  0.000  0.999  0.000  0.000
    occupations:
  0.220 -0.000  0.000  0.080 -0.000
 -0.000  0.413 -0.000 -0.000  0.000
  0.000 -0.000  0.190 -0.000  0.000
  0.080 -0.000 -0.000  0.376  0.000
 -0.000  0.000  0.000  0.000  0.193
atomic mag. moment =     1.965313
atom   10   Tr[ns(na)] (up, down, total) =   3.57295  1.08034  4.65329
   spin  1
    eigenvalues:
  0.471  0.473  0.774  0.883  0.972
    eigenvectors:
  0.993  0.005  0.000  0.000  0.002
  0.000  0.000  0.000  1.000  0.000
  0.000  0.000  1.000  0.000  0.000
  0.002  0.000  0.000  0.000  0.998
  0.005  0.995  0.000  0.000  0.000
    occupations:
  0.472  0.000  0.002  0.024 -0.000
  0.000  0.883 -0.001 -0.000 -0.001
  0.002 -0.001  0.774 -0.002 -0.000
  0.024 -0.000 -0.002  0.971 -0.000
 -0.000 -0.001 -0.000 -0.000  0.473
   spin  2
    eigenvalues:
  0.106  0.154  0.166  0.298  0.358
    eigenvectors:
  0.007  0.000  0.000  0.993  0.000
  0.000  1.000  0.000  0.000  0.000
  0.000  0.000  1.000  0.000  0.000
  0.993  0.000  0.000  0.007  0.000
  0.000  0.000  0.000  0.000  1.000
    occupations:
  0.296 -0.000 -0.000 -0.016 -0.000
 -0.000  0.154  0.000 -0.000 -0.000
 -0.000  0.000  0.166  0.000  0.000
 -0.016 -0.000  0.000  0.107 -0.000
 -0.000 -0.000  0.000 -0.000  0.358
atomic mag. moment =     2.492609
atom   16   Tr[ns(na)] (up, down, total) =   3.54662  1.12358  4.67020
   spin  1
    eigenvalues:
  0.456  0.500  0.696  0.921  0.974
    eigenvectors:
  0.000  0.226  0.003  0.000  0.771
  0.999  0.000  0.000  0.001  0.000
  0.000  0.000  0.996  0.000  0.004
  0.000  0.774  0.001  0.000  0.225
  0.001  0.000  0.000  0.999  0.000
    occupations:
  0.866 -0.000  0.016 -0.197 -0.000
 -0.000  0.456 -0.000 -0.000 -0.011
  0.016 -0.000  0.697 -0.008  0.002
 -0.197 -0.000 -0.008  0.607 -0.000
 -0.000 -0.011  0.002 -0.000  0.921
   spin  2
    eigenvalues:
  0.106  0.131  0.165  0.345  0.376
    eigenvectors:
  0.759  0.000  0.017  0.000  0.224
  0.000  0.003  0.000  0.997  0.000
  0.018  0.000  0.981  0.000  0.001
  0.223  0.000  0.002  0.000  0.775
  0.000  0.997  0.000  0.003  0.000
    occupations:
  0.168 -0.000 -0.005  0.112 -0.000
 -0.000  0.345 -0.000 -0.000  0.011
 -0.005 -0.000  0.164  0.008  0.000
  0.112 -0.000  0.008  0.315 -0.000
 -0.000  0.011  0.000 -0.000  0.132
atomic mag. moment =     2.423043
atom   17   Tr[ns(na)] (up, down, total) =   3.41786  1.26512  4.68298
   spin  1
    eigenvalues:
  0.483  0.529  0.602  0.822  0.982
    eigenvectors:
  0.001  0.994  0.001  0.001  0.003
  0.000  0.001  0.013  0.986  0.000
  0.000  0.001  0.986  0.013  0.000
  0.000  0.003  0.000  0.000  0.997
  0.999  0.001  0.000  0.000  0.000
    occupations:
  0.531 -0.009 -0.003  0.026  0.001
 -0.009  0.819  0.025  0.001  0.000
 -0.003  0.025  0.605  0.001  0.000
  0.026  0.001  0.001  0.980  0.000
  0.001  0.000  0.000  0.000  0.483
   spin  2
    eigenvalues:
  0.117  0.156  0.203  0.379  0.410
    eigenvectors:
  0.002  0.003  0.000  0.000  0.994
  0.001  0.963  0.033  0.000  0.003
  0.000  0.033  0.967  0.000  0.000
  0.996  0.001  0.000  0.000  0.002
  0.000  0.000  0.000  1.000  0.000
    occupations:
  0.408  0.015  0.003 -0.014  0.001
  0.015  0.158 -0.008  0.001 -0.000
  0.003 -0.008  0.201  0.000 -0.000
 -0.014  0.001  0.000  0.118 -0.000
  0.001 -0.000 -0.000 -0.000  0.379
atomic mag. moment =     2.152733
atom   22   Tr[ns(na)] (up, down, total) =   3.35688  1.39132  4.74819
   spin  1
    eigenvalues:
  0.524  0.535  0.686  0.792  0.820
    eigenvectors:
  0.001  0.171  0.001  0.817  0.010
  0.994  0.006  0.000  0.000  0.000
  0.000  0.000  0.998  0.001  0.000
  0.004  0.823  0.000  0.170  0.002
  0.000  0.000  0.000  0.012  0.988
    occupations:
  0.748  0.001 -0.004 -0.098  0.003
  0.001  0.524  0.002  0.000  0.000
 -0.004  0.002  0.686  0.001 -0.000
 -0.098  0.000  0.001  0.579 -0.001
  0.003  0.000 -0.000 -0.001  0.819
   spin  2
    eigenvalues:
  0.186  0.190  0.193  0.409  0.413
    eigenvectors:
  0.845  0.005  0.001  0.149  0.000
  0.000  0.000  0.000  0.003  0.997
  0.006  0.994  0.000  0.000  0.000
  0.149  0.001  0.000  0.848  0.002
  0.001  0.000  0.999  0.000  0.000
    occupations:
  0.220 -0.000  0.000  0.080 -0.000
 -0.000  0.413 -0.000 -0.000  0.000
  0.000 -0.000  0.190 -0.000  0.000
  0.080 -0.000 -0.000  0.376  0.000
 -0.000  0.000  0.000  0.000  0.193
atomic mag. moment =     1.965563
atom   23   Tr[ns(na)] (up, down, total) =   3.57296  1.08034  4.65330
   spin  1
    eigenvalues:
  0.471  0.473  0.774  0.883  0.972
    eigenvectors:
  0.993  0.005  0.000  0.000  0.002
  0.000  0.000  0.000  1.000  0.000
  0.000  0.000  1.000  0.000  0.000
  0.002  0.000  0.000  0.000  0.998
  0.005  0.995  0.000  0.000  0.000
    occupations:
  0.472  0.000  0.002  0.024 -0.000
  0.000  0.883 -0.001 -0.000 -0.001
  0.002 -0.001  0.774 -0.002 -0.000
  0.024 -0.000 -0.002  0.971 -0.000
 -0.000 -0.001 -0.000 -0.000  0.473
   spin  2
    eigenvalues:
  0.106  0.154  0.166  0.298  0.358
    eigenvectors:
  0.007  0.000  0.000  0.993  0.000
  0.000  1.000  0.000  0.000  0.000
  0.000  0.000  1.000  0.000  0.000
  0.993  0.000  0.000  0.007  0.000
  0.000  0.000  0.000  0.000  1.000
    occupations:
  0.296 -0.000 -0.000 -0.016 -0.000
 -0.000  0.154  0.000 -0.000 -0.000
 -0.000  0.000  0.166  0.000  0.000
 -0.016 -0.000  0.000  0.107 -0.000
 -0.000 -0.000  0.000 -0.000  0.358
atomic mag. moment =     2.492622
N of occupied +U levels =  37.5094257
 --- exit write_ns ---

 ------ SPIN UP ------------

[...]

 ------ SPIN DOWN ----------

[...]

          k = 0.2500-0.4682 0.0000 ( 27150 PWs)   bands (ev):

[...]

          k =-0.2500 0.2341 0.0000 ( 27132 PWs)   bands (ev):

   -73.1021 -73.0903 -72.7766 -72.7654 -72.4599 -72.4578 -72.4483 -72.4473
   -44.5125 -44.5018 -44.4859 -44.4624 -44.4348 -44.3786 -44.3689 -44.3362
   -44.1400 -44.1165 -44.1058 -44.0935 -44.0195 -44.0139 -43.9272 -43.9022
   -43.8791 -43.7945 -43.7522 -43.7491 -43.7231 -43.6388 -43.6130 -43.5053
   -21.2898 -20.8042 -20.7792 -20.5145 -20.3625 -20.3484 -20.0519 -19.9762
   -19.9589 -19.8149 -19.7671 -19.6919 -19.5784 -19.5710 -19.4984 -19.4702
   -19.3013 -19.1899  -8.8321  -8.5638  -8.1648  -8.0534  -7.9915  -7.6543
    -7.5004  -7.4707  -7.4661  -7.3898  -7.2959  -7.2102  -7.0572  -6.9889
    -6.8886  -6.7974  -6.7161  -6.5794  -6.5725  -6.4744  -6.4317  -6.2630
    -6.1898  -5.9547  -5.8644  -5.8306  -5.5589  -5.4307  -5.3866  -5.3413
    -5.3022  -5.1853  -5.1295  -5.0917  -4.9936  -4.9603  -4.8590  -4.6294
    -4.5684  -4.5297  -4.3874  -4.2810  -4.1789  -4.1561  -4.0324  -3.9660
    -3.9157  -3.7557  -3.6799  -3.5876  -3.4228  -3.1845  -3.1830  -2.8883
    -0.1195   0.0101   0.1070   0.2232   0.2322   0.3084   0.3817   0.4274
     0.4621   0.5572   0.5783   0.7076   0.7287   0.7420   0.8313   0.9619
     0.9640   1.0102   1.1258   1.1258   1.2348   1.3625   1.4375   1.4402
     1.6035   1.6148   1.8671   2.1228   2.1491   2.3544   2.5652   2.6004
     2.7587   2.8797   2.9653   3.1024   3.1396   3.4832   3.5649   3.6216
     3.8368   3.9511   4.2742   4.7400   5.2640   5.6759   5.7934   5.8897
     5.9653   6.1309   6.3257   6.4422   6.6721   6.8141   6.8410   7.1989
     7.3699   7.5513   7.7299   7.9640   7.9742   8.2146   8.2829   8.4164
     8.6022   8.7155   8.9363   8.9794   9.2267   9.2513   9.2561   9.4183
     9.5117   9.6868   9.7872   9.8522  10.0354  10.0728  10.2546  10.2564
    10.4123  10.4713  10.6160  10.7149  10.7696  10.9497  11.0384  11.0937
    11.1617  11.3359  11.4956  11.5432  11.5901  11.6182  11.7899  11.8295
    11.8841  12.0125  12.0762  12.1544  12.2774  12.3097  12.4028  12.5730
    12.6664  12.6984  12.8065  12.9119  12.9258  12.9874  13.0370  13.0985
    13.0995  13.1934  13.2507  13.3169  13.5402  13.6449  13.7024  13.7835
    13.8495  13.9010  13.9678  14.0127  14.1045  14.2634  14.3393  14.4352
    14.5270  14.5396  14.6025  14.6826  14.7718  14.8514  14.8899  15.0455
    15.1588  15.2741  15.3442  15.4304  15.4677  15.4814  15.5868  15.6101
    15.7666  15.8071  15.8886  15.9292  16.0142  16.0785  16.1543  16.1683
    16.2500  16.2821  16.3942  16.5583  16.6060  16.6488  16.8045  16.8351
    16.8764  16.9434  16.9996  17.1049  17.1927  17.2156  17.3830  17.3927
    17.4359  17.4385  17.5427  17.6312  17.6337  17.7234  17.7547  17.8499
    17.9188  18.0063  18.0426  18.1519  18.2226  18.2855  18.3597  18.3626
    18.4348  18.6222  18.6256  18.7539  18.7866  18.8645  18.9339  19.0496
    19.1048  19.1608  19.2802  19.3402  19.3834  19.4173  19.4938  19.5740
    19.6262  19.6535  19.7486  19.7884  19.8330  19.9484  20.1067  20.1165
    20.2474  20.3414  20.4032  20.4704  20.5101  20.6594  20.6966  20.8213
    20.8473  20.9099  21.0964  21.1065

     the spin up/dw Fermi energies are    -1.6734   -2.7430 ev

!    total energy              =   -1992.92106630 Ry
     Harris-Foulkes estimate   =   -1992.92106630 Ry
     estimated scf accuracy    <          9.9E-09 Ry

     The total energy is the sum of the following terms:

     one-electron contribution =  -23492.41232785 Ry
     hartree contribution      =   11763.03526058 Ry
     xc contribution           =    -315.06608718 Ry
     ewald contribution        =   10050.75275509 Ry
     Hubbard energy            =       0.76827283 Ry
     smearing contrib. (-TS)   =       0.00106023 Ry

     total magnetization       =    16.00 Bohr mag/cell
     absolute magnetization    =    20.90 Bohr mag/cell

     convergence has been achieved in  18 iterations

     Forces acting on atoms (Ry/au):

     negative rho (up, down):  0.518E-02 0.186E-02
     atom    1 type  1   force =    -0.00441076   -0.01385006    0.00033607
     atom    2 type  1   force =     0.00000862    0.01170456   -0.00029785
     atom    3 type  2   force =    -0.00016750   -0.00344318   -0.00023346
     atom    4 type  2   force =     0.00245067    0.00749009    0.00041397
     atom    5 type  1   force =     0.00244694    0.00677007    0.00039853
     atom    6 type  1   force =    -0.00004695   -0.00660745    0.00050824
     atom    7 type  1   force =    -0.00010064   -0.00121784   -0.00048370
     atom    8 type  1   force =    -0.00002054   -0.00041815   -0.00017642
     atom    9 type  2   force =     0.00065489   -0.00036739   -0.00054421
     atom   10 type  2   force =     0.00003263   -0.00048834    0.00048024
     atom   11 type  1   force =    -0.00025947   -0.05348207   -0.00000269
     atom   12 type  1   force =     0.00037170    0.05393296   -0.00001182
     atom   13 type  1   force =    -0.00074269    0.00024191    0.00016345
     atom   14 type  1   force =    -0.00440749   -0.01385014    0.00034318
     atom   15 type  1   force =     0.00000851    0.01170521   -0.00029521
     atom   16 type  2   force =    -0.00017181   -0.00344343   -0.00023354
     atom   17 type  2   force =     0.00244861    0.00748985    0.00041149
     atom   18 type  1   force =     0.00243958    0.00677055    0.00039910
     atom   19 type  1   force =    -0.00005433   -0.00660775    0.00050820
     atom   20 type  1   force =    -0.00009897   -0.00121786   -0.00048300
     atom   21 type  1   force =    -0.00002359   -0.00041832   -0.00018978
     atom   22 type  2   force =     0.00064835   -0.00036748   -0.00055578
     atom   23 type  2   force =     0.00003822   -0.00048840    0.00047683
     atom   24 type  1   force =    -0.00025683   -0.05348734   -0.00000340
     atom   25 type  1   force =     0.00037417    0.05393827   -0.00001259
     atom   26 type  1   force =    -0.00076550    0.00024228    0.00016185
     atom   27 type  3   force =     0.00000865   -0.00032556   -0.00052052
     atom   28 type  3   force =     0.00000881   -0.00032532   -0.00052076
     atom   29 type  3   force =    -0.00020592    0.00006021   -0.00001756
     atom   30 type  3   force =    -0.00020734    0.00006012   -0.00001888

     Total force =     0.002047     Total SCF correction =     0.000376
     SCF correction compared to forces is large: reduce conv_thr to get better values

     bfgs converged in   9 scf cycles and   8 bfgs steps
     (criteria: energy < 0.10E-03, force < 0.10E-02)

     End of BFGS Geometry Optimization

     Final energy   =   -1992.9210662957 Ry
Begin final coordinates

ATOMIC_POSITIONS (crystal)
O0       0.000000000   0.000000000   0.380058508    0   0   1
O0       0.000000000   0.500000000   0.398190871    0   0   1
Cr1      0.250000000   0.500000000   0.449189513    0   0   1
Cr1      0.000000000   0.000000000   0.451886888    0   0   1
O0       0.250000000   0.800000000   0.450810080    0   0   1
O0       0.250000000   0.200000000   0.450935681    0   0   1
O0       0.000000000   0.500000000   0.497473993    0   0   1
O0       0.000000000   0.000000000   0.525084159    0   0   1
Cr1      0.250000000   0.000000000   0.578022138    0   0   1
Cr1      0.000000000   0.500000000   0.565841197    0   0   1
O0       0.250000000   0.700000000   0.575486806    0   0   1
O0       0.250000000   0.300000000   0.575502280    0   0   1
O0       0.000000000   0.000000000   0.619130399    0   0   1
O0       0.500000000   0.000000000   0.380058510    0   0   1
O0       0.500000000   0.500000000   0.398190718    0   0   1
Cr1      0.750000000   0.500000000   0.449189553    0   0   1
Cr1      0.500000000   0.000000000   0.451887073    0   0   1
O0       0.750000000   0.800000000   0.450810029    0   0   1
O0       0.750000000   0.200000000   0.450935716    0   0   1
O0       0.500000000   0.500000000   0.497473870    0   0   1
O0       0.500000000   0.000000000   0.525084890    0   0   1
Cr1      0.750000000   0.000000000   0.578018610    0   0   1
Cr1      0.500000000   0.500000000   0.565841199    0   0   1
O0       0.750000000   0.700000000   0.575486407    0   0   1
O0       0.750000000   0.300000000   0.575501895    0   0   1
O0       0.500000000   0.000000000   0.619130704    0   0   1
H2      -0.000569814   0.641065991   0.380154914
H2       0.499429984   0.641066564   0.380155004
H2       0.157646578   0.029989971   0.367263914
H2       0.657647792   0.029989250   0.367264486
End final coordinates

     General routines

     Parallel routines
     Hubbard U routines

   This run was terminated on:   9:32:37  10May2014

   JOB DONE.
Running PBS batch system epilogue script
Job id: 340913.audhumbla.fysik.dtu.dk
Username: zhonxu
Groupname: campgst
Jobname: CrO2/Eads-2-layers/bare-U-1.5
Sessionid: 14999
Queuename: verylong
Accounting:
This job has allocated the following 16 nodes:
c117 c117 c117 c117 c117 c117 c117 c117 c112 c112 c112 c112 c112 c112 c112 c112
Finished epilogue job 340913.audhumbla.fysik.dtu.dk for zhonxu