     Program PWSCF v.5.0.2 (svn rev. 9656) starts on 31Jan2014 at 16:40:51

     Current dimensions of program PWSCF are:
     Max number of different atomic species (ntypx) = 10
     Max number of k-points (npk) =  40000
     Max angular momentum in pseudopotentials (lmaxx) =  3
     Waiting for input...
     Reading input from standard input

     Subspace diagonalization in iterative solution of the eigenvalue problem:
     a serial algorithm will be used

     bravais-lattice index     =            0
     lattice parameter (alat)  =       8.8252  a.u.
     unit-cell volume          =     442.9472 (a.u.)^3
     number of atoms/cell      =            6
     number of atomic types    =            2
     number of electrons       =        54.00
     number of Kohn-Sham states=           78
     kinetic-energy cutoff     =      40.0000  Ry
     charge density cutoff     =     500.0000  Ry
     convergence threshold     =      1.0E-06
     mixing beta               =       0.3000
     number of iterations used =            8  plain     mixing
     Exchange-correlation      = SLA  PW   PBE  PBE ( 1 4 3 4 0)
     EXX-fraction              =        0.00
     nstep                     =           50

     celldm(1)=   8.825151  celldm(2)=   0.000000  celldm(3)=   0.000000
     celldm(4)=   0.000000  celldm(5)=   0.000000  celldm(6)=   0.000000

     crystal axes: (cart. coord. in units of alat)
               a(1) = (   1.000000   0.000000   0.000000 )
               a(2) = (   0.000000   1.000000   0.000000 )
               a(3) = (   0.000000   0.000000   0.644444 )

     reciprocal axes: (cart. coord. in units 2 pi/alat)
               b(1) = (  1.000000  0.000000  0.000000 )
               b(2) = (  0.000000  1.000000  0.000000 )
               b(3) = (  0.000000  0.000000  1.551724 )

     PseudoPot. # 1 for Ir read from file:
     /home/camp/zhonxu/pseudo/ir_pbe_v1.uspp.F.UPF
     MD5 check sum: abf987a9674477536ede83817f8f8b70
     Pseudo is Ultrasoft + core correction, Zval = 15.0
     Generated by new atomic code, or converted to UPF format
     Using radial grid of  983 points,  7 beta functions with:
                l(1) =   0
                l(2) =   0
                l(3) =   1
                l(4) =   1
                l(5) =   1
                l(6) =   2
                l(7) =   2
     Q(r) pseudized with  8 coefficients,  rinner =    1.350   1.350   1.350
                                                       1.350   1.350

     PseudoPot. # 2 for O  read from file:
     /home/camp/zhonxu/pseudo/o_pbe_v1.01.uspp.F.UPF
     MD5 check sum: 2bcb18d16ea4b960afae9ec6d52f22d2
     Pseudo is Ultrasoft + core correction, Zval =  6.0
     Generated by new atomic code, or converted to UPF format
     Using radial grid of  737 points,  5 beta functions with:
                l(1) =   0
                l(2) =   0
                l(3) =   1
                l(4) =   1
                l(5) =   2
     Q(r) pseudized with  8 coefficients,  rinner =    0.900   0.900   0.900
                                                       0.900   0.900

     atomic species   valence    mass     pseudopotential
        Ir0           15.00   192.22000     Ir( 1.00)
        O1             6.00    15.99940     O ( 1.00)

     Starting magnetic structure
     atomic species   magnetization
        Ir0          0.000
        O1           0.000

      8 Sym. Ops., with inversion, found
          (note:  8 additional sym.ops. were found but ignored
           their fractional translations are incommensurate with FFT grid)

   Cartesian axes

     site n.     atom                  positions (alat units)
         1           Ir0 tau(   1) = (   0.0000000   0.0000000   0.0000000  )
         2           Ir0 tau(   2) = (   0.5000000   0.5000000   0.3222222  )
         3           O1  tau(   3) = (   0.3050000   0.3050000   0.0000000  )
         4           O1  tau(   4) = (  -0.3050000  -0.3050000   0.0000000  )
         5           O1  tau(   5) = (   0.8050000   0.1950000   0.3222222  )
         6           O1  tau(   6) = (   0.1950000   0.8050000   0.3222222  )

     number of k points=    54  Methfessel-Paxton smearing, width (Ry)=  0.0100
                       cart. coord. in units 2pi/alat
        k(    1) = (   0.0000000   0.0000000   0.0000000), wk =   0.0080000
        k(    2) = (   0.0000000   0.0000000   0.3103448), wk =   0.0160000
        k(    3) = (   0.0000000   0.0000000   0.6206897), wk =   0.0160000
        k(    4) = (   0.0000000   0.2000000   0.0000000), wk =   0.0320000
        k(    5) = (   0.0000000   0.2000000   0.3103448), wk =   0.0640000
        k(    6) = (   0.0000000   0.2000000   0.6206897), wk =   0.0640000
        k(    7) = (   0.0000000   0.4000000   0.0000000), wk =   0.0320000
        k(    8) = (   0.0000000   0.4000000   0.3103448), wk =   0.0640000
        k(    9) = (   0.0000000   0.4000000   0.6206897), wk =   0.0640000
        k(   10) = (   0.2000000   0.2000000   0.0000000), wk =   0.0160000
        k(   11) = (   0.2000000   0.2000000   0.3103448), wk =   0.0320000
        k(   12) = (   0.2000000   0.2000000   0.6206897), wk =   0.0320000
        k(   13) = (   0.2000000   0.4000000   0.0000000), wk =   0.0320000
        k(   14) = (   0.2000000   0.4000000   0.3103448), wk =   0.0640000
        k(   15) = (   0.2000000   0.4000000   0.6206897), wk =   0.0640000
        k(   16) = (   0.4000000   0.4000000   0.0000000), wk =   0.0160000
        k(   17) = (   0.4000000   0.4000000   0.3103448), wk =   0.0320000
        k(   18) = (   0.4000000   0.4000000   0.6206897), wk =   0.0320000
        k(   19) = (  -0.2000000   0.2000000   0.0000000), wk =   0.0160000
        k(   20) = (  -0.2000000   0.2000000  -0.3103448), wk =   0.0320000
        k(   21) = (  -0.2000000   0.2000000  -0.6206897), wk =   0.0320000
        k(   22) = (  -0.2000000   0.4000000   0.0000000), wk =   0.0320000
        k(   23) = (  -0.2000000   0.4000000  -0.3103448), wk =   0.0640000
        k(   24) = (  -0.2000000   0.4000000  -0.6206897), wk =   0.0640000
        k(   25) = (  -0.4000000   0.4000000   0.0000000), wk =   0.0160000
        k(   26) = (  -0.4000000   0.4000000  -0.3103448), wk =   0.0320000
        k(   27) = (  -0.4000000   0.4000000  -0.6206897), wk =   0.0320000
        k(   28) = (   0.0000000   0.0000000   0.0000000), wk =   0.0080000
        k(   29) = (   0.0000000   0.0000000   0.3103448), wk =   0.0160000
        k(   30) = (   0.0000000   0.0000000   0.6206897), wk =   0.0160000
        k(   31) = (   0.0000000   0.2000000   0.0000000), wk =   0.0320000
        k(   32) = (   0.0000000   0.2000000   0.3103448), wk =   0.0640000
        k(   33) = (   0.0000000   0.2000000   0.6206897), wk =   0.0640000
        k(   34) = (   0.0000000   0.4000000   0.0000000), wk =   0.0320000
        k(   35) = (   0.0000000   0.4000000   0.3103448), wk =   0.0640000
        k(   36) = (   0.0000000   0.4000000   0.6206897), wk =   0.0640000
        k(   37) = (   0.2000000   0.2000000   0.0000000), wk =   0.0160000
        k(   38) = (   0.2000000   0.2000000   0.3103448), wk =   0.0320000
        k(   39) = (   0.2000000   0.2000000   0.6206897), wk =   0.0320000
        k(   40) = (   0.2000000   0.4000000   0.0000000), wk =   0.0320000
        k(   41) = (   0.2000000   0.4000000   0.3103448), wk =   0.0640000
        k(   42) = (   0.2000000   0.4000000   0.6206897), wk =   0.0640000
        k(   43) = (   0.4000000   0.4000000   0.0000000), wk =   0.0160000
        k(   44) = (   0.4000000   0.4000000   0.3103448), wk =   0.0320000
        k(   45) = (   0.4000000   0.4000000   0.6206897), wk =   0.0320000
        k(   46) = (  -0.2000000   0.2000000   0.0000000), wk =   0.0160000
        k(   47) = (  -0.2000000   0.2000000  -0.3103448), wk =   0.0320000
        k(   48) = (  -0.2000000   0.2000000  -0.6206897), wk =   0.0320000
        k(   49) = (  -0.2000000   0.4000000   0.0000000), wk =   0.0320000
        k(   50) = (  -0.2000000   0.4000000  -0.3103448), wk =   0.0640000
        k(   51) = (  -0.2000000   0.4000000  -0.6206897), wk =   0.0640000
        k(   52) = (  -0.4000000   0.4000000   0.0000000), wk =   0.0160000
        k(   53) = (  -0.4000000   0.4000000  -0.3103448), wk =   0.0320000
        k(   54) = (  -0.4000000   0.4000000  -0.6206897), wk =   0.0320000

     Largest allocated arrays     est. size (Mb)     dimensions
     Largest temporary arrays     est. size (Mb)     dimensions

     Check: negative/imaginary core charge=   -0.000005    0.000000

     Initial potential from superposition of free atoms
     Check: negative starting charge=(component1):   -0.416745
     Check: negative starting charge=(component2):   -0.416745

     starting charge   52.99993, renormalised to   54.00000

     negative rho (up, down):  0.425E+00 0.425E+00
     Starting wfc are   40 randomized atomic wfcs

     Self-consistent Calculation

     iteration #  1     ecut=    40.00 Ry     beta=0.30
     Davidson diagonalization with overlap
     ethr =  1.00E-02,  avg # of iterations =  5.1

     negative rho (up, down):  0.400E+00 0.400E+00

     total energy              =    -500.47424251 Ry
     Harris-Foulkes estimate   =    -502.39347684 Ry
     estimated scf accuracy    <       4.18910016 Ry

     total magnetization       =    -0.00 Bohr mag/cell
     absolute magnetization    =     0.00 Bohr mag/cell

[...]

     End of self-consistent calculation

 ------ SPIN UP ------------

          k = 0.0000 0.0000 0.0000 (  1899 PWs)   bands (ev):

   -36.7994 -36.7993 -36.6536 -36.6536 -36.5931 -36.5817  -7.4552  -6.3044
    -5.3883  -5.3882   3.8567   4.1698   5.7997   5.8785   5.8785   8.4464
     8.4464   8.9297  10.1512  10.5658  10.5658  10.7019  10.7428  11.0477
    11.4152  11.4152  11.8214  14.0793  14.7768  17.5193  17.7006  17.7006
    19.0538  22.2901  22.2901  23.1638  23.1640  25.2756  26.0331  26.1507
    28.7863  29.4795  29.4795  30.2244  31.0791  33.2322  34.0577  34.0577
    35.2536  35.2536  36.7147  39.2637  39.4886  39.5264  39.5264  41.6021
    41.6797  42.0454  42.3009  43.5863  43.5864  43.8441  44.1222  44.1222
    44.8735  44.8736  45.1819  47.1093  48.7116  50.4717  50.4717  50.9536
    51.5160  51.6807  51.6807  52.5263  52.9830  52.9831

[...]

          k =-0.2000 0.2000 0.0000 (  1907 PWs)   bands (ev):

[...]

 ------ SPIN DOWN ----------

[...]

     the Fermi energy is    13.5568 ev

!    total energy              =    -501.25410391 Ry
     Harris-Foulkes estimate   =    -501.25409953 Ry
     estimated scf accuracy    <       0.00000023 Ry

     The total energy is the sum of the following terms:

     one-electron contribution =    -108.44866435 Ry
     hartree contribution      =      91.06715252 Ry
     xc contribution           =    -138.23334328 Ry
     ewald contribution        =    -345.63896732 Ry
     smearing contrib. (-TS)   =      -0.00028148 Ry

[...]

     convergence has been achieved in   9 iterations

     Forces acting on atoms (Ry/au):

     negative rho (up, down):  0.390E+00 0.390E+00
     atom    1 type  1   force =     0.00000000    0.00000000    0.00000000
[...]
        k(    8) = (  -0.0000003   0.4112004   0.2936686), wk =   0.0640000
        k(    9) = (  -0.0000003   0.4112004   0.5873371), wk =   0.0640000
        k(   10) = (   0.2056001   0.2056001   0.0000000), wk =   0.0160000
        k(   11) = (   0.2056001   0.2056001   0.2936686), wk =   0.0320000
        k(   12) = (   0.2056001   0.2056001   0.5873371), wk =   0.0320000
        k(   13) = (   0.2055999   0.4112003   0.0000000), wk =   0.0320000
        k(   14) = (   0.2055999   0.4112003   0.2936686), wk =   0.0640000
        k(   15) = (   0.2055999   0.4112003   0.5873371), wk =   0.0640000
        k(   16) = (   0.4112001   0.4112001   0.0000000), wk =   0.0160000
        k(   17) = (   0.4112001   0.4112001   0.2936686), wk =   0.0320000
        k(   18) = (   0.4112001   0.4112001   0.5873371), wk =   0.0320000
        k(   19) = (  -0.2056003   0.2056003   0.0000000), wk =   0.0160000
        k(   20) = (  -0.2056003   0.2056003  -0.2936686), wk =   0.0320000
        k(   21) = (  -0.2056003   0.2056003  -0.5873371), wk =   0.0320000
        k(   22) = (  -0.2056005   0.4112005   0.0000000), wk =   0.0320000
        k(   23) = (  -0.2056005   0.4112005  -0.2936686), wk =   0.0640000
        k(   24) = (  -0.2056005   0.4112005  -0.5873371), wk =   0.0640000
        k(   25) = (  -0.4112007   0.4112007   0.0000000), wk =   0.0160000
        k(   26) = (  -0.4112007   0.4112007  -0.2936686), wk =   0.0320000
        k(   27) = (  -0.4112007   0.4112007  -0.5873371), wk =   0.0320000
        k(   28) = (   0.0000000   0.0000000   0.0000000), wk =   0.0080000
        k(   29) = (   0.0000000   0.0000000   0.2936686), wk =   0.0160000
        k(   30) = (   0.0000000   0.0000000   0.5873371), wk =   0.0160000
        k(   31) = (  -0.0000001   0.2056002   0.0000000), wk =   0.0320000
        k(   32) = (  -0.0000001   0.2056002   0.2936686), wk =   0.0640000
        k(   33) = (  -0.0000001   0.2056002   0.5873371), wk =   0.0640000
        k(   34) = (  -0.0000003   0.4112004   0.0000000), wk =   0.0320000
        k(   35) = (  -0.0000003   0.4112004   0.2936686), wk =   0.0640000
        k(   36) = (  -0.0000003   0.4112004   0.5873371), wk =   0.0640000
        k(   37) = (   0.2056001   0.2056001   0.0000000), wk =   0.0160000
        k(   38) = (   0.2056001   0.2056001   0.2936686), wk =   0.0320000
        k(   39) = (   0.2056001   0.2056001   0.5873371), wk =   0.0320000
        k(   40) = (   0.2055999   0.4112003   0.0000000), wk =   0.0320000
        k(   41) = (   0.2055999   0.4112003   0.2936686), wk =   0.0640000
        k(   42) = (   0.2055999   0.4112003   0.5873371), wk =   0.0640000
        k(   43) = (   0.4112001   0.4112001   0.0000000), wk =   0.0160000
        k(   44) = (   0.4112001   0.4112001   0.2936686), wk =   0.0320000
        k(   45) = (   0.4112001   0.4112001   0.5873371), wk =   0.0320000
        k(   46) = (  -0.2056003   0.2056003   0.0000000), wk =   0.0160000
        k(   47) = (  -0.2056003   0.2056003  -0.2936686), wk =   0.0320000
        k(   48) = (  -0.2056003   0.2056003  -0.5873371), wk =   0.0320000
        k(   49) = (  -0.2056005   0.4112005   0.0000000), wk =   0.0320000
        k(   50) = (  -0.2056005   0.4112005  -0.2936686), wk =   0.0640000
        k(   51) = (  -0.2056005   0.4112005  -0.5873371), wk =   0.0640000
        k(   52) = (  -0.4112007   0.4112007   0.0000000), wk =   0.0160000
        k(   53) = (  -0.4112007   0.4112007  -0.2936686), wk =   0.0320000
        k(   54) = (  -0.4112007   0.4112007  -0.5873371), wk =   0.0320000

     Check: negative/imaginary core charge=   -0.000004    0.000000
     Check: negative starting charge=(component1):   -0.833206

[...]

     Threshold (ethr) on eigenvalues was too large:
     Diagonalizing with lowered threshold

     Davidson diagonalization with overlap
     ethr =  2.37E-09,  avg # of iterations =  2.0

[...]

     Total force =     0.000039     Total SCF correction =     0.000108
     SCF correction compared to forces is large: reduce conv_thr to get better values

[...]

     Volume is kept fixed: isostatic pressure set to zero

     bfgs converged in   6 scf cycles and   5 bfgs steps
     (criteria: energy < 0.10E-03, force < 0.10E-02, cell < 0.50E+00)

     End of BFGS Geometry Optimization

     Final enthalpy =    -501.2766149170 Ry
Begin final coordinates
     new unit-cell volume =    442.94719 a.u.^3 (    65.63800 Ang^3 )

CELL_PARAMETERS (alat=  8.82515118)
   0.972761704   0.000000668   0.000000000
   0.000000668   0.972761704   0.000000000
   0.000000000   0.000000000   0.681039897

ATOMIC_POSITIONS (crystal)
Ir0      0.000000000   0.000000000   0.000000000    0   0   0
Ir0      0.500000000   0.500000000   0.500000000    0   0   0
O1       0.308487724   0.308487724   0.000000000    1   1   0
O1      -0.308487724  -0.308487724   0.000000000    1   1   0
O1       0.808484854   0.191515146   0.500000000    1   1   0
O1       0.191515146   0.808484854   0.500000000    1   1   0
End final coordinates

     A final scf calculation at the relaxed structure.
     The G-vectors are recalculated for the final unit cell
     Results may differ from those at the preceding step.

     bravais-lattice index     =            0
     lattice parameter (alat)  =       8.8252  a.u.
     unit-cell volume          =     442.9472 (a.u.)^3
     number of atoms/cell      =            6
     number of atomic types    =            2
     number of electrons       =        54.00
     number of Kohn-Sham states=           78
     kinetic-energy cutoff     =      40.0000  Ry
     charge density cutoff     =     500.0000  Ry
     convergence threshold     =      1.0E-08
     mixing beta               =       0.3000
     number of iterations used =            8  plain     mixing
     Exchange-correlation      = SLA  PW   PBE  PBE ( 1 4 3 4 0)
     EXX-fraction              =        0.00

     celldm(1)=   8.825151  celldm(2)=   0.000000  celldm(3)=   0.000000
     celldm(4)=   0.000000  celldm(5)=   0.000000  celldm(6)=   0.000000

     crystal axes: (cart. coord. in units of alat)
               a(1) = (   0.972762   0.000001   0.000000 )
               a(2) = (   0.000001   0.972762   0.000000 )
               a(3) = (   0.000000   0.000000   0.681040 )

     reciprocal axes: (cart. coord. in units 2 pi/alat)
               b(1) = (  1.028001 -0.000001  0.000000 )
               b(2) = ( -0.000001  1.028001  0.000000 )
               b(3) = (  0.000000  0.000000  1.468343 )

     PseudoPot. # 1 for Ir read from file:
     /home/camp/zhonxu/pseudo/ir_pbe_v1.uspp.F.UPF
     MD5 check sum: abf987a9674477536ede83817f8f8b70
     Pseudo is Ultrasoft + core correction, Zval = 15.0
     Generated by new atomic code, or converted to UPF format
     Using radial grid of  983 points,  7 beta functions with:
                l(1) =   0
                l(2) =   0
                l(3) =   1
                l(4) =   1
                l(5) =   1
                l(6) =   2
                l(7) =   2
     Q(r) pseudized with  8 coefficients,  rinner =    1.350   1.350   1.350
                                                       1.350   1.350

     PseudoPot. # 2 for O  read from file:
     /home/camp/zhonxu/pseudo/o_pbe_v1.01.uspp.F.UPF
     MD5 check sum: 2bcb18d16ea4b960afae9ec6d52f22d2
     Pseudo is Ultrasoft + core correction, Zval =  6.0
     Generated by new atomic code, or converted to UPF format
     Using radial grid of  737 points,  5 beta functions with:
                l(1) =   0
                l(2) =   0
                l(3) =   1
                l(4) =   1
                l(5) =   2
     Q(r) pseudized with  8 coefficients,  rinner =    0.900   0.900   0.900
                                                       0.900   0.900

     atomic species   valence    mass     pseudopotential
        Ir0           15.00   192.22000     Ir( 1.00)
        O1             6.00    15.99940     O ( 1.00)

     Starting magnetic structure
     atomic species   magnetization
        Ir0          0.000
        O1           0.000

      8 Sym. Ops., with inversion, found
          (note:  8 additional sym.ops. were found but ignored
           their fractional translations are incommensurate with FFT grid)

   Cartesian axes

     site n.     atom                  positions (alat units)
         1           Ir0 tau(   1) = (   0.0000000   0.0000000   0.0000000  )
         2           Ir0 tau(   2) = (   0.4863812   0.4863812   0.3405199  )
         3           O1  tau(   3) = (   0.3000852   0.3000852   0.0000000  )
         4           O1  tau(   4) = (  -0.3000852  -0.3000852   0.0000000  )
         5           O1  tau(   5) = (   0.7864632   0.1862991   0.3405199  )
         6           O1  tau(   6) = (   0.1862991   0.7864632   0.3405199  )

     number of k points=    54  Methfessel-Paxton smearing, width (Ry)=  0.0100
                       cart. coord. in units 2pi/alat
        k(    1) = (   0.0000000   0.0000000   0.0000000), wk =   0.0080000
        k(    2) = (   0.0000000   0.0000000   0.2936686), wk =   0.0160000
        k(    3) = (   0.0000000   0.0000000   0.5873371), wk =   0.0160000
        k(    4) = (  -0.0000001   0.2056002   0.0000000), wk =   0.0320000
        k(    5) = (  -0.0000001   0.2056002   0.2936686), wk =   0.0640000
        k(    6) = (  -0.0000001   0.2056002   0.5873371), wk =   0.0640000
        k(    7) = (  -0.0000003   0.4112004   0.0000000), wk =   0.0320000
        k(    8) = (  -0.0000003   0.4112004   0.2936686), wk =   0.0640000
        k(    9) = (  -0.0000003   0.4112004   0.5873371), wk =   0.0640000
        k(   10) = (   0.2056001   0.2056001   0.0000000), wk =   0.0160000
        k(   11) = (   0.2056001   0.2056001   0.2936686), wk =   0.0320000
        k(   12) = (   0.2056001   0.2056001   0.5873371), wk =   0.0320000
        k(   13) = (   0.2055999   0.4112003   0.0000000), wk =   0.0320000
        k(   14) = (   0.2055999   0.4112003   0.2936686), wk =   0.0640000
        k(   15) = (   0.2055999   0.4112003   0.5873371), wk =   0.0640000
        k(   16) = (   0.4112001   0.4112001   0.0000000), wk =   0.0160000
        k(   17) = (   0.4112001   0.4112001   0.2936686), wk =   0.0320000
        k(   18) = (   0.4112001   0.4112001   0.5873371), wk =   0.0320000
        k(   19) = (  -0.2056003   0.2056003   0.0000000), wk =   0.0160000
        k(   20) = (  -0.2056003   0.2056003  -0.2936686), wk =   0.0320000
        k(   21) = (  -0.2056003   0.2056003  -0.5873371), wk =   0.0320000
        k(   22) = (  -0.2056005   0.4112005   0.0000000), wk =   0.0320000
        k(   23) = (  -0.2056005   0.4112005  -0.2936686), wk =   0.0640000
        k(   24) = (  -0.2056005   0.4112005  -0.5873371), wk =   0.0640000
        k(   25) = (  -0.4112007   0.4112007   0.0000000), wk =   0.0160000
        k(   26) = (  -0.4112007   0.4112007  -0.2936686), wk =   0.0320000
        k(   27) = (  -0.4112007   0.4112007  -0.5873371), wk =   0.0320000
        k(   28) = (   0.0000000   0.0000000   0.0000000), wk =   0.0080000
        k(   29) = (   0.0000000   0.0000000   0.2936686), wk =   0.0160000
        k(   30) = (   0.0000000   0.0000000   0.5873371), wk =   0.0160000
        k(   31) = (  -0.0000001   0.2056002   0.0000000), wk =   0.0320000
        k(   32) = (  -0.0000001   0.2056002   0.2936686), wk =   0.0640000
        k(   33) = (  -0.0000001   0.2056002   0.5873371), wk =   0.0640000
        k(   34) = (  -0.0000003   0.4112004   0.0000000), wk =   0.0320000
        k(   35) = (  -0.0000003   0.4112004   0.2936686), wk =   0.0640000
        k(   36) = (  -0.0000003   0.4112004   0.5873371), wk =   0.0640000
        k(   37) = (   0.2056001   0.2056001   0.0000000), wk =   0.0160000
        k(   38) = (   0.2056001   0.2056001   0.2936686), wk =   0.0320000
        k(   39) = (   0.2056001   0.2056001   0.5873371), wk =   0.0320000
        k(   40) = (   0.2055999   0.4112003   0.0000000), wk =   0.0320000
        k(   41) = (   0.2055999   0.4112003   0.2936686), wk =   0.0640000
        k(   42) = (   0.2055999   0.4112003   0.5873371), wk =   0.0640000
        k(   43) = (   0.4112001   0.4112001   0.0000000), wk =   0.0160000
        k(   44) = (   0.4112001   0.4112001   0.2936686), wk =   0.0320000
        k(   45) = (   0.4112001   0.4112001   0.5873371), wk =   0.0320000
        k(   46) = (  -0.2056003   0.2056003   0.0000000), wk =   0.0160000
        k(   47) = (  -0.2056003   0.2056003  -0.2936686), wk =   0.0320000
        k(   48) = (  -0.2056003   0.2056003  -0.5873371), wk =   0.0320000
        k(   49) = (  -0.2056005   0.4112005   0.0000000), wk =   0.0320000
        k(   50) = (  -0.2056005   0.4112005  -0.2936686), wk =   0.0640000
        k(   51) = (  -0.2056005   0.4112005  -0.5873371), wk =   0.0640000
        k(   52) = (  -0.4112007   0.4112007   0.0000000), wk =   0.0160000
        k(   53) = (  -0.4112007   0.4112007  -0.2936686), wk =   0.0320000
        k(   54) = (  -0.4112007   0.4112007  -0.5873371), wk =   0.0320000

     Largest allocated arrays     est. size (Mb)     dimensions
     Largest temporary arrays     est. size (Mb)     dimensions

     Check: negative/imaginary core charge=   -0.000005    0.000000

     Initial potential from superposition of free atoms
     Check: negative starting charge=(component1):   -0.416604
     Check: negative starting charge=(component2):   -0.416604

     starting charge   52.99993, renormalised to   54.00000

     negative rho (up, down):  0.424E+00 0.424E+00
     Starting wfc are   40 randomized atomic wfcs

     Self-consistent Calculation

[...]

     total energy              =    -501.27709318 Ry
     Harris-Foulkes estimate   =    -501.27709203 Ry
     estimated scf accuracy    <       0.00000003 Ry

[...]

     iteration # 11     ecut=    40.00 Ry     beta=0.30
     Davidson diagonalization with overlap
     ethr =  5.47E-11,  avg # of iterations =  1.0

     negative rho (up, down):  0.391E+00 0.391E+00

     End of self-consistent calculation

 ------ SPIN UP ------------

[...]

 ------ SPIN DOWN ----------

[...]

          k = 0.4112 0.4112 0.5873 (  1899 PWs)   bands (ev):

[...]

          k =-0.4112 0.4112-0.5873 (  1899 PWs)   bands (ev):

   -36.8244 -36.8211 -36.8050 -36.8015 -36.5641 -36.5640  -6.0818  -6.0222
    -5.8071  -5.7680   5.3050   5.3851   5.8262   5.9147   6.4501   6.8319
     8.0812   8.1173   9.0753   9.2798   9.9799  10.3326  11.8161  11.8754
    11.9043  12.5638  12.9343  13.5005  15.3086  15.8614  16.6738  17.2162
    22.5909  23.1182  23.1205  23.1802  23.3248  23.4276  24.9536  25.3322
    26.5031  27.1051  30.2202  30.2271  32.1641  32.7270  33.7657  34.5546
    35.2372  35.5640  35.5810  37.0054  39.6207  39.9893  40.0187  40.1189
    41.3612  42.0920  43.3516  44.5022  44.8581  45.0431  45.5867  45.9555
    46.3762  46.3917  47.3286  47.7441  48.4502  49.2846  49.3076  50.0471
    50.2980  51.1217  51.2809  51.9172  52.4511  53.2166

     the Fermi energy is    13.5415 ev

!    total energy              =    -501.27709431 Ry
     Harris-Foulkes estimate   =    -501.27709319 Ry
     estimated scf accuracy    <          3.6E-09 Ry

     The total energy is the sum of the following terms:

     one-electron contribution =    -103.39310217 Ry
     hartree contribution      =      88.53222856 Ry
     xc contribution           =    -138.14344942 Ry
     ewald contribution        =    -348.27200942 Ry
     smearing contrib. (-TS)   =      -0.00076185 Ry

     total magnetization       =    -0.00 Bohr mag/cell
     absolute magnetization    =     0.00 Bohr mag/cell

     convergence has been achieved in  11 iterations

     Forces acting on atoms (Ry/au):

     negative rho (up, down):  0.391E+00 0.391E+00
     atom    1 type  1   force =     0.00000000    0.00000000    0.00000000
     atom    2 type  1   force =     0.00000000    0.00000000    0.00000000
     atom    3 type  2   force =     0.00002276    0.00002276    0.00000000
     atom    4 type  2   force =    -0.00002276   -0.00002276    0.00000000
     atom    5 type  2   force =     0.00003848   -0.00003848    0.00000000
     atom    6 type  2   force =    -0.00003848    0.00003848    0.00000000

     Total force =     0.000089     Total SCF correction =     0.000007

     entering subroutine stress ...

     negative rho (up, down):  0.391E+00 0.391E+00
          total   stress  (Ry/bohr**3)                   (kbar)     P=  -24.18
  -0.00017628   0.00000002   0.00000000        -25.93      0.00      0.00
   0.00000002  -0.00017628   0.00000000          0.00    -25.93      0.00
   0.00000000   0.00000000  -0.00014058          0.00      0.00    -20.68

     General routines

     Parallel routines

   This run was terminated on:  18:22: 6  31Jan2014

   JOB DONE.