     Program PWSCF v.5.0.2 (svn rev. 9656) starts on 28Apr2014 at 13:55:13

     Current dimensions of program PWSCF are:
     Max number of different atomic species (ntypx) = 10
     Max number of k-points (npk) =  40000
     Max angular momentum in pseudopotentials (lmaxx) =  3
     Reading input from pwscf.in
Warning: card &CELL ignored
Warning: card / ignored

     Subspace diagonalization in iterative solution of the eigenvalue problem:
     a serial algorithm will be used

     bravais-lattice index     =            0
     lattice parameter (alat)  =      11.2250  a.u.
     unit-cell volume          =    7005.5484 (a.u.)^3
     number of atoms/cell      =           31
     number of atomic types    =            3
     number of electrons       =       214.00
     number of Kohn-Sham states=          309
     kinetic-energy cutoff     =      40.0000  Ry
     charge density cutoff     =     500.0000  Ry
     convergence threshold     =      1.0E-06
     mixing beta               =       0.7000
     number of iterations used =            8  plain     mixing
     Exchange-correlation      = SLA  PW   PBE  PBE ( 1 4 3 4 0)
     EXX-fraction              =        0.00
     nstep                     =           50

     celldm(1)=  11.224973  celldm(2)=   0.000000  celldm(3)=   0.000000
     celldm(4)=   0.000000  celldm(5)=   0.000000  celldm(6)=   0.000000

     crystal axes: (cart. coord. in units of alat)
               a(1) = (   1.000000   0.000000   0.000000 )
               a(2) = (   0.000000   1.107086   0.000000 )
               a(3) = (   0.000000   0.000000   4.474090 )

     reciprocal axes: (cart. coord. in units 2 pi/alat)
               b(1) = (  1.000000  0.000000  0.000000 )
               b(2) = (  0.000000  0.903272  0.000000 )
               b(3) = (  0.000000  0.000000  0.223509 )

     PseudoPot. # 1 for O  read from file:
     /home/camp/zhonxu/pseudo/o_pbe_v1.01.uspp.F.UPF
     MD5 check sum: 2bcb18d16ea4b960afae9ec6d52f22d2
     Pseudo is Ultrasoft + core correction, Zval =  6.0
     Generated by new atomic code, or converted to UPF format
     Using radial grid of  737 points,  5 beta functions with:
                l(1) =   0
                l(2) =   0
                l(3) =   1
                l(4) =   1
                l(5) =   2
     Q(r) pseudized with  8 coefficients,  rinner =    0.900   0.900   0.900
                                                       0.900   0.900

     PseudoPot. # 2 for Ti read from file:
     /home/camp/zhonxu/pseudo/ti_pbe_v1.uspp.F.UPF
     MD5 check sum: bcc8f6961b3b91f0cac3ca967d22d0fb
     Pseudo is Ultrasoft + core correction, Zval = 12.0
     Generated by new atomic code, or converted to UPF format
     Using radial grid of  851 points,  6 beta functions with:
                l(1) =   0
                l(2) =   0
                l(3) =   1
                l(4) =   1
                l(5) =   2
                l(6) =   2
     Q(r) pseudized with  6 coefficients,  rinner =    1.000   1.000   1.000
                                                       1.000   1.000

     PseudoPot. # 3 for H  read from file:
     /home/camp/zhonxu/pseudo/h_pbe_v1.uspp.F.UPF
     MD5 check sum: 3408e3ff4ec8b0a4e358431e7e038a48
     Pseudo is Ultrasoft, Zval =  1.0
     Generated by new atomic code, or converted to UPF format
     Using radial grid of  615 points,  2 beta functions with:
                l(1) =   0
                l(2) =   0
     Q(r) pseudized with  8 coefficients,  rinner =    0.700

     atomic species   valence    mass     pseudopotential
        O0             6.00    15.99940     O ( 1.00)
        Ti1           12.00    47.88000     Ti( 1.00)
        H2             1.00     1.00794     H ( 1.00)

     Simplified LDA+U calculation (l_max = 2) with parameters (eV):
     atomic species    L          U    alpha       J0     beta
        Ti1            2     5.5000   0.0000   0.0000   0.0000

     No symmetry found

   Cartesian axes

     site n.     atom                  positions (alat units)
         1           O0  tau(   1) = (   0.0000000   0.0000000   1.6912507  )
         2           O0  tau(   2) = (   0.0000000   0.5535432   1.7801061  )
         3           Ti1 tau(   3) = (   0.2500000   0.5535432   2.0136983  )
         4           Ti1 tau(   4) = (   0.0000000   0.0000000   2.0256889  )
         5           O0  tau(   5) = (   0.2500000   0.8967400   2.0101638  )
         6           O0  tau(   6) = (   0.2500000   0.2103464   2.0140115  )
         7           O0  tau(   7) = (   0.0000000   0.5535432   2.2264413  )
         8           O0  tau(   8) = (   0.0000000   0.0000000   2.3510894  )
         9           Ti1 tau(   9) = (   0.2500000   0.0000000   2.5997146  )
        10           Ti1 tau(  10) = (   0.0000000   0.5535432   2.5433858  )
        11           O0  tau(  11) = (   0.2500000   0.7638896   2.5969406  )
        12           O0  tau(  12) = (   0.2500000   0.3431968   2.5970301  )
        13           O0  tau(  13) = (   0.0000000   0.0000000   2.7842260  )
        14           O0  tau(  14) = (   0.5000000   0.0000000   1.6905348  )
        15           O0  tau(  15) = (   0.5000000   0.5535432   1.7767953  )
        16           Ti1 tau(  16) = (   0.7500000   0.5535432   2.0136983  )
        17           Ti1 tau(  17) = (   0.5000000   0.0000000   2.0204542  )
        18           O0  tau(  18) = (   0.7500000   0.8967400   2.0103875  )
        19           O0  tau(  19) = (   0.7500000   0.2103464   2.0134299  )
        20           O0  tau(  20) = (   0.5000000   0.5535432   2.2001336  )
        21           O0  tau(  21) = (   0.5000000   0.0000000   2.3501946  )
        22           Ti1 tau(  22) = (   0.7500000   0.0000000   2.5996698  )
        23           Ti1 tau(  23) = (   0.5000000   0.5535432   2.6765794  )
        24           O0  tau(  24) = (   0.7500000   0.7638896   2.5974328  )
        25           O0  tau(  25) = (   0.7500000   0.3431968   2.5965380  )
        26           O0  tau(  26) = (   0.5000000   0.0000000   2.7806915  )
        27           H2  tau(  27) = (  -0.0007400   0.6861389   1.6797970  )
        28           H2  tau(  28) = (   0.4994200   0.6816995   1.6713410  )
        29           H2  tau(  29) = (   0.1486600   0.0377184   1.6265106  )
        30           H2  tau(  30) = (   0.6489300   0.0363456   1.6257052  )
        31           O0  tau(  31) = (   0.4999900   0.5533882   2.9590287  )

     number of k points=    10  Methfessel-Paxton smearing, width (Ry)=  0.0100
                       cart. coord. in units 2pi/alat
        k(    1) = (   0.0000000   0.0000000   0.0000000), wk =   0.1250000
        k(    2) = (   0.0000000   0.2258180   0.0000000), wk =   0.2500000
        k(    3) = (   0.0000000  -0.4516359   0.0000000), wk =   0.1250000
        k(    4) = (   0.2500000   0.0000000   0.0000000), wk =   0.2500000
        k(    5) = (   0.2500000   0.2258180   0.0000000), wk =   0.2500000
        k(    6) = (   0.2500000  -0.4516359   0.0000000), wk =   0.2500000
        k(    7) = (  -0.5000000   0.0000000   0.0000000), wk =   0.1250000
        k(    8) = (  -0.5000000   0.2258180   0.0000000), wk =   0.2500000
        k(    9) = (  -0.5000000  -0.4516359   0.0000000), wk =   0.1250000
        k(   10) = (  -0.2500000   0.2258180   0.0000000), wk =   0.2500000

     Largest allocated arrays     est. size (Mb)     dimensions
     Largest temporary arrays     est. size (Mb)     dimensions

     Check: negative/imaginary core charge=   -0.000006    0.000000

     Initial potential from superposition of free atoms
     Check: negative starting charge=   -0.102438

     starting charge  205.99958, renormalised to  214.00000

     negative rho (up, down):  0.106E+00 0.000E+00
     Number of +U iterations with fixed ns =  0
     Starting occupations:
 --- enter write_ns ---
 LDA+U parameters:
U( 2)     =  5.50000000
alpha( 2) =  0.00000000
atom    3   Tr[ns(na)] =   2.00000
    eigenvalues:
  0.200  0.200  0.200  0.200  0.200
    eigenvectors:
  1.000  0.000  0.000  0.000  0.000
  0.000  1.000  0.000  0.000  0.000
  0.000  0.000  1.000  0.000  0.000
  0.000  0.000  0.000  1.000  0.000
  0.000  0.000  0.000  0.000  1.000
    occupations:
  0.200  0.000  0.000  0.000  0.000
  0.000  0.200  0.000  0.000  0.000
  0.000  0.000  0.200  0.000  0.000
  0.000  0.000  0.000  0.200  0.000
  0.000  0.000  0.000  0.000  0.200
atom    4   Tr[ns(na)] =   2.00000
    eigenvalues:
  0.200  0.200  0.200  0.200  0.200
    eigenvectors:
  1.000  0.000  0.000  0.000  0.000
  0.000  1.000  0.000  0.000  0.000
  0.000  0.000  1.000  0.000  0.000
  0.000  0.000  0.000  1.000  0.000
  0.000  0.000  0.000  0.000  1.000
    occupations:
  0.200  0.000  0.000  0.000  0.000
  0.000  0.200  0.000  0.000  0.000
  0.000  0.000  0.200  0.000  0.000
  0.000  0.000  0.000  0.200  0.000
  0.000  0.000  0.000  0.000  0.200
atom    9   Tr[ns(na)] =   2.00000
    eigenvalues:
  0.200  0.200  0.200  0.200  0.200
    eigenvectors:
  1.000  0.000  0.000  0.000  0.000
  0.000  1.000  0.000  0.000  0.000
  0.000  0.000  1.000  0.000  0.000
  0.000  0.000  0.000  1.000  0.000
  0.000  0.000  0.000  0.000  1.000
    occupations:
  0.200  0.000  0.000  0.000  0.000
  0.000  0.200  0.000  0.000  0.000
  0.000  0.000  0.200  0.000  0.000
  0.000  0.000  0.000  0.200  0.000
  0.000  0.000  0.000  0.000  0.200
atom   10   Tr[ns(na)] =   2.00000
    eigenvalues:
  0.200  0.200  0.200  0.200  0.200
    eigenvectors:
  1.000  0.000  0.000  0.000  0.000
  0.000  1.000  0.000  0.000  0.000
  0.000  0.000  1.000  0.000  0.000
  0.000  0.000  0.000  1.000  0.000
  0.000  0.000  0.000  0.000  1.000
    occupations:
  0.200  0.000  0.000  0.000  0.000
  0.000  0.200  0.000  0.000  0.000
  0.000  0.000  0.200  0.000  0.000
  0.000  0.000  0.000  0.200  0.000
  0.000  0.000  0.000  0.000  0.200
atom   16   Tr[ns(na)] =   2.00000
    eigenvalues:
  0.200  0.200  0.200  0.200  0.200
    eigenvectors:
  1.000  0.000  0.000  0.000  0.000
  0.000  1.000  0.000  0.000  0.000
  0.000  0.000  1.000  0.000  0.000
  0.000  0.000  0.000  1.000  0.000
  0.000  0.000  0.000  0.000  1.000
    occupations:
  0.200  0.000  0.000  0.000  0.000
  0.000  0.200  0.000  0.000  0.000
  0.000  0.000  0.200  0.000  0.000
  0.000  0.000  0.000  0.200  0.000
  0.000  0.000  0.000  0.000  0.200
atom   17   Tr[ns(na)] =   2.00000
    eigenvalues:
  0.200  0.200  0.200  0.200  0.200
    eigenvectors:
  1.000  0.000  0.000  0.000  0.000
  0.000  1.000  0.000  0.000  0.000
  0.000  0.000  1.000  0.000  0.000
  0.000  0.000  0.000  1.000  0.000
  0.000  0.000  0.000  0.000  1.000
    occupations:
  0.200  0.000  0.000  0.000  0.000
  0.000  0.200  0.000  0.000  0.000
  0.000  0.000  0.200  0.000  0.000
  0.000  0.000  0.000  0.200  0.000
  0.000  0.000  0.000  0.000  0.200
atom   22   Tr[ns(na)] =   2.00000
    eigenvalues:
  0.200  0.200  0.200  0.200  0.200
    eigenvectors:
  1.000  0.000  0.000  0.000  0.000
  0.000  1.000  0.000  0.000  0.000
  0.000  0.000  1.000  0.000  0.000
  0.000  0.000  0.000  1.000  0.000
  0.000  0.000  0.000  0.000  1.000
    occupations:
  0.200  0.000  0.000  0.000  0.000
  0.000  0.200  0.000  0.000  0.000
[...]
  0.091 -0.032  0.007  0.368 -0.002
  0.002  0.013 -0.019 -0.002  0.163
atom    4   Tr[ns(na)] =   2.71846
    eigenvalues:
  0.139  0.166  0.178  0.437  0.440
    eigenvectors:
  0.007  0.002  0.000  0.008  0.983
  0.002  0.748  0.248  0.000  0.003
  0.001  0.247  0.752  0.000  0.000
  0.990  0.004  0.000  0.000  0.007
  0.000  0.000  0.000  0.992  0.008
    occupations:
  0.437  0.014  0.005 -0.025 -0.000
  0.014  0.169 -0.005  0.000 -0.002
  0.005 -0.005  0.175  0.001 -0.000
 -0.025  0.000  0.001  0.141 -0.000
 -0.000 -0.002 -0.000 -0.000  0.437
atom    9   Tr[ns(na)] =   2.69799
    eigenvalues:
  0.138  0.175  0.189  0.395  0.452
    eigenvectors:
  0.000  0.000  0.889  0.111  0.000
  0.000  0.000  0.000  0.009  0.990
  0.993  0.007  0.000  0.000  0.000
  0.000  0.000  0.110  0.880  0.009
  0.007  0.993  0.000  0.000  0.000
    occupations:
  0.212  0.003 -0.000  0.064  0.000
  0.003  0.451  0.000 -0.007 -0.000
 -0.000  0.000  0.138 -0.000 -0.003
  0.064 -0.007 -0.000  0.373 -0.000
  0.000 -0.000 -0.003 -0.000  0.175
atom   10   Tr[ns(na)] =   2.61517
    eigenvalues:
  0.139  0.187  0.205  0.319  0.457
    eigenvectors:
  0.020  0.000  0.000  0.980  0.000
  0.000  0.000  1.000  0.000  0.000
  0.000  1.000  0.000  0.000  0.000
  0.980  0.000  0.000  0.020  0.000
  0.000  0.000  0.000  0.000  1.000
    occupations:
  0.316 -0.000 -0.000 -0.025 -0.000
 -0.000  0.205 -0.000  0.000 -0.000
 -0.000 -0.000  0.187 -0.000  0.000
 -0.025  0.000 -0.000  0.142  0.000
 -0.000 -0.000  0.000  0.000  0.457
atom   16   Tr[ns(na)] =   2.64311
    eigenvalues:
  0.136  0.160  0.178  0.396  0.452
    eigenvectors:
  0.021  0.737  0.064  0.166  0.012
  0.002  0.006  0.003  0.208  0.781
  0.649  0.001  0.350  0.000  0.000
  0.007  0.151  0.011  0.626  0.206
  0.321  0.105  0.572  0.001  0.002
    occupations:
  0.203 -0.015 -0.004  0.091 -0.003
 -0.015  0.437 -0.003  0.032  0.013
 -0.004 -0.003  0.151  0.007  0.019
  0.091  0.032  0.007  0.368  0.002
 -0.003  0.013  0.019  0.002  0.163
atom   17   Tr[ns(na)] =   2.71510
    eigenvalues:
  0.138  0.166  0.179  0.433  0.442
    eigenvectors:
  0.007  0.002  0.000  0.001  0.990
  0.002  0.772  0.223  0.000  0.002
  0.001  0.222  0.777  0.000  0.000
  0.990  0.003  0.000  0.000  0.007
  0.000  0.000  0.000  0.999  0.001
    occupations:
  0.439  0.014  0.005 -0.025 -0.000
  0.014  0.170 -0.005  0.000 -0.002
  0.005 -0.005  0.176  0.001 -0.000
 -0.025  0.000  0.001  0.140 -0.000
 -0.000 -0.002 -0.000 -0.000  0.433
atom   22   Tr[ns(na)] =   2.69796
    eigenvalues:
  0.138  0.175  0.189  0.395  0.452
    eigenvectors:
  0.000  0.000  0.889  0.111  0.000
  0.000  0.000  0.000  0.009  0.990
  0.993  0.007  0.000  0.000  0.000
  0.000  0.000  0.111  0.880  0.009
  0.007  0.993  0.000  0.000  0.000
    occupations:
  0.212 -0.003  0.000  0.064  0.000
 -0.003  0.451 -0.000  0.007 -0.000
  0.000 -0.000  0.138 -0.000  0.003
  0.064  0.007 -0.000  0.373 -0.000
  0.000 -0.000  0.003 -0.000  0.175
atom   23   Tr[ns(na)] =   2.84651
    eigenvalues:
  0.083  0.280  0.299  0.312  0.449
    eigenvectors:
  0.003  0.000  0.000  0.000  0.997
  0.000  0.000  1.000  0.000  0.000
  0.000  1.000  0.000  0.000  0.000
  0.997  0.000  0.000  0.000  0.003
  0.000  0.000  0.000  1.000  0.000
    occupations:
  0.448 -0.000 -0.000 -0.021 -0.000
 -0.000  0.299  0.000 -0.000  0.000
 -0.000  0.000  0.280 -0.000 -0.000
 -0.021 -0.000 -0.000  0.084 -0.000
 -0.000  0.000 -0.000 -0.000  0.312
N of occupied +U levels =  21.5772898
 --- exit write_ns ---

[...]

     total energy              =   -1563.86077450 Ry
     Harris-Foulkes estimate   =   -1563.86077450 Ry
     estimated scf accuracy    <       0.00000002 Ry

     iteration # 19     ecut=    40.00 Ry     beta=0.70
     Davidson diagonalization with overlap
     ethr =  7.29E-12,  avg # of iterations =  1.0

     negative rho (up, down):  0.106E+00 0.000E+00

     End of self-consistent calculation
 --- enter write_ns ---
 LDA+U parameters:
U( 2)     =  5.50000000
alpha( 2) =  0.00000000
atom    3   Tr[ns(na)] =   2.64274
    eigenvalues:
  0.136  0.160  0.178  0.396  0.452
    eigenvectors:
  0.021  0.738  0.063  0.166  0.012
  0.002  0.006  0.003  0.208  0.780
  0.649  0.001  0.350  0.000  0.000
  0.007  0.152  0.010  0.625  0.206
  0.321  0.104  0.573  0.000  0.002
    occupations:
  0.203  0.015 -0.004  0.091  0.002
  0.015  0.437  0.003 -0.032  0.013
 -0.004  0.003  0.151  0.007 -0.019
  0.091 -0.032  0.007  0.368 -0.002
  0.002  0.013 -0.019 -0.002  0.163
atom    4   Tr[ns(na)] =   2.71938
    eigenvalues:
  0.139  0.166  0.178  0.437  0.440
    eigenvectors:
  0.007  0.002  0.000  0.008  0.982
  0.002  0.749  0.246  0.000  0.003
  0.001  0.245  0.753  0.000  0.000
  0.990  0.004  0.000  0.000  0.007
  0.000  0.000  0.000  0.992  0.008
    occupations:
  0.437  0.014  0.005 -0.025 -0.000
  0.014  0.169 -0.005  0.000 -0.002
  0.005 -0.005  0.175  0.001 -0.000
 -0.025  0.000  0.001  0.141 -0.000
 -0.000 -0.002 -0.000 -0.000  0.437
atom    9   Tr[ns(na)] =   2.69737
    eigenvalues:
  0.138  0.175  0.189  0.395  0.452
    eigenvectors:
  0.000  0.000  0.889  0.111  0.000
  0.000  0.000  0.000  0.009  0.990
  0.993  0.007  0.000  0.000  0.000
  0.000  0.000  0.111  0.880  0.009
  0.007  0.992  0.000  0.000  0.000
    occupations:
  0.212  0.003 -0.000  0.065  0.000
  0.003  0.451  0.000 -0.007 -0.000
 -0.000  0.000  0.138 -0.000 -0.003
  0.065 -0.007 -0.000  0.372 -0.000
  0.000 -0.000 -0.003 -0.000  0.175
atom   10   Tr[ns(na)] =   2.61646
    eigenvalues:
  0.139  0.187  0.205  0.320  0.457
    eigenvectors:
  0.020  0.000  0.000  0.980  0.000
  0.000  0.000  1.000  0.000  0.000
  0.000  1.000  0.000  0.000  0.000
  0.980  0.000  0.000  0.020  0.000
  0.000  0.000  0.000  0.000  1.000
    occupations:
  0.316 -0.000 -0.000 -0.026 -0.000
 -0.000  0.205 -0.000  0.000 -0.000
 -0.000 -0.000  0.187 -0.000  0.000
 -0.026  0.000 -0.000  0.142  0.000
 -0.000 -0.000  0.000  0.000  0.457
atom   16   Tr[ns(na)] =   2.64285
    eigenvalues:
  0.136  0.160  0.178  0.396  0.452
    eigenvectors:
  0.021  0.738  0.064  0.166  0.012
  0.002  0.006  0.003  0.208  0.780
  0.648  0.001  0.350  0.000  0.000
  0.007  0.151  0.011  0.626  0.206
  0.322  0.104  0.572  0.001  0.002
    occupations:
  0.203 -0.015 -0.004  0.091 -0.003
 -0.015  0.437 -0.003  0.032  0.013
 -0.004 -0.003  0.151  0.007  0.019
  0.091  0.032  0.007  0.368  0.002
 -0.003  0.013  0.019  0.002  0.163
atom   17   Tr[ns(na)] =   2.71592
    eigenvalues:
  0.138  0.166  0.179  0.433  0.442
    eigenvectors:
  0.007  0.002  0.000  0.001  0.990
  0.002  0.774  0.222  0.000  0.002
  0.001  0.221  0.778  0.000  0.000
  0.990  0.003  0.000  0.000  0.007
  0.000  0.000  0.000  0.999  0.001
    occupations:
  0.439  0.014  0.005 -0.025 -0.000
  0.014  0.170 -0.005  0.000 -0.002
  0.005 -0.005  0.176  0.001 -0.000
 -0.025  0.000  0.001  0.140 -0.000
 -0.000 -0.002 -0.000 -0.000  0.433
atom   22   Tr[ns(na)] =   2.69734
    eigenvalues:
  0.138  0.175  0.189  0.395  0.452
    eigenvectors:
  0.000  0.000  0.889  0.111  0.000
  0.000  0.000  0.000  0.009  0.990
  0.993  0.007  0.000  0.000  0.000
  0.000  0.000  0.111  0.880  0.009
  0.007  0.993  0.000  0.000  0.000
    occupations:
  0.212 -0.003  0.000  0.065  0.000
 -0.003  0.451 -0.000  0.007 -0.000
  0.000 -0.000  0.138 -0.000  0.003
  0.065  0.007 -0.000  0.372 -0.000
  0.000 -0.000  0.003 -0.000  0.175
atom   23   Tr[ns(na)] =   2.84731
    eigenvalues:
  0.083  0.280  0.299  0.312  0.449
    eigenvectors:
  0.003  0.000  0.000  0.000  0.997
  0.000  0.000  1.000  0.000  0.000
  0.000  1.000  0.000  0.000  0.000
  0.997  0.000  0.000  0.000  0.003
  0.000  0.000  0.000  1.000  0.000
    occupations:
  0.448 -0.000 -0.000 -0.021 -0.000
 -0.000  0.299  0.000 -0.000  0.000
 -0.000  0.000  0.280 -0.000 -0.000
 -0.021 -0.000 -0.000  0.084 -0.000
 -0.000  0.000 -0.000 -0.000  0.312
N of occupied +U levels =  21.5793646
 --- exit write_ns ---

[...]

          k = 0.2500-0.4516 0.0000 ( 29882 PWs)   bands (ev):

[...]

          k =-0.2500 0.2258 0.0000 ( 29912 PWs)   bands (ev):

   -61.7674 -61.7420 -61.5666 -60.9636 -60.9362 -60.5287 -60.5024 -59.7347
   -38.1443 -37.9613 -37.9295 -37.9175 -37.8962 -37.8734 -37.8256 -37.6916
   -37.6835 -37.4350 -37.2427 -37.1746 -37.1356 -37.0322 -37.0095 -36.8490
   -36.7828 -36.7611 -36.7268 -36.6629 -36.5545 -36.0519 -36.0495 -35.9814
   -22.0348 -21.7892 -20.9765 -20.7980 -20.3162 -20.2843 -20.2578 -20.1914
   -19.9647 -19.9237 -19.8082 -19.7473 -19.6711 -19.5887 -19.3383 -19.2102
   -18.9201 -18.7286 -17.9606  -9.7431  -9.4911  -8.4458  -8.2497  -7.9424
    -7.7289  -7.5785  -7.5346  -7.5079  -7.4549  -7.3311  -7.2076  -7.1528
    -6.9832  -6.9597  -6.9115  -6.8284  -6.7787  -6.5697  -6.4831  -6.3759
    -6.2554  -6.1927  -6.0690  -5.8638  -5.7806  -5.6996  -5.5938  -5.5308
    -5.4918  -5.4248  -5.3930  -5.3227  -5.2175  -5.1775  -5.1126  -5.0611
    -4.9215  -4.8510  -4.7988  -4.6638  -4.5803  -4.3973  -4.2861  -4.2239
    -4.2001  -4.1304  -4.0633  -3.9845  -3.9301  -3.7613  -3.6461  -3.5703
    -3.5519  -3.4978  -3.4466  -3.3083  -0.6034  -0.4710  -0.3490  -0.2735
    -0.1759  -0.0393   0.0999   0.1712   0.1930   0.3099   0.4050   0.5170
     0.5716   0.5874   0.7481   0.9221   0.9710   1.0220   1.0826   1.1144
     1.1889   1.2565   1.3272   1.3690   1.4593   1.5684   1.6499   1.7846
     1.9630   2.0553   2.1551   2.3425   2.5223   2.5568   2.6227   2.7365
     2.9321   2.9566   3.0336   3.1183   3.2082   4.1406   4.4048   4.6396
     4.7260   4.9378   5.2282   5.8692   5.9578   6.0087   6.0547   6.3691
     6.4713   6.6304   6.7617   6.9503   7.0207   7.1406   7.2733   7.4283
     7.5771   7.6389   7.7258   7.8665   7.9478   8.0160   8.1665   8.3806
     8.5282   8.5373   8.6841   8.7662   9.0308   9.1336   9.1639   9.2833
     9.3166   9.4561   9.5194   9.5624   9.6525   9.8118   9.8798   9.9474
    10.0121  10.2978  10.3508  10.3780  10.5249  10.5745  10.7014  10.7335
    10.8328  10.9357  10.9756  11.1000  11.1301  11.2153  11.2931  11.3397
    11.4429  11.4563  11.4977  11.6465  11.6827  11.7982  11.9137  11.9248
    11.9854  12.0773  12.1278  12.1773  12.3225  12.3724  12.4379  12.4797
    12.5969  12.6715  12.7163  12.8102  12.8594  12.9271  13.0020  13.0724
    13.2104  13.2575  13.2822  13.3991  13.4196  13.4663  13.5658  13.6103
    13.6899  13.7205  13.8690  13.9191  14.0016  14.0967  14.1616  14.2317
    14.3444  14.4280  14.5094  14.5328  14.6602  14.7198  14.8078  14.9008
    14.9868  15.1034  15.1733  15.2403  15.2871  15.3828  15.4224  15.5235
    15.5882  15.6292  15.7353  15.7717  15.8352  15.9195  15.9532  16.0100
    16.1405  16.1954  16.2547  16.3644  16.4412  16.5492  16.6309  16.6752
    16.7362  16.8083  16.9141  16.9524  16.9939  17.0632  17.1121  17.1475
    17.2517  17.2632  17.3652  17.4658  17.5625  17.5980  17.6872  17.7315
    17.7701  17.8296  17.8788  18.0386  18.0510  18.1619  18.1958  18.2749
    18.3780  18.4925  18.5892  18.6354  18.6683

     the Fermi energy is    -3.3844 ev

!    total energy              =   -1563.86077450 Ry
     Harris-Foulkes estimate   =   -1563.86077450 Ry
     estimated scf accuracy    <          3.6E-09 Ry

     The total energy is the sum of the following terms:

     one-electron contribution =  -18244.05643183 Ry
     hartree contribution      =    9134.44369751 Ry
     xc contribution           =    -276.41160571 Ry
     ewald contribution        =    7819.24486743 Ry
     Hubbard energy            =       2.91853856 Ry
     smearing contrib. (-TS)   =       0.00015955 Ry

     convergence has been achieved in  19 iterations

     Forces acting on atoms (Ry/au):

     negative rho (up, down):  0.106E+00 0.000E+00
     atom    1 type  1   force =    -0.00265561   -0.01199484    0.00006808
     atom    2 type  1   force =     0.00006729    0.01368872    0.00033683
     atom    3 type  2   force =     0.05647091   -0.00598245    0.00052647
     atom    4 type  2   force =     0.00117281    0.00773964   -0.00058817
     atom    5 type  1   force =    -0.00358858   -0.06863149   -0.00043803
     atom    6 type  1   force =    -0.00568360    0.06785477   -0.00066943
     atom    7 type  1   force =     0.00000564    0.00018122    0.00038272
     atom    8 type  1   force =     0.00055622   -0.00170295    0.00023509
     atom    9 type  2   force =     0.01267970    0.00044039    0.00054852
     atom   10 type  2   force =     0.00000698   -0.00017277   -0.00005801
     atom   11 type  1   force =    -0.02766920   -0.00347404    0.00024082
     atom   12 type  1   force =    -0.02798090    0.00378044    0.00024656
     atom   13 type  1   force =     0.00004410    0.00004823   -0.00054615
     atom   14 type  1   force =    -0.00350011   -0.01201372   -0.00000234
     atom   15 type  1   force =     0.00009041    0.01185118   -0.00004911
     atom   16 type  2   force =    -0.05627537   -0.00628045    0.00053317
     atom   17 type  2   force =     0.00094392    0.00739309   -0.00047287
     atom   18 type  1   force =     0.00663486   -0.06840572   -0.00042751
     atom   19 type  1   force =     0.00557315    0.06819608   -0.00059561
     atom   20 type  1   force =    -0.00011346   -0.00047872    0.00086032
     atom   21 type  1   force =     0.00063210   -0.00149476    0.00049507
     atom   22 type  2   force =    -0.01284041    0.00005025    0.00054827
     atom   23 type  2   force =     0.00001623   -0.00020982   -0.00022402
     atom   24 type  1   force =     0.02800961   -0.00347738    0.00021357
     atom   25 type  1   force =     0.02758517    0.00368541    0.00027252
     atom   26 type  1   force =     0.00009277   -0.00017460   -0.00004960
     atom   27 type  3   force =     0.00000629   -0.00028191   -0.00019684
     atom   28 type  3   force =    -0.00000606   -0.00017841   -0.00050471
     atom   29 type  3   force =    -0.00010587    0.00008141   -0.00003048
     atom   30 type  3   force =    -0.00016814   -0.00002737   -0.00045351
     atom   31 type  1   force =    -0.00000088   -0.00000943   -0.00020161

     Total force =     0.002347     Total SCF correction =     0.000112

     bfgs converged in  20 scf cycles and  19 bfgs steps
     (criteria: energy < 0.10E-03, force < 0.10E-02)

     End of BFGS Geometry Optimization

     Final energy   =   -1563.8607744970 Ry
Begin final coordinates

ATOMIC_POSITIONS (crystal)
O0       0.000000000   0.000000000   0.375228832    0   0   1
O0       0.000000000   0.500000000   0.395774450    0   0   1
Ti1      0.250000000   0.500000000   0.448753685    0   0   1
Ti1      0.000000000   0.000000000   0.449727840    0   0   1
O0       0.250000000   0.810000000   0.447958865    0   0   1
O0       0.250000000   0.190000000   0.448945114    0   0   1
O0       0.000000000   0.500000000   0.497464264    0   0   1
O0       0.000000000   0.000000000   0.525781536    0   0   1
Ti1      0.250000000   0.000000000   0.579526048    0   0   1
Ti1      0.000000000   0.500000000   0.569782445    0   0   1
O0       0.250000000   0.690000000   0.582911384    0   0   1
O0       0.250000000   0.310000000   0.582887875    0   0   1
O0       0.000000000   0.000000000   0.623940720    0   0   1
O0       0.500000000   0.000000000   0.375423051    0   0   1
O0       0.500000000   0.500000000   0.395059885    0   0   1
Ti1      0.750000000   0.500000000   0.448756494    0   0   1
Ti1      0.500000000   0.000000000   0.450099054    0   0   1
O0       0.750000000   0.810000000   0.447959607    0   0   1
O0       0.750000000   0.190000000   0.448912930    0   0   1
O0       0.500000000   0.500000000   0.491627184    0   0   1
O0       0.500000000   0.000000000   0.525464811    0   0   1
Ti1      0.750000000   0.000000000   0.579520535    0   0   1
Ti1      0.500000000   0.500000000   0.604830416    0   0   1
O0       0.750000000   0.690000000   0.582932412    0   0   1
O0       0.750000000   0.310000000   0.582859941    0   0   1
O0       0.500000000   0.000000000   0.622338619    0   0   1
H2      -0.000390986   0.625127389   0.375123267
H2       0.499693845   0.625783930   0.374668552
H2       0.150099745   0.035067235   0.361680311
H2       0.649688979   0.035998297   0.361850141
O0       0.500026836   0.499941636   0.668249733
End final coordinates

     General routines

     Parallel routines
     Hubbard U routines

   This run was terminated on:   9:36:29  29Apr2014

   JOB DONE.
Running PBS batch system epilogue script
Job id: 340512.audhumbla.fysik.dtu.dk
Username: zhonxu
Groupname: campgst
Jobname: TiO2/Eads-2-layers/O-U-5.5
Sessionid: 30441
Queuename: verylong
Accounting:
This job has allocated the following 16 nodes:
c028 c028 c028 c028 c028 c028 c028 c028 c023 c023 c023 c023 c023 c023 c023 c023
Finished epilogue job 340512.audhumbla.fysik.dtu.dk for zhonxu