     Program PWSCF v.5.0.2 (svn rev. 9656) starts on 10May2014 at  4:21:11

     Current dimensions of program PWSCF are:
     Max number of different atomic species (ntypx) = 10
     Max number of k-points (npk) =  40000
     Max angular momentum in pseudopotentials (lmaxx) =  3
     Reading input from pwscf.in
Warning: card &CELL ignored
Warning: card / ignored

     Subspace diagonalization in iterative solution of the eigenvalue problem:
     a serial algorithm will be used

     bravais-lattice index     =            0
     lattice parameter (alat)  =      11.7541  a.u.
     unit-cell volume          =    7139.8207 (a.u.)^3
     number of atoms/cell      =           31
     number of atomic types    =            3
     number of electrons       =       238.00
     number of Kohn-Sham states=          357
     kinetic-energy cutoff     =      40.0000  Ry
     charge density cutoff     =     500.0000  Ry
     convergence threshold     =      1.0E-06
     mixing beta               =       0.3000
     number of iterations used =            8  plain     mixing
     Exchange-correlation      = SLA  PW   PBE  PBE ( 1 4 3 4 0)
     EXX-fraction              =        0.00
     nstep                     =           50

     celldm(1)=  11.754097  celldm(2)=   0.000000  celldm(3)=   0.000000
     celldm(4)=   0.000000  celldm(5)=   0.000000  celldm(6)=   0.000000

     crystal axes: (cart. coord. in units of alat)
               a(1) = (   1.000000   0.000000   0.000000 )
               a(2) = (   0.000000   1.034513   0.000000 )
               a(3) = (   0.000000   0.000000   4.249947 )

     reciprocal axes: (cart. coord. in units 2 pi/alat)
               b(1) = (  1.000000  0.000000  0.000000 )
               b(2) = (  0.000000  0.966638  0.000000 )
               b(3) = (  0.000000  0.000000  0.235297 )

     PseudoPot. # 1 for O  read from file:
     /home/camp/zhonxu/pseudo/o_pbe_v1.01.uspp.F.UPF
     MD5 check sum: 2bcb18d16ea4b960afae9ec6d52f22d2
     Pseudo is Ultrasoft + core correction, Zval =  6.0
     Generated by new atomic code, or converted to UPF format
     Using radial grid of  737 points,  5 beta functions with:
                l(1) =   0
                l(2) =   0
                l(3) =   1
                l(4) =   1
                l(5) =   2
     Q(r) pseudized with  8 coefficients,  rinner =    0.900   0.900   0.900
                                                       0.900   0.900

     PseudoPot. # 2 for Rh read from file:
     /home/camp/zhonxu/pseudo/rh_pbe_v1.uspp.F.UPF
     MD5 check sum: 37b626987ad0dd8ec6bf4cc9ef289918
     Pseudo is Ultrasoft + core correction, Zval = 15.0
     Generated by new atomic code, or converted to UPF format
     Using radial grid of  969 points,  7 beta functions with:
                l(1) =   0
                l(2) =   0
                l(3) =   1
                l(4) =   1
                l(5) =   2
                l(6) =   2
                l(7) =   2
     Q(r) pseudized with  6 coefficients,  rinner =    1.050   1.050   1.050
                                                       1.050   1.050

     PseudoPot. # 3 for H  read from file:
     /home/camp/zhonxu/pseudo/h_pbe_v1.uspp.F.UPF
     MD5 check sum: 3408e3ff4ec8b0a4e358431e7e038a48
     Pseudo is Ultrasoft, Zval =  1.0
     Generated by new atomic code, or converted to UPF format
     Using radial grid of  615 points,  2 beta functions with:
                l(1) =   0
                l(2) =   0
     Q(r) pseudized with  8 coefficients,  rinner =    0.700

     atomic species   valence    mass     pseudopotential
        O0             6.00    15.99940     O ( 1.00)
        Rh1           15.00   102.90550     Rh( 1.00)
        H2             1.00     1.00794     H ( 1.00)

     Simplified LDA+U calculation (l_max = 2) with parameters (eV):
     atomic species    L          U    alpha       J0     beta
        Rh1            2     2.5000   0.0000   0.0000   0.0000

     No symmetry found

   Cartesian axes

     site n.     atom                  positions (alat units)
         1           O0  tau(   1) = (   0.0000000   0.0000000   1.6064375  )
         2           O0  tau(   2) = (   0.0000000   0.5172566   1.7091588  )
         3           Rh1 tau(   3) = (   0.2500000   0.5172566   1.9262886  )
         4           Rh1 tau(   4) = (   0.0000000   0.0000000   1.9228036  )
         5           O0  tau(   5) = (   0.2500000   0.8379556   1.9220386  )
         6           O0  tau(   6) = (   0.2500000   0.1965575   1.9215286  )
         7           O0  tau(   7) = (   0.0000000   0.5172566   2.1200437  )
         8           O0  tau(   8) = (   0.0000000   0.0000000   2.2432071  )
         9           Rh1 tau(   9) = (   0.2500000   0.0000000   2.4439746  )
        10           Rh1 tau(  10) = (   0.0000000   0.5172566   2.4253174  )
        11           O0  tau(  11) = (   0.2500000   0.7138141   2.4432947  )
        12           O0  tau(  12) = (   0.2500000   0.3206991   2.4432097  )
        13           O0  tau(  13) = (   0.0000000   0.0000000   2.6356898  )
        14           O0  tau(  14) = (   0.5000000   0.0000000   1.6064375  )
        15           O0  tau(  15) = (   0.5000000   0.5172566   1.7079263  )
        16           Rh1 tau(  16) = (   0.7500000   0.5172566   1.9262886  )
        17           Rh1 tau(  17) = (   0.5000000   0.0000000   1.9227611  )
        18           O0  tau(  18) = (   0.7500000   0.8379556   1.9219536  )
        19           O0  tau(  19) = (   0.7500000   0.1965575   1.9216136  )
        20           O0  tau(  20) = (   0.5000000   0.5172566   2.1284161  )
        21           O0  tau(  21) = (   0.5000000   0.0000000   2.2423572  )
        22           Rh1 tau(  22) = (   0.7500000   0.0000000   2.4439321  )
        23           Rh1 tau(  23) = (   0.5000000   0.5172566   2.4652244  )
        24           O0  tau(  24) = (   0.7500000   0.7138141   2.4431672  )
        25           O0  tau(  25) = (   0.7500000   0.3206991   2.4432097  )
        26           O0  tau(  26) = (   0.5000000   0.0000000   2.6354348  )
        27           H2  tau(  27) = (  -0.0000700   0.6590056   1.6354222  )
        28           H2  tau(  28) = (   0.4999300   0.6605366   1.6368247  )
        29           H2  tau(  29) = (   0.1480800   0.0354838   1.5606656  )
        30           H2  tau(  30) = (   0.6481100   0.0354321   1.5605806  )
        31           O0  tau(  31) = (   0.5000800   0.5160462   2.7479734  )

     number of k points=    10  Methfessel-Paxton smearing, width (Ry)=  0.0100
                       cart. coord. in units 2pi/alat
        k(    1) = (   0.0000000   0.0000000   0.0000000), wk =   0.1250000
        k(    2) = (   0.0000000   0.2416596   0.0000000), wk =   0.2500000
        k(    3) = (   0.0000000  -0.4833191   0.0000000), wk =   0.1250000
        k(    4) = (   0.2500000   0.0000000   0.0000000), wk =   0.2500000
        k(    5) = (   0.2500000   0.2416596   0.0000000), wk =   0.2500000
        k(    6) = (   0.2500000  -0.4833191   0.0000000), wk =   0.2500000
        k(    7) = (  -0.5000000   0.0000000   0.0000000), wk =   0.1250000
        k(    8) = (  -0.5000000   0.2416596   0.0000000), wk =   0.2500000
        k(    9) = (  -0.5000000  -0.4833191   0.0000000), wk =   0.1250000
        k(   10) = (  -0.2500000   0.2416596   0.0000000), wk =   0.2500000

     Largest allocated arrays     est. size (Mb)     dimensions
     Largest temporary arrays     est. size (Mb)     dimensions

     Check: negative/imaginary core charge=   -0.000003    0.000000

     Initial potential from superposition of free atoms
     Check: negative starting charge=   -0.645358

     starting charge  233.99915, renormalised to  238.00000

     negative rho (up, down):  0.656E+00 0.000E+00
     Number of +U iterations with fixed ns =  0
     Starting occupations:
 --- enter write_ns ---
 LDA+U parameters:
U( 2)     =  2.50000000
alpha( 2) =  0.00000000
atom    3   Tr[ns(na)] =   7.00000
    eigenvalues:
  0.700  0.700  0.700  0.700  0.700
    eigenvectors:
  1.000  0.000  0.000  0.000  0.000
  0.000  1.000  0.000  0.000  0.000
  0.000  0.000  1.000  0.000  0.000
  0.000  0.000  0.000  1.000  0.000
  0.000  0.000  0.000  0.000  1.000
    occupations:
  0.700  0.000  0.000  0.000  0.000
  0.000  0.700  0.000  0.000  0.000
  0.000  0.000  0.700  0.000  0.000
  0.000  0.000  0.000  0.700  0.000
  0.000  0.000  0.000  0.000  0.700
atom    4   Tr[ns(na)] =   7.00000
    eigenvalues:
  0.700  0.700  0.700  0.700  0.700
    eigenvectors:
  1.000  0.000  0.000  0.000  0.000
  0.000  1.000  0.000  0.000  0.000
  0.000  0.000  1.000  0.000  0.000
  0.000  0.000  0.000  1.000  0.000
  0.000  0.000  0.000  0.000  1.000
    occupations:
  0.700  0.000  0.000  0.000  0.000
  0.000  0.700  0.000  0.000  0.000
  0.000  0.000  0.700  0.000  0.000
  0.000  0.000  0.000  0.700  0.000
  0.000  0.000  0.000  0.000  0.700
atom    9   Tr[ns(na)] =   7.00000
    eigenvalues:
  0.700  0.700  0.700  0.700  0.700
    eigenvectors:
  1.000  0.000  0.000  0.000  0.000
  0.000  1.000  0.000  0.000  0.000
  0.000  0.000  1.000  0.000  0.000
  0.000  0.000  0.000  1.000  0.000
  0.000  0.000  0.000  0.000  1.000
    occupations:
  0.700  0.000  0.000  0.000  0.000
  0.000  0.700  0.000  0.000  0.000
  0.000  0.000  0.700  0.000  0.000
  0.000  0.000  0.000  0.700  0.000
  0.000  0.000  0.000  0.000  0.700
atom   10   Tr[ns(na)] =   7.00000
    eigenvalues:
  0.700  0.700  0.700  0.700  0.700
    eigenvectors:
  1.000  0.000  0.000  0.000  0.000
  0.000  1.000  0.000  0.000  0.000
  0.000  0.000  1.000  0.000  0.000
  0.000  0.000  0.000  1.000  0.000
  0.000  0.000  0.000  0.000  1.000
    occupations:
  0.700  0.000  0.000  0.000  0.000
  0.000  0.700  0.000  0.000  0.000
  0.000  0.000  0.700  0.000  0.000
  0.000  0.000  0.000  0.700  0.000
  0.000  0.000  0.000  0.000  0.700
atom   16   Tr[ns(na)] =   7.00000
    eigenvalues:
  0.700  0.700  0.700  0.700  0.700
    eigenvectors:
  1.000  0.000  0.000  0.000  0.000
  0.000  1.000  0.000  0.000  0.000
  0.000  0.000  1.000  0.000  0.000
  0.000  0.000  0.000  1.000  0.000
  0.000  0.000  0.000  0.000  1.000
    occupations:
  0.700  0.000  0.000  0.000  0.000
  0.000  0.700  0.000  0.000  0.000
  0.000  0.000  0.700  0.000  0.000
  0.000  0.000  0.000  0.700  0.000
  0.000  0.000  0.000  0.000  0.700
atom   17   Tr[ns(na)] =   7.00000
    eigenvalues:
  0.700  0.700  0.700  0.700  0.700
    eigenvectors:
  1.000  0.000  0.000  0.000  0.000
  0.000  1.000  0.000  0.000  0.000
  0.000  0.000  1.000  0.000  0.000
  0.000  0.000  0.000  1.000  0.000
  0.000  0.000  0.000  0.000  1.000
    occupations:
  0.700  0.000  0.000  0.000  0.000
  0.000  0.700  0.000  0.000  0.000
  0.000  0.000  0.700  0.000  0.000
  0.000  0.000  0.000  0.700  0.000
  0.000  0.000  0.000  0.000  0.700
atom   22   Tr[ns(na)] =   7.00000
    eigenvalues:
  0.700  0.700  0.700  0.700  0.700
    eigenvectors:
  1.000  0.000  0.000  0.000  0.000
  0.000  1.000  0.000  0.000  0.000
  0.000  0.000  1.000  0.000  0.000
  0.000  0.000  0.000  1.000  0.000
  0.000  0.000  0.000  0.000  1.000
    occupations:
  0.700  0.000  0.000  0.000  0.000
[...]
  0.000  0.000  0.951  0.049  0.000
  0.000  0.007  0.000  0.000  0.993
  0.999  0.001  0.000  0.000  0.000
    occupations:
  0.652 -0.004 -0.001  0.028  0.001
 -0.004  0.913  0.011  0.001 -0.001
 -0.001  0.011  0.866 -0.001  0.001
  0.028  0.001 -0.001  0.973  0.000
  0.001 -0.001  0.001  0.000  0.602
atom    9   Tr[ns(na)] =   8.00664
    eigenvalues:
  0.637  0.646  0.854  0.891  0.975
    eigenvectors:
  0.003  0.148  0.000  0.000  0.849
  0.979  0.021  0.000  0.000  0.000
  0.000  0.000  0.932  0.068  0.000
  0.017  0.832  0.000  0.000  0.151
  0.000  0.000  0.068  0.932  0.000
    occupations:
  0.925  0.002 -0.000 -0.118 -0.000
  0.002  0.637  0.001  0.001 -0.000
 -0.000  0.001  0.857  0.000 -0.009
 -0.118  0.001  0.000  0.696  0.001
 -0.000 -0.000 -0.009  0.001  0.888
atom   10   Tr[ns(na)] =   8.00784
    eigenvalues:
  0.594  0.596  0.913  0.926  0.975
    eigenvectors:
  0.000  0.990  0.000  0.000  0.009
  0.000  0.000  0.000  1.000  0.000
  0.000  0.000  1.000  0.000  0.000
  0.000  0.009  0.000  0.000  0.991
  1.000  0.000  0.000  0.000  0.000
    occupations:
  0.600  0.000  0.001  0.036 -0.000
  0.000  0.926 -0.000  0.000 -0.000
  0.001 -0.000  0.913  0.000  0.000
  0.036  0.000  0.000  0.971 -0.000
 -0.000 -0.000  0.000 -0.000  0.594
atom   16   Tr[ns(na)] =   8.01885
    eigenvalues:
  0.587  0.608  0.888  0.954  0.973
    eigenvectors:
  0.012  0.190  0.002  0.000  0.796
  0.953  0.047  0.000  0.000  0.000
  0.000  0.000  0.982  0.016  0.002
  0.036  0.763  0.000  0.000  0.201
  0.000  0.000  0.016  0.983  0.001
    occupations:
  0.899  0.006  0.003 -0.147  0.001
  0.006  0.588  0.001  0.002 -0.006
  0.003  0.001  0.889 -0.004 -0.008
 -0.147  0.002 -0.004  0.681  0.000
  0.001 -0.006 -0.008  0.000  0.953
atom   17   Tr[ns(na)] =   8.01116
    eigenvalues:
  0.602  0.650  0.864  0.913  0.976
    eigenvectors:
  0.001  0.992  0.000  0.000  0.007
  0.000  0.000  0.064  0.936  0.000
  0.000  0.000  0.936  0.064  0.000
  0.000  0.007  0.000  0.000  0.993
  0.999  0.001  0.000  0.000  0.000
    occupations:
  0.653 -0.004 -0.001  0.028  0.001
 -0.004  0.910  0.012  0.001 -0.001
 -0.001  0.012  0.867 -0.000  0.001
  0.028  0.001 -0.000  0.973  0.000
  0.001 -0.001  0.001  0.000  0.602
atom   22   Tr[ns(na)] =   8.00684
    eigenvalues:
  0.637  0.646  0.854  0.890  0.975
    eigenvectors:
  0.000  0.151  0.000  0.000  0.849
  0.998  0.002  0.000  0.000  0.000
  0.000  0.000  0.937  0.063  0.000
  0.001  0.847  0.000  0.000  0.151
  0.000  0.000  0.063  0.937  0.000
    occupations:
  0.925 -0.000  0.000 -0.118 -0.000
 -0.000  0.637  0.001 -0.000 -0.000
  0.000  0.001  0.857 -0.000  0.009
 -0.118 -0.000 -0.000  0.696  0.000
 -0.000 -0.000  0.009  0.000  0.888
atom   23   Tr[ns(na)] =   7.99198
    eigenvalues:
  0.637  0.699  0.819  0.862  0.979
    eigenvectors:
  0.000  0.993  0.000  0.000  0.007
  0.000  0.000  0.000  1.000  0.000
  0.000  0.000  1.000  0.000  0.000
  0.000  0.007  0.000  0.000  0.993
  1.000  0.000  0.000  0.000  0.000
    occupations:
  0.701  0.000 -0.000  0.023 -0.000
  0.000  0.862 -0.000  0.000  0.000
 -0.000 -0.000  0.819  0.001  0.000
  0.023  0.000  0.001  0.977  0.000
 -0.000  0.000  0.000  0.000  0.637
N of occupied +U levels =  64.0755085
 --- exit write_ns ---

     Threshold (ethr) on eigenvalues was too large:
     Diagonalizing with lowered threshold

     Davidson diagonalization with overlap
     ethr =  6.60E-09,  avg # of iterations =  2.4

[...]

     total energy              =   -1979.28694878 Ry
     Harris-Foulkes estimate   =   -1979.28694878 Ry
     estimated scf accuracy    <       0.00000001 Ry

     iteration # 16     ecut=    40.00 Ry     beta=0.30
     Davidson diagonalization with overlap
     ethr =  5.18E-12,  avg # of iterations =  1.0

     negative rho (up, down):  0.691E+00 0.000E+00

     End of self-consistent calculation
 --- enter write_ns ---
 LDA+U parameters:
U( 2)     =  2.50000000
alpha( 2) =  0.00000000
atom    3   Tr[ns(na)] =   8.01933
    eigenvalues:
  0.586  0.608  0.888  0.954  0.973
    eigenvectors:
  0.012  0.189  0.002  0.000  0.796
  0.949  0.050  0.000  0.000  0.000
  0.000  0.000  0.976  0.022  0.002
  0.038  0.760  0.000  0.000  0.201
  0.000  0.000  0.021  0.978  0.001
    occupations:
  0.899 -0.006  0.002 -0.147 -0.001
 -0.006  0.588 -0.001 -0.002 -0.006
  0.002 -0.001  0.890 -0.004  0.009
 -0.147 -0.002 -0.004  0.681 -0.000
 -0.001 -0.006  0.009 -0.000  0.953
atom    4   Tr[ns(na)] =   8.01333
    eigenvalues:
  0.602  0.650  0.864  0.916  0.975
    eigenvectors:
  0.001  0.992  0.000  0.000  0.007
  0.000  0.000  0.049  0.951  0.000
  0.000  0.000  0.951  0.049  0.000
  0.000  0.007  0.000  0.000  0.993
  0.999  0.001  0.000  0.000  0.000
    occupations:
  0.652 -0.004 -0.001  0.028  0.001
 -0.004  0.913  0.011  0.001 -0.001
 -0.001  0.011  0.866 -0.001  0.001
  0.028  0.001 -0.001  0.973  0.000
  0.001 -0.001  0.001  0.000  0.602
atom    9   Tr[ns(na)] =   8.00699
    eigenvalues:
  0.637  0.646  0.854  0.891  0.975
    eigenvectors:
  0.003  0.148  0.000  0.000  0.849
  0.980  0.020  0.000  0.000  0.000
  0.000  0.000  0.932  0.068  0.000
  0.017  0.832  0.000  0.000  0.151
  0.000  0.000  0.068  0.932  0.000
    occupations:
  0.925  0.002 -0.000 -0.118 -0.000
  0.002  0.637  0.001  0.001 -0.000
 -0.000  0.001  0.857  0.000 -0.009
 -0.118  0.001  0.000  0.696  0.001
 -0.000 -0.000 -0.009  0.001  0.888
atom   10   Tr[ns(na)] =   8.00678
    eigenvalues:
  0.594  0.596  0.913  0.926  0.975
    eigenvectors:
  0.000  0.990  0.000  0.000  0.009
  0.000  0.000  0.000  1.000  0.000
  0.000  0.000  1.000  0.000  0.000
  0.000  0.009  0.000  0.000  0.991
  1.000  0.000  0.000  0.000  0.000
    occupations:
  0.599  0.000  0.001  0.036 -0.000
  0.000  0.926 -0.000  0.000 -0.000
  0.001 -0.000  0.913  0.000  0.000
  0.036  0.000  0.000  0.971 -0.000
 -0.000 -0.000  0.000 -0.000  0.594
atom   16   Tr[ns(na)] =   8.01926
    eigenvalues:
  0.587  0.608  0.888  0.954  0.973
    eigenvectors:
  0.012  0.190  0.002  0.000  0.796
  0.953  0.047  0.000  0.000  0.000
  0.000  0.000  0.982  0.016  0.002
  0.036  0.763  0.000  0.000  0.201
  0.000  0.000  0.016  0.983  0.001
    occupations:
  0.899  0.006  0.002 -0.147  0.001
  0.006  0.588  0.001  0.002 -0.006
  0.002  0.001  0.890 -0.004 -0.008
 -0.147  0.002 -0.004  0.681  0.000
  0.001 -0.006 -0.008  0.000  0.953
atom   17   Tr[ns(na)] =   8.01116
    eigenvalues:
  0.602  0.650  0.864  0.913  0.976
    eigenvectors:
  0.001  0.992  0.000  0.000  0.007
  0.000  0.000  0.063  0.936  0.000
  0.000  0.000  0.937  0.063  0.000
  0.000  0.007  0.000  0.000  0.993
  0.999  0.001  0.000  0.000  0.000
    occupations:
  0.653 -0.004 -0.001  0.028  0.001
 -0.004  0.910  0.012  0.001 -0.001
 -0.001  0.012  0.867 -0.000  0.001
  0.028  0.001 -0.000  0.973  0.000
  0.001 -0.001  0.001  0.000  0.602
atom   22   Tr[ns(na)] =   8.00697
    eigenvalues:
  0.637  0.646  0.854  0.890  0.975
    eigenvectors:
  0.000  0.151  0.000  0.000  0.849
  0.998  0.002  0.000  0.000  0.000
  0.000  0.000  0.937  0.063  0.000
  0.001  0.847  0.000  0.000  0.151
  0.000  0.000  0.063  0.937  0.000
    occupations:
  0.925 -0.000  0.000 -0.118 -0.000
 -0.000  0.637  0.001 -0.000 -0.000
  0.000  0.001  0.857 -0.000  0.009
 -0.118 -0.000 -0.000  0.696  0.000
 -0.000 -0.000  0.009  0.000  0.888
atom   23   Tr[ns(na)] =   7.99192
    eigenvalues:
  0.637  0.699  0.819  0.862  0.979
    eigenvectors:
  0.000  0.993  0.000  0.000  0.007
  0.000  0.000  0.000  1.000  0.000
  0.000  0.000  1.000  0.000  0.000
  0.000  0.007  0.000  0.000  0.993
  1.000  0.000  0.000  0.000  0.000
    occupations:
  0.701  0.000 -0.000  0.023 -0.000
  0.000  0.862 -0.000  0.000  0.000
 -0.000 -0.000  0.819  0.001  0.000
  0.023  0.000  0.001  0.977  0.000
 -0.000  0.000  0.000  0.000  0.637
N of occupied +U levels =  64.0757504
 --- exit write_ns ---

[...]

          k = 0.2500-0.4833 0.0000 ( 30510 PWs)   bands (ev):

[...]

          k =-0.2500 0.2417 0.0000 ( 30481 PWs)   bands (ev):

   -50.3849 -50.0529 -49.9624 -49.3174 -49.3121 -49.2941 -49.2610 -49.2393
   -49.2384 -49.2116 -49.2083 -49.2051 -49.1243 -49.1151 -49.1046 -48.9792
   -48.9743 -48.9308 -48.9290 -48.8837 -48.8722 -48.8705 -48.8600 -48.8518
   -21.5920 -21.2984 -21.1955 -21.0623 -20.8448 -20.6770 -20.6053 -20.5396
   -20.4158 -20.3771 -20.2626 -20.2561 -20.1953 -20.0877 -20.0657 -20.0037
   -19.3788 -19.2539 -19.1405  -9.9614  -9.9182  -9.7391  -9.4905  -9.1942
    -9.1571  -9.1409  -9.0073  -8.9514  -8.8830  -8.7714  -8.7146  -8.6736
    -8.4910  -8.3668  -8.3166  -8.1598  -8.1131  -7.8459  -7.7161  -7.5827
    -7.5432  -7.3636  -7.2857  -7.1917  -7.0643  -6.9113  -6.7638  -6.7017
    -6.6023  -6.5900  -6.4401  -6.3938  -6.3360  -6.2596  -6.2159  -6.1343
    -5.9823  -5.9632  -5.8722  -5.6796  -5.6005  -5.5140  -5.3123  -5.2332
    -5.1837  -4.9850  -4.9134  -4.8064  -4.7671  -4.6454  -4.5163  -4.3655
    -4.2966  -4.0999  -4.0249  -3.9318  -3.8439  -3.7758  -3.6799  -3.6129
    -3.5551  -3.5076  -3.4163  -3.3718  -3.3522  -3.2797  -3.2115  -3.1539
    -3.0184  -2.6842  -2.5595  -2.4814  -2.3685  -2.2178  -2.0806  -2.0000
    -1.9554  -1.8254  -1.7600  -1.6460  -1.0726  -0.7394  -0.5286  -0.1075
     0.1439   0.3534   0.5815   0.7954   1.0456   1.2019   1.2507   1.3846
     1.4643   1.6578   1.6880   2.0571   3.4875   4.4558   4.5998   5.0683
     5.2998   5.3356   5.4888   6.0767   6.3706   6.4070   6.4515   6.5587
     6.6858   6.8056   6.9489   7.1569   7.3074   7.4777   7.5961   7.7160
     7.8446   7.9893   8.0708   8.1462   8.2599   8.3496   8.4386   8.5308
     8.7635   8.8161   8.8792   8.9979   9.2201   9.3885   9.4678   9.5504
     9.6279   9.7416   9.7907   9.8440   9.9243  10.1076  10.1781  10.2306
    10.3304  10.4236  10.4670  10.6029  10.7254  10.7734  10.8407  10.9246
    10.9728  11.0968  11.1261  11.1966  11.3321  11.4538  11.5084  11.5499
    11.5923  11.7167  11.7473  11.7808  11.8727  12.0150  12.0895  12.1763
    12.2228  12.2564  12.3583  12.4348  12.5056  12.6314  12.6825  12.7536
    12.7984  12.8507  12.9432  13.0177  13.0772  13.1178  13.1628  13.2591
    13.2894  13.4082  13.5018  13.5491  13.7179  13.7795  13.8099  13.8520
    13.9226  14.0983  14.1466  14.1877  14.2520  14.3578  14.3914  14.4858
    14.5838  14.5979  14.7191  14.8059  14.9931  15.1175  15.2592  15.2976
    15.3629  15.4300  15.4972  15.5254  15.5679  15.6391  15.7205  15.7637
    15.8718  15.9465  16.0186  16.0416  16.1113  16.1639  16.2519  16.3129
    16.3802  16.4146  16.4638  16.4833  16.5591  16.6145  16.6623  16.7301
    16.7966  16.8816  16.9982  17.0457  17.1235  17.2106  17.2608  17.3348
    17.3834  17.4828  17.5511  17.5922  17.6291  17.7489  17.8207  17.8502
    17.9138  18.0195  18.0897  18.1491  18.1667  18.2924  18.3113  18.3823
    18.4627  18.5702  18.6610  18.7156  18.7716  18.8396  18.8928  18.9704
    19.0127  19.0532  19.0935  19.1932  19.2402  19.2726  19.3387  19.4706
    19.5355  19.5914  19.6484  19.7261  19.7775  19.8837  20.0222  20.0590
    20.1878  20.2338  20.2709  20.3280  20.5012  20.5533  20.6247  20.6785
    20.7016  20.7757  20.8453  20.8994  20.9353  21.0174  21.0922  21.2001
    21.2700  21.3173  21.3509  21.3854  21.4334  21.5216  21.6744  21.7369
    21.7822  21.8470  21.8899  21.9165  21.9430  22.0307  22.0905  22.1710
    22.2000  22.3032  22.4054  22.4649  22.5201

     the Fermi energy is    -2.1037 ev

!    total energy              =   -1979.28694878 Ry
     Harris-Foulkes estimate   =   -1979.28694878 Ry
     estimated scf accuracy    <          2.9E-09 Ry

     The total energy is the sum of the following terms:

     one-electron contribution =  -23278.61674245 Ry
     hartree contribution      =   11685.51092537 Ry
     xc contribution           =    -372.02019734 Ry
     ewald contribution        =    9984.83427720 Ry
     Hubbard energy            =       1.00511234 Ry
     smearing contrib. (-TS)   =      -0.00032391 Ry

     convergence has been achieved in  16 iterations

     Forces acting on atoms (Ry/au):

     negative rho (up, down):  0.691E+00 0.000E+00
     atom    1 type  1   force =    -0.00744051   -0.01295632   -0.00026015
     atom    2 type  1   force =     0.00009145    0.00444820    0.00071382
     atom    3 type  2   force =     0.03915603    0.00717762   -0.00054270
     atom    4 type  2   force =     0.00878925    0.00938956   -0.00003928
     atom    5 type  1   force =    -0.00230486   -0.03050310    0.00022483
     atom    6 type  1   force =     0.00255828    0.02723891    0.00023948
     atom    7 type  1   force =    -0.00026908   -0.00159419    0.00070687
     atom    8 type  1   force =    -0.00310331   -0.00107671    0.00013961
     atom    9 type  2   force =     0.00312384    0.00034950   -0.00026960
     atom   10 type  2   force =    -0.00002533   -0.00124521   -0.00055540
     atom   11 type  1   force =    -0.00234188    0.01006177   -0.00041359
     atom   12 type  1   force =    -0.00285630   -0.01069773   -0.00045575
     atom   13 type  1   force =    -0.00081049    0.00012604    0.00022550
     atom   14 type  1   force =    -0.00674148   -0.01291058    0.00005121
     atom   15 type  1   force =     0.00013638    0.00429700    0.00026710
     atom   16 type  2   force =    -0.03955888    0.00605600   -0.00053701
     atom   17 type  2   force =     0.00855312    0.00959634   -0.00031262
     atom   18 type  1   force =    -0.00133802   -0.03025003    0.00021653
     atom   19 type  1   force =     0.00325480    0.02760889    0.00024550
     atom   20 type  1   force =    -0.00016921   -0.00463130   -0.00047094
     atom   21 type  1   force =    -0.00301488   -0.00069368    0.00012703
     atom   22 type  2   force =    -0.00039893    0.00054160   -0.00025747
     atom   23 type  2   force =    -0.00011649    0.00086465    0.00038737
     atom   24 type  1   force =     0.00204203    0.01011996   -0.00040921
     atom   25 type  1   force =     0.00359687   -0.01077792   -0.00045277
     atom   26 type  1   force =    -0.00076794   -0.00004076   -0.00023127
     atom   27 type  3   force =    -0.00001017   -0.00040713    0.00061896
     atom   28 type  3   force =    -0.00000741   -0.00022129    0.00055459
     atom   29 type  3   force =     0.00008998    0.00012209    0.00013297
     atom   30 type  3   force =    -0.00010949    0.00012056    0.00007544
     atom   31 type  1   force =    -0.00000736   -0.00011273    0.00028096

     Total force =     0.002197     Total SCF correction =     0.000091

     bfgs converged in   7 scf cycles and   6 bfgs steps
     (criteria: energy < 0.10E-03, force < 0.10E-02)

     End of BFGS Geometry Optimization

     Final energy   =   -1979.2869487818 Ry
Begin final coordinates

ATOMIC_POSITIONS (crystal)
O0       0.000000000   0.000000000   0.378156638    0   0   1
O0       0.000000000   0.500000000   0.402281908    0   0   1
Rh1      0.250000000   0.500000000   0.453322669    0   0   1
Rh1      0.000000000   0.000000000   0.452437361    0   0   1
O0       0.250000000   0.810000000   0.452364924    0   0   1
O0       0.250000000   0.190000000   0.452177466    0   0   1
O0       0.000000000   0.500000000   0.499263764    0   0   1
O0       0.000000000   0.000000000   0.527681290    0   0   1
Rh1      0.250000000   0.000000000   0.574834555    0   0   1
Rh1      0.000000000   0.500000000   0.570765069    0   0   1
O0       0.250000000   0.690000000   0.574836961    0   0   1
O0       0.250000000   0.310000000   0.574794636    0   0   1
O0       0.000000000   0.000000000   0.619985447    0   0   1
O0       0.500000000   0.000000000   0.378073056    0   0   1
O0       0.500000000   0.500000000   0.402134230    0   0   1
Rh1      0.750000000   0.500000000   0.453324954    0   0   1
Rh1      0.500000000   0.000000000   0.452344567    0   0   1
O0       0.750000000   0.810000000   0.452342215    0   0   1
O0       0.750000000   0.190000000   0.452193041    0   0   1
O0       0.500000000   0.500000000   0.501247775    0   0   1
O0       0.500000000   0.000000000   0.527546244    0   0   1
Rh1      0.750000000   0.000000000   0.574829767    0   0   1
Rh1      0.500000000   0.500000000   0.579504921    0   0   1
O0       0.750000000   0.690000000   0.574803544    0   0   1
O0       0.750000000   0.310000000   0.574806373    0   0   1
O0       0.500000000   0.000000000   0.620035244    0   0   1
H2      -0.000115295   0.636810449   0.384888909
H2       0.499873495   0.638055934   0.385287570
H2       0.147910171   0.034433272   0.367280187
H2       0.648013812   0.034457599   0.367235079
O0       0.500068351   0.498688169   0.646039638
End final coordinates

     General routines

     Parallel routines
     Hubbard U routines

   This run was terminated on:  11:37: 7  10May2014

   JOB DONE.