     Program PWSCF v.5.0.2 (svn rev. 9656) starts on 24Jan2014 at 13:54:35

     Current dimensions of program PWSCF are:
     Max number of different atomic species (ntypx) = 10
     Max number of k-points (npk) =  40000
     Max angular momentum in pseudopotentials (lmaxx) =  3
     Reading input from TiO2-v-0.90.in

     Subspace diagonalization in iterative solution of the eigenvalue problem:
     a serial algorithm will be used

     bravais-lattice index     =            0
     lattice parameter (alat)  =       8.4608  a.u.
     unit-cell volume          =     390.3135 (a.u.)^3
     number of atoms/cell      =            6
     number of atomic types    =            2
     number of electrons       =        48.00
     number of Kohn-Sham states=           69
     kinetic-energy cutoff     =      40.0000  Ry
     charge density cutoff     =     500.0000  Ry
     convergence threshold     =      1.0E-06
     mixing beta               =       0.3000
     number of iterations used =            8  plain     mixing
     Exchange-correlation      = SLA  PW   PBE  PBE ( 1 4 3 4 0)
     EXX-fraction              =        0.00
     nstep                     =           50

     celldm(1)=   8.460760  celldm(2)=   0.000000  celldm(3)=   0.000000
     celldm(4)=   0.000000  celldm(5)=   0.000000  celldm(6)=   0.000000

     crystal axes: (cart. coord. in units of alat)
               a(1) = (   1.000000   0.000000   0.000000 )
               a(2) = (   0.000000   1.000000   0.000000 )
               a(3) = (   0.000000   0.000000   0.644444 )

     reciprocal axes: (cart. coord. in units 2 pi/alat)
               b(1) = (  1.000000  0.000000  0.000000 )
               b(2) = (  0.000000  1.000000  0.000000 )
               b(3) = (  0.000000  0.000000  1.551724 )

     PseudoPot. # 1 for Ti read from file:
     /home/camp/zhonxu/pseudo/ti_pbe_v1.uspp.F.UPF
     MD5 check sum: bcc8f6961b3b91f0cac3ca967d22d0fb
     Pseudo is Ultrasoft + core correction, Zval = 12.0
     Generated by new atomic code, or converted to UPF format
     Using radial grid of  851 points,  6 beta functions with:
                l(1) =   0
                l(2) =   0
                l(3) =   1
                l(4) =   1
                l(5) =   2
                l(6) =   2
     Q(r) pseudized with  6 coefficients,  rinner =    1.000   1.000   1.000
                                                       1.000   1.000

     PseudoPot. # 2 for O  read from file:
     /home/camp/zhonxu/pseudo/o_pbe_v1.01.uspp.F.UPF
     MD5 check sum: 2bcb18d16ea4b960afae9ec6d52f22d2
     Pseudo is Ultrasoft + core correction, Zval =  6.0
     Generated by new atomic code, or converted to UPF format
     Using radial grid of  737 points,  5 beta functions with:
                l(1) =   0
                l(2) =   0
                l(3) =   1
                l(4) =   1
                l(5) =   2
     Q(r) pseudized with  8 coefficients,  rinner =    0.900   0.900   0.900
                                                       0.900   0.900

     atomic species   valence    mass     pseudopotential
        Ti0           12.00    47.88000     Ti( 1.00)
        O1             6.00    15.99940     O ( 1.00)

     Starting magnetic structure
     atomic species   magnetization
        Ti0          0.000
        O1           0.000

     16 Sym. Ops., with inversion, found ( 8 have fractional translation)

   Cartesian axes

     site n.     atom                  positions (alat units)
         1           Ti0 tau(   1) = (   0.0000000   0.0000000   0.0000000  )
         2           Ti0 tau(   2) = (   0.5000000   0.5000000   0.3222222  )
         3           O1  tau(   3) = (   0.3050000   0.3050000   0.0000000  )
         4           O1  tau(   4) = (  -0.3050000  -0.3050000   0.0000000  )
         5           O1  tau(   5) = (   0.8050000   0.1950000   0.3222222  )
         6           O1  tau(   6) = (   0.1950000   0.8050000   0.3222222  )

     number of k points=    36  Methfessel-Paxton smearing, width (Ry)=  0.0100
                       cart. coord. in units 2pi/alat
        k(    1) = (   0.0000000   0.0000000   0.0000000), wk =   0.0080000
        k(    2) = (   0.0000000   0.0000000   0.3103448), wk =   0.0160000
        k(    3) = (   0.0000000   0.0000000   0.6206897), wk =   0.0160000
        k(    4) = (   0.0000000   0.2000000   0.0000000), wk =   0.0320000
        k(    5) = (   0.0000000   0.2000000   0.3103448), wk =   0.0640000
        k(    6) = (   0.0000000   0.2000000   0.6206897), wk =   0.0640000
        k(    7) = (   0.0000000   0.4000000   0.0000000), wk =   0.0320000
        k(    8) = (   0.0000000   0.4000000   0.3103448), wk =   0.0640000
        k(    9) = (   0.0000000   0.4000000   0.6206897), wk =   0.0640000
        k(   10) = (   0.2000000   0.2000000   0.0000000), wk =   0.0320000
        k(   11) = (   0.2000000   0.2000000   0.3103448), wk =   0.0640000
        k(   12) = (   0.2000000   0.2000000   0.6206897), wk =   0.0640000
        k(   13) = (   0.2000000   0.4000000   0.0000000), wk =   0.0640000
        k(   14) = (   0.2000000   0.4000000   0.3103448), wk =   0.1280000
        k(   15) = (   0.2000000   0.4000000   0.6206897), wk =   0.1280000
        k(   16) = (   0.4000000   0.4000000   0.0000000), wk =   0.0320000
        k(   17) = (   0.4000000   0.4000000   0.3103448), wk =   0.0640000
        k(   18) = (   0.4000000   0.4000000   0.6206897), wk =   0.0640000
        k(   19) = (   0.0000000   0.0000000   0.0000000), wk =   0.0080000
        k(   20) = (   0.0000000   0.0000000   0.3103448), wk =   0.0160000
        k(   21) = (   0.0000000   0.0000000   0.6206897), wk =   0.0160000
        k(   22) = (   0.0000000   0.2000000   0.0000000), wk =   0.0320000
        k(   23) = (   0.0000000   0.2000000   0.3103448), wk =   0.0640000
        k(   24) = (   0.0000000   0.2000000   0.6206897), wk =   0.0640000
        k(   25) = (   0.0000000   0.4000000   0.0000000), wk =   0.0320000
        k(   26) = (   0.0000000   0.4000000   0.3103448), wk =   0.0640000
        k(   27) = (   0.0000000   0.4000000   0.6206897), wk =   0.0640000
        k(   28) = (   0.2000000   0.2000000   0.0000000), wk =   0.0320000
        k(   29) = (   0.2000000   0.2000000   0.3103448), wk =   0.0640000
        k(   30) = (   0.2000000   0.2000000   0.6206897), wk =   0.0640000
        k(   31) = (   0.2000000   0.4000000   0.0000000), wk =   0.0640000
        k(   32) = (   0.2000000   0.4000000   0.3103448), wk =   0.1280000
        k(   33) = (   0.2000000   0.4000000   0.6206897), wk =   0.1280000
        k(   34) = (   0.4000000   0.4000000   0.0000000), wk =   0.0320000
        k(   35) = (   0.4000000   0.4000000   0.3103448), wk =   0.0640000
        k(   36) = (   0.4000000   0.4000000   0.6206897), wk =   0.0640000

     Largest allocated arrays     est. size (Mb)     dimensions
     Largest temporary arrays     est. size (Mb)     dimensions

     Check: negative/imaginary core charge=   -0.000015    0.000000

     Initial potential from superposition of free atoms
     Check: negative starting charge=(component1):   -0.012522
     Check: negative starting charge=(component2):   -0.012522

     starting charge   45.99991, renormalised to   48.00000

     negative rho (up, down):  0.131E-01 0.131E-01
     Starting wfc are   36 randomized atomic wfcs

     Self-consistent Calculation

     iteration #  1     ecut=    40.00 Ry     beta=0.30
     Davidson diagonalization with overlap
     ethr =  1.00E-02,  avg # of iterations =  5.3

     negative rho (up, down):  0.138E-01 0.138E-01

     total energy              =    -366.23010097 Ry
     Harris-Foulkes estimate   =    -366.74155537 Ry
     estimated scf accuracy    <       1.14916515 Ry

     total magnetization       =    -0.00 Bohr mag/cell
     absolute magnetization    =     0.00 Bohr mag/cell

[...]

     End of self-consistent calculation

 ------ SPIN UP ------------

          k = 0.0000 0.0000 0.0000 (  1667 PWs)   bands (ev):

   -46.2863 -46.2607 -22.7042 -22.7042 -22.4735 -22.4735 -22.4125 -22.3611
    -8.2468  -6.9673  -5.9948  -5.9948   4.2019   4.5423   4.8760   6.1912
     6.1912   7.6372   7.6372   8.2773   9.6311   9.8709   9.8709  10.3142
    12.4002  12.7726  12.9898  13.0997  13.0997  15.3494  15.4284  17.7011
    17.7011  18.7769  18.8794  22.5231  22.5231  25.4616  26.6090  27.7645
    30.0340  30.1298  30.8345  30.8345  32.8138  34.2909  35.2642  35.2642
    36.3496  36.9161  36.9161  37.2792  37.6312  37.6312  38.4382  40.3864
    43.5267  43.9793  44.0789  44.0789  44.1436  45.0155  45.8160  45.8160
    47.8877  48.6963  48.7930  48.7930  51.6268

[...]

 ------ SPIN DOWN ----------

[...]

     the Fermi energy is    12.3798 ev

!    total energy              =    -366.46233983 Ry
     Harris-Foulkes estimate   =    -366.46233721 Ry
     estimated scf accuracy    <       0.00000086 Ry

     The total energy is the sum of the following terms:

     one-electron contribution =    -114.90723589 Ry
     hartree contribution      =      83.23706224 Ry
     xc contribution           =     -63.66975758 Ry
     ewald contribution        =    -271.12259614 Ry
     smearing contrib. (-TS)   =       0.00018755 Ry

[...]

     convergence has been achieved in   9 iterations

     Forces acting on atoms (Ry/au):

     negative rho (up, down):  0.127E-01 0.127E-01
     atom    1 type  1   force =     0.00000000    0.00000000    0.00000000
     atom    2 type  1   force =     0.00000000    0.00000000   -0.00000000
     atom    3 type  2   force =    -0.01498931   -0.01498931   -0.00000000
     atom    4 type  2   force =     0.01498931    0.01498931    0.00000000
     atom    5 type  2   force =    -0.01498931    0.01498931    0.00000000
     atom    6 type  2   force =     0.01498931   -0.01498931    0.00000000

     Total force =     0.042396     Total SCF correction =     0.000406

     entering subroutine stress ...

     negative rho (up, down):  0.127E-01 0.127E-01
          total   stress  (Ry/bohr**3)                   (kbar)     P=  271.07
   0.00173006   0.00000000   0.00000000        254.50      0.00      0.00
   0.00000000   0.00173006   0.00000000          0.00    254.50      0.00
   0.00000000   0.00000000   0.00206789          0.00      0.00    304.20

     Volume is kept fixed: isostatic pressure set to zero

     BFGS Geometry Optimization

     number of scf cycles    =   1
     number of bfgs steps    =   0

     enthalpy new            =    -366.4623398261 Ry

     new trust radius        =       0.0222473737 bohr
     new conv_thr            =       0.0000010000 Ry

     new unit-cell volume =    390.31355 a.u.^3 (    57.83850 Ang^3 )

CELL_PARAMETERS (alat=  8.46076011)
   0.997192671   0.000000000   0.000000000
   0.000000000   0.997192671   0.000000000
   0.000000000   0.000000000   0.648078074

ATOMIC_POSITIONS (crystal)
Ti0      0.000000000   0.000000000   0.000000000    0   0   0
Ti0      0.500000000   0.500000000   0.500000000    0   0   0
O1       0.303228373   0.303228373   0.000000000    1   1   0
O1      -0.303228373  -0.303228373   0.000000000    1   1   0
[...]
        k(   24) = (   0.0000000   0.2007240   0.6162203), wk =   0.0640000
        k(   25) = (   0.0000000   0.4014480   0.0000000), wk =   0.0320000
        k(   26) = (   0.0000000   0.4014480   0.3081101), wk =   0.0640000
        k(   27) = (   0.0000000   0.4014480   0.6162203), wk =   0.0640000
        k(   28) = (   0.2007240   0.2007240   0.0000000), wk =   0.0320000
        k(   29) = (   0.2007240   0.2007240   0.3081101), wk =   0.0640000
        k(   30) = (   0.2007240   0.2007240   0.6162203), wk =   0.0640000
        k(   31) = (   0.2007240   0.4014480   0.0000000), wk =   0.0640000
        k(   32) = (   0.2007240   0.4014480   0.3081101), wk =   0.1280000
        k(   33) = (   0.2007240   0.4014480   0.6162203), wk =   0.1280000
        k(   34) = (   0.4014480   0.4014480   0.0000000), wk =   0.0320000
        k(   35) = (   0.4014480   0.4014480   0.3081101), wk =   0.0640000
        k(   36) = (   0.4014480   0.4014480   0.6162203), wk =   0.0640000

[...]

     Threshold (ethr) on eigenvalues was too large:
     Diagonalizing with lowered threshold

     Davidson diagonalization with overlap
     ethr =  2.13E-10,  avg # of iterations =  2.0

[...]

     Total force =     0.000021     Total SCF correction =     0.000027
     SCF correction compared to forces is large: reduce conv_thr to get better values

[...]

     Volume is kept fixed: isostatic pressure set to zero
Begin final coordinates
     new unit-cell volume =    390.31355 a.u.^3 (    57.83850 Ang^3 )

[...]

ATOMIC_POSITIONS (crystal)
Ti0      0.000000000   0.000000000   0.000000000    0   0   0
Ti0      0.500000000   0.500000000   0.500000000    0   0   0
O1       0.302203726   0.302203726   0.000000000    1   1   0
O1      -0.302203726  -0.302203726   0.000000000    1   1   0
O1       0.802203726   0.197796274   0.500000000    1   1   0
O1       0.197796274   0.802203726   0.500000000    1   1   0
End final coordinates

     lsda relaxation :  a final configuration with zero
                        absolute magnetization has been found

     the program is checking if it is really the minimum energy structure
     by performing a new scf iteration without any "electronic" history

[...]

     negative rho (up, down):  0.131E-01 0.131E-01
     Starting wfc are   36 randomized atomic wfcs
     Check: negative starting charge=(component1):   -0.025036
     NEW-OLD atomic charge density approx. for the potential
     NEW k-points:
        k(    1) = (   0.0000000   0.0000000   0.0000000), wk =   0.0080000
        k(    2) = (   0.0000000   0.0000000   0.3081101), wk =   0.0160000
        k(    3) = (   0.0000000   0.0000000   0.6162203), wk =   0.0160000
        k(    4) = (   0.0000000   0.2007240   0.0000000), wk =   0.0320000
        k(    5) = (   0.0000000   0.2007240   0.3081101), wk =   0.0640000
        k(    6) = (   0.0000000   0.2007240   0.6162203), wk =   0.0640000
        k(    7) = (   0.0000000   0.4014480   0.0000000), wk =   0.0320000
        k(    8) = (   0.0000000   0.4014480   0.3081101), wk =   0.0640000
        k(    9) = (   0.0000000   0.4014480   0.6162203), wk =   0.0640000
        k(   10) = (   0.2007240   0.2007240   0.0000000), wk =   0.0320000
        k(   11) = (   0.2007240   0.2007240   0.3081101), wk =   0.0640000
        k(   12) = (   0.2007240   0.2007240   0.6162203), wk =   0.0640000
        k(   13) = (   0.2007240   0.4014480   0.0000000), wk =   0.0640000
        k(   14) = (   0.2007240   0.4014480   0.3081101), wk =   0.1280000
        k(   15) = (   0.2007240   0.4014480   0.6162203), wk =   0.1280000
        k(   16) = (   0.4014480   0.4014480   0.0000000), wk =   0.0320000
        k(   17) = (   0.4014480   0.4014480   0.3081101), wk =   0.0640000
        k(   18) = (   0.4014480   0.4014480   0.6162203), wk =   0.0640000
        k(   19) = (   0.0000000   0.0000000   0.0000000), wk =   0.0080000
        k(   20) = (   0.0000000   0.0000000   0.3081101), wk =   0.0160000
        k(   21) = (   0.0000000   0.0000000   0.6162203), wk =   0.0160000
        k(   22) = (   0.0000000   0.2007240   0.0000000), wk =   0.0320000
        k(   23) = (   0.0000000   0.2007240   0.3081101), wk =   0.0640000
        k(   24) = (   0.0000000   0.2007240   0.6162203), wk =   0.0640000
        k(   25) = (   0.0000000   0.4014480   0.0000000), wk =   0.0320000
        k(   26) = (   0.0000000   0.4014480   0.3081101), wk =   0.0640000
        k(   27) = (   0.0000000   0.4014480   0.6162203), wk =   0.0640000
        k(   28) = (   0.2007240   0.2007240   0.0000000), wk =   0.0320000
        k(   29) = (   0.2007240   0.2007240   0.3081101), wk =   0.0640000
        k(   30) = (   0.2007240   0.2007240   0.6162203), wk =   0.0640000
        k(   31) = (   0.2007240   0.4014480   0.0000000), wk =   0.0640000
        k(   32) = (   0.2007240   0.4014480   0.3081101), wk =   0.1280000
        k(   33) = (   0.2007240   0.4014480   0.6162203), wk =   0.1280000
        k(   34) = (   0.4014480   0.4014480   0.0000000), wk =   0.0320000
        k(   35) = (   0.4014480   0.4014480   0.3081101), wk =   0.0640000
        k(   36) = (   0.4014480   0.4014480   0.6162203), wk =   0.0640000

     Check: negative/imaginary core charge=   -0.000015    0.000000
     Check: negative starting charge=(component1):   -0.025036

[...]

     Volume is kept fixed: isostatic pressure set to zero

     bfgs converged in   5 scf cycles and   4 bfgs steps
     (criteria: energy < 0.10E-03, force < 0.10E-02, cell < 0.50E+00)

     End of BFGS Geometry Optimization

     Final enthalpy =    -366.4642726145 Ry
Begin final coordinates
     new unit-cell volume =    390.31355 a.u.^3 (    57.83850 Ang^3 )

CELL_PARAMETERS (alat=  8.46076011)
   0.996393178   0.000000000   0.000000000
   0.000000000   0.996393178   0.000000000
   0.000000000   0.000000000   0.649118509

ATOMIC_POSITIONS (crystal)
Ti0      0.000000000   0.000000000   0.000000000    0   0   0
Ti0      0.500000000   0.500000000   0.500000000    0   0   0
O1       0.302203726   0.302203726   0.000000000    1   1   0
O1      -0.302203726  -0.302203726   0.000000000    1   1   0
O1       0.802203726   0.197796274   0.500000000    1   1   0
O1       0.197796274   0.802203726   0.500000000    1   1   0
End final coordinates

     A final scf calculation at the relaxed structure.
     The G-vectors are recalculated for the final unit cell
     Results may differ from those at the preceding step.

     bravais-lattice index     =            0
     lattice parameter (alat)  =       8.4608  a.u.
     unit-cell volume          =     390.3135 (a.u.)^3
     number of atoms/cell      =            6
     number of atomic types    =            2
     number of electrons       =        48.00
     number of Kohn-Sham states=           69
     kinetic-energy cutoff     =      40.0000  Ry
     charge density cutoff     =     500.0000  Ry
     convergence threshold     =      1.0E-08
     mixing beta               =       0.3000
     number of iterations used =            8  plain     mixing
     Exchange-correlation      = SLA  PW   PBE  PBE ( 1 4 3 4 0)
     EXX-fraction              =        0.00

     celldm(1)=   8.460760  celldm(2)=   0.000000  celldm(3)=   0.000000
     celldm(4)=   0.000000  celldm(5)=   0.000000  celldm(6)=   0.000000

     crystal axes: (cart. coord. in units of alat)
               a(1) = (   0.996393   0.000000   0.000000 )
               a(2) = (   0.000000   0.996393   0.000000 )
               a(3) = (   0.000000   0.000000   0.649119 )

     reciprocal axes: (cart. coord. in units 2 pi/alat)
               b(1) = (  1.003620  0.000000  0.000000 )
               b(2) = (  0.000000  1.003620  0.000000 )
               b(3) = (  0.000000  0.000000  1.540551 )

     PseudoPot. # 1 for Ti read from file:
     /home/camp/zhonxu/pseudo/ti_pbe_v1.uspp.F.UPF
     MD5 check sum: bcc8f6961b3b91f0cac3ca967d22d0fb
     Pseudo is Ultrasoft + core correction, Zval = 12.0
     Generated by new atomic code, or converted to UPF format
     Using radial grid of  851 points,  6 beta functions with:
                l(1) =   0
                l(2) =   0
                l(3) =   1
                l(4) =   1
                l(5) =   2
                l(6) =   2
     Q(r) pseudized with  6 coefficients,  rinner =    1.000   1.000   1.000
                                                       1.000   1.000

     PseudoPot. # 2 for O  read from file:
     /home/camp/zhonxu/pseudo/o_pbe_v1.01.uspp.F.UPF
     MD5 check sum: 2bcb18d16ea4b960afae9ec6d52f22d2
     Pseudo is Ultrasoft + core correction, Zval =  6.0
     Generated by new atomic code, or converted to UPF format
     Using radial grid of  737 points,  5 beta functions with:
                l(1) =   0
                l(2) =   0
                l(3) =   1
                l(4) =   1
                l(5) =   2
     Q(r) pseudized with  8 coefficients,  rinner =    0.900   0.900   0.900
                                                       0.900   0.900

     atomic species   valence    mass     pseudopotential
        Ti0           12.00    47.88000     Ti( 1.00)
        O1             6.00    15.99940     O ( 1.00)

     Starting magnetic structure
     atomic species   magnetization
        Ti0          0.000
        O1           0.000

     16 Sym. Ops., with inversion, found ( 8 have fractional translation)

   Cartesian axes

     site n.     atom                  positions (alat units)
         1           Ti0 tau(   1) = (   0.0000000   0.0000000   0.0000000  )
         2           Ti0 tau(   2) = (   0.4981966   0.4981966   0.3245593  )
         3           O1  tau(   3) = (   0.3011137   0.3011137   0.0000000  )
         4           O1  tau(   4) = (  -0.3011137  -0.3011137   0.0000000  )
         5           O1  tau(   5) = (   0.7993103   0.1970829   0.3245593  )
         6           O1  tau(   6) = (   0.1970829   0.7993103   0.3245593  )

     number of k points=    36  Methfessel-Paxton smearing, width (Ry)=  0.0100
                       cart. coord. in units 2pi/alat
        k(    1) = (   0.0000000   0.0000000   0.0000000), wk =   0.0080000
        k(    2) = (   0.0000000   0.0000000   0.3081101), wk =   0.0160000
        k(    3) = (   0.0000000   0.0000000   0.6162203), wk =   0.0160000
        k(    4) = (   0.0000000   0.2007240   0.0000000), wk =   0.0320000
        k(    5) = (   0.0000000   0.2007240   0.3081101), wk =   0.0640000
        k(    6) = (   0.0000000   0.2007240   0.6162203), wk =   0.0640000
        k(    7) = (   0.0000000   0.4014480   0.0000000), wk =   0.0320000
        k(    8) = (   0.0000000   0.4014480   0.3081101), wk =   0.0640000
        k(    9) = (   0.0000000   0.4014480   0.6162203), wk =   0.0640000
        k(   10) = (   0.2007240   0.2007240   0.0000000), wk =   0.0320000
        k(   11) = (   0.2007240   0.2007240   0.3081101), wk =   0.0640000
        k(   12) = (   0.2007240   0.2007240   0.6162203), wk =   0.0640000
        k(   13) = (   0.2007240   0.4014480   0.0000000), wk =   0.0640000
        k(   14) = (   0.2007240   0.4014480   0.3081101), wk =   0.1280000
        k(   15) = (   0.2007240   0.4014480   0.6162203), wk =   0.1280000
        k(   16) = (   0.4014480   0.4014480   0.0000000), wk =   0.0320000
        k(   17) = (   0.4014480   0.4014480   0.3081101), wk =   0.0640000
        k(   18) = (   0.4014480   0.4014480   0.6162203), wk =   0.0640000
        k(   19) = (   0.0000000   0.0000000   0.0000000), wk =   0.0080000
        k(   20) = (   0.0000000   0.0000000   0.3081101), wk =   0.0160000
        k(   21) = (   0.0000000   0.0000000   0.6162203), wk =   0.0160000
        k(   22) = (   0.0000000   0.2007240   0.0000000), wk =   0.0320000
        k(   23) = (   0.0000000   0.2007240   0.3081101), wk =   0.0640000
        k(   24) = (   0.0000000   0.2007240   0.6162203), wk =   0.0640000
        k(   25) = (   0.0000000   0.4014480   0.0000000), wk =   0.0320000
        k(   26) = (   0.0000000   0.4014480   0.3081101), wk =   0.0640000
        k(   27) = (   0.0000000   0.4014480   0.6162203), wk =   0.0640000
        k(   28) = (   0.2007240   0.2007240   0.0000000), wk =   0.0320000
        k(   29) = (   0.2007240   0.2007240   0.3081101), wk =   0.0640000
        k(   30) = (   0.2007240   0.2007240   0.6162203), wk =   0.0640000
        k(   31) = (   0.2007240   0.4014480   0.0000000), wk =   0.0640000
        k(   32) = (   0.2007240   0.4014480   0.3081101), wk =   0.1280000
        k(   33) = (   0.2007240   0.4014480   0.6162203), wk =   0.1280000
        k(   34) = (   0.4014480   0.4014480   0.0000000), wk =   0.0320000
        k(   35) = (   0.4014480   0.4014480   0.3081101), wk =   0.0640000
        k(   36) = (   0.4014480   0.4014480   0.6162203), wk =   0.0640000

     Largest allocated arrays     est. size (Mb)     dimensions
     Largest temporary arrays     est. size (Mb)     dimensions

     Check: negative/imaginary core charge=   -0.000015    0.000000

     Initial potential from superposition of free atoms
     Check: negative starting charge=(component1):   -0.012518
     Check: negative starting charge=(component2):   -0.012518

     starting charge   45.99991, renormalised to   48.00000

     negative rho (up, down):  0.131E-01 0.131E-01
     Starting wfc are   36 randomized atomic wfcs

     Self-consistent Calculation

[...]

     total energy              =    -366.46423870 Ry
     Harris-Foulkes estimate   =    -366.46423787 Ry
     estimated scf accuracy    <       0.00000003 Ry

[...]

     iteration # 11     ecut=    40.00 Ry     beta=0.30
     Davidson diagonalization with overlap
     ethr =  6.71E-11,  avg # of iterations =  1.0

     negative rho (up, down):  0.127E-01 0.127E-01

     End of self-consistent calculation

 ------ SPIN UP ------------

[...]

 ------ SPIN DOWN ----------

[...]

          k = 0.4014 0.4014 0.6162 (  1662 PWs)   bands (ev):

   -46.2442 -46.2435 -22.9259 -22.9198 -22.5787 -22.5667 -22.4851 -22.4817
    -6.8591  -6.6708  -6.5377  -6.3421   5.0636   5.2151   5.5693   5.7049
     6.4832   6.7853   7.7148   7.7603   8.5696   8.7695   9.4598   9.5986
    12.9582  13.4309  13.6923  13.7653  13.8338  14.2053  16.3438  16.8995
    17.1073  17.6324  22.3901  22.6906  24.7902  25.6080  25.8843  26.6088
    28.6032  28.7864  29.3403  29.8625  30.5802  31.1441  34.5588  35.3549
    36.5805  36.8851  37.3179  37.9337  40.4668  40.5241  42.1042  42.9070
    44.3097  44.7601  44.8073  45.5853  45.5972  46.4222  46.6046  47.1697
    48.1314  48.9281  49.7549  50.6434  51.0547

     the Fermi energy is    10.4981 ev

!    total energy              =    -366.46423951 Ry
     Harris-Foulkes estimate   =    -366.46423871 Ry
     estimated scf accuracy    <          7.1E-11 Ry

     The total energy is the sum of the following terms:

     one-electron contribution =    -113.68354211 Ry
     hartree contribution      =      82.61869532 Ry
     xc contribution           =     -63.64851401 Ry
     ewald contribution        =    -271.75089081 Ry
     smearing contrib. (-TS)   =       0.00001211 Ry

     total magnetization       =    -0.00 Bohr mag/cell
     absolute magnetization    =     0.00 Bohr mag/cell

     convergence has been achieved in  11 iterations

     Forces acting on atoms (Ry/au):

     negative rho (up, down):  0.127E-01 0.127E-01
     atom    1 type  1   force =     0.00000000    0.00000000   -0.00000000
     atom    2 type  1   force =     0.00000000    0.00000000   -0.00000000
     atom    3 type  2   force =     0.00014405    0.00014405    0.00000000
     atom    4 type  2   force =    -0.00014405   -0.00014405   -0.00000000
     atom    5 type  2   force =     0.00014405   -0.00014405    0.00000000
     atom    6 type  2   force =    -0.00014405    0.00014405    0.00000000

     Total force =     0.000407     Total SCF correction =     0.000010

     entering subroutine stress ...

     negative rho (up, down):  0.127E-01 0.127E-01
          total   stress  (Ry/bohr**3)                   (kbar)     P=  254.11
   0.00172695   0.00000000   0.00000000        254.04      0.00      0.00
   0.00000000   0.00172695   0.00000000          0.00    254.04      0.00
   0.00000000   0.00000000   0.00172827          0.00      0.00    254.24

     General routines

     Parallel routines

   This run was terminated on:  14:12:20  24Jan2014

   JOB DONE.
Running PBS batch system epilogue script
Job id: 251969.audhumbla.fysik.dtu.dk
Username: zhonxu
Groupname: campgst
Jobname: TiO2/fine-EOS/non-mag/TiO2-v-0.90
Sessionid: 23854
Queuename: verylong
Accounting:
This job has allocated the following 4 nodes:
q021 q021 q021 q021
Finished epilogue job 251969.audhumbla.fysik.dtu.dk for zhonxu