     Program PWSCF v.5.0.2 (svn rev. 9656) starts on 30Apr2014 at 22:20:25

     Current dimensions of program PWSCF are:
     Max number of different atomic species (ntypx) = 10
     Max number of k-points (npk) =  40000
     Max angular momentum in pseudopotentials (lmaxx) =  3
     Reading input from pwscf.in
Warning: card &CELL ignored
Warning: card / ignored

     Subspace diagonalization in iterative solution of the eigenvalue problem:
     a serial algorithm will be used

     bravais-lattice index     =            0
     lattice parameter (alat)  =      11.1872  a.u.
     unit-cell volume          =    7531.8600 (a.u.)^3
     number of atoms/cell      =           32
     number of atomic types    =            3
     number of electrons       =       223.00
     number of Kohn-Sham states=          334
     kinetic-energy cutoff     =      40.0000  Ry
     charge density cutoff     =     500.0000  Ry
     convergence threshold     =      1.0E-06
     mixing beta               =       0.7000
     number of iterations used =            8  plain     mixing
     Exchange-correlation      = SLA  PW   PBE  PBE ( 1 4 3 4 0)
     EXX-fraction              =        0.00
     nstep                     =           50

     celldm(1)=  11.187179  celldm(2)=   0.000000  celldm(3)=   0.000000
     celldm(4)=   0.000000  celldm(5)=   0.000000  celldm(6)=   0.000000

     crystal axes: (cart. coord. in units of alat)
               a(1) = (   1.000000   0.000000   0.000000 )
               a(2) = (   0.000000   1.180104   0.000000 )
               a(3) = (   0.000000   0.000000   4.558482 )

     reciprocal axes: (cart. coord. in units 2 pi/alat)
               b(1) = (  1.000000  0.000000  0.000000 )
               b(2) = (  0.000000  0.847383  0.000000 )
               b(3) = (  0.000000  0.000000  0.219371 )

     PseudoPot. # 1 for O  read from file:
     /home/camp/zhonxu/pseudo/o_pbe_v1.01.uspp.F.UPF
     MD5 check sum: 2bcb18d16ea4b960afae9ec6d52f22d2
     Pseudo is Ultrasoft + core correction, Zval =  6.0
     Generated by new atomic code, or converted to UPF format
     Using radial grid of  737 points,  5 beta functions with:
                l(1) =   0
                l(2) =   0
                l(3) =   1
                l(4) =   1
                l(5) =   2
     Q(r) pseudized with  8 coefficients,  rinner =    0.900   0.900   0.900
                                                       0.900   0.900

     PseudoPot. # 2 for Nb read from file:
     /home/camp/zhonxu/pseudo/nb_pbe_v1.uspp.F.UPF
     MD5 check sum: 573aab8a2fa660278ed4a62cd769473f
     Pseudo is Ultrasoft + core correction, Zval = 13.0
     Generated by new atomic code, or converted to UPF format
     Using radial grid of  887 points,  6 beta functions with:
                l(1) =   0
                l(2) =   0
                l(3) =   1
                l(4) =   1
                l(5) =   2
                l(6) =   2
     Q(r) pseudized with  6 coefficients,  rinner =    1.000   1.000   1.000
                                                       1.000   1.000

     PseudoPot. # 3 for H  read from file:
     /home/camp/zhonxu/pseudo/h_pbe_v1.uspp.F.UPF
     MD5 check sum: 3408e3ff4ec8b0a4e358431e7e038a48
     Pseudo is Ultrasoft, Zval =  1.0
     Generated by new atomic code, or converted to UPF format
     Using radial grid of  615 points,  2 beta functions with:
                l(1) =   0
                l(2) =   0
     Q(r) pseudized with  8 coefficients,  rinner =    0.700

     atomic species   valence    mass     pseudopotential
        O0             6.00    15.99940     O ( 1.00)
        Nb1           13.00    92.90640     Nb( 1.00)
        H2             1.00     1.00794     H ( 1.00)

     Simplified LDA+U calculation (l_max = 2) with parameters (eV):
     atomic species    L          U    alpha       J0     beta
        Nb1            2     2.5000   0.0000   0.0000   0.0000

     No symmetry found

   Cartesian axes

     site n.     atom                  positions (alat units)
         1           O0  tau(   1) = (   0.0000000   0.0000000   1.6962568  )
         2           O0  tau(   2) = (   0.0000000   0.5900519   1.7738878  )
         3           Nb1 tau(   3) = (   0.2500000   0.5900519   2.0270203  )
         4           Nb1 tau(   4) = (   0.0000000   0.0000000   2.0275217  )
         5           O0  tau(   5) = (   0.2500000   0.9322821   2.0383253  )
         6           O0  tau(   6) = (   0.2500000   0.2478218   2.0383253  )
         7           O0  tau(   7) = (   0.0000000   0.5900519   2.2801984  )
         8           O0  tau(   8) = (   0.0000000   0.0000000   2.3861375  )
         9           Nb1 tau(   9) = (   0.2500000   0.0000000   2.6321588  )
        10           Nb1 tau(  10) = (   0.0000000   0.5900519   2.5957821  )
        11           O0  tau(  11) = (   0.2500000   0.8378738   2.6252299  )
        12           O0  tau(  12) = (   0.2500000   0.3422301   2.6252299  )
        13           O0  tau(  13) = (   0.0000000   0.0000000   2.8359230  )
        14           O0  tau(  14) = (   0.5000000   0.0000000   1.6977155  )
        15           O0  tau(  15) = (   0.5000000   0.5900519   1.7812725  )
        16           Nb1 tau(  16) = (   0.7500000   0.5900519   2.0271571  )
        17           Nb1 tau(  17) = (   0.5000000   0.0000000   2.0300745  )
        18           O0  tau(  18) = (   0.7500000   0.9322821   2.0383253  )
        19           O0  tau(  19) = (   0.7500000   0.2478218   2.0383709  )
        20           O0  tau(  20) = (   0.5000000   0.5900519   2.2745003  )
        21           O0  tau(  21) = (   0.5000000   0.0000000   2.3862287  )
        22           Nb1 tau(  22) = (   0.7500000   0.0000000   2.6327514  )
        23           Nb1 tau(  23) = (   0.5000000   0.5900519   2.6327970  )
        24           O0  tau(  24) = (   0.7500000   0.8378738   2.6254579  )
        25           O0  tau(  25) = (   0.7500000   0.3422301   2.6255034  )
        26           O0  tau(  26) = (   0.5000000   0.0000000   2.8354216  )
        27           H2  tau(  27) = (  -0.0004800   0.5922115   1.6084605  )
        28           H2  tau(  28) = (   0.4995300   0.5922233   1.6161643  )
        29           H2  tau(  29) = (   0.1505800   0.0006019   1.6239593  )
        30           H2  tau(  30) = (   0.6505400   0.0006019   1.6254180  )
        31           O0  tau(  31) = (   0.5024200   0.5900519   2.9584550  )
        32           H2  tau(  32) = (   0.3976800   0.5901109   3.0854543  )

     number of k points=    10  Methfessel-Paxton smearing, width (Ry)=  0.0100
                       cart. coord. in units 2pi/alat
        k(    1) = (   0.0000000   0.0000000   0.0000000), wk =   0.1250000
        k(    2) = (   0.0000000   0.2118458   0.0000000), wk =   0.2500000
        k(    3) = (   0.0000000  -0.4236915   0.0000000), wk =   0.1250000
        k(    4) = (   0.2500000   0.0000000   0.0000000), wk =   0.2500000
        k(    5) = (   0.2500000   0.2118458   0.0000000), wk =   0.2500000
        k(    6) = (   0.2500000  -0.4236915   0.0000000), wk =   0.2500000
        k(    7) = (  -0.5000000   0.0000000   0.0000000), wk =   0.1250000
        k(    8) = (  -0.5000000   0.2118458   0.0000000), wk =   0.2500000
        k(    9) = (  -0.5000000  -0.4236915   0.0000000), wk =   0.1250000
        k(   10) = (  -0.2500000   0.2118458   0.0000000), wk =   0.2500000

     Largest allocated arrays     est. size (Mb)     dimensions
     Largest temporary arrays     est. size (Mb)     dimensions

     Check: negative/imaginary core charge=   -0.000003    0.000000

     Initial potential from superposition of free atoms
     Check: negative starting charge=   -0.003641

     starting charge  222.97806, renormalised to  223.00000

     negative rho (up, down):  0.364E-02 0.000E+00
     Number of +U iterations with fixed ns =  0
     Starting occupations:
 --- enter write_ns ---
 LDA+U parameters:
U( 2)     =  2.50000000
alpha( 2) =  0.00000000
atom    3   Tr[ns(na)] =   3.00000
    eigenvalues:
  0.300  0.300  0.300  0.300  0.300
    eigenvectors:
  1.000  0.000  0.000  0.000  0.000
  0.000  1.000  0.000  0.000  0.000
  0.000  0.000  1.000  0.000  0.000
  0.000  0.000  0.000  1.000  0.000
  0.000  0.000  0.000  0.000  1.000
    occupations:
  0.300  0.000  0.000  0.000  0.000
  0.000  0.300  0.000  0.000  0.000
  0.000  0.000  0.300  0.000  0.000
  0.000  0.000  0.000  0.300  0.000
  0.000  0.000  0.000  0.000  0.300
atom    4   Tr[ns(na)] =   3.00000
    eigenvalues:
  0.300  0.300  0.300  0.300  0.300
    eigenvectors:
  1.000  0.000  0.000  0.000  0.000
  0.000  1.000  0.000  0.000  0.000
  0.000  0.000  1.000  0.000  0.000
  0.000  0.000  0.000  1.000  0.000
  0.000  0.000  0.000  0.000  1.000
    occupations:
  0.300  0.000  0.000  0.000  0.000
  0.000  0.300  0.000  0.000  0.000
  0.000  0.000  0.300  0.000  0.000
  0.000  0.000  0.000  0.300  0.000
  0.000  0.000  0.000  0.000  0.300
atom    9   Tr[ns(na)] =   3.00000
    eigenvalues:
  0.300  0.300  0.300  0.300  0.300
    eigenvectors:
  1.000  0.000  0.000  0.000  0.000
  0.000  1.000  0.000  0.000  0.000
  0.000  0.000  1.000  0.000  0.000
  0.000  0.000  0.000  1.000  0.000
  0.000  0.000  0.000  0.000  1.000
    occupations:
  0.300  0.000  0.000  0.000  0.000
  0.000  0.300  0.000  0.000  0.000
  0.000  0.000  0.300  0.000  0.000
  0.000  0.000  0.000  0.300  0.000
  0.000  0.000  0.000  0.000  0.300
atom   10   Tr[ns(na)] =   3.00000
    eigenvalues:
  0.300  0.300  0.300  0.300  0.300
    eigenvectors:
  1.000  0.000  0.000  0.000  0.000
  0.000  1.000  0.000  0.000  0.000
  0.000  0.000  1.000  0.000  0.000
  0.000  0.000  0.000  1.000  0.000
  0.000  0.000  0.000  0.000  1.000
    occupations:
  0.300  0.000  0.000  0.000  0.000
  0.000  0.300  0.000  0.000  0.000
  0.000  0.000  0.300  0.000  0.000
  0.000  0.000  0.000  0.300  0.000
  0.000  0.000  0.000  0.000  0.300
atom   16   Tr[ns(na)] =   3.00000
    eigenvalues:
  0.300  0.300  0.300  0.300  0.300
    eigenvectors:
  1.000  0.000  0.000  0.000  0.000
  0.000  1.000  0.000  0.000  0.000
  0.000  0.000  1.000  0.000  0.000
  0.000  0.000  0.000  1.000  0.000
  0.000  0.000  0.000  0.000  1.000
    occupations:
  0.300  0.000  0.000  0.000  0.000
  0.000  0.300  0.000  0.000  0.000
  0.000  0.000  0.300  0.000  0.000
  0.000  0.000  0.000  0.300  0.000
  0.000  0.000  0.000  0.000  0.300
atom   17   Tr[ns(na)] =   3.00000
    eigenvalues:
  0.300  0.300  0.300  0.300  0.300
    eigenvectors:
  1.000  0.000  0.000  0.000  0.000
  0.000  1.000  0.000  0.000  0.000
  0.000  0.000  1.000  0.000  0.000
  0.000  0.000  0.000  1.000  0.000
  0.000  0.000  0.000  0.000  1.000
    occupations:
  0.300  0.000  0.000  0.000  0.000
  0.000  0.300  0.000  0.000  0.000
  0.000  0.000  0.300  0.000  0.000
  0.000  0.000  0.000  0.300  0.000
  0.000  0.000  0.000  0.000  0.300
atom   22   Tr[ns(na)] =   3.00000
    eigenvalues:
  0.300  0.300  0.300  0.300  0.300
    eigenvectors:
  1.000  0.000  0.000  0.000  0.000
  0.000  1.000  0.000  0.000  0.000
  0.000  0.000  1.000  0.000  0.000
  0.000  0.000  0.000  1.000  0.000
  0.000  0.000  0.000  0.000  1.000
[...]
atom    9   Tr[ns(na)] =   5.28833
    eigenvalues:
  0.454  0.465  0.508  0.607  0.611
    eigenvectors:
  0.880  0.000  0.000  0.118  0.002
  0.000  0.000  0.000  0.015  0.985
  0.000  0.052  0.948  0.000  0.000
  0.120  0.000  0.000  0.867  0.013
  0.000  0.948  0.052  0.000  0.000
    occupations:
  0.472 -0.000  0.000  0.050  0.000
 -0.000  0.611 -0.000 -0.000 -0.000
  0.000 -0.000  0.505 -0.000  0.009
  0.050 -0.000 -0.000  0.588 -0.000
  0.000 -0.000  0.009 -0.000  0.467
atom   10   Tr[ns(na)] =   5.11775
    eigenvalues:
  0.371  0.497  0.512  0.547  0.633
    eigenvectors:
  0.000  0.011  0.977  0.000  0.012
  0.000  0.989  0.011  0.000  0.000
  1.000  0.000  0.000  0.000  0.000
  0.000  0.000  0.012  0.000  0.988
  0.000  0.000  0.000  1.000  0.000
    occupations:
  0.513 -0.002 -0.000  0.013  0.000
 -0.002  0.497  0.000 -0.001  0.000
 -0.000  0.000  0.371 -0.000  0.000
  0.013 -0.001 -0.000  0.631  0.000
  0.000  0.000  0.000  0.000  0.547
atom   16   Tr[ns(na)] =   5.20374
    eigenvalues:
  0.372  0.414  0.515  0.573  0.728
    eigenvectors:
  0.000  0.000  0.001  0.420  0.578
  0.000  0.000  0.998  0.002  0.000
  0.000  1.000  0.000  0.000  0.000
  0.000  0.000  0.001  0.577  0.422
  1.000  0.000  0.000  0.000  0.000
    occupations:
  0.662  0.003  0.001 -0.076 -0.000
  0.003  0.515 -0.000  0.001  0.000
  0.001 -0.000  0.414 -0.000  0.001
 -0.076  0.001 -0.000  0.638  0.000
 -0.000  0.000  0.001  0.000  0.372
atom   17   Tr[ns(na)] =   5.24060
    eigenvalues:
  0.410  0.443  0.550  0.584  0.633
    eigenvectors:
  0.000  0.004  0.000  0.995  0.000
  0.000  0.995  0.000  0.005  0.001
  1.000  0.000  0.000  0.000  0.000
  0.000  0.001  0.000  0.000  0.999
  0.000  0.000  1.000  0.000  0.000
    occupations:
  0.584  0.009  0.000  0.001  0.000
  0.009  0.443 -0.000 -0.006 -0.000
  0.000 -0.000  0.410  0.000  0.001
  0.001 -0.006  0.000  0.633  0.000
  0.000 -0.000  0.001  0.000  0.550
atom   22   Tr[ns(na)] =   5.28563
    eigenvalues:
  0.454  0.465  0.506  0.607  0.611
    eigenvectors:
  0.880  0.000  0.000  0.118  0.001
  0.000  0.000  0.000  0.011  0.989
  0.000  0.075  0.925  0.000  0.000
  0.120  0.000  0.000  0.871  0.010
  0.000  0.925  0.075  0.000  0.000
    occupations:
  0.472  0.000  0.000  0.050 -0.000
  0.000  0.611  0.000  0.000 -0.000
  0.000  0.000  0.503 -0.000 -0.011
  0.050  0.000 -0.000  0.589  0.000
 -0.000 -0.000 -0.011  0.000  0.468
atom   23   Tr[ns(na)] =   5.28477
    eigenvalues:
  0.422  0.468  0.550  0.590  0.612
    eigenvectors:
  0.000  0.009  0.000  0.972  0.019
  0.000  0.990  0.000  0.010  0.000
  1.000  0.000  0.000  0.000  0.000
  0.000  0.001  0.000  0.019  0.981
  0.000  0.000  1.000  0.000  0.000
    occupations:
  0.590  0.012 -0.000  0.003  0.000
  0.012  0.469  0.000 -0.003  0.000
 -0.000  0.000  0.422 -0.000  0.000
  0.003 -0.003 -0.000  0.611 -0.000
  0.000  0.000  0.000 -0.000  0.550
N of occupied +U levels =  41.8656164
 --- exit write_ns ---

     Threshold (ethr) on eigenvalues was too large:
     Diagonalizing with lowered threshold

     Davidson diagonalization with overlap
     ethr =  3.01E-09,  avg # of iterations =  3.0

[...]

     total energy              =   -1561.93234305 Ry
     Harris-Foulkes estimate   =   -1561.93234306 Ry
     estimated scf accuracy    <       0.00000003 Ry

     iteration #  9     ecut=    40.00 Ry     beta=0.70
     Davidson diagonalization with overlap
     ethr =  1.40E-11,  avg # of iterations =  1.0

     negative rho (up, down):  0.346E-02 0.000E+00

     End of self-consistent calculation
 --- enter write_ns ---
 LDA+U parameters:
U( 2)     =  2.50000000
alpha( 2) =  0.00000000
atom    3   Tr[ns(na)] =   5.20413
    eigenvalues:
  0.370  0.414  0.515  0.573  0.730
    eigenvectors:
  0.000  0.000  0.002  0.415  0.583
  0.000  0.000  0.997  0.003  0.000
  0.027  0.973  0.000  0.000  0.000
  0.000  0.000  0.001  0.583  0.416
  0.973  0.027  0.000  0.000  0.000
    occupations:
  0.664 -0.005  0.000 -0.077  0.000
 -0.005  0.515  0.000 -0.000  0.000
  0.000  0.000  0.412 -0.000 -0.007
 -0.077 -0.000 -0.000  0.638 -0.000
  0.000  0.000 -0.007 -0.000  0.372
atom    4   Tr[ns(na)] =   5.24003
    eigenvalues:
  0.408  0.442  0.552  0.584  0.634
    eigenvectors:
  0.000  0.005  0.000  0.994  0.001
  0.000  0.994  0.000  0.005  0.001
  1.000  0.000  0.000  0.000  0.000
  0.000  0.001  0.000  0.001  0.998
  0.000  0.000  1.000  0.000  0.000
    occupations:
  0.583  0.010  0.000  0.002  0.000
  0.010  0.443 -0.000 -0.006 -0.000
  0.000 -0.000  0.408  0.000  0.001
  0.002 -0.006  0.000  0.634  0.000
  0.000 -0.000  0.001  0.000  0.552
atom    9   Tr[ns(na)] =   5.28843
    eigenvalues:
  0.454  0.465  0.508  0.607  0.611
    eigenvectors:
  0.880  0.000  0.000  0.118  0.002
  0.000  0.000  0.000  0.015  0.985
  0.000  0.052  0.948  0.000  0.000
  0.120  0.000  0.000  0.867  0.013
  0.000  0.948  0.052  0.000  0.000
    occupations:
  0.472 -0.000  0.000  0.050  0.000
 -0.000  0.611 -0.000 -0.000 -0.000
  0.000 -0.000  0.505 -0.000  0.009
  0.050 -0.000 -0.000  0.588 -0.000
  0.000 -0.000  0.009 -0.000  0.467
atom   10   Tr[ns(na)] =   5.11838
    eigenvalues:
  0.371  0.497  0.512  0.547  0.633
    eigenvectors:
  0.000  0.011  0.977  0.000  0.012
  0.000  0.989  0.011  0.000  0.000
  1.000  0.000  0.000  0.000  0.000
  0.000  0.000  0.012  0.000  0.988
  0.000  0.000  0.000  1.000  0.000
    occupations:
  0.513 -0.002 -0.000  0.013  0.000
 -0.002  0.497  0.000 -0.001  0.000
 -0.000  0.000  0.371 -0.000  0.000
  0.013 -0.001 -0.000  0.632  0.000
  0.000  0.000  0.000  0.000  0.547
atom   16   Tr[ns(na)] =   5.20398
    eigenvalues:
  0.372  0.414  0.515  0.573  0.728
    eigenvectors:
  0.000  0.000  0.001  0.420  0.579
  0.000  0.000  0.998  0.002  0.000
  0.000  1.000  0.000  0.000  0.000
  0.000  0.000  0.001  0.578  0.421
  1.000  0.000  0.000  0.000  0.000
    occupations:
  0.662  0.003  0.001 -0.076 -0.000
  0.003  0.515 -0.000  0.001  0.000
  0.001 -0.000  0.414 -0.000  0.001
 -0.076  0.001 -0.000  0.638  0.000
 -0.000  0.000  0.001  0.000  0.372
atom   17   Tr[ns(na)] =   5.24031
    eigenvalues:
  0.410  0.443  0.550  0.584  0.633
    eigenvectors:
  0.000  0.004  0.000  0.995  0.000
  0.000  0.995  0.000  0.005  0.001
  1.000  0.000  0.000  0.000  0.000
  0.000  0.001  0.000  0.000  0.999
  0.000  0.000  1.000  0.000  0.000
    occupations:
  0.584  0.009  0.000  0.001  0.000
  0.009  0.443 -0.000 -0.006 -0.000
  0.000 -0.000  0.410  0.000  0.001
  0.001 -0.006  0.000  0.633  0.000
  0.000 -0.000  0.001  0.000  0.550
atom   22   Tr[ns(na)] =   5.28578
    eigenvalues:
  0.454  0.465  0.506  0.607  0.611
    eigenvectors:
  0.880  0.000  0.000  0.118  0.001
  0.000  0.000  0.000  0.011  0.989
  0.000  0.075  0.925  0.000  0.000
  0.120  0.000  0.000  0.871  0.010
  0.000  0.925  0.075  0.000  0.000
    occupations:
  0.472  0.000  0.000  0.050 -0.000
  0.000  0.611  0.000  0.000 -0.000
  0.000  0.000  0.503 -0.000 -0.011
  0.050  0.000 -0.000  0.589  0.000
 -0.000 -0.000 -0.011  0.000  0.468
atom   23   Tr[ns(na)] =   5.28463
    eigenvalues:
  0.422  0.468  0.550  0.590  0.612
    eigenvectors:
  0.000  0.009  0.000  0.972  0.019
  0.000  0.990  0.000  0.010  0.000
  1.000  0.000  0.000  0.000  0.000
  0.000  0.001  0.000  0.019  0.981
  0.000  0.000  1.000  0.000  0.000
    occupations:
  0.590  0.012 -0.000  0.003  0.000
  0.012  0.469  0.000 -0.003  0.000
 -0.000  0.000  0.422 -0.000  0.000
  0.003 -0.003 -0.000  0.611 -0.000
  0.000  0.000  0.000 -0.000  0.550
N of occupied +U levels =  41.8656786
 --- exit write_ns ---

[...]

          k = 0.2500-0.4237 0.0000 ( 32188 PWs)   bands (ev):

[...]

          k =-0.2500 0.2118 0.0000 ( 32165 PWs)   bands (ev):

   -56.1397 -56.0744 -55.8158 -55.7563 -55.7480 -55.6744 -55.6542 -55.5976
   -32.9563 -32.3452 -32.3067 -32.2532 -32.2363 -32.2131 -32.2018 -32.1345
   -32.1199 -32.1146 -32.0765 -32.0632 -32.0252 -32.0243 -31.9817 -31.8223
   -31.7626 -31.6923 -31.6333 -31.6223 -31.5986 -31.5226 -31.4831 -31.3980
   -20.2605 -20.0601 -19.2938 -19.0456 -19.0282 -18.8822 -18.8025 -18.7644
   -18.7253 -18.6762 -18.6540 -18.6463 -18.0724 -18.0001 -17.9733 -17.9133
   -17.8338 -17.7442 -17.6788  -8.7404  -8.3990  -7.5095  -7.4216  -6.9860
    -6.8125  -6.6960  -6.5353  -6.4289  -6.2423  -6.1801  -6.0963  -6.0836
    -5.9016  -5.8124  -5.7894  -5.7489  -5.5372  -5.5160  -5.4928  -5.3213
    -5.0684  -4.9895  -4.9142  -4.7603  -4.5840  -4.4795  -4.3447  -4.2809
    -4.2254  -4.1569  -4.1020  -3.9997  -3.9456  -3.8774  -3.8561  -3.8359
    -3.8020  -3.6193  -3.5887  -3.4783  -3.4418  -3.3598  -3.2215  -3.1416
    -3.1084  -3.0390  -2.9385  -2.9252  -2.7367  -2.7039  -2.6690  -2.5249
    -2.4544  -2.4115  -2.2882  -1.9916  -0.2790   0.4085   0.4953   1.0188
     1.1161   1.4590   1.7264   1.7929   1.8637   2.1199   2.1647   2.2292
     2.3569   2.4089   2.4699   2.5288   2.7175   2.7695   2.8238   2.8447
     2.9052   2.9791   3.0762   3.1113   3.2976   3.7370   4.2272   4.3248
     4.5986   4.7244   4.9396   5.0904   5.1224   5.1899   5.3623   5.4018
     5.4718   5.6213   5.7154   5.8040   5.8348   5.9196   6.0390   6.1242
     6.4206   6.4377   6.4781   6.6471   6.6812   6.7649   6.8473   6.9826
     7.1278   7.2372   7.3128   7.3454   7.4863   7.6752   7.8746   7.9530
     8.0240   8.0683   8.2020   8.2891   8.4280   8.5174   8.6387   8.7216
     8.8342   8.9198   8.9960   9.1556   9.1973   9.3045   9.3499   9.5097
     9.5884   9.6721   9.8100   9.8280   9.9991  10.0584  10.0923  10.2355
    10.3324  10.4025  10.5097  10.7168  10.7938  10.9012  10.9522  11.0414
    11.0815  11.1321  11.2346  11.2969  11.3665  11.5090  11.5354  11.5783
    11.6023  11.7245  11.8557  11.8753  12.0096  12.0822  12.1857  12.2708
    12.4073  12.4587  12.5189  12.5655  12.6501  12.6935  12.7765  12.8355
    12.8914  12.9408  12.9901  13.0323  13.1200  13.2047  13.2843  13.3884
    13.4685  13.5122  13.5781  13.6121  13.6911  13.7860  13.8450  13.9294
    13.9690  14.0403  14.0473  14.1410  14.2450  14.3025  14.3456  14.4346
    14.5712  14.7102  14.7531  14.7883  14.8633  14.9123  15.0236  15.0878
    15.2023  15.2489  15.2925  15.3826  15.3991  15.4355  15.5218  15.6121
    15.6519  15.7663  15.8132  15.8736  15.9027  15.9487  16.0531  16.1181
    16.1930  16.2467  16.2888  16.3695  16.4737  16.5973  16.6340  16.6742
    16.7559  16.8004  16.8619  16.9579  17.0222  17.0611  17.1378  17.1830
    17.2518  17.2913  17.3194  17.4126  17.4639  17.5416  17.6240  17.7097
    17.7930  17.8485  17.9416  17.9927  18.0506  18.1301  18.1550  18.2321
    18.3308  18.4103  18.4958  18.5438  18.5939  18.6451  18.7505  18.8161
    18.8680  18.9769  19.0002  19.0916  19.1183  19.1976  19.2415  19.2873
    19.3358  19.3914  19.4603  19.5618  19.5990  19.6652  19.6927  19.7639
    19.8008  19.8661  19.9075  19.9844  20.0232  20.0623

     the Fermi energy is     1.0542 ev

!    total energy              =   -1561.93234305 Ry
     Harris-Foulkes estimate   =   -1561.93234306 Ry
     estimated scf accuracy    <          4.4E-09 Ry

     The total energy is the sum of the following terms:

     one-electron contribution =  -19052.86613492 Ry
     hartree contribution      =    9556.28494537 Ry
     xc contribution           =    -287.64275879 Ry
     ewald contribution        =    8220.52079297 Ry
     Hubbard energy            =       1.77075340 Ry
     smearing contrib. (-TS)   =       0.00005892 Ry

     convergence has been achieved in   9 iterations

     Forces acting on atoms (Ry/au):

     negative rho (up, down):  0.346E-02 0.000E+00
     atom    1 type  1   force =     0.00187804   -0.00001454    0.00041055
     atom    2 type  1   force =    -0.00136648    0.00024791    0.00056789
     atom    3 type  2   force =     0.01601194   -0.00022361   -0.00011651
     atom    4 type  2   force =    -0.00526243    0.00006252    0.00051253
     atom    5 type  1   force =    -0.00323416   -0.01385225   -0.00008479
     atom    6 type  1   force =    -0.00332837    0.01379458   -0.00008662
     atom    7 type  1   force =    -0.00112996    0.00003904   -0.00012222
     atom    8 type  1   force =     0.00138484    0.00000970   -0.00050796
     atom    9 type  2   force =     0.00126679    0.00000417   -0.00027090
     atom   10 type  2   force =     0.00009253   -0.00000218    0.00011065
     atom   11 type  1   force =    -0.01834040   -0.01170067   -0.00009288
     atom   12 type  1   force =    -0.01834267    0.01170346   -0.00009640
     atom   13 type  1   force =     0.00127635   -0.00000001   -0.00053276
     atom   14 type  1   force =     0.00095416   -0.00002988    0.00045012
     atom   15 type  1   force =    -0.00052275    0.00024902    0.00043388
     atom   16 type  2   force =    -0.01090418   -0.00020783   -0.00020535
     atom   17 type  2   force =    -0.00387849    0.00007215    0.00043749
     atom   18 type  1   force =     0.00445826   -0.01419140   -0.00006683
     atom   19 type  1   force =     0.00439577    0.01413080   -0.00006686
     atom   20 type  1   force =    -0.00638528    0.00008462   -0.00019217
     atom   21 type  1   force =     0.00204696    0.00000347   -0.00001925
     atom   22 type  2   force =    -0.00227722    0.00000101   -0.00011314
     atom   23 type  2   force =     0.00565151   -0.00001169   -0.00021063
     atom   24 type  1   force =     0.01743278   -0.01331886   -0.00012627
     atom   25 type  1   force =     0.01742636    0.01331987   -0.00012630
     atom   26 type  1   force =     0.00006032   -0.00000125   -0.00043861
     atom   27 type  3   force =     0.00000880   -0.00007846    0.00041149
     atom   28 type  3   force =    -0.00000193   -0.00005894    0.00022439
     atom   29 type  3   force =    -0.00023180   -0.00001961   -0.00001559
     atom   30 type  3   force =    -0.00019906   -0.00001660    0.00009306
     atom   31 type  1   force =     0.00022214    0.00000194   -0.00010576
     atom   32 type  3   force =     0.00083763    0.00000354   -0.00005424

     Total force =     0.001869     Total SCF correction =     0.000135

     bfgs converged in  17 scf cycles and  16 bfgs steps
     (criteria: energy < 0.10E-03, force < 0.10E-02)

     End of BFGS Geometry Optimization

     Final energy   =   -1561.9323430533 Ry
Begin final coordinates

ATOMIC_POSITIONS (crystal)
O0       0.000000000   0.000000000   0.372543902    0   0   1
O0       0.000000000   0.500000000   0.388550679    0   0   1
Nb1      0.250000000   0.500000000   0.444002530    0   0   1
Nb1      0.000000000   0.000000000   0.445175320    0   0   1
O0       0.250000000   0.790000000   0.447009797    0   0   1
O0       0.250000000   0.210000000   0.447008046    0   0   1
O0       0.000000000   0.500000000   0.500235675    0   0   1
O0       0.000000000   0.000000000   0.523615432    0   0   1
Nb1      0.250000000   0.000000000   0.577616631    0   0   1
Nb1      0.000000000   0.500000000   0.569374292    0   0   1
O0       0.250000000   0.710000000   0.576091667    0   0   1
O0       0.250000000   0.290000000   0.576090129    0   0   1
O0       0.000000000   0.000000000   0.622160011    0   0   1
O0       0.500000000   0.000000000   0.372777752    0   0   1
O0       0.500000000   0.500000000   0.389393666    0   0   1
Nb1      0.750000000   0.500000000   0.443996487    0   0   1
Nb1      0.500000000   0.000000000   0.445582048    0   0   1
O0       0.750000000   0.790000000   0.447015319    0   0   1
O0       0.750000000   0.210000000   0.447012678    0   0   1
O0       0.500000000   0.500000000   0.500701999    0   0   1
O0       0.500000000   0.000000000   0.523522554    0   0   1
Nb1      0.750000000   0.000000000   0.577682622    0   0   1
Nb1      0.500000000   0.500000000   0.577102604    0   0   1
O0       0.750000000   0.710000000   0.576201964    0   0   1
O0       0.750000000   0.290000000   0.576201906    0   0   1
O0       0.500000000   0.000000000   0.622049620    0   0   1
H2      -0.000584617   0.501323060   0.352262676
H2       0.499548862   0.501505589   0.353106285
H2       0.150781622   0.000462229   0.356790768
H2       0.650209450   0.000472677   0.356810761
O0       0.500230569   0.499997043   0.648693922
H2       0.405101818   0.500068504   0.678130258
End final coordinates

     General routines

     Parallel routines
     Hubbard U routines

   This run was terminated on:   8:59:51   1May2014

   JOB DONE.
Running PBS batch system epilogue script
Job id: 340591.audhumbla.fysik.dtu.dk
Username: zhonxu
Groupname: campgst
Jobname: NbO2/Eads-2-layers/OH-U-2.5
Sessionid: 19635
Queuename: verylong
Accounting:
This job has allocated the following 16 nodes:
a034 a034 a034 a034 a034 a034 a034 a034 a018 a018 a018 a018 a018 a018 a018 a018
Finished epilogue job 340591.audhumbla.fysik.dtu.dk for zhonxu