     Program PWSCF v.5.0.2 (svn rev. 9656) starts on 27Apr2014 at  5:32:31

     Current dimensions of program PWSCF are:
     Max number of different atomic species (ntypx) = 10
     Max number of k-points (npk) =  40000
     Max angular momentum in pseudopotentials (lmaxx) =  3
     Reading input from pwscf.in
Warning: card &CELL ignored
Warning: card / ignored

     Subspace diagonalization in iterative solution of the eigenvalue problem:
     a serial algorithm will be used

     bravais-lattice index     =            0
     lattice parameter (alat)  =      11.7919  a.u.
     unit-cell volume          =    7123.6633 (a.u.)^3
     number of atoms/cell      =           32
     number of atomic types    =            3
     number of electrons       =       247.00
     number of Kohn-Sham states=          358
     kinetic-energy cutoff     =      40.0000  Ry
     charge density cutoff     =     500.0000  Ry
     convergence threshold     =      1.0E-06
     mixing beta               =       0.7000
     number of iterations used =            8  plain     mixing
     Exchange-correlation      = SLA  PW   PBE  PBE ( 1 4 3 4 0)
     EXX-fraction              =        0.00
     nstep                     =           50

     celldm(1)=  11.791891  celldm(2)=   0.000000  celldm(3)=   0.000000
     celldm(4)=   0.000000  celldm(5)=   0.000000  celldm(6)=   0.000000

     crystal axes: (cart. coord. in units of alat)
               a(1) = (   1.000000   0.000000   0.000000 )
               a(2) = (   0.000000   1.026665   0.000000 )
               a(3) = (   0.000000   0.000000   4.231793 )

     reciprocal axes: (cart. coord. in units 2 pi/alat)
               b(1) = (  1.000000  0.000000  0.000000 )
               b(2) = (  0.000000  0.974028  0.000000 )
               b(3) = (  0.000000  0.000000  0.236306 )

     PseudoPot. # 1 for O  read from file:
     /home/camp/zhonxu/pseudo/o_pbe_v1.01.uspp.F.UPF
     MD5 check sum: 2bcb18d16ea4b960afae9ec6d52f22d2
     Pseudo is Ultrasoft + core correction, Zval =  6.0
     Generated by new atomic code, or converted to UPF format
     Using radial grid of  737 points,  5 beta functions with:
                l(1) =   0
                l(2) =   0
                l(3) =   1
                l(4) =   1
                l(5) =   2
     Q(r) pseudized with  8 coefficients,  rinner =    0.900   0.900   0.900
                                                       0.900   0.900

     PseudoPot. # 2 for Ru read from file:
     /home/camp/zhonxu/pseudo/ru_pbe_v1.uspp.F.UPF
     MD5 check sum: df00be1c11b23341d9806d8f1dfa10cf
     Pseudo is Ultrasoft + core correction, Zval = 16.0
     Generated by new atomic code, or converted to UPF format
     Using radial grid of  967 points,  6 beta functions with:
                l(1) =   0
                l(2) =   0
                l(3) =   1
                l(4) =   1
                l(5) =   2
                l(6) =   2
     Q(r) pseudized with  8 coefficients,  rinner =    1.300   1.300   1.300
                                                       1.300   1.300

     PseudoPot. # 3 for H  read from file:
     /home/camp/zhonxu/pseudo/h_pbe_v1.uspp.F.UPF
     MD5 check sum: 3408e3ff4ec8b0a4e358431e7e038a48
     Pseudo is Ultrasoft, Zval =  1.0
     Generated by new atomic code, or converted to UPF format
     Using radial grid of  615 points,  2 beta functions with:
                l(1) =   0
                l(2) =   0
     Q(r) pseudized with  8 coefficients,  rinner =    0.700

     atomic species   valence    mass     pseudopotential
        O0             6.00    15.99940     O ( 1.00)
        Ru1           16.00   101.07000     Ru( 1.00)
        H2             1.00     1.00794     H ( 1.00)

     Simplified LDA+U calculation (l_max = 2) with parameters (eV):
     atomic species    L          U    alpha       J0     beta
        Ru1            2     1.0000   0.0000   0.0000   0.0000

     No symmetry found

   Cartesian axes

     site n.     atom                  positions (alat units)
         1           O0  tau(   1) = (   0.0000000   0.0000000   1.6035109  )
         2           O0  tau(   2) = (   0.0000000   0.5133323   1.7058780  )
         3           Ru1 tau(   3) = (   0.2500000   0.5133323   1.9200491  )
         4           Ru1 tau(   4) = (   0.0000000   0.0000000   1.9171714  )
         5           O0  tau(   5) = (   0.2500000   0.8315984   1.9169175  )
         6           O0  tau(   6) = (   0.2500000   0.1950663   1.9164520  )
         7           O0  tau(   7) = (   0.0000000   0.5133323   2.1053593  )
         8           O0  tau(   8) = (   0.0000000   0.0000000   2.2310435  )
         9           Ru1 tau(   9) = (   0.2500000   0.0000000   2.4441566  )
        10           Ru1 tau(  10) = (   0.0000000   0.5133323   2.4052664  )
        11           O0  tau(  11) = (   0.2500000   0.7083986   2.4364547  )
        12           O0  tau(  12) = (   0.2500000   0.3182660   2.4361585  )
        13           O0  tau(  13) = (   0.0000000   0.0000000   2.6233307  )
        14           O0  tau(  14) = (   0.5000000   0.0000000   1.6045689  )
        15           O0  tau(  15) = (   0.5000000   0.5133323   1.7057934  )
        16           Ru1 tau(  16) = (   0.7500000   0.5133323   1.9200914  )
        17           Ru1 tau(  17) = (   0.5000000   0.0000000   1.9176369  )
        18           O0  tau(  18) = (   0.7500000   0.8315984   1.9167059  )
        19           O0  tau(  19) = (   0.7500000   0.1950663   1.9164520  )
        20           O0  tau(  20) = (   0.5000000   0.5133323   2.1229635  )
        21           O0  tau(  21) = (   0.5000000   0.0000000   2.2303664  )
        22           Ru1 tau(  22) = (   0.7500000   0.0000000   2.4441143  )
        23           Ru1 tau(  23) = (   0.5000000   0.5133323   2.4370472  )
        24           O0  tau(  24) = (   0.7500000   0.7083986   2.4343812  )
        25           O0  tau(  25) = (   0.7500000   0.3182660   2.4338310  )
        26           O0  tau(  26) = (   0.5000000   0.0000000   2.6134283  )
        27           H2  tau(  27) = (  -0.0002400   0.6455975   1.6183222  )
        28           H2  tau(  28) = (   0.4995500   0.6408954   1.6119322  )
        29           H2  tau(  29) = (   0.1457200   0.0328533   1.5514599  )
        30           H2  tau(  30) = (   0.6465200   0.0301223   1.5527294  )
        31           O0  tau(  31) = (   0.5138700   0.5107965   2.7447408  )
        32           H2  tau(  32) = (   0.3716000   0.5093694   2.8125765  )

     number of k points=    10  Methfessel-Paxton smearing, width (Ry)=  0.0100
                       cart. coord. in units 2pi/alat
        k(    1) = (   0.0000000   0.0000000   0.0000000), wk =   0.1250000
        k(    2) = (   0.0000000   0.2435070   0.0000000), wk =   0.2500000
        k(    3) = (   0.0000000  -0.4870139   0.0000000), wk =   0.1250000
        k(    4) = (   0.2500000   0.0000000   0.0000000), wk =   0.2500000
        k(    5) = (   0.2500000   0.2435070   0.0000000), wk =   0.2500000
        k(    6) = (   0.2500000  -0.4870139   0.0000000), wk =   0.2500000
        k(    7) = (  -0.5000000   0.0000000   0.0000000), wk =   0.1250000
        k(    8) = (  -0.5000000   0.2435070   0.0000000), wk =   0.2500000
        k(    9) = (  -0.5000000  -0.4870139   0.0000000), wk =   0.1250000
        k(   10) = (  -0.2500000   0.2435070   0.0000000), wk =   0.2500000

     Largest allocated arrays     est. size (Mb)     dimensions
     Largest temporary arrays     est. size (Mb)     dimensions

     Check: negative/imaginary core charge=   -0.000003    0.000000

     Initial potential from superposition of free atoms
     Check: negative starting charge=   -0.522051

     starting charge  238.99980, renormalised to  247.00000

     negative rho (up, down):  0.540E+00 0.000E+00
     Number of +U iterations with fixed ns =  0
     Starting occupations:
 --- enter write_ns ---
 LDA+U parameters:
U( 2)     =  1.00000000
alpha( 2) =  0.00000000
atom    3   Tr[ns(na)] =   6.00000
    eigenvalues:
  0.600  0.600  0.600  0.600  0.600
    eigenvectors:
  1.000  0.000  0.000  0.000  0.000
  0.000  1.000  0.000  0.000  0.000
  0.000  0.000  1.000  0.000  0.000
  0.000  0.000  0.000  1.000  0.000
  0.000  0.000  0.000  0.000  1.000
    occupations:
  0.600  0.000  0.000  0.000  0.000
  0.000  0.600  0.000  0.000  0.000
  0.000  0.000  0.600  0.000  0.000
  0.000  0.000  0.000  0.600  0.000
  0.000  0.000  0.000  0.000  0.600
atom    4   Tr[ns(na)] =   6.00000
    eigenvalues:
  0.600  0.600  0.600  0.600  0.600
    eigenvectors:
  1.000  0.000  0.000  0.000  0.000
  0.000  1.000  0.000  0.000  0.000
  0.000  0.000  1.000  0.000  0.000
  0.000  0.000  0.000  1.000  0.000
  0.000  0.000  0.000  0.000  1.000
    occupations:
  0.600  0.000  0.000  0.000  0.000
  0.000  0.600  0.000  0.000  0.000
  0.000  0.000  0.600  0.000  0.000
  0.000  0.000  0.000  0.600  0.000
  0.000  0.000  0.000  0.000  0.600
atom    9   Tr[ns(na)] =   6.00000
    eigenvalues:
  0.600  0.600  0.600  0.600  0.600
    eigenvectors:
  1.000  0.000  0.000  0.000  0.000
  0.000  1.000  0.000  0.000  0.000
  0.000  0.000  1.000  0.000  0.000
  0.000  0.000  0.000  1.000  0.000
  0.000  0.000  0.000  0.000  1.000
    occupations:
  0.600  0.000  0.000  0.000  0.000
  0.000  0.600  0.000  0.000  0.000
  0.000  0.000  0.600  0.000  0.000
  0.000  0.000  0.000  0.600  0.000
  0.000  0.000  0.000  0.000  0.600
atom   10   Tr[ns(na)] =   6.00000
    eigenvalues:
  0.600  0.600  0.600  0.600  0.600
    eigenvectors:
  1.000  0.000  0.000  0.000  0.000
  0.000  1.000  0.000  0.000  0.000
  0.000  0.000  1.000  0.000  0.000
  0.000  0.000  0.000  1.000  0.000
  0.000  0.000  0.000  0.000  1.000
    occupations:
  0.600  0.000  0.000  0.000  0.000
  0.000  0.600  0.000  0.000  0.000
  0.000  0.000  0.600  0.000  0.000
  0.000  0.000  0.000  0.600  0.000
  0.000  0.000  0.000  0.000  0.600
atom   16   Tr[ns(na)] =   6.00000
    eigenvalues:
  0.600  0.600  0.600  0.600  0.600
    eigenvectors:
  1.000  0.000  0.000  0.000  0.000
  0.000  1.000  0.000  0.000  0.000
  0.000  0.000  1.000  0.000  0.000
  0.000  0.000  0.000  1.000  0.000
  0.000  0.000  0.000  0.000  1.000
    occupations:
  0.600  0.000  0.000  0.000  0.000
  0.000  0.600  0.000  0.000  0.000
  0.000  0.000  0.600  0.000  0.000
  0.000  0.000  0.000  0.600  0.000
  0.000  0.000  0.000  0.000  0.600
atom   17   Tr[ns(na)] =   6.00000
    eigenvalues:
  0.600  0.600  0.600  0.600  0.600
    eigenvectors:
  1.000  0.000  0.000  0.000  0.000
  0.000  1.000  0.000  0.000  0.000
  0.000  0.000  1.000  0.000  0.000
  0.000  0.000  0.000  1.000  0.000
  0.000  0.000  0.000  0.000  1.000
    occupations:
  0.600  0.000  0.000  0.000  0.000
  0.000  0.600  0.000  0.000  0.000
  0.000  0.000  0.600  0.000  0.000
  0.000  0.000  0.000  0.600  0.000
  0.000  0.000  0.000  0.000  0.600
atom   22   Tr[ns(na)] =   6.00000
    eigenvalues:
  0.600  0.600  0.600  0.600  0.600
    eigenvectors:
  1.000  0.000  0.000  0.000  0.000
  0.000  1.000  0.000  0.000  0.000
  0.000  0.000  1.000  0.000  0.000
  0.000  0.000  0.000  1.000  0.000
  0.000  0.000  0.000  0.000  1.000
[...]
  0.605 -0.000 -0.000  0.035  0.001
 -0.000  0.769  0.014 -0.001 -0.001
 -0.000  0.014  0.693  0.001  0.000
  0.035 -0.001  0.001  0.957  0.000
  0.001 -0.001  0.000  0.000  0.556
atom    9   Tr[ns(na)] =   7.13893
    eigenvalues:
  0.583  0.603  0.758  0.809  0.816
    eigenvectors:
  0.000  0.151  0.000  0.078  0.771
  0.995  0.004  0.000  0.000  0.000
  0.000  0.000  0.999  0.001  0.000
  0.005  0.845  0.000  0.014  0.137
  0.000  0.000  0.000  0.908  0.092
    occupations:
  0.783 -0.003 -0.001 -0.076  0.002
 -0.003  0.584  0.001  0.003  0.000
 -0.001  0.001  0.758  0.000  0.001
 -0.076  0.003  0.000  0.635 -0.001
  0.002  0.000  0.001 -0.001  0.810
atom   10   Tr[ns(na)] =   7.19092
    eigenvalues:
  0.541  0.559  0.741  0.796  0.959
    eigenvectors:
  0.000  0.989  0.000  0.000  0.010
  0.000  0.000  0.000  1.000  0.000
  0.000  0.000  1.000  0.000  0.000
  0.000  0.010  0.000  0.000  0.990
  1.000  0.000  0.000  0.000  0.000
    occupations:
  0.564 -0.003 -0.002  0.040  0.000
 -0.003  0.796  0.000 -0.000  0.000
 -0.002  0.000  0.741  0.000  0.001
  0.040 -0.000  0.000  0.955  0.000
  0.000  0.000  0.001  0.000  0.541
atom   16   Tr[ns(na)] =   7.17307
    eigenvalues:
  0.527  0.568  0.719  0.825  0.947
    eigenvectors:
  0.000  0.191  0.008  0.003  0.797
  0.999  0.001  0.000  0.000  0.000
  0.000  0.000  0.971  0.015  0.014
  0.001  0.807  0.005  0.001  0.187
  0.000  0.000  0.016  0.981  0.002
    occupations:
  0.872 -0.001  0.024 -0.148  0.003
 -0.001  0.527 -0.001  0.002 -0.003
  0.024 -0.001  0.724 -0.008  0.014
 -0.148  0.002 -0.008  0.640 -0.003
  0.003 -0.003  0.014 -0.003  0.824
atom   17   Tr[ns(na)] =   7.15553
    eigenvalues:
  0.557  0.605  0.677  0.774  0.965
    eigenvectors:
  0.000  0.990  0.000  0.000  0.010
  0.000  0.000  0.015  0.984  0.000
  0.000  0.000  0.985  0.015  0.000
  0.000  0.010  0.000  0.000  0.990
  1.000  0.000  0.000  0.000  0.000
    occupations:
  0.608 -0.001  0.000  0.035  0.001
 -0.001  0.773  0.012 -0.001 -0.001
  0.000  0.012  0.678  0.001  0.000
  0.035 -0.001  0.001  0.961  0.000
  0.001 -0.001  0.000  0.000  0.557
atom   22   Tr[ns(na)] =   7.13821
    eigenvalues:
  0.583  0.603  0.754  0.811  0.818
    eigenvectors:
  0.000  0.151  0.000  0.001  0.849
  0.999  0.001  0.000  0.000  0.000
  0.000  0.000  1.000  0.000  0.000
  0.001  0.849  0.000  0.000  0.150
  0.000  0.000  0.000  0.999  0.001
    occupations:
  0.786  0.004 -0.000 -0.077  0.000
  0.004  0.583  0.000 -0.002  0.000
 -0.000  0.000  0.754  0.000 -0.001
 -0.077 -0.002  0.000  0.635 -0.000
  0.000  0.000 -0.001 -0.000  0.811
atom   23   Tr[ns(na)] =   7.15517
    eigenvalues:
  0.557  0.609  0.667  0.799  0.946
    eigenvectors:
  0.000  0.988  0.001  0.000  0.011
  0.000  0.000  0.000  0.999  0.000
  0.000  0.001  0.999  0.000  0.000
  0.000  0.011  0.000  0.000  0.989
  1.000  0.000  0.000  0.000  0.000
    occupations:
  0.612  0.004 -0.002  0.035  0.000
  0.004  0.799  0.001  0.000  0.001
 -0.002  0.001  0.667  0.001 -0.001
  0.035  0.000  0.001  0.942 -0.000
  0.000  0.001 -0.001 -0.000  0.557
N of occupied +U levels =  57.2853235
 --- exit write_ns ---

     Threshold (ethr) on eigenvalues was too large:
     Diagonalizing with lowered threshold

     Davidson diagonalization with overlap
     ethr =  5.42E-08,  avg # of iterations =  2.0

[...]

     total energy              =   -2164.18439316 Ry
     Harris-Foulkes estimate   =   -2164.18439317 Ry
     estimated scf accuracy    <       0.00000002 Ry

     iteration # 19     ecut=    40.00 Ry     beta=0.70
     Davidson diagonalization with overlap
     ethr =  6.12E-12,  avg # of iterations =  1.0

     negative rho (up, down):  0.580E+00 0.000E+00

     End of self-consistent calculation
 --- enter write_ns ---
 LDA+U parameters:
U( 2)     =  1.00000000
alpha( 2) =  0.00000000
atom    3   Tr[ns(na)] =   7.17430
    eigenvalues:
  0.527  0.568  0.720  0.826  0.947
    eigenvectors:
  0.000  0.191  0.008  0.004  0.797
  0.999  0.001  0.000  0.000  0.000
  0.000  0.000  0.974  0.012  0.014
  0.001  0.808  0.005  0.001  0.187
  0.000  0.000  0.014  0.983  0.003
    occupations:
  0.872  0.001  0.024 -0.147 -0.004
  0.001  0.527  0.001 -0.002 -0.004
  0.024  0.001  0.724 -0.008 -0.013
 -0.147 -0.002 -0.008  0.640  0.003
 -0.004 -0.004 -0.013  0.003  0.825
atom    4   Tr[ns(na)] =   7.16355
    eigenvalues:
  0.556  0.602  0.691  0.771  0.961
    eigenvectors:
  0.001  0.990  0.000  0.000  0.010
  0.000  0.000  0.030  0.970  0.000
  0.000  0.000  0.970  0.030  0.000
  0.000  0.010  0.000  0.000  0.990
  0.999  0.001  0.000  0.000  0.000
    occupations:
  0.605 -0.000 -0.000  0.035  0.001
 -0.000  0.769  0.014 -0.001 -0.001
 -0.000  0.014  0.694  0.001  0.000
  0.035 -0.001  0.001  0.958  0.000
  0.001 -0.001  0.000  0.000  0.556
atom    9   Tr[ns(na)] =   7.13848
    eigenvalues:
  0.583  0.603  0.758  0.809  0.816
    eigenvectors:
  0.000  0.151  0.000  0.078  0.771
  0.995  0.004  0.000  0.000  0.000
  0.000  0.000  0.999  0.001  0.000
  0.005  0.845  0.000  0.014  0.137
  0.000  0.000  0.000  0.908  0.092
    occupations:
  0.783 -0.003 -0.001 -0.076  0.002
 -0.003  0.584  0.001  0.003  0.000
 -0.001  0.001  0.758  0.000  0.001
 -0.076  0.003  0.000  0.635 -0.001
  0.002  0.000  0.001 -0.001  0.810
atom   10   Tr[ns(na)] =   7.18634
    eigenvalues:
  0.541  0.559  0.740  0.795  0.958
    eigenvectors:
  0.000  0.989  0.000  0.000  0.010
  0.000  0.000  0.000  1.000  0.000
  0.000  0.000  1.000  0.000  0.000
  0.000  0.010  0.000  0.000  0.990
  1.000  0.000  0.000  0.000  0.000
    occupations:
  0.563 -0.003 -0.002  0.040  0.000
 -0.003  0.795  0.000 -0.000  0.000
 -0.002  0.000  0.740  0.000  0.001
  0.040 -0.000  0.000  0.954  0.000
  0.000  0.000  0.001  0.000  0.541
atom   16   Tr[ns(na)] =   7.17468
    eigenvalues:
  0.527  0.568  0.719  0.826  0.947
    eigenvectors:
  0.000  0.191  0.008  0.003  0.798
  0.999  0.001  0.000  0.000  0.000
  0.000  0.000  0.971  0.015  0.013
  0.001  0.807  0.005  0.000  0.187
  0.000  0.000  0.016  0.981  0.002
    occupations:
  0.873 -0.001  0.024 -0.148  0.003
 -0.001  0.527 -0.001  0.002 -0.003
  0.024 -0.001  0.724 -0.008  0.014
 -0.148  0.002 -0.008  0.640 -0.003
  0.003 -0.003  0.014 -0.003  0.824
atom   17   Tr[ns(na)] =   7.15748
    eigenvalues:
  0.557  0.605  0.677  0.775  0.965
    eigenvectors:
  0.000  0.990  0.000  0.000  0.010
  0.000  0.000  0.015  0.984  0.000
  0.000  0.000  0.985  0.015  0.000
  0.000  0.010  0.000  0.000  0.990
  1.000  0.000  0.000  0.000  0.000
    occupations:
  0.608 -0.001  0.000  0.035  0.001
 -0.001  0.773  0.012 -0.001 -0.001
  0.000  0.012  0.679  0.001  0.000
  0.035 -0.001  0.001  0.961  0.000
  0.001 -0.001  0.000  0.000  0.557
atom   22   Tr[ns(na)] =   7.13474
    eigenvalues:
  0.583  0.603  0.754  0.810  0.817
    eigenvectors:
  0.000  0.151  0.000  0.001  0.849
  0.999  0.001  0.000  0.000  0.000
  0.000  0.000  1.000  0.000  0.000
  0.001  0.849  0.000  0.000  0.150
  0.000  0.000  0.000  0.999  0.001
    occupations:
  0.785  0.004 -0.000 -0.077  0.000
  0.004  0.583  0.000 -0.002  0.000
 -0.000  0.000  0.754  0.000 -0.001
 -0.077 -0.002  0.000  0.635 -0.000
  0.000  0.000 -0.001 -0.000  0.810
atom   23   Tr[ns(na)] =   7.15396
    eigenvalues:
  0.557  0.609  0.667  0.799  0.945
    eigenvectors:
  0.000  0.988  0.001  0.000  0.011
  0.000  0.000  0.000  0.999  0.000
  0.000  0.001  0.999  0.000  0.000
  0.000  0.011  0.000  0.000  0.989
  1.000  0.000  0.000  0.000  0.000
    occupations:
  0.612  0.004 -0.002  0.035  0.000
  0.004  0.799  0.001  0.000  0.001
 -0.002  0.001  0.667  0.001 -0.001
  0.035  0.000  0.001  0.942 -0.000
  0.000  0.001 -0.001 -0.000  0.557
N of occupied +U levels =  57.2835229
 --- exit write_ns ---

[...]

          k = 0.2500-0.4870 0.0000 ( 30468 PWs)   bands (ev):

[...]

          k =-0.2500 0.2435 0.0000 ( 30434 PWs)   bands (ev):

   -74.6705 -74.6625 -74.4532 -74.3777 -74.3204 -74.1537 -74.0270 -74.0182
   -44.7966 -44.6781 -44.6650 -44.6465 -44.6457 -44.6369 -44.5783 -44.5529
   -44.5348 -44.5045 -44.3190 -44.3152 -44.3125 -44.2222 -44.2012 -44.1934
   -44.1493 -44.0960 -44.0914 -44.0205 -43.9434 -43.9086 -43.8859 -43.8213
   -21.0087 -20.4858 -20.4760 -20.4039 -20.2106 -19.9524 -19.8680 -19.7674
   -19.7634 -19.6578 -19.5808 -19.4923 -19.4729 -19.4114 -19.2892 -19.2716
   -19.2159 -19.2103 -18.8602  -9.1373  -8.6337  -8.5873  -8.5664  -8.2609
    -8.2239  -8.1463  -8.0338  -7.8967  -7.8197  -7.7152  -7.6893  -7.5843
    -7.5552  -7.4824  -7.4100  -7.3098  -7.2156  -6.9262  -6.8068  -6.7544
    -6.5789  -6.5220  -6.4248  -6.0675  -5.9831  -5.9159  -5.7940  -5.5899
    -5.5184  -5.4782  -5.4637  -5.3710  -5.2686  -5.1893  -5.0615  -5.0336
    -4.9989  -4.9165  -4.8224  -4.7534  -4.5678  -4.4705  -4.3371  -4.1995
    -4.1492  -4.1156  -3.9954  -3.9389  -3.8199  -3.6468  -3.5550  -3.4723
    -3.1565  -3.1497  -3.0410  -2.7900  -2.1609  -2.1008  -1.9989  -1.8524
    -1.7981  -1.7081  -1.6644  -1.6089  -1.5942  -1.4918  -1.4498  -1.4053
    -1.3714  -1.2717  -1.1383  -1.0344  -0.7781  -0.5709  -0.4338  -0.3840
    -0.3088  -0.1972  -0.0717   0.1298   0.7119   1.4037   1.5782   1.6142
     1.7719   2.2084   2.5236   2.6566   2.9986   3.0683   3.1782   3.2501
     3.3097   3.3758   3.6277   3.8715   4.0359   4.3147   4.7717   5.1941
     5.6271   5.7655   5.8444   6.0959   6.3939   6.5482   6.6612   6.7100
     6.7980   7.0183   7.0845   7.3130   7.5492   7.7282   7.8508   7.9603
     8.1034   8.2872   8.3795   8.4505   8.5446   8.5773   8.7258   8.7830
     8.9492   9.1122   9.1962   9.3238   9.3943   9.5030   9.6782   9.8451
     9.9127  10.0089  10.1035  10.1749  10.2116  10.3295  10.3912  10.4547
    10.5732  10.6464  10.7196  10.8502  10.9060  10.9945  11.0954  11.2883
    11.3594  11.4079  11.5257  11.5713  11.6561  11.7652  11.8014  11.8453
    11.9278  12.0062  12.1199  12.1672  12.2298  12.3331  12.4289  12.4876
    12.5117  12.6060  12.6741  12.7114  12.7576  12.8325  12.9039  13.0083
    13.0652  13.1363  13.2010  13.3074  13.3902  13.4818  13.5566  13.6044
    13.7155  13.8081  13.9071  14.0073  14.0747  14.1635  14.1963  14.2623
    14.3598  14.4904  14.5541  14.5874  14.6225  14.6959  14.8132  14.8506
    14.9009  15.0329  15.0823  15.1687  15.2697  15.3552  15.5400  15.5607
    15.6277  15.6752  15.7800  15.8187  15.8512  15.8644  15.9620  16.0427
    16.0751  16.1386  16.1899  16.3099  16.3244  16.3538  16.4534  16.5341
    16.6163  16.7126  16.7635  16.7925  16.8461  16.8828  16.9750  17.0278
    17.1307  17.1984  17.2405  17.3334  17.4256  17.4746  17.4950  17.5578
    17.6005  17.6810  17.7226  17.8020  17.8458  17.9113  17.9953  18.0741
    18.1258  18.2057  18.2323  18.3044  18.3471  18.4304  18.5448  18.5942
    18.6846  18.7880  18.8381  18.9150  18.9746  19.0463  19.1246  19.1914
    19.2079  19.3076  19.3834  19.4586  19.4919  19.5647  19.6644  19.7490
    19.7816  19.8404  19.9121  19.9901  20.0744  20.1991  20.2699  20.3389
    20.3824  20.4927  20.6116  20.6672  20.7356  20.7921  20.8617  20.9388
    20.9552  21.0285  21.1175  21.1533  21.2221  21.3030  21.3497  21.4030
    21.4387  21.4823  21.5443  21.5810  21.6148  21.7148  21.7993  21.8320
    21.9521  21.9766  22.0172  22.0459  22.1329  22.2305

     the Fermi energy is    -0.9418 ev

!    total energy              =   -2164.18439317 Ry
     Harris-Foulkes estimate   =   -2164.18439317 Ry
     estimated scf accuracy    <          1.5E-09 Ry

     The total energy is the sum of the following terms:

     one-electron contribution =  -25206.34982402 Ry
     hartree contribution      =   12625.57974518 Ry
     xc contribution           =    -338.46553909 Ry
     ewald contribution        =   10754.50980944 Ry
     Hubbard energy            =       0.54083701 Ry
     smearing contrib. (-TS)   =       0.00057832 Ry

     convergence has been achieved in  19 iterations

     Forces acting on atoms (Ry/au):

     negative rho (up, down):  0.580E+00 0.000E+00
     atom    1 type  1   force =    -0.00571925   -0.01128272   -0.00011648
     atom    2 type  1   force =     0.00058169    0.00963686    0.00038870
     atom    3 type  2   force =     0.03427826   -0.00194757    0.00066079
     atom    4 type  2   force =     0.00356785    0.00591945   -0.00028487
     atom    5 type  1   force =     0.00148339   -0.03075090    0.00043303
     atom    6 type  1   force =     0.00019949    0.03242814    0.00037246
     atom    7 type  1   force =     0.00200473   -0.00352312   -0.00096798
     atom    8 type  1   force =     0.00031722   -0.00202016    0.00090294
     atom    9 type  2   force =    -0.01786232    0.00259779   -0.00047627
     atom   10 type  2   force =    -0.00736321   -0.00026287    0.00048645
     atom   11 type  1   force =    -0.00978228    0.00520047   -0.00017452
     atom   12 type  1   force =    -0.01148073   -0.00596017   -0.00011983
     atom   13 type  1   force =    -0.00120472   -0.00106614   -0.00057458
     atom   14 type  1   force =    -0.00418108   -0.00995478   -0.00023420
     atom   15 type  1   force =    -0.00005422    0.00675447    0.00076272
     atom   16 type  2   force =    -0.03571186   -0.00125281    0.00076821
     atom   17 type  2   force =     0.00257693    0.00584758   -0.00018880
     atom   18 type  1   force =     0.00175497   -0.03122033    0.00041580
     atom   19 type  1   force =     0.00221619    0.03191350    0.00036325
     atom   20 type  1   force =    -0.00134081   -0.00094220   -0.00078658
     atom   21 type  1   force =    -0.00059151   -0.00159290    0.00067624
     atom   22 type  2   force =     0.01837064    0.00243654   -0.00059384
     atom   23 type  2   force =     0.00329710    0.00170971   -0.00040957
     atom   24 type  1   force =     0.01187562    0.00693785   -0.00042065
     atom   25 type  1   force =     0.01323667   -0.00766365   -0.00042689
     atom   26 type  1   force =    -0.00120872   -0.00107512   -0.00073721
     atom   27 type  3   force =    -0.00002420   -0.00022071    0.00000750
     atom   28 type  3   force =    -0.00001924   -0.00032591    0.00018029
     atom   29 type  3   force =     0.00006231   -0.00004407    0.00021866
     atom   30 type  3   force =     0.00008627   -0.00015487    0.00007381
     atom   31 type  1   force =     0.00073916    0.00008753   -0.00022423
     atom   32 type  3   force =    -0.00010431   -0.00020890    0.00002564

     Total force =     0.002933     Total SCF correction =     0.000064

     bfgs converged in   5 scf cycles and   4 bfgs steps
     (criteria: energy < 0.10E-03, force < 0.10E-02)

     End of BFGS Geometry Optimization

     Final energy   =   -2164.1843931651 Ry
Begin final coordinates

ATOMIC_POSITIONS (crystal)
O0       0.000000000   0.000000000   0.379151303    0   0   1
O0       0.000000000   0.500000000   0.403140203    0   0   1
Ru1      0.250000000   0.500000000   0.453717137    0   0   1
Ru1      0.000000000   0.000000000   0.453160457    0   0   1
O0       0.250000000   0.810000000   0.453030932    0   0   1
O0       0.250000000   0.190000000   0.452890626    0   0   1
O0       0.000000000   0.500000000   0.497843593    0   0   1
O0       0.000000000   0.000000000   0.526967867    0   0   1
Ru1      0.250000000   0.000000000   0.577542125    0   0   1
Ru1      0.000000000   0.500000000   0.568292929    0   0   1
O0       0.250000000   0.690000000   0.575657477    0   0   1
O0       0.250000000   0.310000000   0.575593930    0   0   1
O0       0.000000000   0.000000000   0.619889913    0   0   1
O0       0.500000000   0.000000000   0.379364965    0   0   1
O0       0.500000000   0.500000000   0.403316332    0   0   1
Ru1      0.750000000   0.500000000   0.453710102    0   0   1
Ru1      0.500000000   0.000000000   0.453214690    0   0   1
O0       0.750000000   0.810000000   0.452984932    0   0   1
O0       0.750000000   0.190000000   0.452893558    0   0   1
O0       0.500000000   0.500000000   0.501827768    0   0   1
O0       0.500000000   0.000000000   0.526848528    0   0   1
Ru1      0.750000000   0.000000000   0.577450273    0   0   1
Ru1      0.500000000   0.500000000   0.575877141    0   0   1
O0       0.750000000   0.690000000   0.575079426    0   0   1
O0       0.750000000   0.310000000   0.574945998    0   0   1
O0       0.500000000   0.000000000   0.617460104    0   0   1
H2      -0.000260540   0.628586961   0.382402931
H2       0.499544605   0.623754565   0.380994036
H2       0.145406627   0.031909819   0.366628522
H2       0.646257083   0.029194490   0.366905344
O0       0.513811298   0.497610270   0.648435742
H2       0.371926774   0.496008394   0.664601117
End final coordinates

     General routines

     Parallel routines
     Hubbard U routines

   This run was terminated on:  11:38:51  27Apr2014

   JOB DONE.