     Program PWSCF v.5.0.2 (svn rev. 9656) starts on 23Jan2014 at 19: 3:57

     Current dimensions of program PWSCF are:
     Max number of different atomic species (ntypx) = 10
     Max number of k-points (npk) =  40000
     Max angular momentum in pseudopotentials (lmaxx) =  3
     Reading input from NbO2-v-0.9.in

     Subspace diagonalization in iterative solution of the eigenvalue problem:
     a serial algorithm will be used

     bravais-lattice index     =            0
     lattice parameter (alat)  =       8.3602  a.u.
     unit-cell volume          =     376.5571 (a.u.)^3
     number of atoms/cell      =            6
     number of atomic types    =            2
     number of electrons       =        50.00
     number of Kohn-Sham states=           75
     kinetic-energy cutoff     =      40.0000  Ry
     charge density cutoff     =     500.0000  Ry
     convergence threshold     =      1.0E-06
     mixing beta               =       0.7000
     number of iterations used =            8  plain     mixing
     Exchange-correlation      = SLA  PW   PBE  PBE ( 1 4 3 4 0)
     EXX-fraction              =        0.00
     nstep                     =           50

     celldm(1)=   8.360170  celldm(2)=   0.000000  celldm(3)=   0.000000
     celldm(4)=   0.000000  celldm(5)=   0.000000  celldm(6)=   0.000000

     crystal axes: (cart. coord. in units of alat)
               a(1) = (   1.000000   0.000000   0.000000 )
               a(2) = (   0.000000   1.000000   0.000000 )
               a(3) = (   0.000000   0.000000   0.644444 )

     reciprocal axes: (cart. coord. in units 2 pi/alat)
               b(1) = (  1.000000  0.000000  0.000000 )
               b(2) = (  0.000000  1.000000  0.000000 )
               b(3) = (  0.000000  0.000000  1.551724 )

     PseudoPot. # 1 for Nb read from file:
     /home/camp/zhonxu/pseudo/nb_pbe_v1.uspp.F.UPF
     MD5 check sum: 573aab8a2fa660278ed4a62cd769473f
     Pseudo is Ultrasoft + core correction, Zval = 13.0
     Generated by new atomic code, or converted to UPF format
     Using radial grid of  887 points,  6 beta functions with:
                l(1) =   0
                l(2) =   0
                l(3) =   1
                l(4) =   1
                l(5) =   2
                l(6) =   2
     Q(r) pseudized with  6 coefficients,  rinner =    1.000   1.000   1.000
                                                       1.000   1.000

     PseudoPot. # 2 for O  read from file:
     /home/camp/zhonxu/pseudo/o_pbe_v1.01.uspp.F.UPF
     MD5 check sum: 2bcb18d16ea4b960afae9ec6d52f22d2
     Pseudo is Ultrasoft + core correction, Zval =  6.0
     Generated by new atomic code, or converted to UPF format
     Using radial grid of  737 points,  5 beta functions with:
                l(1) =   0
                l(2) =   0
                l(3) =   1
                l(4) =   1
                l(5) =   2
     Q(r) pseudized with  8 coefficients,  rinner =    0.900   0.900   0.900
                                                       0.900   0.900

     atomic species   valence    mass     pseudopotential
        Nb0           13.00    92.90640     Nb( 1.00)
        O1             6.00    15.99940     O ( 1.00)

     Starting magnetic structure
     atomic species   magnetization
        Nb0          0.600
        O1           0.000

     16 Sym. Ops., with inversion, found ( 8 have fractional translation)

   Cartesian axes

     site n.     atom                  positions (alat units)
         1           Nb0 tau(   1) = (   0.0000000   0.0000000   0.0000000  )
         2           Nb0 tau(   2) = (   0.5000000   0.5000000   0.3222222  )
         3           O1  tau(   3) = (   0.3050000   0.3050000   0.0000000  )
         4           O1  tau(   4) = (  -0.3050000  -0.3050000   0.0000000  )
         5           O1  tau(   5) = (   0.8050000   0.1950000   0.3222222  )
         6           O1  tau(   6) = (   0.1950000   0.8050000   0.3222222  )

     number of k points=    36  Methfessel-Paxton smearing, width (Ry)=  0.0100
                       cart. coord. in units 2pi/alat
        k(    1) = (   0.0000000   0.0000000   0.0000000), wk =   0.0080000
        k(    2) = (   0.0000000   0.0000000   0.3103448), wk =   0.0160000
        k(    3) = (   0.0000000   0.0000000   0.6206897), wk =   0.0160000
        k(    4) = (   0.0000000   0.2000000   0.0000000), wk =   0.0320000
        k(    5) = (   0.0000000   0.2000000   0.3103448), wk =   0.0640000
        k(    6) = (   0.0000000   0.2000000   0.6206897), wk =   0.0640000
        k(    7) = (   0.0000000   0.4000000   0.0000000), wk =   0.0320000
        k(    8) = (   0.0000000   0.4000000   0.3103448), wk =   0.0640000
        k(    9) = (   0.0000000   0.4000000   0.6206897), wk =   0.0640000
        k(   10) = (   0.2000000   0.2000000   0.0000000), wk =   0.0320000
        k(   11) = (   0.2000000   0.2000000   0.3103448), wk =   0.0640000
        k(   12) = (   0.2000000   0.2000000   0.6206897), wk =   0.0640000
        k(   13) = (   0.2000000   0.4000000   0.0000000), wk =   0.0640000
        k(   14) = (   0.2000000   0.4000000   0.3103448), wk =   0.1280000
        k(   15) = (   0.2000000   0.4000000   0.6206897), wk =   0.1280000
        k(   16) = (   0.4000000   0.4000000   0.0000000), wk =   0.0320000
        k(   17) = (   0.4000000   0.4000000   0.3103448), wk =   0.0640000
        k(   18) = (   0.4000000   0.4000000   0.6206897), wk =   0.0640000
        k(   19) = (   0.0000000   0.0000000   0.0000000), wk =   0.0080000
        k(   20) = (   0.0000000   0.0000000   0.3103448), wk =   0.0160000
        k(   21) = (   0.0000000   0.0000000   0.6206897), wk =   0.0160000
        k(   22) = (   0.0000000   0.2000000   0.0000000), wk =   0.0320000
        k(   23) = (   0.0000000   0.2000000   0.3103448), wk =   0.0640000
        k(   24) = (   0.0000000   0.2000000   0.6206897), wk =   0.0640000
        k(   25) = (   0.0000000   0.4000000   0.0000000), wk =   0.0320000
        k(   26) = (   0.0000000   0.4000000   0.3103448), wk =   0.0640000
        k(   27) = (   0.0000000   0.4000000   0.6206897), wk =   0.0640000
        k(   28) = (   0.2000000   0.2000000   0.0000000), wk =   0.0320000
        k(   29) = (   0.2000000   0.2000000   0.3103448), wk =   0.0640000
        k(   30) = (   0.2000000   0.2000000   0.6206897), wk =   0.0640000
        k(   31) = (   0.2000000   0.4000000   0.0000000), wk =   0.0640000
        k(   32) = (   0.2000000   0.4000000   0.3103448), wk =   0.1280000
        k(   33) = (   0.2000000   0.4000000   0.6206897), wk =   0.1280000
        k(   34) = (   0.4000000   0.4000000   0.0000000), wk =   0.0320000
        k(   35) = (   0.4000000   0.4000000   0.3103448), wk =   0.0640000
        k(   36) = (   0.4000000   0.4000000   0.6206897), wk =   0.0640000

     Largest allocated arrays     est. size (Mb)     dimensions
     Largest temporary arrays     est. size (Mb)     dimensions

     Check: negative/imaginary core charge=   -0.000008    0.000000

     Initial potential from superposition of free atoms

     starting charge   49.99453, renormalised to   50.00000
     Starting wfc are   42 randomized atomic wfcs

     Self-consistent Calculation

     iteration #  1     ecut=    40.00 Ry     beta=0.70
     Davidson diagonalization with overlap
     ethr =  1.00E-02,  avg # of iterations =  5.3

     total energy              =    -363.55713193 Ry
     Harris-Foulkes estimate   =    -364.52321173 Ry
     estimated scf accuracy    <       3.31914738 Ry

     total magnetization       =     2.00 Bohr mag/cell
     absolute magnetization    =     2.78 Bohr mag/cell

[...]

     End of self-consistent calculation

 ------ SPIN UP ------------

          k = 0.0000 0.0000 0.0000 (  1623 PWs)   bands (ev):

   -38.5211 -38.4413 -15.4556 -15.4556 -14.6592 -14.6592 -14.6360 -14.4746
    -4.4406  -3.9153  -1.2662  -1.2662   6.9654   7.5310   7.7387   9.0791
     9.0791  11.8154  11.8154  12.5433  13.2658  13.2823  13.2823  13.9229
    17.4349  17.8752  18.5601  18.8679  18.8679  22.7274  22.8067  23.1143
    26.4281  26.4281  26.4837  26.4837  28.2167  30.2739  32.7192  33.0727
    34.0583  35.3934  35.3934  35.4101  37.5748  38.7445  38.7445  39.2189
    39.2824  39.2824  40.1040  45.0644  45.4563  45.4563  46.5582  47.4746
    48.4240  49.0597  49.1097  49.1097  49.6806  49.6806  51.7699  51.9252
    52.3639  52.7449  52.7449  54.1704  54.7023  55.9079  57.6274  57.6274
    57.7848  58.9950  58.9959

[...]

 ------ SPIN DOWN ----------

[...]

     the Fermi energy is    18.4482 ev

!    total energy              =    -364.94804405 Ry
     Harris-Foulkes estimate   =    -364.94804384 Ry
     estimated scf accuracy    <       0.00000008 Ry

     The total energy is the sum of the following terms:

     one-electron contribution =     -62.15638437 Ry
     hartree contribution      =      66.84183762 Ry
     xc contribution           =     -67.07545315 Ry
     ewald contribution        =    -302.55844942 Ry
     smearing contrib. (-TS)   =       0.00040527 Ry

[...]

     convergence has been achieved in  11 iterations

     Forces acting on atoms (Ry/au):

     atom    1 type  1   force =     0.00000000    0.00000000    0.00000000
     atom    2 type  1   force =     0.00000000    0.00000000   -0.00000000
     atom    3 type  2   force =    -0.06631083   -0.06631083   -0.00000000
     atom    4 type  2   force =     0.06631083    0.06631083    0.00000000
     atom    5 type  2   force =    -0.06631083    0.06631083   -0.00000000
     atom    6 type  2   force =     0.06631083   -0.06631083    0.00000000

     Total force =     0.187555     Total SCF correction =     0.000156

     entering subroutine stress ...

          total   stress  (Ry/bohr**3)                   (kbar)     P= 1058.97
   0.00666108   0.00000000   0.00000000        979.88      0.00      0.00
   0.00000000   0.00666108   0.00000000          0.00    979.88      0.00
   0.00000000   0.00000000   0.00827410          0.00      0.00   1217.16

     Volume is kept fixed: isostatic pressure set to zero

     BFGS Geometry Optimization

     number of scf cycles    =   1
     number of bfgs steps    =   0

     enthalpy new            =    -364.9480440520 Ry

     new trust radius        =       0.1043362961 bohr
     new conv_thr            =       0.0000010000 Ry

     new unit-cell volume =    376.55707 a.u.^3 (    55.80000 Ang^3 )

CELL_PARAMETERS (alat=  8.36016997)
   0.986734841   0.000000000   0.000000000
   0.000000000   0.986734841   0.000000000
   0.000000000   0.000000000   0.661888077

ATOMIC_POSITIONS (crystal)
Nb0      0.000000000   0.000000000   0.000000000    0   0   0
Nb0      0.500000000   0.500000000   0.500000000    0   0   0
O1       0.297068243   0.297068243   0.000000000    1   1   0
O1      -0.297068243  -0.297068243   0.000000000    1   1   0
O1       0.797068243   0.202931757   0.500000000    1   1   0
O1       0.202931757   0.797068243   0.500000000    1   1   0

     NEW-OLD atomic charge density approx. for the potential
     NEW k-points:
        k(    1) = (   0.0000000   0.0000000   0.0000000), wk =   0.0080000
[...]
        k(   22) = (   0.0000000   0.2026887   0.0000000), wk =   0.0320000
        k(   23) = (   0.0000000   0.2026887   0.3021659), wk =   0.0640000
        k(   24) = (   0.0000000   0.2026887   0.6043318), wk =   0.0640000
        k(   25) = (   0.0000000   0.4053774   0.0000000), wk =   0.0320000
        k(   26) = (   0.0000000   0.4053774   0.3021659), wk =   0.0640000
        k(   27) = (   0.0000000   0.4053774   0.6043318), wk =   0.0640000
        k(   28) = (   0.2026887   0.2026887   0.0000000), wk =   0.0320000
        k(   29) = (   0.2026887   0.2026887   0.3021659), wk =   0.0640000
        k(   30) = (   0.2026887   0.2026887   0.6043318), wk =   0.0640000
        k(   31) = (   0.2026887   0.4053774   0.0000000), wk =   0.0640000
        k(   32) = (   0.2026887   0.4053774   0.3021659), wk =   0.1280000
        k(   33) = (   0.2026887   0.4053774   0.6043318), wk =   0.1280000
        k(   34) = (   0.4053774   0.4053774   0.0000000), wk =   0.0320000
        k(   35) = (   0.4053774   0.4053774   0.3021659), wk =   0.0640000
        k(   36) = (   0.4053774   0.4053774   0.6043318), wk =   0.0640000

[...]

     enthalpy old            =    -364.9480440520 Ry
     enthalpy new            =    -364.9561766798 Ry

     CASE: enthalpy_new < enthalpy_old

[...]

     Threshold (ethr) on eigenvalues was too large:
     Diagonalizing with lowered threshold

     Davidson diagonalization with overlap
     ethr =  9.68E-08,  avg # of iterations =  1.1

[...]

     WARNING: bfgs curvature condition failed, Theta= 0.801
     new trust radius        =       0.0421278680 bohr
     new conv_thr            =       0.0000000937 Ry

[...]

     WARNING: bfgs curvature condition failed, Theta= 0.000
     new trust radius        =       0.0635984851 bohr
     new conv_thr            =       0.0000001551 Ry

[...]

     Total force =     0.005429     Total SCF correction =     0.000042

[...]

     number of scf cycles    =  11
     number of bfgs steps    =  10

     enthalpy old            =    -364.9734473659 Ry
     enthalpy new            =    -364.9747727163 Ry

     CASE: enthalpy_new < enthalpy_old

     new trust radius        =       0.0067071858 bohr
     new conv_thr            =       0.0000000192 Ry

     new unit-cell volume =    376.55707 a.u.^3 (    55.80000 Ang^3 )

[...]

ATOMIC_POSITIONS (crystal)
Nb0      0.000000000   0.000000000   0.000000000    0   0   0
Nb0      0.500000000   0.500000000   0.500000000    0   0   0
O1       0.286259438   0.286259438   0.000000000    1   1   0
O1      -0.286259438  -0.286259438   0.000000000    1   1   0
O1       0.786259438   0.213740562   0.500000000    1   1   0
O1       0.213740562   0.786259438   0.500000000    1   1   0

     NEW-OLD atomic charge density approx. for the potential
     NEW k-points:
        k(    1) = (   0.0000000   0.0000000   0.0000000), wk =   0.0080000
        k(    2) = (   0.0000000   0.0000000   0.3302645), wk =   0.0160000
        k(    3) = (   0.0000000   0.0000000   0.6605291), wk =   0.0160000
        k(    4) = (   0.0000000   0.1938748   0.0000000), wk =   0.0320000
        k(    5) = (   0.0000000   0.1938748   0.3302645), wk =   0.0640000
        k(    6) = (   0.0000000   0.1938748   0.6605291), wk =   0.0640000
        k(    7) = (   0.0000000   0.3877495   0.0000000), wk =   0.0320000
        k(    8) = (   0.0000000   0.3877495   0.3302645), wk =   0.0640000
        k(    9) = (   0.0000000   0.3877495   0.6605291), wk =   0.0640000
        k(   10) = (   0.1938748   0.1938748   0.0000000), wk =   0.0320000
        k(   11) = (   0.1938748   0.1938748   0.3302645), wk =   0.0640000
        k(   12) = (   0.1938748   0.1938748   0.6605291), wk =   0.0640000
        k(   13) = (   0.1938748   0.3877495   0.0000000), wk =   0.0640000
        k(   14) = (   0.1938748   0.3877495   0.3302645), wk =   0.1280000
        k(   15) = (   0.1938748   0.3877495   0.6605291), wk =   0.1280000
        k(   16) = (   0.3877495   0.3877495   0.0000000), wk =   0.0320000
        k(   17) = (   0.3877495   0.3877495   0.3302645), wk =   0.0640000
        k(   18) = (   0.3877495   0.3877495   0.6605291), wk =   0.0640000
        k(   19) = (   0.0000000   0.0000000   0.0000000), wk =   0.0080000
        k(   20) = (   0.0000000   0.0000000   0.3302645), wk =   0.0160000
        k(   21) = (   0.0000000   0.0000000   0.6605291), wk =   0.0160000
        k(   22) = (   0.0000000   0.1938748   0.0000000), wk =   0.0320000
        k(   23) = (   0.0000000   0.1938748   0.3302645), wk =   0.0640000
        k(   24) = (   0.0000000   0.1938748   0.6605291), wk =   0.0640000
        k(   25) = (   0.0000000   0.3877495   0.0000000), wk =   0.0320000
        k(   26) = (   0.0000000   0.3877495   0.3302645), wk =   0.0640000
        k(   27) = (   0.0000000   0.3877495   0.6605291), wk =   0.0640000
        k(   28) = (   0.1938748   0.1938748   0.0000000), wk =   0.0320000
        k(   29) = (   0.1938748   0.1938748   0.3302645), wk =   0.0640000
        k(   30) = (   0.1938748   0.1938748   0.6605291), wk =   0.0640000
        k(   31) = (   0.1938748   0.3877495   0.0000000), wk =   0.0640000
        k(   32) = (   0.1938748   0.3877495   0.3302645), wk =   0.1280000
        k(   33) = (   0.1938748   0.3877495   0.6605291), wk =   0.1280000
        k(   34) = (   0.3877495   0.3877495   0.0000000), wk =   0.0320000
        k(   35) = (   0.3877495   0.3877495   0.3302645), wk =   0.0640000
        k(   36) = (   0.3877495   0.3877495   0.6605291), wk =   0.0640000

[...]

     Threshold (ethr) on eigenvalues was too large:
     Diagonalizing with lowered threshold

     Davidson diagonalization with overlap
     ethr =  2.78E-08,  avg # of iterations =  1.2

[...]

     Total force =     0.000123     Total SCF correction =     0.000021
     SCF correction compared to forces is large: reduce conv_thr to get better values

[...]

     Volume is kept fixed: isostatic pressure set to zero

     bfgs converged in  12 scf cycles and  11 bfgs steps
     (criteria: energy < 0.10E-03, force < 0.10E-02, cell < 0.50E+00)

     End of BFGS Geometry Optimization

     Final enthalpy =    -364.9747951854 Ry
Begin final coordinates
     new unit-cell volume =    376.55707 a.u.^3 (    55.80000 Ang^3 )

CELL_PARAMETERS (alat=  8.36016997)
   1.031593797   0.000000000   0.000000000
   0.000000000   1.031593797   0.000000000
   0.000000000   0.000000000   0.605575142

ATOMIC_POSITIONS (crystal)
Nb0      0.000000000   0.000000000   0.000000000    0   0   0
Nb0      0.500000000   0.500000000   0.500000000    0   0   0
O1       0.286259438   0.286259438   0.000000000    1   1   0
O1      -0.286259438  -0.286259438   0.000000000    1   1   0
O1       0.786259438   0.213740562   0.500000000    1   1   0
O1       0.213740562   0.786259438   0.500000000    1   1   0
End final coordinates

     A final scf calculation at the relaxed structure.
     The G-vectors are recalculated for the final unit cell
     Results may differ from those at the preceding step.

     bravais-lattice index     =            0
     lattice parameter (alat)  =       8.3602  a.u.
     unit-cell volume          =     376.5571 (a.u.)^3
     number of atoms/cell      =            6
     number of atomic types    =            2
     number of electrons       =        50.00
     number of Kohn-Sham states=           75
     kinetic-energy cutoff     =      40.0000  Ry
     charge density cutoff     =     500.0000  Ry
     convergence threshold     =      1.9E-08
     mixing beta               =       0.7000
     number of iterations used =            8  plain     mixing
     Exchange-correlation      = SLA  PW   PBE  PBE ( 1 4 3 4 0)
     EXX-fraction              =        0.00

     celldm(1)=   8.360170  celldm(2)=   0.000000  celldm(3)=   0.000000
     celldm(4)=   0.000000  celldm(5)=   0.000000  celldm(6)=   0.000000

     crystal axes: (cart. coord. in units of alat)
               a(1) = (   1.031594   0.000000   0.000000 )
               a(2) = (   0.000000   1.031594   0.000000 )
               a(3) = (   0.000000   0.000000   0.605575 )

     reciprocal axes: (cart. coord. in units 2 pi/alat)
               b(1) = (  0.969374  0.000000  0.000000 )
               b(2) = (  0.000000  0.969374  0.000000 )
               b(3) = (  0.000000  0.000000  1.651323 )

     PseudoPot. # 1 for Nb read from file:
     /home/camp/zhonxu/pseudo/nb_pbe_v1.uspp.F.UPF
     MD5 check sum: 573aab8a2fa660278ed4a62cd769473f
     Pseudo is Ultrasoft + core correction, Zval = 13.0
     Generated by new atomic code, or converted to UPF format
     Using radial grid of  887 points,  6 beta functions with:
                l(1) =   0
                l(2) =   0
                l(3) =   1
                l(4) =   1
                l(5) =   2
                l(6) =   2
     Q(r) pseudized with  6 coefficients,  rinner =    1.000   1.000   1.000
                                                       1.000   1.000

     PseudoPot. # 2 for O  read from file:
     /home/camp/zhonxu/pseudo/o_pbe_v1.01.uspp.F.UPF
     MD5 check sum: 2bcb18d16ea4b960afae9ec6d52f22d2
     Pseudo is Ultrasoft + core correction, Zval =  6.0
     Generated by new atomic code, or converted to UPF format
     Using radial grid of  737 points,  5 beta functions with:
                l(1) =   0
                l(2) =   0
                l(3) =   1
                l(4) =   1
                l(5) =   2
     Q(r) pseudized with  8 coefficients,  rinner =    0.900   0.900   0.900
                                                       0.900   0.900

     atomic species   valence    mass     pseudopotential
        Nb0           13.00    92.90640     Nb( 1.00)
        O1             6.00    15.99940     O ( 1.00)

     Starting magnetic structure
     atomic species   magnetization
        Nb0          0.600
        O1           0.000

     16 Sym. Ops., with inversion, found ( 8 have fractional translation)

   Cartesian axes

     site n.     atom                  positions (alat units)
         1           Nb0 tau(   1) = (   0.0000000   0.0000000   0.0000000  )
         2           Nb0 tau(   2) = (   0.5157969   0.5157969   0.3027876  )
         3           O1  tau(   3) = (   0.2953035   0.2953035   0.0000000  )
         4           O1  tau(   4) = (  -0.2953035  -0.2953035   0.0000000  )
         5           O1  tau(   5) = (   0.8111004   0.2204934   0.3027876  )
         6           O1  tau(   6) = (   0.2204934   0.8111004   0.3027876  )

     number of k points=    36  Methfessel-Paxton smearing, width (Ry)=  0.0100
                       cart. coord. in units 2pi/alat
        k(    1) = (   0.0000000   0.0000000   0.0000000), wk =   0.0080000
        k(    2) = (   0.0000000   0.0000000   0.3302645), wk =   0.0160000
        k(    3) = (   0.0000000   0.0000000   0.6605291), wk =   0.0160000
        k(    4) = (   0.0000000   0.1938748   0.0000000), wk =   0.0320000
        k(    5) = (   0.0000000   0.1938748   0.3302645), wk =   0.0640000
        k(    6) = (   0.0000000   0.1938748   0.6605291), wk =   0.0640000
        k(    7) = (   0.0000000   0.3877495   0.0000000), wk =   0.0320000
        k(    8) = (   0.0000000   0.3877495   0.3302645), wk =   0.0640000
        k(    9) = (   0.0000000   0.3877495   0.6605291), wk =   0.0640000
        k(   10) = (   0.1938748   0.1938748   0.0000000), wk =   0.0320000
        k(   11) = (   0.1938748   0.1938748   0.3302645), wk =   0.0640000
        k(   12) = (   0.1938748   0.1938748   0.6605291), wk =   0.0640000
        k(   13) = (   0.1938748   0.3877495   0.0000000), wk =   0.0640000
        k(   14) = (   0.1938748   0.3877495   0.3302645), wk =   0.1280000
        k(   15) = (   0.1938748   0.3877495   0.6605291), wk =   0.1280000
        k(   16) = (   0.3877495   0.3877495   0.0000000), wk =   0.0320000
        k(   17) = (   0.3877495   0.3877495   0.3302645), wk =   0.0640000
        k(   18) = (   0.3877495   0.3877495   0.6605291), wk =   0.0640000
        k(   19) = (   0.0000000   0.0000000   0.0000000), wk =   0.0080000
        k(   20) = (   0.0000000   0.0000000   0.3302645), wk =   0.0160000
        k(   21) = (   0.0000000   0.0000000   0.6605291), wk =   0.0160000
        k(   22) = (   0.0000000   0.1938748   0.0000000), wk =   0.0320000
        k(   23) = (   0.0000000   0.1938748   0.3302645), wk =   0.0640000
        k(   24) = (   0.0000000   0.1938748   0.6605291), wk =   0.0640000
        k(   25) = (   0.0000000   0.3877495   0.0000000), wk =   0.0320000
        k(   26) = (   0.0000000   0.3877495   0.3302645), wk =   0.0640000
        k(   27) = (   0.0000000   0.3877495   0.6605291), wk =   0.0640000
        k(   28) = (   0.1938748   0.1938748   0.0000000), wk =   0.0320000
        k(   29) = (   0.1938748   0.1938748   0.3302645), wk =   0.0640000
        k(   30) = (   0.1938748   0.1938748   0.6605291), wk =   0.0640000
        k(   31) = (   0.1938748   0.3877495   0.0000000), wk =   0.0640000
        k(   32) = (   0.1938748   0.3877495   0.3302645), wk =   0.1280000
        k(   33) = (   0.1938748   0.3877495   0.6605291), wk =   0.1280000
        k(   34) = (   0.3877495   0.3877495   0.0000000), wk =   0.0320000
        k(   35) = (   0.3877495   0.3877495   0.3302645), wk =   0.0640000
        k(   36) = (   0.3877495   0.3877495   0.6605291), wk =   0.0640000

     Largest allocated arrays     est. size (Mb)     dimensions
     Largest temporary arrays     est. size (Mb)     dimensions

     Check: negative/imaginary core charge=   -0.000008    0.000000

     Initial potential from superposition of free atoms

     starting charge   49.99453, renormalised to   50.00000
     Starting wfc are   42 randomized atomic wfcs

     Self-consistent Calculation

[...]

     total energy              =    -364.97484144 Ry
     Harris-Foulkes estimate   =    -364.97484297 Ry
     estimated scf accuracy    <       0.00000008 Ry

[...]

     iteration # 13     ecut=    40.00 Ry     beta=0.70
     Davidson diagonalization with overlap
     ethr =  1.67E-10,  avg # of iterations =  2.2

     End of self-consistent calculation

 ------ SPIN UP ------------

[...]

 ------ SPIN DOWN ----------

[...]

          k = 0.3877 0.3877 0.6605 (  1606 PWs)   bands (ev):

   -38.4617 -38.4596 -16.1365 -16.1141 -15.3669 -15.3267 -14.7371 -14.7292
    -3.3684  -2.9026  -2.4220  -1.8728   8.2638   8.6340   9.2358   9.5301
    10.1232  10.2633  10.9819  11.7597  11.9246  12.0650  13.2707  13.3366
    18.0373  18.5695  19.0283  19.7801  21.2225  21.3433  24.6709  25.4478
    25.9625  26.1534  26.6971  26.9081  29.1802  29.4521  30.9079  31.3169
    34.8080  35.0690  35.3790  35.6427  37.0013  37.0827  38.0616  38.4266
    42.5483  42.8761  43.6192  43.8367  45.7200  46.3621  46.6168  47.4708
    48.2147  49.1020  49.2459  49.8160  50.3694  50.5347  51.2116  51.4864
    52.0985  52.3052  52.4010  53.3595  53.7285  54.0191  54.9043  55.0884
    56.4615  57.7644  58.8802

     the Fermi energy is    17.7908 ev

!    total energy              =    -364.97484365 Ry
     Harris-Foulkes estimate   =    -364.97484362 Ry
     estimated scf accuracy    <       0.00000002 Ry

     The total energy is the sum of the following terms:

     one-electron contribution =     -62.83820715 Ry
     hartree contribution      =      67.11211814 Ry
     xc contribution           =     -67.06323242 Ry
     ewald contribution        =    -302.18524050 Ry
     smearing contrib. (-TS)   =      -0.00028172 Ry

     total magnetization       =     0.01 Bohr mag/cell
     absolute magnetization    =     0.01 Bohr mag/cell

     convergence has been achieved in  13 iterations

     Forces acting on atoms (Ry/au):

     atom    1 type  1   force =     0.00000000    0.00000000    0.00000000
     atom    2 type  1   force =     0.00000000    0.00000000    0.00000000
     atom    3 type  2   force =    -0.00006448   -0.00006448   -0.00000000
     atom    4 type  2   force =     0.00006448    0.00006448    0.00000000
     atom    5 type  2   force =    -0.00006448    0.00006448    0.00000000
     atom    6 type  2   force =     0.00006448   -0.00006448   -0.00000000

     Total force =     0.000182     Total SCF correction =     0.000125
     SCF correction compared to forces is large: reduce conv_thr to get better values

     entering subroutine stress ...

          total   stress  (Ry/bohr**3)                   (kbar)     P= 1040.72
   0.00707877   0.00000000   0.00000000       1041.32      0.00      0.00
   0.00000000   0.00707877   0.00000000          0.00   1041.32      0.00
   0.00000000   0.00000000   0.00706644          0.00      0.00   1039.51

     General routines

     Parallel routines

   This run was terminated on:  19:35:51  23Jan2014

   JOB DONE.