     Program PWSCF v.5.0.2 (svn rev. 9656) starts on 10May2014 at  3:39:52

     Current dimensions of program PWSCF are:
     Max number of different atomic species (ntypx) = 10
     Max number of k-points (npk) =  40000
     Max angular momentum in pseudopotentials (lmaxx) =  3
     Reading input from pwscf.in
Warning: card &CELL ignored
Warning: card / ignored

     Subspace diagonalization in iterative solution of the eigenvalue problem:
     a serial algorithm will be used

     bravais-lattice index     =            0
     lattice parameter (alat)  =      11.2250  a.u.
     unit-cell volume          =    7005.5484 (a.u.)^3
     number of atoms/cell      =           33
     number of atomic types    =            3
     number of electrons       =       221.00
     number of Kohn-Sham states=          319
     kinetic-energy cutoff     =      40.0000  Ry
     charge density cutoff     =     500.0000  Ry
     convergence threshold     =      1.0E-06
     mixing beta               =       0.7000
     number of iterations used =            8  plain     mixing
     Exchange-correlation      = SLA  PW   PBE  PBE ( 1 4 3 4 0)
     EXX-fraction              =        0.00
     nstep                     =           50

     celldm(1)=  11.224973  celldm(2)=   0.000000  celldm(3)=   0.000000
     celldm(4)=   0.000000  celldm(5)=   0.000000  celldm(6)=   0.000000

     crystal axes: (cart. coord. in units of alat)
               a(1) = (   1.000000   0.000000   0.000000 )
               a(2) = (   0.000000   1.107086   0.000000 )
               a(3) = (   0.000000   0.000000   4.474090 )

     reciprocal axes: (cart. coord. in units 2 pi/alat)
               b(1) = (  1.000000  0.000000  0.000000 )
               b(2) = (  0.000000  0.903272  0.000000 )
               b(3) = (  0.000000  0.000000  0.223509 )

     PseudoPot. # 1 for O  read from file:
     /home/camp/zhonxu/pseudo/o_pbe_v1.01.uspp.F.UPF
     MD5 check sum: 2bcb18d16ea4b960afae9ec6d52f22d2
     Pseudo is Ultrasoft + core correction, Zval =  6.0
     Generated by new atomic code, or converted to UPF format
     Using radial grid of  737 points,  5 beta functions with:
                l(1) =   0
                l(2) =   0
                l(3) =   1
                l(4) =   1
                l(5) =   2
     Q(r) pseudized with  8 coefficients,  rinner =    0.900   0.900   0.900
                                                       0.900   0.900

     PseudoPot. # 2 for Ti read from file:
     /home/camp/zhonxu/pseudo/ti_pbe_v1.uspp.F.UPF
     MD5 check sum: bcc8f6961b3b91f0cac3ca967d22d0fb
     Pseudo is Ultrasoft + core correction, Zval = 12.0
     Generated by new atomic code, or converted to UPF format
     Using radial grid of  851 points,  6 beta functions with:
                l(1) =   0
                l(2) =   0
                l(3) =   1
                l(4) =   1
                l(5) =   2
                l(6) =   2
     Q(r) pseudized with  6 coefficients,  rinner =    1.000   1.000   1.000
                                                       1.000   1.000

     PseudoPot. # 3 for H  read from file:
     /home/camp/zhonxu/pseudo/h_pbe_v1.uspp.F.UPF
     MD5 check sum: 3408e3ff4ec8b0a4e358431e7e038a48
     Pseudo is Ultrasoft, Zval =  1.0
     Generated by new atomic code, or converted to UPF format
     Using radial grid of  615 points,  2 beta functions with:
                l(1) =   0
                l(2) =   0
     Q(r) pseudized with  8 coefficients,  rinner =    0.700

     atomic species   valence    mass     pseudopotential
        O0             6.00    15.99940     O ( 1.00)
        Ti1           12.00    47.88000     Ti( 1.00)
        H2             1.00     1.00794     H ( 1.00)

     No symmetry found

   Cartesian axes

     site n.     atom                  positions (alat units)
         1           O0  tau(   1) = (   0.0000000   0.0000000   1.6989461  )
         2           O0  tau(   2) = (   0.0000000   0.5535432   1.7901728  )
         3           Ti1 tau(   3) = (   0.2500000   0.5535432   2.0162933  )
         4           Ti1 tau(   4) = (   0.0000000   0.0000000   2.0248388  )
         5           O0  tau(   5) = (   0.2500000   0.8967400   2.0178145  )
         6           O0  tau(   6) = (   0.2500000   0.2103464   2.0226912  )
         7           O0  tau(   7) = (   0.0000000   0.5535432   2.2326603  )
         8           O0  tau(   8) = (   0.0000000   0.0000000   2.3559662  )
         9           Ti1 tau(   9) = (   0.2500000   0.0000000   2.5995804  )
        10           Ti1 tau(  10) = (   0.0000000   0.5535432   2.5483968  )
        11           O0  tau(  11) = (   0.2500000   0.7638896   2.5964932  )
        12           O0  tau(  12) = (   0.2500000   0.3431968   2.5965380  )
        13           O0  tau(  13) = (   0.0000000   0.0000000   2.7842708  )
        14           O0  tau(  14) = (   0.5000000   0.0000000   1.6989461  )
        15           O0  tau(  15) = (   0.5000000   0.5535432   1.7901728  )
        16           Ti1 tau(  16) = (   0.7500000   0.5535432   2.0162933  )
        17           Ti1 tau(  17) = (   0.5000000   0.0000000   2.0248388  )
        18           O0  tau(  18) = (   0.7500000   0.8967400   2.0178145  )
        19           O0  tau(  19) = (   0.7500000   0.2103464   2.0226912  )
        20           O0  tau(  20) = (   0.5000000   0.5535432   2.2326603  )
        21           O0  tau(  21) = (   0.5000000   0.0000000   2.3559662  )
        22           Ti1 tau(  22) = (   0.7500000   0.0000000   2.5995804  )
        23           Ti1 tau(  23) = (   0.5000000   0.5535432   2.5483968  )
        24           O0  tau(  24) = (   0.7500000   0.7638896   2.5964932  )
        25           O0  tau(  25) = (   0.7500000   0.3431968   2.5965380  )
        26           O0  tau(  26) = (   0.5000000   0.0000000   2.7842708  )
        27           H2  tau(  27) = (  -0.0005400   0.6991915   1.7063283  )
        28           H2  tau(  28) = (   0.4994600   0.6991915   1.7063283  )
        29           H2  tau(  29) = (   0.1501800   0.0252084   1.6321479  )
        30           H2  tau(  30) = (   0.6501800   0.0252084   1.6321479  )
        31           O0  tau(  31) = (   0.5003100   0.5535432   2.9293655  )
        32           O0  tau(  32) = (   0.4991200   0.3574118   3.0466762  )
        33           H2  tau(  33) = (   0.5003600   0.4072639   3.2062669  )

     number of k points=    10  Methfessel-Paxton smearing, width (Ry)=  0.0100
                       cart. coord. in units 2pi/alat
        k(    1) = (   0.0000000   0.0000000   0.0000000), wk =   0.1250000
        k(    2) = (   0.0000000   0.2258180   0.0000000), wk =   0.2500000
        k(    3) = (   0.0000000  -0.4516359   0.0000000), wk =   0.1250000
        k(    4) = (   0.2500000   0.0000000   0.0000000), wk =   0.2500000
        k(    5) = (   0.2500000   0.2258180   0.0000000), wk =   0.2500000
        k(    6) = (   0.2500000  -0.4516359   0.0000000), wk =   0.2500000
        k(    7) = (  -0.5000000   0.0000000   0.0000000), wk =   0.1250000
        k(    8) = (  -0.5000000   0.2258180   0.0000000), wk =   0.2500000
        k(    9) = (  -0.5000000  -0.4516359   0.0000000), wk =   0.1250000
        k(   10) = (  -0.2500000   0.2258180   0.0000000), wk =   0.2500000

     Largest allocated arrays     est. size (Mb)     dimensions
     Largest temporary arrays     est. size (Mb)     dimensions

     Check: negative/imaginary core charge=   -0.000006    0.000000

     Initial potential from superposition of free atoms
     Check: negative starting charge=   -0.102726

     starting charge  212.99957, renormalised to  221.00000

     negative rho (up, down):  0.107E+00 0.000E+00
     Starting wfc are  165 randomized atomic wfcs

     Self-consistent Calculation

     iteration #  1     ecut=    40.00 Ry     beta=0.70
     Davidson diagonalization with overlap
     ethr =  1.00E-02,  avg # of iterations =  5.9

     negative rho (up, down):  0.108E+00 0.000E+00

     total energy              =   -1590.51971351 Ry
     Harris-Foulkes estimate   =   -1602.44859378 Ry
     estimated scf accuracy    <      14.05184955 Ry

[...]

     End of self-consistent calculation

          k = 0.0000 0.0000 0.0000 ( 29975 PWs)   bands (ev):

   -59.9152 -59.8774 -59.2498 -59.1151 -58.4228 -58.3786 -57.9425 -57.9014
   -36.4886 -36.1843 -36.0818 -36.0747 -36.0059 -35.9703 -35.6803 -35.6174
   -35.4488 -35.4192 -35.3060 -35.2454 -35.0806 -34.7731 -34.6645 -34.6180
   -34.5400 -34.5049 -34.4492 -34.2673 -34.2377 -34.2036 -34.1034 -33.9800
   -25.6057 -21.5377 -21.2570 -20.1378 -19.8831 -19.6825 -19.5435 -19.0016
   -18.9602 -18.8167 -18.7537 -18.6945 -18.6572 -18.4449 -18.3740 -18.2060
   -17.7365 -17.5144 -17.3003 -17.2843  -9.8321  -9.2770  -8.8414  -8.0310
    -7.6465  -7.5279  -7.4614  -7.3537  -7.2428  -7.0815  -6.8250  -6.7096
    -6.5101  -6.4593  -6.3154  -6.1196  -6.1057  -6.0452  -5.9963  -5.9447
    -5.9295  -5.7653  -5.7541  -5.5310  -5.3643  -5.2074  -4.9247  -4.7997
    -4.7819  -4.7355  -4.6731  -4.6273  -4.6212  -4.4732  -4.3639  -4.2910
    -4.1121  -4.0761  -4.0108  -4.0081  -3.9844  -3.6417  -3.4785  -3.4702
    -3.3553  -3.2139  -3.1121  -3.0886  -2.9240  -2.7219  -2.6621  -2.6355
    -2.5561  -2.3326  -2.3227  -2.1936  -2.1290  -2.0373  -1.9708  -0.9102
    -0.3848  -0.2462  -0.1602  -0.0791   0.0888   0.1557   0.2209   0.5216
     0.7286   0.8737   0.9831   1.1826   1.2581   1.3391   1.3713   1.4436
     1.4449   1.5723   1.7371   1.9041   2.0826   2.1113   2.2307   2.5524
     2.5858   2.6363   2.6844   2.7705   2.9800   3.1098   3.1691   3.5212
     3.6352   3.9107   3.9793   4.1215   4.1575   4.1967   4.2689   4.4726
     4.7502   4.8351   5.0033   5.2827   5.4312   5.6238   5.6449   6.1283
     6.2441   6.3485   6.5804   6.7417   6.8706   6.9837   7.0751   7.0898
     7.1324   7.1813   7.4462   7.6101   7.6611   7.7938   7.8149   8.1045
     8.1817   8.2917   8.3383   8.4191   8.5124   8.7984   8.8766   8.8945
     9.0579   9.0904   9.3194   9.3648   9.4530   9.5168   9.5838   9.7102
     9.8072   9.8582  10.0350  10.1347  10.1923  10.2156  10.3113  10.3981
    10.6431  10.6703  10.7607  10.8520  10.9524  11.0150  11.0170  11.1509
    11.1840  11.2351  11.2528  11.3521  11.3771  11.4391  11.5745  11.6518
    11.6993  11.7230  11.8445  11.9146  12.0832  12.1325  12.2116  12.2433
    12.2765  12.3308  12.4005  12.4247  12.4772  12.5817  12.6019  12.7234
    12.7927  12.8496  12.9212  13.0537  13.1895  13.2226  13.4471  13.5265
    13.5751  13.5992  13.6646  13.6987  13.7221  13.8009  14.0863  14.1329
    14.2785  14.4778  14.5199  14.5639  14.5850  14.6255  14.7589  14.8828
    14.9241  14.9740  15.0099  15.1248  15.1355  15.3031  15.4227  15.5070
    15.6660  15.6990  15.7466  15.8153  15.8296  16.0613  16.0757  16.2422
    16.3209  16.3722  16.4516  16.5765  16.7629  16.7988  16.8834  16.9025
    16.9245  16.9822  17.0436  17.1355  17.2067  17.2762  17.3212  17.3694
    17.3899  17.5451  17.6220  17.6365  17.8184  17.9286  18.0433  18.1189
    18.1517  18.2136  18.2965  18.3378  18.3464  18.4476  18.5860  18.6021
[...]
     atom   17 type  2   force =    -0.00630088    0.00810216    0.01084916
     atom   18 type  1   force =     0.00473882   -0.10500031   -0.00136411
     atom   19 type  1   force =    -0.00024048    0.10487692   -0.00161419
     atom   20 type  1   force =    -0.00003507    0.00050432   -0.03596752
     atom   21 type  1   force =     0.00331436   -0.00140357   -0.00658940
     atom   22 type  2   force =    -0.00791389    0.00085044    0.00469306
     atom   23 type  2   force =    -0.00021045   -0.00846254    0.08272881
     atom   24 type  1   force =     0.01240992   -0.02941083   -0.00999737
     atom   25 type  1   force =     0.01687846    0.02910765   -0.01539143
     atom   26 type  1   force =     0.00067159   -0.00888002   -0.00679500
     atom   27 type  3   force =     0.00002951   -0.00146400    0.00035553
     atom   28 type  3   force =     0.00002555   -0.00160410    0.00026874
     atom   29 type  3   force =     0.00029852    0.00058256    0.00016723
     atom   30 type  3   force =     0.00016609    0.00054364    0.00005723
     atom   31 type  1   force =     0.00043221    0.02130787    0.00002468
     atom   32 type  1   force =    -0.00065967   -0.00600291   -0.00011405
     atom   33 type  3   force =     0.00022389    0.00565314   -0.00025921

     Total force =     0.101202     Total SCF correction =     0.001463

     BFGS Geometry Optimization

     number of scf cycles    =   1
     number of bfgs steps    =   0

     energy   new            =   -1600.3053807767 Ry

     new trust radius        =       0.0827288107 bohr
     new conv_thr            =       0.0000010000 Ry

ATOMIC_POSITIONS (crystal)
O0       0.000000000   0.000000000   0.379627336    0   0   1
O0       0.000000000   0.500000000   0.400038250    0   0   1
Ti1      0.250000000   0.500000000   0.450879121    0   0   1
Ti1      0.000000000   0.000000000   0.452669517    0   0   1
O0       0.250000000   0.810000000   0.450972549    0   0   1
O0       0.250000000   0.190000000   0.452056617    0   0   1
O0       0.000000000   0.500000000   0.498771450    0   0   1
O0       0.000000000   0.000000000   0.526468734    0   0   1
Ti1      0.250000000   0.000000000   0.581120747    0   0   1
Ti1      0.000000000   0.500000000   0.569759385    0   0   1
O0       0.250000000   0.690000000   0.580141054    0   0   1
O0       0.250000000   0.310000000   0.580042220    0   0   1
O0       0.000000000   0.000000000   0.622402762    0   0   1
O0       0.500000000   0.000000000   0.379616581    0   0   1
O0       0.500000000   0.500000000   0.400035845    0   0   1
Ti1      0.750000000   0.500000000   0.450878646    0   0   1
Ti1      0.500000000   0.000000000   0.452786026    0   0   1
O0       0.750000000   0.810000000   0.450972838    0   0   1
O0       0.750000000   0.190000000   0.452057859    0   0   1
O0       0.500000000   0.500000000   0.498303823    0   0   1
O0       0.500000000   0.000000000   0.526448793    0   0   1
Ti1      0.750000000   0.000000000   0.581123447    0   0   1
Ti1      0.500000000   0.500000000   0.571237278    0   0   1
O0       0.750000000   0.690000000   0.580140935    0   0   1
O0       0.750000000   0.310000000   0.580043529    0   0   1
O0       0.500000000   0.000000000   0.622174700    0   0   1
H2      -0.000537371   0.631442192   0.381387079
H2       0.499462276   0.631430918   0.381385351
H2       0.150206594   0.022816878   0.364803330
H2       0.650194796   0.022813747   0.364801140
O0       0.500310000   0.501714641   0.654740491    0   1   1
O0       0.499120000   0.322356947   0.680957729    0   1   1
H2       0.500360000   0.368324907   0.716624839    0   1   1

     Check: negative starting charge=   -0.102726
     NEW-OLD atomic charge density approx. for the potential

     Check: negative/imaginary core charge=   -0.000006    0.000000
     Check: negative starting charge=   -0.101997

[...]

     energy   old            =   -1600.3053807767 Ry
     energy   new            =   -1600.3132969097 Ry

     CASE: energy  _new < energy  _old

[...]

     Threshold (ethr) on eigenvalues was too large:
     Diagonalizing with lowered threshold

     Davidson diagonalization with overlap
     ethr =  6.05E-08,  avg # of iterations =  1.1

[...]

     Total force =     0.003340     Total SCF correction =     0.000200

     number of scf cycles    =  26
     number of bfgs steps    =  25

     energy   old            =   -1600.3300874587 Ry
     energy   new            =   -1600.3301147403 Ry

     CASE: energy  _new < energy  _old

     new trust radius        =       0.0117059342 bohr
     new conv_thr            =       0.0000000100 Ry

ATOMIC_POSITIONS (crystal)
O0       0.000000000   0.000000000   0.378020726    0   0   1
O0       0.000000000   0.500000000   0.399300707    0   0   1
Ti1      0.250000000   0.500000000   0.451103804    0   0   1
Ti1      0.000000000   0.000000000   0.451826980    0   0   1
O0       0.250000000   0.810000000   0.449973489    0   0   1
O0       0.250000000   0.190000000   0.450894814    0   0   1
O0       0.000000000   0.500000000   0.498356378    0   0   1
O0       0.000000000   0.000000000   0.525707906    0   0   1
Ti1      0.250000000   0.000000000   0.580545003    0   0   1
Ti1      0.000000000   0.500000000   0.567963045    0   0   1
O0       0.250000000   0.690000000   0.578358712    0   0   1
O0       0.250000000   0.310000000   0.579414669    0   0   1
O0       0.000000000   0.000000000   0.621953742    0   0   1
O0       0.500000000   0.000000000   0.378766517    0   0   1
O0       0.500000000   0.500000000   0.398946031    0   0   1
Ti1      0.750000000   0.500000000   0.451113067    0   0   1
Ti1      0.500000000   0.000000000   0.453220562    0   0   1
O0       0.750000000   0.810000000   0.449911863    0   0   1
O0       0.750000000   0.190000000   0.450932692    0   0   1
O0       0.500000000   0.500000000   0.495725426    0   0   1
O0       0.500000000   0.000000000   0.525885329    0   0   1
Ti1      0.750000000   0.000000000   0.580552103    0   0   1
Ti1      0.500000000   0.500000000   0.585176848    0   0   1
O0       0.750000000   0.690000000   0.578350474    0   0   1
O0       0.750000000   0.310000000   0.579394135    0   0   1
O0       0.500000000   0.000000000   0.621615772    0   0   1
H2      -0.000459130   0.626027095   0.378828785
H2       0.499717746   0.624908334   0.378090054
H2       0.149000884   0.033035484   0.363609474
H2       0.648277639   0.034486568   0.364257670
O0       0.500310000   0.526963903   0.657788070    0   1   1
O0       0.499120000   0.350128471   0.688054301    0   1   1
H2       0.500360000   0.413245092   0.721830853    0   1   1

     Check: negative starting charge=   -0.102105
     NEW-OLD atomic charge density approx. for the potential

     Check: negative/imaginary core charge=   -0.000006    0.000000
     Check: negative starting charge=   -0.102045

[...]

     Self-consistent Calculation

[...]

     Threshold (ethr) on eigenvalues was too large:
     Diagonalizing with lowered threshold

     Davidson diagonalization with overlap
     ethr =  5.62E-08,  avg # of iterations =  1.4

[...]

     total energy              =   -1600.33013338 Ry
     Harris-Foulkes estimate   =   -1600.33013340 Ry
     estimated scf accuracy    <       0.00000053 Ry

     iteration # 13     ecut=    40.00 Ry     beta=0.70
     Davidson diagonalization with overlap
     ethr =  5.64E-12,  avg # of iterations =  1.0

     negative rho (up, down):  0.102E+00 0.000E+00

     End of self-consistent calculation

[...]

          k = 0.2500-0.4516 0.0000 ( 29882 PWs)   bands (ev):

[...]

          k =-0.2500 0.2258 0.0000 ( 29912 PWs)   bands (ev):

   -59.6084 -59.5810 -59.4101 -59.1942 -58.5185 -58.4856 -58.2258 -58.1967
   -36.1175 -35.8829 -35.8356 -35.7783 -35.7634 -35.7520 -35.7354 -35.7286
   -35.5988 -35.4692 -35.4305 -35.3986 -35.0935 -34.8491 -34.7702 -34.7695
   -34.6877 -34.6552 -34.6201 -34.5461 -34.5227 -34.4794 -34.4040 -34.3398
   -24.7318 -21.0632 -20.8395 -20.1758 -19.6304 -19.5555 -19.1723 -19.1148
   -19.0561 -19.0104 -18.9690 -18.8530 -18.7938 -18.6753 -18.6064 -18.3078
   -17.9698 -17.7441 -17.6979 -17.6501  -9.5720  -8.8559  -8.5614  -7.9127
    -7.3385  -7.2820  -7.1292  -7.1027  -7.0127  -6.7001  -6.6527  -6.4799
    -6.4417  -6.3710  -6.3188  -6.2272  -6.1810  -6.1220  -6.1023  -5.8520
    -5.7684  -5.7146  -5.6182  -5.5308  -5.4016  -5.1587  -5.0237  -4.9443
    -4.8572  -4.8131  -4.6774  -4.6405  -4.5728  -4.5130  -4.4408  -4.3292
    -4.2645  -4.2330  -4.1781  -4.0988  -4.0634  -3.9249  -3.8817  -3.7778
    -3.7206  -3.6045  -3.4224  -3.3102  -3.1840  -2.9976  -2.9891  -2.8816
    -2.8200  -2.7530  -2.7184  -2.4834  -2.3489  -2.2515  -2.2091  -0.3030
    -0.2413  -0.1211   0.0602   0.2024   0.2667   0.3718   0.4359   0.6411
     0.6567   0.7153   0.7958   0.9869   1.0969   1.2550   1.2964   1.3313
     1.5593   1.6370   1.7359   1.8425   1.9638   2.0029   2.0983   2.2707
     2.3439   2.6646   2.8618   2.9275   2.9850   3.1290   3.1650   3.6740
     3.7401   3.8180   3.8480   4.0388   4.1398   4.3435   4.3984   4.4348
     4.5843   4.6863   4.9502   5.0444   5.1830   5.2245   5.5044   5.6114
     5.6783   5.9032   6.0205   6.1801   6.3944   6.5460   6.6578   6.9996
     7.0718   7.2363   7.4936   7.5442   7.6826   7.8784   7.9585   8.1004
     8.1795   8.3360   8.4814   8.5720   8.6550   8.8124   8.9043   9.0162
     9.1055   9.2111   9.2539   9.3725   9.4676   9.6500   9.7037   9.7862
     9.8639  10.0000  10.1936  10.2506  10.3220  10.3779  10.4807  10.5122
    10.6781  10.7681  10.9213  10.9683  11.0090  11.1360  11.2163  11.2949
    11.3613  11.4685  11.5201  11.5991  11.6268  11.7268  11.8001  11.9268
    12.0100  12.1294  12.1669  12.2643  12.3165  12.3492  12.4326  12.5281
    12.5547  12.6394  12.7247  12.8326  12.8665  12.9631  13.0208  13.0615
    13.1651  13.2801  13.3204  13.3684  13.4840  13.5815  13.6697  13.7857
    13.8542  13.9583  14.0314  14.0967  14.1482  14.2245  14.2908  14.3228
    14.3893  14.4719  14.5374  14.6252  14.6882  14.7745  14.8541  14.9250
    14.9493  15.0715  15.1502  15.2101  15.3133  15.3414  15.4034  15.4650
    15.5320  15.5893  15.6481  15.7109  15.7264  15.8643  15.9214  15.9746
    16.0202  16.1543  16.1795  16.2280  16.2764  16.3809  16.4318  16.5029
    16.5522  16.5872  16.6668  16.7232  16.7625  16.7932  16.8858  16.9882
    17.0778  17.1404  17.2244  17.2520  17.3049  17.3721  17.4389  17.4719
    17.5794  17.6466  17.7286  17.8436  17.8975  17.9925  18.0539  18.1304
    18.1920  18.2440  18.3463  18.3733  18.4343  18.5103  18.5617  18.6127
    18.6669  18.7581  18.8270  18.8818  18.9547  19.0757  19.1261

     the Fermi energy is    -2.1933 ev

!    total energy              =   -1600.33013339 Ry
     Harris-Foulkes estimate   =   -1600.33013339 Ry
     estimated scf accuracy    <          3.2E-09 Ry

     The total energy is the sum of the following terms:

     one-electron contribution =  -19201.53159959 Ry
     hartree contribution      =    9625.70216128 Ry
     xc contribution           =    -284.68883263 Ry
     ewald contribution        =    8260.18963724 Ry
     smearing contrib. (-TS)   =      -0.00149969 Ry

     convergence has been achieved in  13 iterations

     Forces acting on atoms (Ry/au):

     negative rho (up, down):  0.102E+00 0.000E+00
     atom    1 type  1   force =    -0.00025064   -0.01191287    0.00017576
     atom    2 type  1   force =     0.00012809    0.01805627    0.00007077
     atom    3 type  2   force =     0.05970255   -0.01219453   -0.00031236
     atom    4 type  2   force =    -0.00446603    0.00635555   -0.00073862
     atom    5 type  1   force =    -0.00149199   -0.08041125    0.00022158
     atom    6 type  1   force =    -0.00594379    0.08180798    0.00018900
     atom    7 type  1   force =     0.00008819   -0.00032344   -0.00043735
     atom    8 type  1   force =     0.00254260   -0.00037601   -0.00028971
     atom    9 type  2   force =     0.00030878   -0.00051717   -0.00015728
     atom   10 type  2   force =    -0.00004937    0.00133921   -0.00078736
     atom   11 type  1   force =    -0.01896749   -0.01804341   -0.00013326
     atom   12 type  1   force =    -0.01486607    0.02201757    0.00056580
     atom   13 type  1   force =     0.00039957   -0.00175538   -0.00018800
     atom   14 type  1   force =    -0.00181936   -0.01147848   -0.00077560
     atom   15 type  1   force =     0.00015311    0.01631764    0.00038240
     atom   16 type  2   force =    -0.05947767   -0.01269327   -0.00031800
     atom   17 type  2   force =    -0.00497676    0.00548520   -0.00032238
     atom   18 type  1   force =     0.00809267   -0.08026233    0.00018490
     atom   19 type  1   force =     0.00463444    0.08223161    0.00031193
     atom   20 type  1   force =    -0.00009467   -0.00007186   -0.00059244
     atom   21 type  1   force =     0.00265014    0.00008459    0.00041777
     atom   22 type  2   force =    -0.00143091   -0.00042468   -0.00016537
     atom   23 type  2   force =     0.00000430   -0.00223372    0.00014486
     atom   24 type  1   force =     0.01918827   -0.01802731   -0.00011645
     atom   25 type  1   force =     0.01474729    0.02187132    0.00056171
     atom   26 type  1   force =     0.00040543   -0.00449064   -0.00003870
     atom   27 type  3   force =    -0.00000948   -0.00000209    0.00034347
     atom   28 type  3   force =    -0.00007271   -0.00018457    0.00050851
     atom   29 type  3   force =     0.00028582   -0.00025421    0.00094152
     atom   30 type  3   force =     0.00059363   -0.00035728    0.00038693
     atom   31 type  1   force =     0.00011284    0.00008431    0.00007487
     atom   32 type  1   force =    -0.00013733    0.00018763    0.00018613
     atom   33 type  3   force =     0.00001657    0.00017563   -0.00029504

     Total force =     0.002515     Total SCF correction =     0.000252
     SCF correction compared to forces is large: reduce conv_thr to get better values

     bfgs converged in  27 scf cycles and  26 bfgs steps
     (criteria: energy < 0.10E-03, force < 0.10E-02)

     End of BFGS Geometry Optimization

     Final energy   =   -1600.3301333876 Ry
Begin final coordinates

ATOMIC_POSITIONS (crystal)
O0       0.000000000   0.000000000   0.378020726    0   0   1
O0       0.000000000   0.500000000   0.399300707    0   0   1
Ti1      0.250000000   0.500000000   0.451103804    0   0   1
Ti1      0.000000000   0.000000000   0.451826980    0   0   1
O0       0.250000000   0.810000000   0.449973489    0   0   1
O0       0.250000000   0.190000000   0.450894814    0   0   1
O0       0.000000000   0.500000000   0.498356378    0   0   1
O0       0.000000000   0.000000000   0.525707906    0   0   1
Ti1      0.250000000   0.000000000   0.580545003    0   0   1
Ti1      0.000000000   0.500000000   0.567963045    0   0   1
O0       0.250000000   0.690000000   0.578358712    0   0   1
O0       0.250000000   0.310000000   0.579414669    0   0   1
O0       0.000000000   0.000000000   0.621953742    0   0   1
O0       0.500000000   0.000000000   0.378766517    0   0   1
O0       0.500000000   0.500000000   0.398946031    0   0   1
Ti1      0.750000000   0.500000000   0.451113067    0   0   1
Ti1      0.500000000   0.000000000   0.453220562    0   0   1
O0       0.750000000   0.810000000   0.449911863    0   0   1
O0       0.750000000   0.190000000   0.450932692    0   0   1
O0       0.500000000   0.500000000   0.495725426    0   0   1
O0       0.500000000   0.000000000   0.525885329    0   0   1
Ti1      0.750000000   0.000000000   0.580552103    0   0   1
Ti1      0.500000000   0.500000000   0.585176848    0   0   1
O0       0.750000000   0.690000000   0.578350474    0   0   1
O0       0.750000000   0.310000000   0.579394135    0   0   1
O0       0.500000000   0.000000000   0.621615772    0   0   1
H2      -0.000459130   0.626027095   0.378828785
H2       0.499717746   0.624908334   0.378090054
H2       0.149000884   0.033035484   0.363609474
H2       0.648277639   0.034486568   0.364257670
O0       0.500310000   0.526963903   0.657788070    0   1   1
O0       0.499120000   0.350128471   0.688054301    0   1   1
H2       0.500360000   0.413245092   0.721830853    0   1   1
End final coordinates

     General routines

     Parallel routines

   This run was terminated on:  23:51:55  10May2014

   JOB DONE.
Running PBS batch system epilogue script
Job id: 348054.audhumbla.fysik.dtu.dk
Username: zhonxu
Groupname: campgst
Jobname: TiO2/Eads-2-layers/OOH-relax-surf
Sessionid: 17202
Queuename: verylong
Accounting:
This job has allocated the following 16 nodes:
b115 b115 b115 b115 b115 b115 b115 b115 b102 b102 b102 b102 b102 b102 b102 b102
Finished epilogue job 348054.audhumbla.fysik.dtu.dk for zhonxu