     Program PWSCF v.5.0.2 (svn rev. 9656) starts on  5May2014 at 21:18:53

     Current dimensions of program PWSCF are:
     Max number of different atomic species (ntypx) = 10
     Max number of k-points (npk) =  40000
     Max angular momentum in pseudopotentials (lmaxx) =  3
     Reading input from pwscf.in
Warning: card &CELL ignored
Warning: card / ignored

     Subspace diagonalization in iterative solution of the eigenvalue problem:
     a serial algorithm will be used

     bravais-lattice index     =            0
     lattice parameter (alat)  =      12.0187  a.u.
     unit-cell volume          =    7280.5819 (a.u.)^3
     number of atoms/cell      =           30
     number of atomic types    =            3
     number of electrons       =       232.00
     number of Kohn-Sham states=          348
     kinetic-energy cutoff     =      40.0000  Ry
     charge density cutoff     =     500.0000  Ry
     convergence threshold     =      1.0E-06
     mixing beta               =       0.7000
     number of iterations used =            8  plain     mixing
     Exchange-correlation      = SLA  PW   PBE  PBE ( 1 4 3 4 0)
     EXX-fraction              =        0.00
     nstep                     =           50

     celldm(1)=  12.018658  celldm(2)=   0.000000  celldm(3)=   0.000000
     celldm(4)=   0.000000  celldm(5)=   0.000000  celldm(6)=   0.000000

     crystal axes: (cart. coord. in units of alat)
               a(1) = (   1.000000   0.000000   0.000000 )
               a(2) = (   0.000000   1.009517   0.000000 )
               a(3) = (   0.000000   0.000000   4.154171 )

     reciprocal axes: (cart. coord. in units 2 pi/alat)
               b(1) = (  1.000000  0.000000  0.000000 )
               b(2) = (  0.000000  0.990572  0.000000 )
               b(3) = (  0.000000  0.000000  0.240722 )

     PseudoPot. # 1 for O  read from file:
     /home/camp/zhonxu/pseudo/o_pbe_v1.01.uspp.F.UPF
     MD5 check sum: 2bcb18d16ea4b960afae9ec6d52f22d2
     Pseudo is Ultrasoft + core correction, Zval =  6.0
     Generated by new atomic code, or converted to UPF format
     Using radial grid of  737 points,  5 beta functions with:
                l(1) =   0
                l(2) =   0
                l(3) =   1
                l(4) =   1
                l(5) =   2
     Q(r) pseudized with  8 coefficients,  rinner =    0.900   0.900   0.900
                                                       0.900   0.900

     PseudoPot. # 2 for Ir read from file:
     /home/camp/zhonxu/pseudo/ir_pbe_v1.uspp.F.UPF
     MD5 check sum: abf987a9674477536ede83817f8f8b70
     Pseudo is Ultrasoft + core correction, Zval = 15.0
     Generated by new atomic code, or converted to UPF format
     Using radial grid of  983 points,  7 beta functions with:
                l(1) =   0
                l(2) =   0
                l(3) =   1
                l(4) =   1
                l(5) =   1
                l(6) =   2
                l(7) =   2
     Q(r) pseudized with  8 coefficients,  rinner =    1.350   1.350   1.350
                                                       1.350   1.350

     PseudoPot. # 3 for H  read from file:
     /home/camp/zhonxu/pseudo/h_pbe_v1.uspp.F.UPF
     MD5 check sum: 3408e3ff4ec8b0a4e358431e7e038a48
     Pseudo is Ultrasoft, Zval =  1.0
     Generated by new atomic code, or converted to UPF format
     Using radial grid of  615 points,  2 beta functions with:
                l(1) =   0
                l(2) =   0
     Q(r) pseudized with  8 coefficients,  rinner =    0.700

     atomic species   valence    mass     pseudopotential
        O0             6.00    15.99940     O ( 1.00)
        Ir1           15.00   192.22000     Ir( 1.00)
        H2             1.00     1.00794     H ( 1.00)

     Simplified LDA+U calculation (l_max = 2) with parameters (eV):
     atomic species    L          U    alpha       J0     beta
        Ir1            2     4.5000   0.0000   0.0000   0.0000

     No symmetry found

   Cartesian axes

     site n.     atom                  positions (alat units)
         1           O0  tau(   1) = (   0.0000000   0.0000000   1.5730185  )
         2           O0  tau(   2) = (   0.0000000   0.5047586   1.6673182  )
         3           Ir1 tau(   3) = (   0.2500000   0.5047586   1.8780178  )
         4           Ir1 tau(   4) = (   0.0000000   0.0000000   1.8842906  )
         5           O0  tau(   5) = (   0.2500000   0.8177090   1.8825458  )
         6           O0  tau(   6) = (   0.2500000   0.1918083   1.8810503  )
         7           O0  tau(   7) = (   0.0000000   0.5047586   2.0695666  )
         8           O0  tau(   8) = (   0.0000000   0.0000000   2.1991352  )
         9           Ir1 tau(   9) = (   0.2500000   0.0000000   2.3955860  )
        10           Ir1 tau(  10) = (   0.0000000   0.5047586   2.3764768  )
        11           O0  tau(  11) = (   0.2500000   0.6965669   2.3975800  )
        12           O0  tau(  12) = (   0.2500000   0.3129503   2.3977461  )
        13           O0  tau(  13) = (   0.0000000   0.0000000   2.5806958  )
        14           O0  tau(  14) = (   0.5000000   0.0000000   1.5730185  )
        15           O0  tau(  15) = (   0.5000000   0.5047586   1.6673182  )
        16           Ir1 tau(  16) = (   0.7500000   0.5047586   1.8780178  )
        17           Ir1 tau(  17) = (   0.5000000   0.0000000   1.8842906  )
        18           O0  tau(  18) = (   0.7500000   0.8177090   1.8825458  )
        19           O0  tau(  19) = (   0.7500000   0.1918083   1.8810503  )
        20           O0  tau(  20) = (   0.5000000   0.5047586   2.0695666  )
        21           O0  tau(  21) = (   0.5000000   0.0000000   2.1991352  )
        22           Ir1 tau(  22) = (   0.7500000   0.0000000   2.3955860  )
        23           Ir1 tau(  23) = (   0.5000000   0.5047586   2.3764768  )
        24           O0  tau(  24) = (   0.7500000   0.6965669   2.3975800  )
        25           O0  tau(  25) = (   0.7500000   0.3129503   2.3977461  )
        26           O0  tau(  26) = (   0.5000000   0.0000000   2.5807374  )
        27           H2  tau(  27) = (  -0.0000500   0.6423962   1.5933324  )
        28           H2  tau(  28) = (   0.4999500   0.6423962   1.5933324  )
        29           H2  tau(  29) = (   0.1436500   0.0338188   1.5249132  )
        30           H2  tau(  30) = (   0.6436500   0.0338188   1.5249132  )

     number of k points=    10  Methfessel-Paxton smearing, width (Ry)=  0.0100
                       cart. coord. in units 2pi/alat
        k(    1) = (   0.0000000   0.0000000   0.0000000), wk =   0.1250000
        k(    2) = (   0.0000000   0.2476431   0.0000000), wk =   0.2500000
        k(    3) = (   0.0000000  -0.4952862   0.0000000), wk =   0.1250000
        k(    4) = (   0.2500000   0.0000000   0.0000000), wk =   0.2500000
        k(    5) = (   0.2500000   0.2476431   0.0000000), wk =   0.2500000
        k(    6) = (   0.2500000  -0.4952862   0.0000000), wk =   0.2500000
        k(    7) = (  -0.5000000   0.0000000   0.0000000), wk =   0.1250000
        k(    8) = (  -0.5000000   0.2476431   0.0000000), wk =   0.2500000
        k(    9) = (  -0.5000000  -0.4952862   0.0000000), wk =   0.1250000
        k(   10) = (  -0.2500000   0.2476431   0.0000000), wk =   0.2500000

     Largest allocated arrays     est. size (Mb)     dimensions
     Largest temporary arrays     est. size (Mb)     dimensions

     Check: negative/imaginary core charge=   -0.000003    0.000000

     Initial potential from superposition of free atoms
     Check: negative starting charge=   -3.334716

     starting charge  227.99968, renormalised to  232.00000

     negative rho (up, down):  0.339E+01 0.000E+00
     Number of +U iterations with fixed ns =  0
     Starting occupations:
 --- enter write_ns ---
 LDA+U parameters:
U( 2)     =  4.50000000
alpha( 2) =  0.00000000
atom    3   Tr[ns(na)] =   7.00000
    eigenvalues:
  0.700  0.700  0.700  0.700  0.700
    eigenvectors:
  1.000  0.000  0.000  0.000  0.000
  0.000  1.000  0.000  0.000  0.000
  0.000  0.000  1.000  0.000  0.000
  0.000  0.000  0.000  1.000  0.000
  0.000  0.000  0.000  0.000  1.000
    occupations:
  0.700  0.000  0.000  0.000  0.000
  0.000  0.700  0.000  0.000  0.000
  0.000  0.000  0.700  0.000  0.000
  0.000  0.000  0.000  0.700  0.000
  0.000  0.000  0.000  0.000  0.700
atom    4   Tr[ns(na)] =   7.00000
    eigenvalues:
  0.700  0.700  0.700  0.700  0.700
    eigenvectors:
  1.000  0.000  0.000  0.000  0.000
  0.000  1.000  0.000  0.000  0.000
  0.000  0.000  1.000  0.000  0.000
  0.000  0.000  0.000  1.000  0.000
  0.000  0.000  0.000  0.000  1.000
    occupations:
  0.700  0.000  0.000  0.000  0.000
  0.000  0.700  0.000  0.000  0.000
  0.000  0.000  0.700  0.000  0.000
  0.000  0.000  0.000  0.700  0.000
  0.000  0.000  0.000  0.000  0.700
atom    9   Tr[ns(na)] =   7.00000
    eigenvalues:
  0.700  0.700  0.700  0.700  0.700
    eigenvectors:
  1.000  0.000  0.000  0.000  0.000
  0.000  1.000  0.000  0.000  0.000
  0.000  0.000  1.000  0.000  0.000
  0.000  0.000  0.000  1.000  0.000
  0.000  0.000  0.000  0.000  1.000
    occupations:
  0.700  0.000  0.000  0.000  0.000
  0.000  0.700  0.000  0.000  0.000
  0.000  0.000  0.700  0.000  0.000
  0.000  0.000  0.000  0.700  0.000
  0.000  0.000  0.000  0.000  0.700
atom   10   Tr[ns(na)] =   7.00000
    eigenvalues:
  0.700  0.700  0.700  0.700  0.700
    eigenvectors:
  1.000  0.000  0.000  0.000  0.000
  0.000  1.000  0.000  0.000  0.000
  0.000  0.000  1.000  0.000  0.000
  0.000  0.000  0.000  1.000  0.000
  0.000  0.000  0.000  0.000  1.000
    occupations:
  0.700  0.000  0.000  0.000  0.000
  0.000  0.700  0.000  0.000  0.000
  0.000  0.000  0.700  0.000  0.000
  0.000  0.000  0.000  0.700  0.000
  0.000  0.000  0.000  0.000  0.700
atom   16   Tr[ns(na)] =   7.00000
    eigenvalues:
  0.700  0.700  0.700  0.700  0.700
    eigenvectors:
  1.000  0.000  0.000  0.000  0.000
  0.000  1.000  0.000  0.000  0.000
  0.000  0.000  1.000  0.000  0.000
  0.000  0.000  0.000  1.000  0.000
  0.000  0.000  0.000  0.000  1.000
    occupations:
  0.700  0.000  0.000  0.000  0.000
  0.000  0.700  0.000  0.000  0.000
  0.000  0.000  0.700  0.000  0.000
  0.000  0.000  0.000  0.700  0.000
  0.000  0.000  0.000  0.000  0.700
atom   17   Tr[ns(na)] =   7.00000
    eigenvalues:
  0.700  0.700  0.700  0.700  0.700
    eigenvectors:
  1.000  0.000  0.000  0.000  0.000
  0.000  1.000  0.000  0.000  0.000
  0.000  0.000  1.000  0.000  0.000
  0.000  0.000  0.000  1.000  0.000
  0.000  0.000  0.000  0.000  1.000
    occupations:
  0.700  0.000  0.000  0.000  0.000
  0.000  0.700  0.000  0.000  0.000
  0.000  0.000  0.700  0.000  0.000
  0.000  0.000  0.000  0.700  0.000
  0.000  0.000  0.000  0.000  0.700
atom   22   Tr[ns(na)] =   7.00000
    eigenvalues:
  0.700  0.700  0.700  0.700  0.700
    eigenvectors:
  1.000  0.000  0.000  0.000  0.000
  0.000  1.000  0.000  0.000  0.000
  0.000  0.000  1.000  0.000  0.000
  0.000  0.000  0.000  1.000  0.000
  0.000  0.000  0.000  0.000  1.000
    occupations:
  0.700  0.000  0.000  0.000  0.000
  0.000  0.700  0.000  0.000  0.000
  0.000  0.000  0.700  0.000  0.000
[...]
 -0.001  0.012  0.880 -0.000  0.000
  0.032  0.000 -0.000  0.981  0.000
  0.001 -0.002  0.000  0.000  0.620
atom    9   Tr[ns(na)] =   8.14347
    eigenvalues:
  0.652  0.668  0.864  0.905  0.984
    eigenvectors:
  0.000  0.143  0.000  0.000  0.857
  1.000  0.000  0.000  0.000  0.000
  0.000  0.000  1.000  0.000  0.000
  0.000  0.857  0.000  0.000  0.143
  0.000  0.000  0.000  1.000  0.000
    occupations:
  0.939  0.000 -0.000 -0.111 -0.000
  0.000  0.652  0.000  0.000 -0.000
 -0.000  0.000  0.864 -0.000 -0.000
 -0.111  0.000 -0.000  0.713  0.001
 -0.000 -0.000 -0.000  0.001  0.905
atom   10   Tr[ns(na)] =   8.11978
    eigenvalues:
  0.580  0.610  0.937  0.949  0.983
    eigenvectors:
  0.994  0.000  0.000  0.000  0.006
  0.000  0.000  1.000  0.000  0.000
  0.000  0.000  0.000  1.000  0.000
  0.006  0.000  0.000  0.000  0.994
  0.000  1.000  0.000  0.000  0.000
    occupations:
  0.582  0.000  0.001  0.032 -0.000
  0.000  0.937 -0.000  0.000 -0.000
  0.001 -0.000  0.949  0.000  0.000
  0.032  0.000  0.000  0.981  0.000
 -0.000 -0.000  0.000  0.000  0.610
atom   16   Tr[ns(na)] =   8.17341
    eigenvalues:
  0.601  0.628  0.908  0.973  0.977
    eigenvectors:
  0.000  0.191  0.003  0.001  0.805
  1.000  0.000  0.000  0.000  0.000
  0.000  0.000  0.996  0.000  0.003
  0.000  0.809  0.000  0.000  0.190
  0.000  0.000  0.000  0.999  0.001
    occupations:
  0.910 -0.000  0.002 -0.137 -0.000
 -0.000  0.602 -0.000 -0.000 -0.006
  0.002 -0.000  0.908 -0.004  0.001
 -0.137 -0.000 -0.004  0.694 -0.000
 -0.000 -0.006  0.001 -0.000  0.973
atom   17   Tr[ns(na)] =   8.15758
    eigenvalues:
  0.620  0.669  0.877  0.929  0.984
    eigenvectors:
  0.000  0.989  0.000  0.000  0.011
  0.000  0.000  0.060  0.940  0.000
  0.000  0.000  0.940  0.060  0.000
  0.000  0.011  0.000  0.000  0.989
  1.000  0.000  0.000  0.000  0.000
    occupations:
  0.672 -0.003 -0.001  0.032  0.001
 -0.003  0.926  0.012  0.000 -0.002
 -0.001  0.012  0.880 -0.000  0.000
  0.032  0.000 -0.000  0.981  0.000
  0.001 -0.002  0.000  0.000  0.620
atom   22   Tr[ns(na)] =   8.14381
    eigenvalues:
  0.652  0.668  0.864  0.905  0.984
    eigenvectors:
  0.000  0.143  0.000  0.000  0.857
  1.000  0.000  0.000  0.000  0.000
  0.000  0.000  1.000  0.000  0.000
  0.000  0.857  0.000  0.000  0.143
  0.000  0.000  0.000  1.000  0.000
    occupations:
  0.939  0.000 -0.000 -0.111 -0.000
  0.000  0.652  0.000  0.000 -0.000
 -0.000  0.000  0.864 -0.000 -0.000
 -0.111  0.000 -0.000  0.713  0.001
 -0.000 -0.000 -0.000  0.001  0.905
atom   23   Tr[ns(na)] =   8.11975
    eigenvalues:
  0.580  0.610  0.937  0.949  0.983
    eigenvectors:
  0.994  0.000  0.000  0.000  0.006
  0.000  0.000  1.000  0.000  0.000
  0.000  0.000  0.000  1.000  0.000
  0.006  0.000  0.000  0.000  0.994
  0.000  1.000  0.000  0.000  0.000
    occupations:
  0.582  0.000  0.001  0.032 -0.000
  0.000  0.937 -0.000  0.000 -0.000
  0.001 -0.000  0.949  0.000  0.000
  0.032  0.000  0.000  0.981  0.000
 -0.000 -0.000  0.000  0.000  0.610
N of occupied +U levels =  65.1893075
 --- exit write_ns ---

     Threshold (ethr) on eigenvalues was too large:
     Diagonalizing with lowered threshold

     Davidson diagonalization with overlap
     ethr =  9.35E-09,  avg # of iterations =  2.0

[...]

     total energy              =   -2072.26157818 Ry
     Harris-Foulkes estimate   =   -2072.26157818 Ry
     estimated scf accuracy    <       0.00000002 Ry

     iteration # 14     ecut=    40.00 Ry     beta=0.70
     Davidson diagonalization with overlap
     ethr =  6.93E-12,  avg # of iterations =  1.0

     negative rho (up, down):  0.314E+01 0.000E+00

     End of self-consistent calculation
 --- enter write_ns ---
 LDA+U parameters:
U( 2)     =  4.50000000
alpha( 2) =  0.00000000
atom    3   Tr[ns(na)] =   8.17291
    eigenvalues:
  0.601  0.628  0.907  0.973  0.977
    eigenvectors:
  0.000  0.191  0.003  0.001  0.805
  1.000  0.000  0.000  0.000  0.000
  0.000  0.000  0.996  0.000  0.003
  0.000  0.809  0.000  0.000  0.190
  0.000  0.000  0.000  0.999  0.001
    occupations:
  0.910 -0.000  0.002 -0.137 -0.000
 -0.000  0.602 -0.000 -0.000 -0.006
  0.002 -0.000  0.908 -0.004  0.001
 -0.137 -0.000 -0.004  0.694 -0.000
 -0.000 -0.006  0.001 -0.000  0.973
atom    4   Tr[ns(na)] =   8.15721
    eigenvalues:
  0.620  0.669  0.877  0.929  0.984
    eigenvectors:
  0.000  0.989  0.000  0.000  0.011
  0.000  0.000  0.060  0.940  0.000
  0.000  0.000  0.940  0.060  0.000
  0.000  0.011  0.000  0.000  0.989
  0.999  0.000  0.000  0.000  0.000
    occupations:
  0.672 -0.003 -0.001  0.032  0.001
 -0.003  0.926  0.012  0.000 -0.002
 -0.001  0.012  0.880 -0.000  0.000
  0.032  0.000 -0.000  0.981  0.000
  0.001 -0.002  0.000  0.000  0.620
atom    9   Tr[ns(na)] =   8.14397
    eigenvalues:
  0.652  0.668  0.864  0.905  0.984
    eigenvectors:
  0.000  0.143  0.000  0.000  0.857
  1.000  0.000  0.000  0.000  0.000
  0.000  0.000  1.000  0.000  0.000
  0.000  0.857  0.000  0.000  0.143
  0.000  0.000  0.000  1.000  0.000
    occupations:
  0.939  0.000 -0.000 -0.111 -0.000
  0.000  0.652  0.000  0.000 -0.000
 -0.000  0.000  0.864 -0.000 -0.000
 -0.111  0.000 -0.000  0.713  0.001
 -0.000 -0.000 -0.000  0.001  0.905
atom   10   Tr[ns(na)] =   8.12069
    eigenvalues:
  0.580  0.610  0.938  0.949  0.983
    eigenvectors:
  0.994  0.000  0.000  0.000  0.006
  0.000  0.000  1.000  0.000  0.000
  0.000  0.000  0.000  1.000  0.000
  0.006  0.000  0.000  0.000  0.994
  0.000  1.000  0.000  0.000  0.000
    occupations:
  0.583  0.000  0.001  0.032 -0.000
  0.000  0.938 -0.000  0.000 -0.000
  0.001 -0.000  0.949  0.000  0.000
  0.032  0.000  0.000  0.981  0.000
 -0.000 -0.000  0.000  0.000  0.610
atom   16   Tr[ns(na)] =   8.17291
    eigenvalues:
  0.601  0.628  0.907  0.973  0.977
    eigenvectors:
  0.000  0.191  0.003  0.001  0.805
  1.000  0.000  0.000  0.000  0.000
  0.000  0.000  0.996  0.000  0.003
  0.000  0.809  0.000  0.000  0.190
  0.000  0.000  0.000  0.999  0.001
    occupations:
  0.910 -0.000  0.002 -0.137 -0.000
 -0.000  0.602 -0.000 -0.000 -0.006
  0.002 -0.000  0.908 -0.004  0.001
 -0.137 -0.000 -0.004  0.694 -0.000
 -0.000 -0.006  0.001 -0.000  0.973
atom   17   Tr[ns(na)] =   8.15722
    eigenvalues:
  0.620  0.669  0.877  0.929  0.984
    eigenvectors:
  0.000  0.989  0.000  0.000  0.011
  0.000  0.000  0.060  0.940  0.000
  0.000  0.000  0.940  0.060  0.000
  0.000  0.011  0.000  0.000  0.989
  0.999  0.000  0.000  0.000  0.000
    occupations:
  0.672 -0.003 -0.001  0.032  0.001
 -0.003  0.926  0.012  0.000 -0.002
 -0.001  0.012  0.880 -0.000  0.000
  0.032  0.000 -0.000  0.981  0.000
  0.001 -0.002  0.000  0.000  0.620
atom   22   Tr[ns(na)] =   8.14396
    eigenvalues:
  0.652  0.668  0.864  0.905  0.984
    eigenvectors:
  0.000  0.143  0.000  0.000  0.857
  1.000  0.000  0.000  0.000  0.000
  0.000  0.000  1.000  0.000  0.000
  0.000  0.857  0.000  0.000  0.143
  0.000  0.000  0.000  1.000  0.000
    occupations:
  0.939  0.000 -0.000 -0.111 -0.000
  0.000  0.652  0.000  0.000 -0.000
 -0.000  0.000  0.864 -0.000 -0.000
 -0.111  0.000 -0.000  0.713  0.001
 -0.000 -0.000 -0.000  0.001  0.905
atom   23   Tr[ns(na)] =   8.12069
    eigenvalues:
  0.580  0.610  0.938  0.949  0.983
    eigenvectors:
  0.994  0.000  0.000  0.000  0.006
  0.000  0.000  1.000  0.000  0.000
  0.000  0.000  0.000  1.000  0.000
  0.006  0.000  0.000  0.000  0.994
  0.000  1.000  0.000  0.000  0.000
    occupations:
  0.583  0.000  0.001  0.032 -0.000
  0.000  0.938 -0.000  0.000 -0.000
  0.001 -0.000  0.949  0.000  0.000
  0.032  0.000  0.000  0.981  0.000
 -0.000 -0.000  0.000  0.000  0.610
N of occupied +U levels =  65.1895622
 --- exit write_ns ---

[...]

          k = 0.2500-0.4953 0.0000 ( 31088 PWs)   bands (ev):

[...]

          k =-0.2500 0.2476 0.0000 ( 31099 PWs)   bands (ev):

   -50.5571 -50.5525 -50.5501 -50.4850 -50.4749 -50.4719 -50.4377 -50.3949
   -50.3686 -50.3638 -50.3636 -50.3234 -50.3198 -50.3148 -50.2014 -50.1737
   -50.1695 -50.1311 -50.0970 -50.0944 -50.0875 -50.0836 -50.0062 -49.9954
   -21.4345 -21.0824 -21.0557 -21.0517 -20.6552 -20.5809 -20.5089 -20.4401
   -20.3741 -20.2729 -20.1388 -20.1104 -19.9345 -19.9133 -19.8227 -19.6503
   -18.8424 -18.7171 -10.3452 -10.1907 -10.0490  -9.8287  -9.4230  -9.3339
    -9.3318  -9.1442  -8.8900  -8.8392  -8.8287  -8.7759  -8.5909  -8.5066
    -8.3845  -8.2885  -8.0752  -8.0178  -7.6809  -7.5690  -7.4299  -7.4046
    -7.2420  -7.0656  -7.0489  -6.8991  -6.8425  -6.5670  -6.4988  -6.4143
    -6.3057  -6.2672  -6.1161  -6.0385  -6.0043  -5.9860  -5.8787  -5.6948
    -5.5896  -5.4644  -5.2694  -5.2264  -5.0095  -4.7893  -4.7772  -4.7095
    -4.5633  -4.3715  -4.2986  -4.1356  -3.8002  -3.7434  -3.6977  -3.4711
    -3.4588  -3.3503  -3.2708  -3.2257  -3.1720  -3.0756  -2.9969  -2.8764
    -2.8562  -2.7617  -2.6427  -2.5256  -2.4048  -2.3544  -2.0692  -1.8112
    -1.5603  -1.3666  -1.3648  -1.1319  -1.1158  -0.8657  -0.6964  -0.5201
    -0.0955   0.0922   1.0317   1.1434   1.6633   1.7185   1.8268   2.2515
     2.4532   2.7240   2.9247   2.9451   3.2195   3.2496   3.3855   3.4555
     3.7977   4.3419   4.7379   5.1511   5.4106   5.5993   5.6883   5.8851
     6.1354   6.2919   6.5265   6.5702   6.6186   6.8094   7.0272   7.0680
     7.3234   7.3913   7.4747   7.6628   7.6926   7.8796   8.0120   8.0878
     8.1648   8.3421   8.4498   8.4687   8.5878   8.7946   8.8153   8.9122
     8.9204   9.1601   9.2202   9.2495   9.3438   9.4355   9.4374   9.5234
     9.5244   9.5402   9.5677   9.5684   9.6352   9.6775   9.6795   9.7045
     9.7842   9.9801  10.0485  10.0910  10.1928  10.2969  10.2994  10.4175
    10.4206  10.5135  10.6023  10.7387  10.7970  10.8311  10.9701  11.0305
    11.0511  11.2562  11.3458  11.4303  11.5430  11.5754  11.7140  11.7493
    11.7846  11.9435  12.1016  12.1143  12.1637  12.2869  12.3527  12.3935
    12.5115  12.5849  12.6359  12.7323  12.7575  12.7926  12.8201  12.9169
    13.0819  13.1393  13.1570  13.2435  13.3218  13.3454  13.4958  13.6320
    13.6392  13.7449  13.8729  13.8740  14.0023  14.0036  14.0916  14.1324
    14.2664  14.3604  14.4099  14.5296  14.5711  14.7503  14.7627  14.8858
    14.8997  15.2052  15.2387  15.3645  15.3722  15.5357  15.5549  15.5801
    15.6191  15.7481  15.7836  15.8281  15.8608  15.8935  15.9730  16.0383
    16.0725  16.1396  16.1633  16.2802  16.3303  16.3931  16.4254  16.4452
    16.6036  16.6523  16.7155  16.7441  16.8067  16.8352  17.0785  17.1340
    17.2031  17.3579  17.3712  17.4344  17.4364  17.4768  17.5583  17.5783
    17.6380  17.7316  17.7493  17.8293  17.8950  17.9013  17.9714  17.9849
    18.1734  18.2293  18.3052  18.3900  18.4804  18.4840  18.5945  18.6170
    18.8079  18.8384  18.9162  18.9588  19.0354  19.1273  19.1349  19.2153
    19.2787  19.2881  19.3508  19.4688  19.5927  19.6090  19.7223  19.7664
    19.8268  19.9396  20.0014  20.1051  20.1338  20.2993  20.3397  20.3534
    20.4723  20.5566  20.6106  20.6531  20.6992  20.7778  20.8104  20.8937
    20.9053  20.9773  21.0359  21.1268  21.1570  21.2696  21.3140  21.3413
    21.3609  21.4454  21.4651  21.5566

     the Fermi energy is    -1.1410 ev

!    total energy              =   -2072.26157818 Ry
     Harris-Foulkes estimate   =   -2072.26157818 Ry
     estimated scf accuracy    <          1.9E-09 Ry

     The total energy is the sum of the following terms:

     one-electron contribution =  -22065.18605360 Ry
     hartree contribution      =   11075.46294284 Ry
     xc contribution           =    -569.39817155 Ry
     ewald contribution        =    9485.19040724 Ry
     Hubbard energy            =       1.67087542 Ry
     smearing contrib. (-TS)   =      -0.00157853 Ry

     convergence has been achieved in  14 iterations

     Forces acting on atoms (Ry/au):

     negative rho (up, down):  0.314E+01 0.000E+00
     atom    1 type  1   force =    -0.00725669   -0.01297782   -0.00003585
     atom    2 type  1   force =     0.00007060    0.00363047   -0.00045507
     atom    3 type  2   force =     0.00011144    0.00583511   -0.00006229
     atom    4 type  2   force =     0.00895162    0.00753824   -0.00017200
     atom    5 type  1   force =    -0.00439592   -0.01522547   -0.00038453
     atom    6 type  1   force =     0.00584372    0.01355122   -0.00027864
     atom    7 type  1   force =    -0.00043491   -0.00214802    0.00037346
     atom    8 type  1   force =    -0.00328314   -0.00047832   -0.00015483
     atom    9 type  2   force =     0.00116105    0.00014771   -0.00012680
     atom   10 type  2   force =     0.00000242   -0.00117914    0.00035656
     atom   11 type  1   force =    -0.00008444    0.01807897    0.00019159
     atom   12 type  1   force =     0.00019818   -0.01774741    0.00019814
     atom   13 type  1   force =    -0.00080596   -0.00009368   -0.00012382
     atom   14 type  1   force =    -0.00726467   -0.01297963   -0.00003752
     atom   15 type  1   force =     0.00007114    0.00362858   -0.00045566
     atom   16 type  2   force =     0.00011277    0.00583477   -0.00006218
     atom   17 type  2   force =     0.00895232    0.00753808   -0.00017238
     atom   18 type  1   force =    -0.00439332   -0.01522553   -0.00038429
     atom   19 type  1   force =     0.00584640    0.01355132   -0.00027784
     atom   20 type  1   force =    -0.00043453   -0.00214805    0.00037577
     atom   21 type  1   force =    -0.00328281   -0.00047825   -0.00013895
     atom   22 type  2   force =     0.00115797    0.00014794   -0.00012660
     atom   23 type  2   force =     0.00000010   -0.00117915    0.00035756
     atom   24 type  1   force =    -0.00008407    0.01808264    0.00019489
     atom   25 type  1   force =     0.00019855   -0.01775117    0.00020154
     atom   26 type  1   force =    -0.00080130   -0.00009371   -0.00013326
     atom   27 type  3   force =     0.00002158    0.00069794    0.00070788
     atom   28 type  3   force =     0.00002120    0.00069941    0.00070683
     atom   29 type  3   force =    -0.00010318    0.00037059   -0.00003924
     atom   30 type  3   force =    -0.00009608    0.00037234   -0.00004245

     Total force =     0.002003     Total SCF correction =     0.000079

     bfgs converged in   9 scf cycles and   8 bfgs steps
     (criteria: energy < 0.10E-03, force < 0.10E-02)

     End of BFGS Geometry Optimization

     Final energy   =   -2072.2615781795 Ry
Begin final coordinates

ATOMIC_POSITIONS (crystal)
O0       0.000000000   0.000000000   0.378997951    0   0   1
O0       0.000000000   0.500000000   0.402217029    0   0   1
Ir1      0.250000000   0.500000000   0.452614323    0   0   1
Ir1      0.000000000   0.000000000   0.453573354    0   0   1
O0       0.250000000   0.810000000   0.453458159    0   0   1
O0       0.250000000   0.190000000   0.452958720    0   0   1
O0       0.000000000   0.500000000   0.498986895    0   0   1
O0       0.000000000   0.000000000   0.529039541    0   0   1
Ir1      0.250000000   0.000000000   0.575900014    0   0   1
Ir1      0.000000000   0.500000000   0.572051807    0   0   1
O0       0.250000000   0.690000000   0.576043603    0   0   1
O0       0.250000000   0.310000000   0.576059122    0   0   1
O0       0.000000000   0.000000000   0.620545758    0   0   1
O0       0.500000000   0.000000000   0.378997967    0   0   1
O0       0.500000000   0.500000000   0.402217087    0   0   1
Ir1      0.750000000   0.500000000   0.452614313    0   0   1
Ir1      0.500000000   0.000000000   0.453573239    0   0   1
O0       0.750000000   0.810000000   0.453458138    0   0   1
O0       0.750000000   0.190000000   0.452958661    0   0   1
O0       0.500000000   0.500000000   0.498986764    0   0   1
O0       0.500000000   0.000000000   0.529039003    0   0   1
Ir1      0.750000000   0.000000000   0.575899866    0   0   1
Ir1      0.500000000   0.500000000   0.572051704    0   0   1
O0       0.750000000   0.690000000   0.576042738    0   0   1
O0       0.750000000   0.310000000   0.576058240    0   0   1
O0       0.500000000   0.000000000   0.620546266    0   0   1
H2      -0.000206952   0.635670966   0.384301173
H2       0.499793399   0.635670777   0.384301231
H2       0.143459489   0.034522272   0.367438584
H2       0.643458979   0.034522171   0.367438747
End final coordinates

     General routines

     Parallel routines
     Hubbard U routines

   This run was terminated on:   5:56:57   6May2014

   JOB DONE.
Running PBS batch system epilogue script
Job id: 340766.audhumbla.fysik.dtu.dk
Username: zhonxu
Groupname: campgst
Jobname: IrO2/Eads-2-layers/bare-U-4.5
Sessionid: 7989
Queuename: verylong
Accounting:
This job has allocated the following 16 nodes:
d021 d021 d021 d021 d021 d021 d021 d021 d005 d005 d005 d005 d005 d005 d005 d005
Finished epilogue job 340766.audhumbla.fysik.dtu.dk for zhonxu