     Program PWSCF v.5.0.2 (svn rev. 9656) starts on  8May2014 at 23:39: 3

     Current dimensions of program PWSCF are:
     Max number of different atomic species (ntypx) = 10
     Max number of k-points (npk) =  40000
     Max angular momentum in pseudopotentials (lmaxx) =  3
     Reading input from pwscf.in
Warning: card &CELL ignored
Warning: card / ignored

     Subspace diagonalization in iterative solution of the eigenvalue problem:
     a serial algorithm will be used

     bravais-lattice index     =            0
     lattice parameter (alat)  =      11.1872  a.u.
     unit-cell volume          =    7531.8600 (a.u.)^3
     number of atoms/cell      =           30
     number of atomic types    =            3
     number of electrons       =       216.00
     number of Kohn-Sham states=          324
     kinetic-energy cutoff     =      40.0000  Ry
     charge density cutoff     =     500.0000  Ry
     convergence threshold     =      1.0E-06
     mixing beta               =       0.7000
     number of iterations used =            8  plain     mixing
     Exchange-correlation      = SLA  PW   PBE  PBE ( 1 4 3 4 0)
     EXX-fraction              =        0.00
     nstep                     =           50

     celldm(1)=  11.187179  celldm(2)=   0.000000  celldm(3)=   0.000000
     celldm(4)=   0.000000  celldm(5)=   0.000000  celldm(6)=   0.000000

     crystal axes: (cart. coord. in units of alat)
               a(1) = (   1.000000   0.000000   0.000000 )
               a(2) = (   0.000000   1.180104   0.000000 )
               a(3) = (   0.000000   0.000000   4.558482 )

     reciprocal axes: (cart. coord. in units 2 pi/alat)
               b(1) = (  1.000000  0.000000  0.000000 )
               b(2) = (  0.000000  0.847383  0.000000 )
               b(3) = (  0.000000  0.000000  0.219371 )

     PseudoPot. # 1 for O  read from file:
     /home/camp/zhonxu/pseudo/o_pbe_v1.01.uspp.F.UPF
     MD5 check sum: 2bcb18d16ea4b960afae9ec6d52f22d2
     Pseudo is Ultrasoft + core correction, Zval =  6.0
     Generated by new atomic code, or converted to UPF format
     Using radial grid of  737 points,  5 beta functions with:
                l(1) =   0
                l(2) =   0
                l(3) =   1
                l(4) =   1
                l(5) =   2
     Q(r) pseudized with  8 coefficients,  rinner =    0.900   0.900   0.900
                                                       0.900   0.900

     PseudoPot. # 2 for Nb read from file:
     /home/camp/zhonxu/pseudo/nb_pbe_v1.uspp.F.UPF
     MD5 check sum: 573aab8a2fa660278ed4a62cd769473f
     Pseudo is Ultrasoft + core correction, Zval = 13.0
     Generated by new atomic code, or converted to UPF format
     Using radial grid of  887 points,  6 beta functions with:
                l(1) =   0
                l(2) =   0
                l(3) =   1
                l(4) =   1
                l(5) =   2
                l(6) =   2
     Q(r) pseudized with  6 coefficients,  rinner =    1.000   1.000   1.000
                                                       1.000   1.000

     PseudoPot. # 3 for H  read from file:
     /home/camp/zhonxu/pseudo/h_pbe_v1.uspp.F.UPF
     MD5 check sum: 3408e3ff4ec8b0a4e358431e7e038a48
     Pseudo is Ultrasoft, Zval =  1.0
     Generated by new atomic code, or converted to UPF format
     Using radial grid of  615 points,  2 beta functions with:
                l(1) =   0
                l(2) =   0
     Q(r) pseudized with  8 coefficients,  rinner =    0.700

     atomic species   valence    mass     pseudopotential
        O0             6.00    15.99940     O ( 1.00)
        Nb1           13.00    92.90640     Nb( 1.00)
        H2             1.00     1.00794     H ( 1.00)

     Simplified LDA+U calculation (l_max = 2) with parameters (eV):
     atomic species    L          U    alpha       J0     beta
        Nb1            2     0.5000   0.0000   0.0000   0.0000

     No symmetry found

   Cartesian axes

     site n.     atom                  positions (alat units)
         1           O0  tau(   1) = (   0.0000000   0.0000000   1.7080633  )
         2           O0  tau(   2) = (   0.0000000   0.5900519   1.7583889  )
         3           Nb1 tau(   3) = (   0.2500000   0.5900519   2.0066439  )
         4           Nb1 tau(   4) = (   0.0000000   0.0000000   2.0401487  )
         5           O0  tau(   5) = (   0.2500000   0.9322821   2.0429294  )
         6           O0  tau(   6) = (   0.2500000   0.2478218   2.0431118  )
         7           O0  tau(   7) = (   0.0000000   0.5900519   2.2709903  )
         8           O0  tau(   8) = (   0.0000000   0.0000000   2.3999042  )
         9           Nb1 tau(   9) = (   0.2500000   0.0000000   2.6489340  )
        10           Nb1 tau(  10) = (   0.0000000   0.5900519   2.5868019  )
        11           O0  tau(  11) = (   0.2500000   0.8378738   2.6444667  )
        12           O0  tau(  12) = (   0.2500000   0.3422301   2.6445123  )
        13           O0  tau(  13) = (   0.0000000   0.0000000   2.8518777  )
        14           O0  tau(  14) = (   0.5000000   0.0000000   1.7080633  )
        15           O0  tau(  15) = (   0.5000000   0.5900519   1.7583889  )
        16           Nb1 tau(  16) = (   0.7500000   0.5900519   2.0066439  )
        17           Nb1 tau(  17) = (   0.5000000   0.0000000   2.0401487  )
        18           O0  tau(  18) = (   0.7500000   0.9322821   2.0429294  )
        19           O0  tau(  19) = (   0.7500000   0.2478218   2.0431118  )
        20           O0  tau(  20) = (   0.5000000   0.5900519   2.2709903  )
        21           O0  tau(  21) = (   0.5000000   0.0000000   2.3999497  )
        22           Nb1 tau(  22) = (   0.7500000   0.0000000   2.6489340  )
        23           Nb1 tau(  23) = (   0.5000000   0.5900519   2.5867563  )
        24           O0  tau(  24) = (   0.7500000   0.8378738   2.6444667  )
        25           O0  tau(  25) = (   0.7500000   0.3422301   2.6445123  )
        26           O0  tau(  26) = (   0.5000000   0.0000000   2.8518777  )
        27           H2  tau(  27) = (  -0.0004200   0.5934860   1.5928705  )
        28           H2  tau(  28) = (   0.4995800   0.5932146   1.5928249  )
        29           H2  tau(  29) = (   0.1513000  -0.0014397   1.6372701  )
        30           H2  tau(  30) = (   0.6512900  -0.0014397   1.6372701  )

     number of k points=    10  Methfessel-Paxton smearing, width (Ry)=  0.0100
                       cart. coord. in units 2pi/alat
        k(    1) = (   0.0000000   0.0000000   0.0000000), wk =   0.1250000
        k(    2) = (   0.0000000   0.2118458   0.0000000), wk =   0.2500000
        k(    3) = (   0.0000000  -0.4236915   0.0000000), wk =   0.1250000
        k(    4) = (   0.2500000   0.0000000   0.0000000), wk =   0.2500000
        k(    5) = (   0.2500000   0.2118458   0.0000000), wk =   0.2500000
        k(    6) = (   0.2500000  -0.4236915   0.0000000), wk =   0.2500000
        k(    7) = (  -0.5000000   0.0000000   0.0000000), wk =   0.1250000
        k(    8) = (  -0.5000000   0.2118458   0.0000000), wk =   0.2500000
        k(    9) = (  -0.5000000  -0.4236915   0.0000000), wk =   0.1250000
        k(   10) = (  -0.2500000   0.2118458   0.0000000), wk =   0.2500000

     Largest allocated arrays     est. size (Mb)     dimensions
     Largest temporary arrays     est. size (Mb)     dimensions

     Check: negative/imaginary core charge=   -0.000003    0.000000

     Initial potential from superposition of free atoms
     Check: negative starting charge=   -0.003843

     starting charge  215.97807, renormalised to  216.00000

     negative rho (up, down):  0.384E-02 0.000E+00
     Number of +U iterations with fixed ns =  0
     Starting occupations:
 --- enter write_ns ---
 LDA+U parameters:
U( 2)     =  0.50000000
alpha( 2) =  0.00000000
atom    3   Tr[ns(na)] =   3.00000
    eigenvalues:
  0.300  0.300  0.300  0.300  0.300
    eigenvectors:
  1.000  0.000  0.000  0.000  0.000
  0.000  1.000  0.000  0.000  0.000
  0.000  0.000  1.000  0.000  0.000
  0.000  0.000  0.000  1.000  0.000
  0.000  0.000  0.000  0.000  1.000
    occupations:
  0.300  0.000  0.000  0.000  0.000
  0.000  0.300  0.000  0.000  0.000
  0.000  0.000  0.300  0.000  0.000
  0.000  0.000  0.000  0.300  0.000
  0.000  0.000  0.000  0.000  0.300
atom    4   Tr[ns(na)] =   3.00000
    eigenvalues:
  0.300  0.300  0.300  0.300  0.300
    eigenvectors:
  1.000  0.000  0.000  0.000  0.000
  0.000  1.000  0.000  0.000  0.000
  0.000  0.000  1.000  0.000  0.000
  0.000  0.000  0.000  1.000  0.000
  0.000  0.000  0.000  0.000  1.000
    occupations:
  0.300  0.000  0.000  0.000  0.000
  0.000  0.300  0.000  0.000  0.000
  0.000  0.000  0.300  0.000  0.000
  0.000  0.000  0.000  0.300  0.000
  0.000  0.000  0.000  0.000  0.300
atom    9   Tr[ns(na)] =   3.00000
    eigenvalues:
  0.300  0.300  0.300  0.300  0.300
    eigenvectors:
  1.000  0.000  0.000  0.000  0.000
  0.000  1.000  0.000  0.000  0.000
  0.000  0.000  1.000  0.000  0.000
  0.000  0.000  0.000  1.000  0.000
  0.000  0.000  0.000  0.000  1.000
    occupations:
  0.300  0.000  0.000  0.000  0.000
  0.000  0.300  0.000  0.000  0.000
  0.000  0.000  0.300  0.000  0.000
  0.000  0.000  0.000  0.300  0.000
  0.000  0.000  0.000  0.000  0.300
atom   10   Tr[ns(na)] =   3.00000
    eigenvalues:
  0.300  0.300  0.300  0.300  0.300
    eigenvectors:
  1.000  0.000  0.000  0.000  0.000
  0.000  1.000  0.000  0.000  0.000
  0.000  0.000  1.000  0.000  0.000
  0.000  0.000  0.000  1.000  0.000
  0.000  0.000  0.000  0.000  1.000
    occupations:
  0.300  0.000  0.000  0.000  0.000
  0.000  0.300  0.000  0.000  0.000
  0.000  0.000  0.300  0.000  0.000
  0.000  0.000  0.000  0.300  0.000
  0.000  0.000  0.000  0.000  0.300
atom   16   Tr[ns(na)] =   3.00000
    eigenvalues:
  0.300  0.300  0.300  0.300  0.300
    eigenvectors:
  1.000  0.000  0.000  0.000  0.000
  0.000  1.000  0.000  0.000  0.000
  0.000  0.000  1.000  0.000  0.000
  0.000  0.000  0.000  1.000  0.000
  0.000  0.000  0.000  0.000  1.000
    occupations:
  0.300  0.000  0.000  0.000  0.000
  0.000  0.300  0.000  0.000  0.000
  0.000  0.000  0.300  0.000  0.000
  0.000  0.000  0.000  0.300  0.000
  0.000  0.000  0.000  0.000  0.300
atom   17   Tr[ns(na)] =   3.00000
    eigenvalues:
  0.300  0.300  0.300  0.300  0.300
    eigenvectors:
  1.000  0.000  0.000  0.000  0.000
  0.000  1.000  0.000  0.000  0.000
  0.000  0.000  1.000  0.000  0.000
  0.000  0.000  0.000  1.000  0.000
  0.000  0.000  0.000  0.000  1.000
    occupations:
  0.300  0.000  0.000  0.000  0.000
  0.000  0.300  0.000  0.000  0.000
  0.000  0.000  0.300  0.000  0.000
  0.000  0.000  0.000  0.300  0.000
  0.000  0.000  0.000  0.000  0.300
atom   22   Tr[ns(na)] =   3.00000
    eigenvalues:
  0.300  0.300  0.300  0.300  0.300
    eigenvectors:
  1.000  0.000  0.000  0.000  0.000
  0.000  1.000  0.000  0.000  0.000
  0.000  0.000  1.000  0.000  0.000
  0.000  0.000  0.000  1.000  0.000
  0.000  0.000  0.000  0.000  1.000
    occupations:
  0.300  0.000  0.000  0.000  0.000
  0.000  0.300  0.000  0.000  0.000
  0.000  0.000  0.300  0.000  0.000
  0.000  0.000  0.000  0.300  0.000
[...]
  0.000  0.000  0.000  0.577  0.423
  0.980  0.020  0.000  0.000  0.000
    occupations:
  0.642  0.000  0.001 -0.073 -0.000
  0.000  0.500  0.000  0.000  0.000
  0.001  0.000  0.438 -0.000 -0.004
 -0.073  0.000 -0.000  0.619  0.000
 -0.000  0.000 -0.004  0.000  0.411
atom    4   Tr[ns(na)] =   5.24343
    eigenvalues:
  0.421  0.457  0.547  0.574  0.622
    eigenvectors:
  0.000  0.005  0.000  0.995  0.000
  0.000  0.994  0.000  0.005  0.001
  1.000  0.000  0.000  0.000  0.000
  0.000  0.001  0.000  0.000  0.999
  0.000  0.000  1.000  0.000  0.000
    occupations:
  0.574  0.008 -0.000 -0.000 -0.000
  0.008  0.458  0.000 -0.005 -0.000
 -0.000  0.000  0.421 -0.000  0.001
 -0.000 -0.005 -0.000  0.622  0.000
 -0.000 -0.000  0.001  0.000  0.547
atom    9   Tr[ns(na)] =   5.28896
    eigenvalues:
  0.459  0.470  0.515  0.598  0.603
    eigenvectors:
  0.883  0.000  0.000  0.117  0.000
  0.000  0.000  0.000  0.000  1.000
  0.000  0.000  1.000  0.000  0.000
  0.117  0.000  0.000  0.883  0.000
  0.000  1.000  0.000  0.000  0.000
    occupations:
  0.475 -0.000 -0.000  0.044  0.000
 -0.000  0.603  0.000 -0.000  0.000
 -0.000  0.000  0.515  0.000  0.000
  0.044 -0.000  0.000  0.581 -0.000
  0.000  0.000  0.000 -0.000  0.470
atom   10   Tr[ns(na)] =   5.14243
    eigenvalues:
  0.411  0.500  0.514  0.521  0.626
    eigenvectors:
  0.000  0.998  0.000  0.000  0.002
  0.000  0.000  1.000  0.000  0.000
  1.000  0.000  0.000  0.000  0.000
  0.000  0.002  0.000  0.000  0.998
  0.000  0.000  0.000  1.000  0.000
    occupations:
  0.500  0.000  0.000 -0.006  0.000
  0.000  0.514 -0.000 -0.000 -0.000
  0.000 -0.000  0.411 -0.000  0.000
 -0.006 -0.000 -0.000  0.625 -0.000
  0.000 -0.000  0.000 -0.000  0.521
atom   16   Tr[ns(na)] =   5.21856
    eigenvalues:
  0.410  0.439  0.500  0.556  0.705
    eigenvectors:
  0.000  0.000  0.000  0.423  0.577
  0.000  0.000  1.000  0.000  0.000
  0.020  0.980  0.000  0.000  0.000
  0.000  0.000  0.000  0.577  0.423
  0.980  0.020  0.000  0.000  0.000
    occupations:
  0.642  0.000  0.001 -0.073  0.000
  0.000  0.500  0.000  0.000  0.000
  0.001  0.000  0.438 -0.000 -0.004
 -0.073  0.000 -0.000  0.619 -0.000
  0.000  0.000 -0.004 -0.000  0.411
atom   17   Tr[ns(na)] =   5.24342
    eigenvalues:
  0.421  0.457  0.547  0.574  0.622
    eigenvectors:
  0.000  0.005  0.000  0.995  0.000
  0.000  0.995  0.000  0.005  0.001
  1.000  0.000  0.000  0.000  0.000
  0.000  0.001  0.000  0.000  0.999
  0.000  0.000  1.000  0.000  0.000
    occupations:
  0.574  0.008 -0.000 -0.000 -0.000
  0.008  0.458  0.000 -0.005 -0.000
 -0.000  0.000  0.421 -0.000  0.001
 -0.000 -0.005 -0.000  0.622  0.000
 -0.000 -0.000  0.001  0.000  0.547
atom   22   Tr[ns(na)] =   5.28896
    eigenvalues:
  0.459  0.470  0.515  0.598  0.603
    eigenvectors:
  0.883  0.000  0.000  0.117  0.000
  0.000  0.000  0.000  0.000  1.000
  0.000  0.000  1.000  0.000  0.000
  0.117  0.000  0.000  0.883  0.000
  0.000  1.000  0.000  0.000  0.000
    occupations:
  0.475 -0.000 -0.000  0.044  0.000
 -0.000  0.603  0.000 -0.000  0.000
 -0.000  0.000  0.515  0.000 -0.000
  0.044 -0.000  0.000  0.581 -0.000
  0.000  0.000 -0.000 -0.000  0.470
atom   23   Tr[ns(na)] =   5.14185
    eigenvalues:
  0.411  0.500  0.514  0.521  0.625
    eigenvectors:
  0.000  0.998  0.000  0.000  0.002
  0.000  0.000  1.000  0.000  0.000
  1.000  0.000  0.000  0.000  0.000
  0.000  0.002  0.000  0.000  0.998
  0.000  0.000  0.000  1.000  0.000
    occupations:
  0.500  0.000  0.000 -0.006  0.000
  0.000  0.514 -0.000 -0.000 -0.000
  0.000 -0.000  0.411 -0.000  0.000
 -0.006 -0.000 -0.000  0.625 -0.000
  0.000 -0.000  0.000 -0.000  0.521
N of occupied +U levels =  41.7861100
 --- exit write_ns ---

     Threshold (ethr) on eigenvalues was too large:
     Diagonalizing with lowered threshold

     Davidson diagonalization with overlap
     ethr =  7.59E-09,  avg # of iterations =  2.7

[...]

     total energy              =   -1529.85534536 Ry
     Harris-Foulkes estimate   =   -1529.85534537 Ry
     estimated scf accuracy    <       0.00000001 Ry

     iteration # 11     ecut=    40.00 Ry     beta=0.70
     Davidson diagonalization with overlap
     ethr =  4.89E-12,  avg # of iterations =  1.0

     negative rho (up, down):  0.356E-02 0.000E+00

     End of self-consistent calculation
 --- enter write_ns ---
 LDA+U parameters:
U( 2)     =  0.50000000
alpha( 2) =  0.00000000
atom    3   Tr[ns(na)] =   5.21964
    eigenvalues:
  0.410  0.439  0.500  0.556  0.705
    eigenvectors:
  0.000  0.000  0.000  0.423  0.577
  0.000  0.000  1.000  0.000  0.000
  0.020  0.980  0.000  0.000  0.000
  0.000  0.000  0.000  0.577  0.423
  0.980  0.020  0.000  0.000  0.000
    occupations:
  0.642  0.000  0.001 -0.074 -0.000
  0.000  0.500  0.000  0.000  0.000
  0.001  0.000  0.438 -0.000 -0.004
 -0.074  0.000 -0.000  0.619  0.000
 -0.000  0.000 -0.004  0.000  0.411
atom    4   Tr[ns(na)] =   5.24405
    eigenvalues:
  0.421  0.457  0.547  0.574  0.622
    eigenvectors:
  0.000  0.005  0.000  0.995  0.000
  0.000  0.994  0.000  0.005  0.001
  1.000  0.000  0.000  0.000  0.000
  0.000  0.001  0.000  0.000  0.999
  0.000  0.000  1.000  0.000  0.000
    occupations:
  0.574  0.008 -0.000 -0.000 -0.000
  0.008  0.458  0.000 -0.005 -0.000
 -0.000  0.000  0.421 -0.000  0.001
 -0.000 -0.005 -0.000  0.622  0.000
 -0.000 -0.000  0.001  0.000  0.547
atom    9   Tr[ns(na)] =   5.28889
    eigenvalues:
  0.459  0.470  0.515  0.598  0.603
    eigenvectors:
  0.883  0.000  0.000  0.117  0.000
  0.000  0.000  0.000  0.000  1.000
  0.000  0.000  1.000  0.000  0.000
  0.117  0.000  0.000  0.883  0.000
  0.000  1.000  0.000  0.000  0.000
    occupations:
  0.475 -0.000 -0.000  0.044  0.000
 -0.000  0.603  0.000 -0.000  0.000
 -0.000  0.000  0.515  0.000  0.000
  0.044 -0.000  0.000  0.581 -0.000
  0.000  0.000  0.000 -0.000  0.470
atom   10   Tr[ns(na)] =   5.14111
    eigenvalues:
  0.411  0.500  0.514  0.521  0.625
    eigenvectors:
  0.000  0.998  0.000  0.000  0.002
  0.000  0.000  1.000  0.000  0.000
  1.000  0.000  0.000  0.000  0.000
  0.000  0.002  0.000  0.000  0.998
  0.000  0.000  0.000  1.000  0.000
    occupations:
  0.500  0.000  0.000 -0.005  0.000
  0.000  0.514 -0.000 -0.000 -0.000
  0.000 -0.000  0.411 -0.000  0.000
 -0.005 -0.000 -0.000  0.625 -0.000
  0.000 -0.000  0.000 -0.000  0.521
atom   16   Tr[ns(na)] =   5.21970
    eigenvalues:
  0.410  0.439  0.500  0.556  0.705
    eigenvectors:
  0.000  0.000  0.000  0.423  0.577
  0.000  0.000  1.000  0.000  0.000
  0.020  0.980  0.000  0.000  0.000
  0.000  0.000  0.000  0.577  0.423
  0.980  0.020  0.000  0.000  0.000
    occupations:
  0.642  0.000  0.001 -0.074  0.000
  0.000  0.500  0.000  0.000  0.000
  0.001  0.000  0.438 -0.000 -0.004
 -0.074  0.000 -0.000  0.619 -0.000
  0.000  0.000 -0.004 -0.000  0.411
atom   17   Tr[ns(na)] =   5.24412
    eigenvalues:
  0.421  0.457  0.547  0.574  0.622
    eigenvectors:
  0.000  0.005  0.000  0.995  0.000
  0.000  0.994  0.000  0.005  0.001
  1.000  0.000  0.000  0.000  0.000
  0.000  0.001  0.000  0.000  0.999
  0.000  0.000  1.000  0.000  0.000
    occupations:
  0.574  0.008 -0.000 -0.000 -0.000
  0.008  0.458  0.000 -0.005 -0.000
 -0.000  0.000  0.421 -0.000  0.001
 -0.000 -0.005 -0.000  0.622  0.000
 -0.000 -0.000  0.001  0.000  0.547
atom   22   Tr[ns(na)] =   5.28889
    eigenvalues:
  0.459  0.470  0.515  0.598  0.603
    eigenvectors:
  0.883  0.000  0.000  0.117  0.000
  0.000  0.000  0.000  0.000  1.000
  0.000  0.000  1.000  0.000  0.000
  0.117  0.000  0.000  0.883  0.000
  0.000  1.000  0.000  0.000  0.000
    occupations:
  0.475 -0.000 -0.000  0.044  0.000
 -0.000  0.603  0.000 -0.000  0.000
 -0.000  0.000  0.515  0.000  0.000
  0.044 -0.000  0.000  0.581 -0.000
  0.000  0.000  0.000 -0.000  0.470
atom   23   Tr[ns(na)] =   5.14102
    eigenvalues:
  0.411  0.500  0.514  0.521  0.625
    eigenvectors:
  0.000  0.998  0.000  0.000  0.002
  0.000  0.000  1.000  0.000  0.000
  1.000  0.000  0.000  0.000  0.000
  0.000  0.002  0.000  0.000  0.998
  0.000  0.000  0.000  1.000  0.000
    occupations:
  0.500  0.000  0.000 -0.005  0.000
  0.000  0.514 -0.000 -0.000 -0.000
  0.000 -0.000  0.411 -0.000  0.000
 -0.005 -0.000 -0.000  0.625 -0.000
  0.000 -0.000  0.000 -0.000  0.521
N of occupied +U levels =  41.7874143
 --- exit write_ns ---

[...]

          k = 0.2500-0.4237 0.0000 ( 32188 PWs)   bands (ev):

[...]

          k =-0.2500 0.2118 0.0000 ( 32165 PWs)   bands (ev):

   -56.1875 -56.1237 -55.7323 -55.6768 -55.6614 -55.6071 -55.5676 -55.5131
   -33.0095 -32.3787 -32.2938 -32.2567 -32.2356 -32.2005 -32.1799 -32.1600
   -32.1505 -32.0208 -31.9802 -31.9701 -31.9575 -31.9469 -31.8784 -31.7567
   -31.7147 -31.6377 -31.5928 -31.5873 -31.5566 -31.4532 -31.3856 -31.3705
   -20.4217 -20.3080 -19.2299 -18.9344 -18.9254 -18.7902 -18.6818 -18.6677
   -18.6668 -18.5809 -18.5751 -18.5597 -18.1271 -18.0394 -18.0360 -17.9453
   -17.8445 -17.7110  -8.8267  -8.6027  -7.4701  -6.8797  -6.6888  -6.5977
    -6.5385  -6.3775  -6.3209  -6.1365  -6.1176  -6.0930  -6.0802  -5.8942
    -5.8480  -5.8011  -5.7843  -5.5194  -5.5090  -5.4471  -5.1255  -5.1155
    -5.0217  -4.9319  -4.8411  -4.6562  -4.5181  -4.3913  -4.3143  -4.3090
    -4.2479  -4.1600  -3.9710  -3.9610  -3.9586  -3.8782  -3.8511  -3.8014
    -3.5941  -3.5564  -3.4983  -3.4965  -3.3780  -3.2892  -3.1696  -3.1257
    -3.0661  -2.9771  -2.8514  -2.7145  -2.6674  -2.5455  -2.4875  -2.1681
    -0.2007   0.4273   0.5890   0.9465   1.0216   1.2944   1.5566   1.6960
     1.7192   1.8336   2.1216   2.1462   2.2892   2.3618   2.3778   2.5958
     2.6041   2.6666   2.7334   2.7774   2.8380   2.9901   2.9923   3.0831
     3.2335   3.3882   3.6123   4.2413   4.5147   4.5615   4.6953   4.8655
     4.9720   5.1246   5.1798   5.2396   5.3064   5.3865   5.5776   5.6909
     5.7803   5.9015   5.9751   6.0334   6.2354   6.3332   6.3945   6.5117
     6.5439   6.6543   6.7003   6.8313   6.9583   7.0236   7.2193   7.2465
     7.3860   7.5226   7.7263   7.8139   7.9220   7.9424   8.1261   8.1589
     8.2906   8.3227   8.4460   8.6640   8.7156   8.8549   9.0357   9.0571
     9.0799   9.2064   9.3192   9.4383   9.5724   9.5856   9.6544   9.7701
     9.8887   9.9465  10.0015  10.1553  10.2075  10.3451  10.4199  10.6030
    10.7322  10.7520  10.9124  10.9593  11.0203  11.0795  11.1618  11.2331
    11.2462  11.3831  11.4669  11.4784  11.5239  11.5396  11.7371  11.8513
    11.9134  12.0489  12.0987  12.1794  12.2337  12.3386  12.4532  12.4740
    12.6432  12.6858  12.7171  12.7809  12.8648  12.8791  12.9077  12.9600
    13.0631  13.0853  13.1928  13.2501  13.3080  13.4054  13.4771  13.4910
    13.6772  13.6989  13.7619  13.9038  13.9246  13.9541  13.9633  14.0700
    14.1045  14.2712  14.3129  14.4038  14.5090  14.6163  14.6550  14.8580
    14.8909  14.9171  15.0695  15.1259  15.1798  15.2242  15.2481  15.3615
    15.3797  15.4019  15.4787  15.5186  15.5920  15.7217  15.7869  15.7909
    15.8253  15.8834  16.0335  16.0376  16.0737  16.2469  16.2623  16.3919
    16.4425  16.5896  16.5909  16.6597  16.7452  16.7500  16.7809  16.8799
    16.9820  16.9895  17.0328  17.2304  17.2640  17.2770  17.3726  17.4093
    17.4612  17.5423  17.6322  17.6779  17.7118  17.8525  17.8729  17.9855
    18.0282  18.0595  18.0819  18.2303  18.3271  18.4126  18.5031  18.5914
    18.6138  18.6948  18.7374  18.7818  18.8620  18.9091  18.9333  19.0351
    19.1647  19.1732  19.2829  19.2933  19.3243  19.3702  19.4271  19.5431
    19.5453  19.5975  19.6455  19.7096

     the Fermi energy is     1.0299 ev

!    total energy              =   -1529.85534536 Ry
     Harris-Foulkes estimate   =   -1529.85534537 Ry
     estimated scf accuracy    <          1.9E-09 Ry

     The total energy is the sum of the following terms:

     one-electron contribution =  -18307.56192608 Ry
     hartree contribution      =    9180.47175066 Ry
     xc contribution           =    -279.66492011 Ry
     ewald contribution        =    7876.54371218 Ry
     Hubbard energy            =       0.35758484 Ry
     smearing contrib. (-TS)   =      -0.00154684 Ry

     convergence has been achieved in  11 iterations

     Forces acting on atoms (Ry/au):

     negative rho (up, down):  0.356E-02 0.000E+00
     atom    1 type  1   force =     0.00035008   -0.00044235   -0.00018362
     atom    2 type  1   force =    -0.00097924    0.00059185   -0.00042325
     atom    3 type  2   force =     0.00146610   -0.00040689    0.00059896
     atom    4 type  2   force =    -0.00372702    0.00037271   -0.00033314
     atom    5 type  1   force =     0.00035436   -0.02598320   -0.00003368
     atom    6 type  1   force =     0.00049675    0.02569921    0.00002352
     atom    7 type  1   force =     0.00002218    0.00011295   -0.00028479
     atom    8 type  1   force =     0.00166609   -0.00002252   -0.00021801
     atom    9 type  2   force =    -0.00022326    0.00001648    0.00021248
     atom   10 type  2   force =     0.00004546   -0.00000185   -0.00019901
     atom   11 type  1   force =     0.00005777   -0.04591149    0.00015540
     atom   12 type  1   force =     0.00006512    0.04590107    0.00016642
     atom   13 type  1   force =     0.00034477    0.00000356    0.00034803
     atom   14 type  1   force =     0.00033676   -0.00043027   -0.00018320
     atom   15 type  1   force =    -0.00098922    0.00055767   -0.00015920
     atom   16 type  2   force =     0.00141405   -0.00040985    0.00060147
     atom   17 type  2   force =    -0.00373007    0.00037033   -0.00032873
     atom   18 type  1   force =     0.00038813   -0.02597842   -0.00003419
     atom   19 type  1   force =     0.00050330    0.02569538    0.00002372
     atom   20 type  1   force =     0.00001149    0.00010772   -0.00021551
     atom   21 type  1   force =     0.00166615   -0.00002273   -0.00009487
     atom   22 type  2   force =    -0.00021834    0.00001660    0.00021288
     atom   23 type  2   force =     0.00004775   -0.00000265   -0.00032810
     atom   24 type  1   force =     0.00005316   -0.04591173    0.00015487
     atom   25 type  1   force =     0.00005733    0.04590122    0.00016588
     atom   26 type  1   force =     0.00034371    0.00000363    0.00032762
     atom   27 type  3   force =    -0.00001777   -0.00020496    0.00013951
     atom   28 type  3   force =    -0.00001867   -0.00020080   -0.00011830
     atom   29 type  3   force =     0.00010055    0.00029116    0.00000897
     atom   30 type  3   force =     0.00011253    0.00028817   -0.00000213

     Total force =     0.001508     Total SCF correction =     0.000087

     bfgs converged in   6 scf cycles and   5 bfgs steps
     (criteria: energy < 0.10E-03, force < 0.10E-02)

     End of BFGS Geometry Optimization

     Final energy   =   -1529.8553453632 Ry
Begin final coordinates

ATOMIC_POSITIONS (crystal)
O0       0.000000000   0.000000000   0.374728243    0   0   1
O0       0.000000000   0.500000000   0.385650919    0   0   1
Nb1      0.250000000   0.500000000   0.440069463    0   0   1
Nb1      0.000000000   0.000000000   0.447558318    0   0   1
O0       0.250000000   0.790000000   0.448059397    0   0   1
O0       0.250000000   0.210000000   0.448046833    0   0   1
O0       0.000000000   0.500000000   0.498350061    0   0   1
O0       0.000000000   0.000000000   0.526466792    0   0   1
Nb1      0.250000000   0.000000000   0.581093290    0   0   1
Nb1      0.000000000   0.500000000   0.567505329    0   0   1
O0       0.250000000   0.710000000   0.580320802    0   0   1
O0       0.250000000   0.290000000   0.580316311    0   0   1
O0       0.000000000   0.000000000   0.625567296    0   0   1
O0       0.500000000   0.000000000   0.374727400    0   0   1
O0       0.500000000   0.500000000   0.385650510    0   0   1
Nb1      0.750000000   0.500000000   0.440069426    0   0   1
Nb1      0.500000000   0.000000000   0.447558010    0   0   1
O0       0.750000000   0.790000000   0.448059399    0   0   1
O0       0.750000000   0.210000000   0.448047030    0   0   1
O0       0.500000000   0.500000000   0.498350747    0   0   1
O0       0.500000000   0.000000000   0.526459118    0   0   1
Nb1      0.750000000   0.000000000   0.581093274    0   0   1
Nb1      0.500000000   0.500000000   0.567511700    0   0   1
O0       0.750000000   0.710000000   0.580321101    0   0   1
O0       0.750000000   0.290000000   0.580316624    0   0   1
O0       0.500000000   0.000000000   0.625567947    0   0   1
H2      -0.000471090   0.502617800   0.349327120
H2       0.499530612   0.502385504   0.349330685
H2       0.151234305  -0.000725115   0.359183407
H2       0.651234357  -0.000730342   0.359183446
End final coordinates

     General routines

     Parallel routines
     Hubbard U routines

   This run was terminated on:   4:19:33   9May2014

   JOB DONE.