     Program PWSCF v.5.0.2 (svn rev. 9656) starts on 31Jan2014 at 17:49:41

     Current dimensions of program PWSCF are:
     Max number of different atomic species (ntypx) = 10
     Max number of k-points (npk) =  40000
     Max angular momentum in pseudopotentials (lmaxx) =  3
     Waiting for input...
     Reading input from standard input

     Subspace diagonalization in iterative solution of the eigenvalue problem:
     a serial algorithm will be used

     bravais-lattice index     =            0
     lattice parameter (alat)  =       8.3540  a.u.
     unit-cell volume          =     375.7270 (a.u.)^3
     number of atoms/cell      =            6
     number of atomic types    =            2
     number of electrons       =        52.00
     number of Kohn-Sham states=           75
     kinetic-energy cutoff     =      40.0000  Ry
     charge density cutoff     =     500.0000  Ry
     convergence threshold     =      1.0E-06
     mixing beta               =       0.3000
     number of iterations used =            8  plain     mixing
     Exchange-correlation      = SLA  PW   PBE  PBE ( 1 4 3 4 0)
     EXX-fraction              =        0.00
     nstep                     =           50

     celldm(1)=   8.354023  celldm(2)=   0.000000  celldm(3)=   0.000000
     celldm(4)=   0.000000  celldm(5)=   0.000000  celldm(6)=   0.000000

     crystal axes: (cart. coord. in units of alat)
               a(1) = (   1.000000   0.000000   0.000000 )
               a(2) = (   0.000000   1.000000   0.000000 )
               a(3) = (   0.000000   0.000000   0.644444 )

     reciprocal axes: (cart. coord. in units 2 pi/alat)
               b(1) = (  1.000000  0.000000  0.000000 )
               b(2) = (  0.000000  1.000000  0.000000 )
               b(3) = (  0.000000  0.000000  1.551724 )

     PseudoPot. # 1 for Cr read from file:
     /home/camp/zhonxu/pseudo/cr_pbe_v1.uspp.F.UPF
     MD5 check sum: 68b6f918d1762dccfb11451fe85b0e0e
     Pseudo is Ultrasoft + core correction, Zval = 14.0
     Generated by new atomic code, or converted to UPF format
     Using radial grid of  857 points,  6 beta functions with:
                l(1) =   0
                l(2) =   0
                l(3) =   1
                l(4) =   1
                l(5) =   2
                l(6) =   2
     Q(r) pseudized with  6 coefficients,  rinner =    1.000   1.000   1.000
                                                       1.000   1.000

     PseudoPot. # 2 for O  read from file:
     /home/camp/zhonxu/pseudo/o_pbe_v1.01.uspp.F.UPF
     MD5 check sum: 2bcb18d16ea4b960afae9ec6d52f22d2
     Pseudo is Ultrasoft + core correction, Zval =  6.0
     Generated by new atomic code, or converted to UPF format
     Using radial grid of  737 points,  5 beta functions with:
                l(1) =   0
                l(2) =   0
                l(3) =   1
                l(4) =   1
                l(5) =   2
     Q(r) pseudized with  8 coefficients,  rinner =    0.900   0.900   0.900
                                                       0.900   0.900

     atomic species   valence    mass     pseudopotential
        Cr0           14.00    51.99600     Cr( 1.00)
        O1             6.00    15.99940     O ( 1.00)

     Starting magnetic structure
     atomic species   magnetization
        Cr0          0.600
        O1           0.000

     16 Sym. Ops., with inversion, found ( 8 have fractional translation)

   Cartesian axes

     site n.     atom                  positions (alat units)
         1           Cr0 tau(   1) = (   0.0000000   0.0000000   0.0000000  )
         2           Cr0 tau(   2) = (   0.5000000   0.5000000   0.3222222  )
         3           O1  tau(   3) = (   0.3050000   0.3050000   0.0000000  )
         4           O1  tau(   4) = (  -0.3050000  -0.3050000   0.0000000  )
         5           O1  tau(   5) = (   0.8050000   0.1950000   0.3222222  )
         6           O1  tau(   6) = (   0.1950000   0.8050000   0.3222222  )

     number of k points=    36  Methfessel-Paxton smearing, width (Ry)=  0.0100
                       cart. coord. in units 2pi/alat
        k(    1) = (   0.0000000   0.0000000   0.0000000), wk =   0.0080000
        k(    2) = (   0.0000000   0.0000000   0.3103448), wk =   0.0160000
        k(    3) = (   0.0000000   0.0000000   0.6206897), wk =   0.0160000
        k(    4) = (   0.0000000   0.2000000   0.0000000), wk =   0.0320000
        k(    5) = (   0.0000000   0.2000000   0.3103448), wk =   0.0640000
        k(    6) = (   0.0000000   0.2000000   0.6206897), wk =   0.0640000
        k(    7) = (   0.0000000   0.4000000   0.0000000), wk =   0.0320000
        k(    8) = (   0.0000000   0.4000000   0.3103448), wk =   0.0640000
        k(    9) = (   0.0000000   0.4000000   0.6206897), wk =   0.0640000
        k(   10) = (   0.2000000   0.2000000   0.0000000), wk =   0.0320000
        k(   11) = (   0.2000000   0.2000000   0.3103448), wk =   0.0640000
        k(   12) = (   0.2000000   0.2000000   0.6206897), wk =   0.0640000
        k(   13) = (   0.2000000   0.4000000   0.0000000), wk =   0.0640000
        k(   14) = (   0.2000000   0.4000000   0.3103448), wk =   0.1280000
        k(   15) = (   0.2000000   0.4000000   0.6206897), wk =   0.1280000
        k(   16) = (   0.4000000   0.4000000   0.0000000), wk =   0.0320000
        k(   17) = (   0.4000000   0.4000000   0.3103448), wk =   0.0640000
        k(   18) = (   0.4000000   0.4000000   0.6206897), wk =   0.0640000
        k(   19) = (   0.0000000   0.0000000   0.0000000), wk =   0.0080000
        k(   20) = (   0.0000000   0.0000000   0.3103448), wk =   0.0160000
        k(   21) = (   0.0000000   0.0000000   0.6206897), wk =   0.0160000
        k(   22) = (   0.0000000   0.2000000   0.0000000), wk =   0.0320000
        k(   23) = (   0.0000000   0.2000000   0.3103448), wk =   0.0640000
        k(   24) = (   0.0000000   0.2000000   0.6206897), wk =   0.0640000
        k(   25) = (   0.0000000   0.4000000   0.0000000), wk =   0.0320000
        k(   26) = (   0.0000000   0.4000000   0.3103448), wk =   0.0640000
        k(   27) = (   0.0000000   0.4000000   0.6206897), wk =   0.0640000
        k(   28) = (   0.2000000   0.2000000   0.0000000), wk =   0.0320000
        k(   29) = (   0.2000000   0.2000000   0.3103448), wk =   0.0640000
        k(   30) = (   0.2000000   0.2000000   0.6206897), wk =   0.0640000
        k(   31) = (   0.2000000   0.4000000   0.0000000), wk =   0.0640000
        k(   32) = (   0.2000000   0.4000000   0.3103448), wk =   0.1280000
        k(   33) = (   0.2000000   0.4000000   0.6206897), wk =   0.1280000
        k(   34) = (   0.4000000   0.4000000   0.0000000), wk =   0.0320000
        k(   35) = (   0.4000000   0.4000000   0.3103448), wk =   0.0640000
        k(   36) = (   0.4000000   0.4000000   0.6206897), wk =   0.0640000

     Largest allocated arrays     est. size (Mb)     dimensions
     Largest temporary arrays     est. size (Mb)     dimensions

     Check: negative/imaginary core charge=   -0.000034    0.000000

     Initial potential from superposition of free atoms

     starting charge   49.99997, renormalised to   52.00000
     Starting wfc are   36 randomized atomic wfcs

     Self-consistent Calculation

     iteration #  1     ecut=    40.00 Ry     beta=0.30
     Davidson diagonalization with overlap
     ethr =  1.00E-02,  avg # of iterations =  5.1

     total energy              =    -480.18164400 Ry
     Harris-Foulkes estimate   =    -480.21042083 Ry
     estimated scf accuracy    <       3.02881204 Ry

     total magnetization       =     4.00 Bohr mag/cell
     absolute magnetization    =     5.83 Bohr mag/cell

[...]

     End of self-consistent calculation

 ------ SPIN UP ------------

          k = 0.0000 0.0000 0.0000 (  1623 PWs)   bands (ev):

   -62.2939 -62.2882 -33.6746 -33.6746 -33.5624 -33.5624 -33.4896 -33.4730
    -8.8135  -7.0806  -6.5590  -6.5590   3.3328   3.9804   4.5008   5.6504
     5.6504   7.1171   7.1171   7.7878   9.4789   9.6466   9.7206   9.8787
     9.8787  10.1385  10.1385  10.1394  10.7386  12.3787  12.5024  15.2682
    15.2682  16.0113  18.8804  22.3106  22.3106  25.4430  25.7647  26.7728
    29.1045  30.1257  30.1257  30.9046  31.0480  34.7037  35.5556  35.5556
    35.6775  36.9956  36.9956  37.5098  37.5459  37.5459  37.8644  39.7238
    41.7797  42.2008  44.7190  44.7929  44.7929  45.2755  45.2755  46.3001
    48.3151  49.3944  49.3944  50.0062  51.6906  52.0967  52.0967  52.7928
    53.8470  54.4147  55.6490

[...]

 ------ SPIN DOWN ----------

[...]

     the Fermi energy is    11.2793 ev

!    total energy              =    -481.16426186 Ry
     Harris-Foulkes estimate   =    -481.16425441 Ry
     estimated scf accuracy    <       0.00000010 Ry

     The total energy is the sum of the following terms:

     one-electron contribution =    -201.69702217 Ry
     hartree contribution      =     128.08492345 Ry
     xc contribution           =     -74.58922018 Ry
     ewald contribution        =    -332.96267007 Ry
     smearing contrib. (-TS)   =      -0.00027288 Ry

[...]

     convergence has been achieved in  11 iterations

     Forces acting on atoms (Ry/au):

     atom    1 type  1   force =     0.00000000    0.00000000    0.00000000
     atom    2 type  1   force =     0.00000000    0.00000000   -0.00000000
     atom    3 type  2   force =    -0.01092278   -0.01092278   -0.00000000
     atom    4 type  2   force =     0.01092278    0.01092278    0.00000000
     atom    5 type  2   force =    -0.01092278    0.01092278    0.00000000
     atom    6 type  2   force =     0.01092278   -0.01092278   -0.00000000

     Total force =     0.030894     Total SCF correction =     0.000156

     entering subroutine stress ...

          total   stress  (Ry/bohr**3)                   (kbar)     P=  103.35
   0.00051361   0.00000000   0.00000000         75.55      0.00      0.00
   0.00000000   0.00051361   0.00000000          0.00     75.55      0.00
   0.00000000   0.00000000   0.00108046          0.00      0.00    158.94

     Volume is kept fixed: isostatic pressure set to zero

     BFGS Geometry Optimization

     number of scf cycles    =   1
     number of bfgs steps    =   0

     enthalpy new            =    -481.1642618585 Ry

     new trust radius        =       0.0366256926 bohr
     new conv_thr            =       0.0000010000 Ry

     new unit-cell volume =    375.72702 a.u.^3 (    55.67700 Ang^3 )

CELL_PARAMETERS (alat=  8.35402268)
   0.995298360   0.000000000   0.000000000
   0.000000000   0.995298360   0.000000000
   0.000000000   0.000000000   0.650547343

ATOMIC_POSITIONS (crystal)
Cr0      0.000000000   0.000000000   0.000000000    0   0   0
Cr0      0.500000000   0.500000000   0.500000000    0   0   0
O1       0.303692512   0.303692512   0.000000000    1   1   0
O1      -0.303692512  -0.303692512   0.000000000    1   1   0
O1       0.803692512   0.196307488   0.500000000    1   1   0
O1       0.196307488   0.803692512   0.500000000    1   1   0

     NEW-OLD atomic charge density approx. for the potential
     NEW k-points:
        k(    1) = (   0.0000000   0.0000000   0.0000000), wk =   0.0080000
[...]
        k(   15) = (   0.2009448   0.4018895   0.6148669), wk =   0.1280000
        k(   16) = (   0.4018895   0.4018895   0.0000000), wk =   0.0320000
        k(   17) = (   0.4018895   0.4018895   0.3074334), wk =   0.0640000
        k(   18) = (   0.4018895   0.4018895   0.6148669), wk =   0.0640000
        k(   19) = (   0.0000000   0.0000000   0.0000000), wk =   0.0080000
        k(   20) = (   0.0000000   0.0000000   0.3074334), wk =   0.0160000
        k(   21) = (   0.0000000   0.0000000   0.6148669), wk =   0.0160000
        k(   22) = (   0.0000000   0.2009448   0.0000000), wk =   0.0320000
        k(   23) = (   0.0000000   0.2009448   0.3074334), wk =   0.0640000
        k(   24) = (   0.0000000   0.2009448   0.6148669), wk =   0.0640000
        k(   25) = (   0.0000000   0.4018895   0.0000000), wk =   0.0320000
        k(   26) = (   0.0000000   0.4018895   0.3074334), wk =   0.0640000
        k(   27) = (   0.0000000   0.4018895   0.6148669), wk =   0.0640000
        k(   28) = (   0.2009448   0.2009448   0.0000000), wk =   0.0320000
        k(   29) = (   0.2009448   0.2009448   0.3074334), wk =   0.0640000
        k(   30) = (   0.2009448   0.2009448   0.6148669), wk =   0.0640000
        k(   31) = (   0.2009448   0.4018895   0.0000000), wk =   0.0640000
        k(   32) = (   0.2009448   0.4018895   0.3074334), wk =   0.1280000
        k(   33) = (   0.2009448   0.4018895   0.6148669), wk =   0.1280000
        k(   34) = (   0.4018895   0.4018895   0.0000000), wk =   0.0320000
        k(   35) = (   0.4018895   0.4018895   0.3074334), wk =   0.0640000
        k(   36) = (   0.4018895   0.4018895   0.6148669), wk =   0.0640000

[...]

     enthalpy old            =    -481.1642618585 Ry
     enthalpy new            =    -481.1663953177 Ry

     CASE: enthalpy_new < enthalpy_old

[...]

     Total force =     0.000130     Total SCF correction =     0.000100
     SCF correction compared to forces is large: reduce conv_thr to get better values

[...]

     number of scf cycles    =   3
     number of bfgs steps    =   2

     enthalpy old            =    -481.1663953177 Ry
     enthalpy new            =    -481.1669358908 Ry

     CASE: enthalpy_new < enthalpy_old

     new trust radius        =       0.0017155113 bohr
     new conv_thr            =       0.0000000100 Ry

     new unit-cell volume =    375.72702 a.u.^3 (    55.67700 Ang^3 )

[...]

ATOMIC_POSITIONS (crystal)
Cr0      0.000000000   0.000000000   0.000000000    0   0   0
Cr0      0.500000000   0.500000000   0.500000000    0   0   0
O1       0.302646074   0.302646074   0.000000000    1   1   0
O1      -0.302646074  -0.302646074   0.000000000    1   1   0
O1       0.802646074   0.197353926   0.500000000    1   1   0
O1       0.197353926   0.802646074   0.500000000    1   1   0

     NEW-OLD atomic charge density approx. for the potential
     NEW k-points:
        k(    1) = (   0.0000000   0.0000000   0.0000000), wk =   0.0080000
        k(    2) = (   0.0000000   0.0000000   0.3050248), wk =   0.0160000
        k(    3) = (   0.0000000   0.0000000   0.6100495), wk =   0.0160000
        k(    4) = (   0.0000000   0.2017366   0.0000000), wk =   0.0320000
        k(    5) = (   0.0000000   0.2017366   0.3050248), wk =   0.0640000
        k(    6) = (   0.0000000   0.2017366   0.6100495), wk =   0.0640000
        k(    7) = (   0.0000000   0.4034732   0.0000000), wk =   0.0320000
        k(    8) = (   0.0000000   0.4034732   0.3050248), wk =   0.0640000
        k(    9) = (   0.0000000   0.4034732   0.6100495), wk =   0.0640000
        k(   10) = (   0.2017366   0.2017366   0.0000000), wk =   0.0320000
        k(   11) = (   0.2017366   0.2017366   0.3050248), wk =   0.0640000
        k(   12) = (   0.2017366   0.2017366   0.6100495), wk =   0.0640000
        k(   13) = (   0.2017366   0.4034732   0.0000000), wk =   0.0640000
        k(   14) = (   0.2017366   0.4034732   0.3050248), wk =   0.1280000
        k(   15) = (   0.2017366   0.4034732   0.6100495), wk =   0.1280000
        k(   16) = (   0.4034732   0.4034732   0.0000000), wk =   0.0320000
        k(   17) = (   0.4034732   0.4034732   0.3050248), wk =   0.0640000
        k(   18) = (   0.4034732   0.4034732   0.6100495), wk =   0.0640000
        k(   19) = (   0.0000000   0.0000000   0.0000000), wk =   0.0080000
        k(   20) = (   0.0000000   0.0000000   0.3050248), wk =   0.0160000
        k(   21) = (   0.0000000   0.0000000   0.6100495), wk =   0.0160000
        k(   22) = (   0.0000000   0.2017366   0.0000000), wk =   0.0320000
        k(   23) = (   0.0000000   0.2017366   0.3050248), wk =   0.0640000
        k(   24) = (   0.0000000   0.2017366   0.6100495), wk =   0.0640000
        k(   25) = (   0.0000000   0.4034732   0.0000000), wk =   0.0320000
        k(   26) = (   0.0000000   0.4034732   0.3050248), wk =   0.0640000
        k(   27) = (   0.0000000   0.4034732   0.6100495), wk =   0.0640000
        k(   28) = (   0.2017366   0.2017366   0.0000000), wk =   0.0320000
        k(   29) = (   0.2017366   0.2017366   0.3050248), wk =   0.0640000
        k(   30) = (   0.2017366   0.2017366   0.6100495), wk =   0.0640000
        k(   31) = (   0.2017366   0.4034732   0.0000000), wk =   0.0640000
        k(   32) = (   0.2017366   0.4034732   0.3050248), wk =   0.1280000
        k(   33) = (   0.2017366   0.4034732   0.6100495), wk =   0.1280000
        k(   34) = (   0.4034732   0.4034732   0.0000000), wk =   0.0320000
        k(   35) = (   0.4034732   0.4034732   0.3050248), wk =   0.0640000
        k(   36) = (   0.4034732   0.4034732   0.6100495), wk =   0.0640000

[...]

     Threshold (ethr) on eigenvalues was too large:
     Diagonalizing with lowered threshold

     Davidson diagonalization with overlap
     ethr =  9.89E-10,  avg # of iterations =  2.0

[...]

     Total force =     0.000279     Total SCF correction =     0.000000

[...]

     Volume is kept fixed: isostatic pressure set to zero

     bfgs converged in   4 scf cycles and   3 bfgs steps
     (criteria: energy < 0.10E-03, force < 0.10E-02, cell < 0.50E+00)

     End of BFGS Geometry Optimization

     Final enthalpy =    -481.1669375084 Ry
Begin final coordinates
     new unit-cell volume =    375.72702 a.u.^3 (    55.67700 Ang^3 )

CELL_PARAMETERS (alat=  8.35402268)
   0.991391752   0.000000000   0.000000000
   0.000000000   0.991391752   0.000000000
   0.000000000   0.000000000   0.655684445

ATOMIC_POSITIONS (crystal)
Cr0      0.000000000   0.000000000   0.000000000    0   0   0
Cr0      0.500000000   0.500000000   0.500000000    0   0   0
O1       0.302646074   0.302646074   0.000000000    1   1   0
O1      -0.302646074  -0.302646074   0.000000000    1   1   0
O1       0.802646074   0.197353926   0.500000000    1   1   0
O1       0.197353926   0.802646074   0.500000000    1   1   0
End final coordinates

     A final scf calculation at the relaxed structure.
     The G-vectors are recalculated for the final unit cell
     Results may differ from those at the preceding step.

     bravais-lattice index     =            0
     lattice parameter (alat)  =       8.3540  a.u.
     unit-cell volume          =     375.7270 (a.u.)^3
     number of atoms/cell      =            6
     number of atomic types    =            2
     number of electrons       =        52.00
     number of Kohn-Sham states=           75
     kinetic-energy cutoff     =      40.0000  Ry
     charge density cutoff     =     500.0000  Ry
     convergence threshold     =      1.0E-08
     mixing beta               =       0.3000
     number of iterations used =            8  plain     mixing
     Exchange-correlation      = SLA  PW   PBE  PBE ( 1 4 3 4 0)
     EXX-fraction              =        0.00

     celldm(1)=   8.354023  celldm(2)=   0.000000  celldm(3)=   0.000000
     celldm(4)=   0.000000  celldm(5)=   0.000000  celldm(6)=   0.000000

     crystal axes: (cart. coord. in units of alat)
               a(1) = (   0.991392   0.000000   0.000000 )
               a(2) = (   0.000000   0.991392   0.000000 )
               a(3) = (   0.000000   0.000000   0.655684 )

     reciprocal axes: (cart. coord. in units 2 pi/alat)
               b(1) = (  1.008683  0.000000  0.000000 )
               b(2) = (  0.000000  1.008683  0.000000 )
               b(3) = (  0.000000  0.000000  1.525124 )

     PseudoPot. # 1 for Cr read from file:
     /home/camp/zhonxu/pseudo/cr_pbe_v1.uspp.F.UPF
     MD5 check sum: 68b6f918d1762dccfb11451fe85b0e0e
     Pseudo is Ultrasoft + core correction, Zval = 14.0
     Generated by new atomic code, or converted to UPF format
     Using radial grid of  857 points,  6 beta functions with:
                l(1) =   0
                l(2) =   0
                l(3) =   1
                l(4) =   1
                l(5) =   2
                l(6) =   2
     Q(r) pseudized with  6 coefficients,  rinner =    1.000   1.000   1.000
                                                       1.000   1.000

     PseudoPot. # 2 for O  read from file:
     /home/camp/zhonxu/pseudo/o_pbe_v1.01.uspp.F.UPF
     MD5 check sum: 2bcb18d16ea4b960afae9ec6d52f22d2
     Pseudo is Ultrasoft + core correction, Zval =  6.0
     Generated by new atomic code, or converted to UPF format
     Using radial grid of  737 points,  5 beta functions with:
                l(1) =   0
                l(2) =   0
                l(3) =   1
                l(4) =   1
                l(5) =   2
     Q(r) pseudized with  8 coefficients,  rinner =    0.900   0.900   0.900
                                                       0.900   0.900

     atomic species   valence    mass     pseudopotential
        Cr0           14.00    51.99600     Cr( 1.00)
        O1             6.00    15.99940     O ( 1.00)

     Starting magnetic structure
     atomic species   magnetization
        Cr0          0.600
        O1           0.000

     16 Sym. Ops., with inversion, found ( 8 have fractional translation)

   Cartesian axes

     site n.     atom                  positions (alat units)
         1           Cr0 tau(   1) = (   0.0000000   0.0000000   0.0000000  )
         2           Cr0 tau(   2) = (   0.4956959   0.4956959   0.3278422  )
         3           O1  tau(   3) = (   0.3000408   0.3000408   0.0000000  )
         4           O1  tau(   4) = (  -0.3000408  -0.3000408   0.0000000  )
         5           O1  tau(   5) = (   0.7957367   0.1956551   0.3278422  )
         6           O1  tau(   6) = (   0.1956551   0.7957367   0.3278422  )

     number of k points=    36  Methfessel-Paxton smearing, width (Ry)=  0.0100
                       cart. coord. in units 2pi/alat
        k(    1) = (   0.0000000   0.0000000   0.0000000), wk =   0.0080000
        k(    2) = (   0.0000000   0.0000000   0.3050248), wk =   0.0160000
        k(    3) = (   0.0000000   0.0000000   0.6100495), wk =   0.0160000
        k(    4) = (   0.0000000   0.2017366   0.0000000), wk =   0.0320000
        k(    5) = (   0.0000000   0.2017366   0.3050248), wk =   0.0640000
        k(    6) = (   0.0000000   0.2017366   0.6100495), wk =   0.0640000
        k(    7) = (   0.0000000   0.4034732   0.0000000), wk =   0.0320000
        k(    8) = (   0.0000000   0.4034732   0.3050248), wk =   0.0640000
        k(    9) = (   0.0000000   0.4034732   0.6100495), wk =   0.0640000
        k(   10) = (   0.2017366   0.2017366   0.0000000), wk =   0.0320000
        k(   11) = (   0.2017366   0.2017366   0.3050248), wk =   0.0640000
        k(   12) = (   0.2017366   0.2017366   0.6100495), wk =   0.0640000
        k(   13) = (   0.2017366   0.4034732   0.0000000), wk =   0.0640000
        k(   14) = (   0.2017366   0.4034732   0.3050248), wk =   0.1280000
        k(   15) = (   0.2017366   0.4034732   0.6100495), wk =   0.1280000
        k(   16) = (   0.4034732   0.4034732   0.0000000), wk =   0.0320000
        k(   17) = (   0.4034732   0.4034732   0.3050248), wk =   0.0640000
        k(   18) = (   0.4034732   0.4034732   0.6100495), wk =   0.0640000
        k(   19) = (   0.0000000   0.0000000   0.0000000), wk =   0.0080000
        k(   20) = (   0.0000000   0.0000000   0.3050248), wk =   0.0160000
        k(   21) = (   0.0000000   0.0000000   0.6100495), wk =   0.0160000
        k(   22) = (   0.0000000   0.2017366   0.0000000), wk =   0.0320000
        k(   23) = (   0.0000000   0.2017366   0.3050248), wk =   0.0640000
        k(   24) = (   0.0000000   0.2017366   0.6100495), wk =   0.0640000
        k(   25) = (   0.0000000   0.4034732   0.0000000), wk =   0.0320000
        k(   26) = (   0.0000000   0.4034732   0.3050248), wk =   0.0640000
        k(   27) = (   0.0000000   0.4034732   0.6100495), wk =   0.0640000
        k(   28) = (   0.2017366   0.2017366   0.0000000), wk =   0.0320000
        k(   29) = (   0.2017366   0.2017366   0.3050248), wk =   0.0640000
        k(   30) = (   0.2017366   0.2017366   0.6100495), wk =   0.0640000
        k(   31) = (   0.2017366   0.4034732   0.0000000), wk =   0.0640000
        k(   32) = (   0.2017366   0.4034732   0.3050248), wk =   0.1280000
        k(   33) = (   0.2017366   0.4034732   0.6100495), wk =   0.1280000
        k(   34) = (   0.4034732   0.4034732   0.0000000), wk =   0.0320000
        k(   35) = (   0.4034732   0.4034732   0.3050248), wk =   0.0640000
        k(   36) = (   0.4034732   0.4034732   0.6100495), wk =   0.0640000

     Largest allocated arrays     est. size (Mb)     dimensions
     Largest temporary arrays     est. size (Mb)     dimensions

     Check: negative/imaginary core charge=   -0.000034    0.000000

     Initial potential from superposition of free atoms

     starting charge   49.99997, renormalised to   52.00000
     Starting wfc are   36 randomized atomic wfcs

     Self-consistent Calculation

[...]

     total energy              =    -481.16696463 Ry
     Harris-Foulkes estimate   =    -481.16696273 Ry
     estimated scf accuracy    <       0.00000009 Ry

[...]

     iteration # 13     ecut=    40.00 Ry     beta=0.30
     Davidson diagonalization with overlap
     ethr =  1.71E-10,  avg # of iterations =  1.0

     End of self-consistent calculation

 ------ SPIN UP ------------

[...]

 ------ SPIN DOWN ----------

[...]

          k = 0.4035 0.4035 0.6100 (  1590 PWs)   bands (ev):

   -59.9731 -59.9729 -31.6266 -31.6262 -31.2483 -31.2455 -31.2294 -31.2273
    -7.1793  -7.0883  -6.9496  -6.9170   4.7158   4.9366   4.9414   5.0429
     6.3316   6.5328   7.3440   7.3985   8.4187   8.5918   9.2330   9.3896
    12.3376  12.7134  13.1219  13.3272  13.3567  13.4940  14.8586  15.3750
    15.6307  16.1266  22.8042  23.1203  25.0640  25.7495  26.2272  26.7980
    27.9837  28.1932  29.3559  29.7256  30.7010  31.1897  34.4885  36.0223
    36.3025  36.5463  37.2470  37.8408  41.2386  41.3436  41.9485  42.8308
    44.5083  45.0070  45.0867  45.9608  47.1119  47.1193  47.8826  48.4062
    48.7087  49.8441  51.3333  52.1187  52.1699  52.5217  53.2535  53.8804
    54.0128  54.6838  54.7145

     the Fermi energy is    11.2593 ev

!    total energy              =    -481.16696648 Ry
     Harris-Foulkes estimate   =    -481.16696465 Ry
     estimated scf accuracy    <          9.5E-09 Ry

     The total energy is the sum of the following terms:

     one-electron contribution =    -199.35425049 Ry
     hartree contribution      =     126.92414709 Ry
     xc contribution           =     -74.56479281 Ry
     ewald contribution        =    -334.17188497 Ry
     smearing contrib. (-TS)   =      -0.00018531 Ry

     total magnetization       =     4.00 Bohr mag/cell
     absolute magnetization    =     4.59 Bohr mag/cell

     convergence has been achieved in  13 iterations

     Forces acting on atoms (Ry/au):

     atom    1 type  1   force =     0.00000000    0.00000000   -0.00000000
     atom    2 type  1   force =     0.00000000    0.00000000   -0.00000000
     atom    3 type  2   force =     0.00006608    0.00006608   -0.00000000
     atom    4 type  2   force =    -0.00006608   -0.00006608   -0.00000000
     atom    5 type  2   force =     0.00006608   -0.00006608    0.00000000
     atom    6 type  2   force =    -0.00006608    0.00006608   -0.00000000

     Total force =     0.000187     Total SCF correction =     0.000029
     SCF correction compared to forces is large: reduce conv_thr to get better values

     entering subroutine stress ...

          total   stress  (Ry/bohr**3)                   (kbar)     P=   84.33
   0.00057172   0.00000000   0.00000000         84.10      0.00      0.00
   0.00000000   0.00057172   0.00000000          0.00     84.10      0.00
   0.00000000   0.00000000   0.00057635          0.00      0.00     84.78

     General routines

     Parallel routines

   This run was terminated on:  18:36: 3  31Jan2014

   JOB DONE.