     Program PWSCF v.5.0.2 (svn rev. 9656) starts on 31Jan2014 at 16:41:12

     Current dimensions of program PWSCF are:
     Max number of different atomic species (ntypx) = 10
     Max number of k-points (npk) =  40000
     Max angular momentum in pseudopotentials (lmaxx) =  3
     Waiting for input...
     Reading input from standard input

     Subspace diagonalization in iterative solution of the eigenvalue problem:
     a serial algorithm will be used

     bravais-lattice index     =            0
     lattice parameter (alat)  =       8.7587  a.u.
     unit-cell volume          =     433.0204 (a.u.)^3
     number of atoms/cell      =            6
     number of atomic types    =            2
     number of electrons       =        48.00
     number of Kohn-Sham states=           69
     kinetic-energy cutoff     =      40.0000  Ry
     charge density cutoff     =     500.0000  Ry
     convergence threshold     =      1.0E-06
     mixing beta               =       0.3000
     number of iterations used =            8  plain     mixing
     Exchange-correlation      = SLA  PW   PBE  PBE ( 1 4 3 4 0)
     EXX-fraction              =        0.00
     nstep                     =           50

     celldm(1)=   8.758726  celldm(2)=   0.000000  celldm(3)=   0.000000
     celldm(4)=   0.000000  celldm(5)=   0.000000  celldm(6)=   0.000000

     crystal axes: (cart. coord. in units of alat)
               a(1) = (   1.000000   0.000000   0.000000 )
               a(2) = (   0.000000   1.000000   0.000000 )
               a(3) = (   0.000000   0.000000   0.644444 )

     reciprocal axes: (cart. coord. in units 2 pi/alat)
               b(1) = (  1.000000  0.000000  0.000000 )
               b(2) = (  0.000000  1.000000  0.000000 )
               b(3) = (  0.000000  0.000000  1.551724 )

     PseudoPot. # 1 for Ti read from file:
     /home/camp/zhonxu/pseudo/ti_pbe_v1.uspp.F.UPF
     MD5 check sum: bcc8f6961b3b91f0cac3ca967d22d0fb
     Pseudo is Ultrasoft + core correction, Zval = 12.0
     Generated by new atomic code, or converted to UPF format
     Using radial grid of  851 points,  6 beta functions with:
                l(1) =   0
                l(2) =   0
                l(3) =   1
                l(4) =   1
                l(5) =   2
                l(6) =   2
     Q(r) pseudized with  6 coefficients,  rinner =    1.000   1.000   1.000
                                                       1.000   1.000

     PseudoPot. # 2 for O  read from file:
     /home/camp/zhonxu/pseudo/o_pbe_v1.01.uspp.F.UPF
     MD5 check sum: 2bcb18d16ea4b960afae9ec6d52f22d2
     Pseudo is Ultrasoft + core correction, Zval =  6.0
     Generated by new atomic code, or converted to UPF format
     Using radial grid of  737 points,  5 beta functions with:
                l(1) =   0
                l(2) =   0
                l(3) =   1
                l(4) =   1
                l(5) =   2
     Q(r) pseudized with  8 coefficients,  rinner =    0.900   0.900   0.900
                                                       0.900   0.900

     atomic species   valence    mass     pseudopotential
        Ti0           12.00    47.88000     Ti( 1.00)
        O1             6.00    15.99940     O ( 1.00)

     Starting magnetic structure
     atomic species   magnetization
        Ti0          0.000
        O1           0.000

      8 Sym. Ops., with inversion, found
          (note:  8 additional sym.ops. were found but ignored
           their fractional translations are incommensurate with FFT grid)

   Cartesian axes

     site n.     atom                  positions (alat units)
         1           Ti0 tau(   1) = (   0.0000000   0.0000000   0.0000000  )
         2           Ti0 tau(   2) = (   0.5000000   0.5000000   0.3222222  )
         3           O1  tau(   3) = (   0.3050000   0.3050000   0.0000000  )
         4           O1  tau(   4) = (  -0.3050000  -0.3050000   0.0000000  )
         5           O1  tau(   5) = (   0.8050000   0.1950000   0.3222222  )
         6           O1  tau(   6) = (   0.1950000   0.8050000   0.3222222  )

     number of k points=    54  Methfessel-Paxton smearing, width (Ry)=  0.0100
                       cart. coord. in units 2pi/alat
        k(    1) = (   0.0000000   0.0000000   0.0000000), wk =   0.0080000
        k(    2) = (   0.0000000   0.0000000   0.3103448), wk =   0.0160000
        k(    3) = (   0.0000000   0.0000000   0.6206897), wk =   0.0160000
        k(    4) = (   0.0000000   0.2000000   0.0000000), wk =   0.0320000
        k(    5) = (   0.0000000   0.2000000   0.3103448), wk =   0.0640000
        k(    6) = (   0.0000000   0.2000000   0.6206897), wk =   0.0640000
        k(    7) = (   0.0000000   0.4000000   0.0000000), wk =   0.0320000
        k(    8) = (   0.0000000   0.4000000   0.3103448), wk =   0.0640000
        k(    9) = (   0.0000000   0.4000000   0.6206897), wk =   0.0640000
        k(   10) = (   0.2000000   0.2000000   0.0000000), wk =   0.0160000
        k(   11) = (   0.2000000   0.2000000   0.3103448), wk =   0.0320000
        k(   12) = (   0.2000000   0.2000000   0.6206897), wk =   0.0320000
        k(   13) = (   0.2000000   0.4000000   0.0000000), wk =   0.0320000
        k(   14) = (   0.2000000   0.4000000   0.3103448), wk =   0.0640000
        k(   15) = (   0.2000000   0.4000000   0.6206897), wk =   0.0640000
        k(   16) = (   0.4000000   0.4000000   0.0000000), wk =   0.0160000
        k(   17) = (   0.4000000   0.4000000   0.3103448), wk =   0.0320000
        k(   18) = (   0.4000000   0.4000000   0.6206897), wk =   0.0320000
        k(   19) = (  -0.2000000   0.2000000   0.0000000), wk =   0.0160000
        k(   20) = (  -0.2000000   0.2000000  -0.3103448), wk =   0.0320000
        k(   21) = (  -0.2000000   0.2000000  -0.6206897), wk =   0.0320000
        k(   22) = (  -0.2000000   0.4000000   0.0000000), wk =   0.0320000
        k(   23) = (  -0.2000000   0.4000000  -0.3103448), wk =   0.0640000
        k(   24) = (  -0.2000000   0.4000000  -0.6206897), wk =   0.0640000
        k(   25) = (  -0.4000000   0.4000000   0.0000000), wk =   0.0160000
        k(   26) = (  -0.4000000   0.4000000  -0.3103448), wk =   0.0320000
        k(   27) = (  -0.4000000   0.4000000  -0.6206897), wk =   0.0320000
        k(   28) = (   0.0000000   0.0000000   0.0000000), wk =   0.0080000
        k(   29) = (   0.0000000   0.0000000   0.3103448), wk =   0.0160000
        k(   30) = (   0.0000000   0.0000000   0.6206897), wk =   0.0160000
        k(   31) = (   0.0000000   0.2000000   0.0000000), wk =   0.0320000
        k(   32) = (   0.0000000   0.2000000   0.3103448), wk =   0.0640000
        k(   33) = (   0.0000000   0.2000000   0.6206897), wk =   0.0640000
        k(   34) = (   0.0000000   0.4000000   0.0000000), wk =   0.0320000
        k(   35) = (   0.0000000   0.4000000   0.3103448), wk =   0.0640000
        k(   36) = (   0.0000000   0.4000000   0.6206897), wk =   0.0640000
        k(   37) = (   0.2000000   0.2000000   0.0000000), wk =   0.0160000
        k(   38) = (   0.2000000   0.2000000   0.3103448), wk =   0.0320000
        k(   39) = (   0.2000000   0.2000000   0.6206897), wk =   0.0320000
        k(   40) = (   0.2000000   0.4000000   0.0000000), wk =   0.0320000
        k(   41) = (   0.2000000   0.4000000   0.3103448), wk =   0.0640000
        k(   42) = (   0.2000000   0.4000000   0.6206897), wk =   0.0640000
        k(   43) = (   0.4000000   0.4000000   0.0000000), wk =   0.0160000
        k(   44) = (   0.4000000   0.4000000   0.3103448), wk =   0.0320000
        k(   45) = (   0.4000000   0.4000000   0.6206897), wk =   0.0320000
        k(   46) = (  -0.2000000   0.2000000   0.0000000), wk =   0.0160000
        k(   47) = (  -0.2000000   0.2000000  -0.3103448), wk =   0.0320000
        k(   48) = (  -0.2000000   0.2000000  -0.6206897), wk =   0.0320000
        k(   49) = (  -0.2000000   0.4000000   0.0000000), wk =   0.0320000
        k(   50) = (  -0.2000000   0.4000000  -0.3103448), wk =   0.0640000
        k(   51) = (  -0.2000000   0.4000000  -0.6206897), wk =   0.0640000
        k(   52) = (  -0.4000000   0.4000000   0.0000000), wk =   0.0160000
        k(   53) = (  -0.4000000   0.4000000  -0.3103448), wk =   0.0320000
        k(   54) = (  -0.4000000   0.4000000  -0.6206897), wk =   0.0320000

     Largest allocated arrays     est. size (Mb)     dimensions
     Largest temporary arrays     est. size (Mb)     dimensions

     Check: negative/imaginary core charge=   -0.000014    0.000000

     Initial potential from superposition of free atoms
     Check: negative starting charge=(component1):   -0.012452
     Check: negative starting charge=(component2):   -0.012452

     starting charge   45.99991, renormalised to   48.00000

     negative rho (up, down):  0.130E-01 0.130E-01
     Starting wfc are   36 randomized atomic wfcs

     Self-consistent Calculation

     iteration #  1     ecut=    40.00 Ry     beta=0.30
     Davidson diagonalization with overlap
     ethr =  1.00E-02,  avg # of iterations =  5.1

     negative rho (up, down):  0.137E-01 0.137E-01

     total energy              =    -366.24359998 Ry
     Harris-Foulkes estimate   =    -366.79002492 Ry
     estimated scf accuracy    <       1.21560996 Ry

     total magnetization       =    -0.00 Bohr mag/cell
     absolute magnetization    =     0.00 Bohr mag/cell

[...]

     End of self-consistent calculation

 ------ SPIN UP ------------

          k = 0.0000 0.0000 0.0000 (  1875 PWs)   bands (ev):

   -48.2212 -48.2067 -24.5161 -24.5160 -24.3691 -24.3690 -24.3299 -24.2979
    -9.3220  -8.1865  -7.5079  -7.5078   3.0973   3.5392   4.0115   5.0166
     5.0166   6.2530   6.2530   6.7891   8.0427   8.3115   8.3115   8.7551
    10.5813  10.8731  11.0865  11.1722  11.1724  12.9543  13.1615  15.1673
    15.1674  16.1021  16.4532  20.2498  20.2499  23.0806  24.1635  25.0640
    26.5760  27.8010  27.8010  28.0018  29.6597  31.3567  32.5168  32.5168
    33.4604  34.0720  34.0720  34.4258  34.5398  34.5399  35.1556  37.0303
    39.5318  39.8531  40.2530  40.6156  40.6156  41.8568  42.0724  42.0724
    44.2933  44.5592  44.5592  45.2479  47.6986

[...]

          k =-0.2000 0.2000 0.0000 (  1851 PWs)   bands (ev):

[...]

 ------ SPIN DOWN ----------

[...]

     the Fermi energy is    10.5492 ev

!    total energy              =    -366.49967079 Ry
     Harris-Foulkes estimate   =    -366.49966908 Ry
     estimated scf accuracy    <       0.00000005 Ry

     The total energy is the sum of the following terms:

     one-electron contribution =    -128.42112532 Ry
     hartree contribution      =      87.03006195 Ry
     xc contribution           =     -63.20962955 Ry
     ewald contribution        =    -261.89918271 Ry
     smearing contrib. (-TS)   =       0.00020484 Ry

[...]

     convergence has been achieved in  10 iterations

     Forces acting on atoms (Ry/au):

     negative rho (up, down):  0.123E-01 0.123E-01
     atom    1 type  1   force =     0.00000000    0.00000000    0.00000000
     atom    2 type  1   force =     0.00000000    0.00000000    0.00000000
     atom    3 type  2   force =     0.00035119    0.00035119    0.00000000
[...]
        k(    6) = (   0.0000005   0.1993549   0.6247129), wk =   0.0640000
        k(    7) = (   0.0000010   0.3987099   0.0000000), wk =   0.0320000
        k(    8) = (   0.0000010   0.3987099   0.3123565), wk =   0.0640000
        k(    9) = (   0.0000010   0.3987099   0.6247129), wk =   0.0640000
        k(   10) = (   0.1993555   0.1993555   0.0000000), wk =   0.0160000
        k(   11) = (   0.1993555   0.1993555   0.3123565), wk =   0.0320000
        k(   12) = (   0.1993555   0.1993555   0.6247129), wk =   0.0320000
        k(   13) = (   0.1993560   0.3987104   0.0000000), wk =   0.0320000
        k(   14) = (   0.1993560   0.3987104   0.3123565), wk =   0.0640000
        k(   15) = (   0.1993560   0.3987104   0.6247129), wk =   0.0640000
        k(   16) = (   0.3987109   0.3987109   0.0000000), wk =   0.0160000
        k(   17) = (   0.3987109   0.3987109   0.3123565), wk =   0.0320000
        k(   18) = (   0.3987109   0.3987109   0.6247129), wk =   0.0320000
        k(   19) = (  -0.1993544   0.1993544   0.0000000), wk =   0.0160000
        k(   20) = (  -0.1993544   0.1993544  -0.3123565), wk =   0.0320000
        k(   21) = (  -0.1993544   0.1993544  -0.6247129), wk =   0.0320000
        k(   22) = (  -0.1993539   0.3987094   0.0000000), wk =   0.0320000
        k(   23) = (  -0.1993539   0.3987094  -0.3123565), wk =   0.0640000
        k(   24) = (  -0.1993539   0.3987094  -0.6247129), wk =   0.0640000
        k(   25) = (  -0.3987088   0.3987088   0.0000000), wk =   0.0160000
        k(   26) = (  -0.3987088   0.3987088  -0.3123565), wk =   0.0320000
        k(   27) = (  -0.3987088   0.3987088  -0.6247129), wk =   0.0320000
        k(   28) = (   0.0000000   0.0000000   0.0000000), wk =   0.0080000
        k(   29) = (   0.0000000   0.0000000   0.3123565), wk =   0.0160000
        k(   30) = (   0.0000000   0.0000000   0.6247129), wk =   0.0160000
        k(   31) = (   0.0000005   0.1993549   0.0000000), wk =   0.0320000
        k(   32) = (   0.0000005   0.1993549   0.3123565), wk =   0.0640000
        k(   33) = (   0.0000005   0.1993549   0.6247129), wk =   0.0640000
        k(   34) = (   0.0000010   0.3987099   0.0000000), wk =   0.0320000
        k(   35) = (   0.0000010   0.3987099   0.3123565), wk =   0.0640000
        k(   36) = (   0.0000010   0.3987099   0.6247129), wk =   0.0640000
        k(   37) = (   0.1993555   0.1993555   0.0000000), wk =   0.0160000
        k(   38) = (   0.1993555   0.1993555   0.3123565), wk =   0.0320000
        k(   39) = (   0.1993555   0.1993555   0.6247129), wk =   0.0320000
        k(   40) = (   0.1993560   0.3987104   0.0000000), wk =   0.0320000
        k(   41) = (   0.1993560   0.3987104   0.3123565), wk =   0.0640000
        k(   42) = (   0.1993560   0.3987104   0.6247129), wk =   0.0640000
        k(   43) = (   0.3987109   0.3987109   0.0000000), wk =   0.0160000
        k(   44) = (   0.3987109   0.3987109   0.3123565), wk =   0.0320000
        k(   45) = (   0.3987109   0.3987109   0.6247129), wk =   0.0320000
        k(   46) = (  -0.1993544   0.1993544   0.0000000), wk =   0.0160000
        k(   47) = (  -0.1993544   0.1993544  -0.3123565), wk =   0.0320000
        k(   48) = (  -0.1993544   0.1993544  -0.6247129), wk =   0.0320000
        k(   49) = (  -0.1993539   0.3987094   0.0000000), wk =   0.0320000
        k(   50) = (  -0.1993539   0.3987094  -0.3123565), wk =   0.0640000
        k(   51) = (  -0.1993539   0.3987094  -0.6247129), wk =   0.0640000
        k(   52) = (  -0.3987088   0.3987088   0.0000000), wk =   0.0160000
        k(   53) = (  -0.3987088   0.3987088  -0.3123565), wk =   0.0320000
        k(   54) = (  -0.3987088   0.3987088  -0.6247129), wk =   0.0320000

     Check: negative/imaginary core charge=   -0.000014    0.000000
     Check: negative starting charge=(component1):   -0.024856

[...]

     Threshold (ethr) on eigenvalues was too large:
     Diagonalizing with lowered threshold

     Davidson diagonalization with overlap
     ethr =  1.59E-09,  avg # of iterations =  2.0

[...]

     Volume is kept fixed: isostatic pressure set to zero

     bfgs converged in   4 scf cycles and   3 bfgs steps
     (criteria: energy < 0.10E-03, force < 0.10E-02, cell < 0.50E+00)

     End of BFGS Geometry Optimization

     Final enthalpy =    -366.4999093614 Ry
Begin final coordinates
     new unit-cell volume =    433.02039 a.u.^3 (    64.16700 Ang^3 )

CELL_PARAMETERS (alat=  8.75872624)
   1.003235750  -0.000002594   0.000000000
  -0.000002594   1.003235750   0.000000000
   0.000000000   0.000000000   0.640294077

ATOMIC_POSITIONS (crystal)
Ti0      0.000000000   0.000000000   0.000000000    0   0   0
Ti0      0.500000000   0.500000000   0.500000000    0   0   0
O1       0.305129144   0.305129144   0.000000000    1   1   0
O1      -0.305129144  -0.305129144   0.000000000    1   1   0
O1       0.805127253   0.194872747   0.500000000    1   1   0
O1       0.194872747   0.805127253   0.500000000    1   1   0
End final coordinates

     A final scf calculation at the relaxed structure.
     The G-vectors are recalculated for the final unit cell
     Results may differ from those at the preceding step.

     bravais-lattice index     =            0
     lattice parameter (alat)  =       8.7587  a.u.
     unit-cell volume          =     433.0204 (a.u.)^3
     number of atoms/cell      =            6
     number of atomic types    =            2
     number of electrons       =        48.00
     number of Kohn-Sham states=           69
     kinetic-energy cutoff     =      40.0000  Ry
     charge density cutoff     =     500.0000  Ry
     convergence threshold     =      1.0E-08
     mixing beta               =       0.3000
     number of iterations used =            8  plain     mixing
     Exchange-correlation      = SLA  PW   PBE  PBE ( 1 4 3 4 0)
     EXX-fraction              =        0.00

     celldm(1)=   8.758726  celldm(2)=   0.000000  celldm(3)=   0.000000
     celldm(4)=   0.000000  celldm(5)=   0.000000  celldm(6)=   0.000000

     crystal axes: (cart. coord. in units of alat)
               a(1) = (   1.003236  -0.000003   0.000000 )
               a(2) = (  -0.000003   1.003236   0.000000 )
               a(3) = (   0.000000   0.000000   0.640294 )

     reciprocal axes: (cart. coord. in units 2 pi/alat)
               b(1) = (  0.996775  0.000003 -0.000000 )
               b(2) = (  0.000003  0.996775 -0.000000 )
               b(3) = ( -0.000000 -0.000000  1.561782 )

     PseudoPot. # 1 for Ti read from file:
     /home/camp/zhonxu/pseudo/ti_pbe_v1.uspp.F.UPF
     MD5 check sum: bcc8f6961b3b91f0cac3ca967d22d0fb
     Pseudo is Ultrasoft + core correction, Zval = 12.0
     Generated by new atomic code, or converted to UPF format
     Using radial grid of  851 points,  6 beta functions with:
                l(1) =   0
                l(2) =   0
                l(3) =   1
                l(4) =   1
                l(5) =   2
                l(6) =   2
     Q(r) pseudized with  6 coefficients,  rinner =    1.000   1.000   1.000
                                                       1.000   1.000

     PseudoPot. # 2 for O  read from file:
     /home/camp/zhonxu/pseudo/o_pbe_v1.01.uspp.F.UPF
     MD5 check sum: 2bcb18d16ea4b960afae9ec6d52f22d2
     Pseudo is Ultrasoft + core correction, Zval =  6.0
     Generated by new atomic code, or converted to UPF format
     Using radial grid of  737 points,  5 beta functions with:
                l(1) =   0
                l(2) =   0
                l(3) =   1
                l(4) =   1
                l(5) =   2
     Q(r) pseudized with  8 coefficients,  rinner =    0.900   0.900   0.900
                                                       0.900   0.900

     atomic species   valence    mass     pseudopotential
        Ti0           12.00    47.88000     Ti( 1.00)
        O1             6.00    15.99940     O ( 1.00)

     Starting magnetic structure
     atomic species   magnetization
        Ti0          0.000
        O1           0.000

      8 Sym. Ops., with inversion, found
          (note:  8 additional sym.ops. were found but ignored
           their fractional translations are incommensurate with FFT grid)

   Cartesian axes

     site n.     atom                  positions (alat units)
         1           Ti0 tau(   1) = (   0.0000000   0.0000000   0.0000000  )
         2           Ti0 tau(   2) = (   0.5016166   0.5016166   0.3201470  )
         3           O1  tau(   3) = (   0.3061157   0.3061157   0.0000000  )
         4           O1  tau(   4) = (  -0.3061157  -0.3061157   0.0000000  )
         5           O1  tau(   5) = (   0.8077319   0.1955012   0.3201470  )
         6           O1  tau(   6) = (   0.1955012   0.8077319   0.3201470  )

     number of k points=    54  Methfessel-Paxton smearing, width (Ry)=  0.0100
                       cart. coord. in units 2pi/alat
        k(    1) = (   0.0000000   0.0000000   0.0000000), wk =   0.0080000
        k(    2) = (   0.0000000   0.0000000   0.3123565), wk =   0.0160000
        k(    3) = (   0.0000000   0.0000000   0.6247129), wk =   0.0160000
        k(    4) = (   0.0000005   0.1993549   0.0000000), wk =   0.0320000
        k(    5) = (   0.0000005   0.1993549   0.3123565), wk =   0.0640000
        k(    6) = (   0.0000005   0.1993549   0.6247129), wk =   0.0640000
        k(    7) = (   0.0000010   0.3987099   0.0000000), wk =   0.0320000
        k(    8) = (   0.0000010   0.3987099   0.3123565), wk =   0.0640000
        k(    9) = (   0.0000010   0.3987099   0.6247129), wk =   0.0640000
        k(   10) = (   0.1993555   0.1993555   0.0000000), wk =   0.0160000
        k(   11) = (   0.1993555   0.1993555   0.3123565), wk =   0.0320000
        k(   12) = (   0.1993555   0.1993555   0.6247129), wk =   0.0320000
        k(   13) = (   0.1993560   0.3987104   0.0000000), wk =   0.0320000
        k(   14) = (   0.1993560   0.3987104   0.3123565), wk =   0.0640000
        k(   15) = (   0.1993560   0.3987104   0.6247129), wk =   0.0640000
        k(   16) = (   0.3987109   0.3987109   0.0000000), wk =   0.0160000
        k(   17) = (   0.3987109   0.3987109   0.3123565), wk =   0.0320000
        k(   18) = (   0.3987109   0.3987109   0.6247129), wk =   0.0320000
        k(   19) = (  -0.1993544   0.1993544   0.0000000), wk =   0.0160000
        k(   20) = (  -0.1993544   0.1993544  -0.3123565), wk =   0.0320000
        k(   21) = (  -0.1993544   0.1993544  -0.6247129), wk =   0.0320000
        k(   22) = (  -0.1993539   0.3987094   0.0000000), wk =   0.0320000
        k(   23) = (  -0.1993539   0.3987094  -0.3123565), wk =   0.0640000
        k(   24) = (  -0.1993539   0.3987094  -0.6247129), wk =   0.0640000
        k(   25) = (  -0.3987088   0.3987088   0.0000000), wk =   0.0160000
        k(   26) = (  -0.3987088   0.3987088  -0.3123565), wk =   0.0320000
        k(   27) = (  -0.3987088   0.3987088  -0.6247129), wk =   0.0320000
        k(   28) = (   0.0000000   0.0000000   0.0000000), wk =   0.0080000
        k(   29) = (   0.0000000   0.0000000   0.3123565), wk =   0.0160000
        k(   30) = (   0.0000000   0.0000000   0.6247129), wk =   0.0160000
        k(   31) = (   0.0000005   0.1993549   0.0000000), wk =   0.0320000
        k(   32) = (   0.0000005   0.1993549   0.3123565), wk =   0.0640000
        k(   33) = (   0.0000005   0.1993549   0.6247129), wk =   0.0640000
        k(   34) = (   0.0000010   0.3987099   0.0000000), wk =   0.0320000
        k(   35) = (   0.0000010   0.3987099   0.3123565), wk =   0.0640000
        k(   36) = (   0.0000010   0.3987099   0.6247129), wk =   0.0640000
        k(   37) = (   0.1993555   0.1993555   0.0000000), wk =   0.0160000
        k(   38) = (   0.1993555   0.1993555   0.3123565), wk =   0.0320000
        k(   39) = (   0.1993555   0.1993555   0.6247129), wk =   0.0320000
        k(   40) = (   0.1993560   0.3987104   0.0000000), wk =   0.0320000
        k(   41) = (   0.1993560   0.3987104   0.3123565), wk =   0.0640000
        k(   42) = (   0.1993560   0.3987104   0.6247129), wk =   0.0640000
        k(   43) = (   0.3987109   0.3987109   0.0000000), wk =   0.0160000
        k(   44) = (   0.3987109   0.3987109   0.3123565), wk =   0.0320000
        k(   45) = (   0.3987109   0.3987109   0.6247129), wk =   0.0320000
        k(   46) = (  -0.1993544   0.1993544   0.0000000), wk =   0.0160000
        k(   47) = (  -0.1993544   0.1993544  -0.3123565), wk =   0.0320000
        k(   48) = (  -0.1993544   0.1993544  -0.6247129), wk =   0.0320000
        k(   49) = (  -0.1993539   0.3987094   0.0000000), wk =   0.0320000
        k(   50) = (  -0.1993539   0.3987094  -0.3123565), wk =   0.0640000
        k(   51) = (  -0.1993539   0.3987094  -0.6247129), wk =   0.0640000
        k(   52) = (  -0.3987088   0.3987088   0.0000000), wk =   0.0160000
        k(   53) = (  -0.3987088   0.3987088  -0.3123565), wk =   0.0320000
        k(   54) = (  -0.3987088   0.3987088  -0.6247129), wk =   0.0320000

     Largest allocated arrays     est. size (Mb)     dimensions
     Largest temporary arrays     est. size (Mb)     dimensions

     Check: negative/imaginary core charge=   -0.000014    0.000000

     Initial potential from superposition of free atoms
     Check: negative starting charge=(component1):   -0.012803
     Check: negative starting charge=(component2):   -0.012803

     starting charge   45.99991, renormalised to   48.00000

     negative rho (up, down):  0.134E-01 0.134E-01
     Starting wfc are   36 randomized atomic wfcs

     Self-consistent Calculation

[...]

     total energy              =    -366.49989598 Ry
     Harris-Foulkes estimate   =    -366.49989555 Ry
     estimated scf accuracy    <       0.00000002 Ry

[...]

     iteration # 12     ecut=    40.00 Ry     beta=0.30
     Davidson diagonalization with overlap
     ethr =  3.55E-11,  avg # of iterations =  1.0

     negative rho (up, down):  0.127E-01 0.127E-01

     End of self-consistent calculation

 ------ SPIN UP ------------

[...]

 ------ SPIN DOWN ----------

[...]

          k = 0.3987 0.3987 0.6247 (  1857 PWs)   bands (ev):

[...]

          k =-0.3987 0.3987-0.6247 (  1857 PWs)   bands (ev):

   -48.1730 -48.1726 -24.6939 -24.6912 -24.4040 -24.3978 -24.3574 -24.3549
    -8.1537  -8.0399  -7.9105  -7.7926   4.0149   4.1877   4.3263   4.4608
     5.2035   5.4478   6.1895   6.2248   7.2391   7.3801   7.8184   7.9919
    11.0602  11.4346  11.7577  11.8144  11.8677  12.1451  13.9287  14.4740
    14.5903  15.1175  20.3220  20.6522  22.2714  22.9300  23.4675  23.9955
    25.5872  25.7295  26.7537  27.0806  27.9708  28.4895  31.4009  32.4130
    33.2478  33.3878  33.7874  34.6088  36.9159  37.0101  38.6871  39.4483
    40.7211  41.1147  41.7024  42.0923  42.3060  42.8010  42.8999  43.5508
    44.4233  45.1146  45.6688  46.4679  46.6229

     the Fermi energy is    10.5312 ev

!    total energy              =    -366.49989641 Ry
     Harris-Foulkes estimate   =    -366.49989599 Ry
     estimated scf accuracy    <          2.2E-10 Ry

     The total energy is the sum of the following terms:

     one-electron contribution =    -128.97172240 Ry
     hartree contribution      =      87.29733587 Ry
     xc contribution           =     -63.21680905 Ry
     ewald contribution        =    -261.60889360 Ry
     smearing contrib. (-TS)   =       0.00019278 Ry

     total magnetization       =    -0.00 Bohr mag/cell
     absolute magnetization    =     0.00 Bohr mag/cell

     convergence has been achieved in  12 iterations

     Forces acting on atoms (Ry/au):

     negative rho (up, down):  0.127E-01 0.127E-01
     atom    1 type  1   force =     0.00000000    0.00000000    0.00000000
     atom    2 type  1   force =     0.00000000    0.00000000    0.00000000
     atom    3 type  2   force =    -0.00001579   -0.00001579    0.00000000
     atom    4 type  2   force =     0.00001579    0.00001579    0.00000000
     atom    5 type  2   force =    -0.00000577    0.00000577    0.00000000
     atom    6 type  2   force =     0.00000577   -0.00000577    0.00000000

     Total force =     0.000034     Total SCF correction =     0.000034
     SCF correction compared to forces is large: reduce conv_thr to get better values

     entering subroutine stress ...

     negative rho (up, down):  0.127E-01 0.127E-01
          total   stress  (Ry/bohr**3)                   (kbar)     P=  -16.49
  -0.00011195   0.00000008   0.00000000        -16.47      0.01      0.00
   0.00000008  -0.00011195   0.00000000          0.01    -16.47      0.00
   0.00000000   0.00000000  -0.00011231          0.00      0.00    -16.52

     General routines

     Parallel routines

   This run was terminated on:  17:54:27  31Jan2014

   JOB DONE.