     Program PWSCF v.5.0.2 (svn rev. 9656) starts on  8May2014 at 23:17: 0

     Current dimensions of program PWSCF are:
     Max number of different atomic species (ntypx) = 10
     Max number of k-points (npk) =  40000
     Max angular momentum in pseudopotentials (lmaxx) =  3
     Reading input from pwscf.in
Warning: card &CELL ignored
Warning: card / ignored

     Subspace diagonalization in iterative solution of the eigenvalue problem:
     a serial algorithm will be used

     bravais-lattice index     =            0
     lattice parameter (alat)  =      11.7541  a.u.
     unit-cell volume          =    7139.8207 (a.u.)^3
     number of atoms/cell      =           30
     number of atomic types    =            3
     number of electrons       =       232.00
     number of Kohn-Sham states=          348
     kinetic-energy cutoff     =      40.0000  Ry
     charge density cutoff     =     500.0000  Ry
     convergence threshold     =      1.0E-06
     mixing beta               =       0.7000
     number of iterations used =            8  plain     mixing
     Exchange-correlation      = SLA  PW   PBE  PBE ( 1 4 3 4 0)
     EXX-fraction              =        0.00
     nstep                     =           50

     celldm(1)=  11.754097  celldm(2)=   0.000000  celldm(3)=   0.000000
     celldm(4)=   0.000000  celldm(5)=   0.000000  celldm(6)=   0.000000

     crystal axes: (cart. coord. in units of alat)
               a(1) = (   1.000000   0.000000   0.000000 )
               a(2) = (   0.000000   1.034513   0.000000 )
               a(3) = (   0.000000   0.000000   4.249947 )

     reciprocal axes: (cart. coord. in units 2 pi/alat)
               b(1) = (  1.000000  0.000000  0.000000 )
               b(2) = (  0.000000  0.966638  0.000000 )
               b(3) = (  0.000000  0.000000  0.235297 )

     PseudoPot. # 1 for O  read from file:
     /home/camp/zhonxu/pseudo/o_pbe_v1.01.uspp.F.UPF
     MD5 check sum: 2bcb18d16ea4b960afae9ec6d52f22d2
     Pseudo is Ultrasoft + core correction, Zval =  6.0
     Generated by new atomic code, or converted to UPF format
     Using radial grid of  737 points,  5 beta functions with:
                l(1) =   0
                l(2) =   0
                l(3) =   1
                l(4) =   1
                l(5) =   2
     Q(r) pseudized with  8 coefficients,  rinner =    0.900   0.900   0.900
                                                       0.900   0.900

     PseudoPot. # 2 for Rh read from file:
     /home/camp/zhonxu/pseudo/rh_pbe_v1.uspp.F.UPF
     MD5 check sum: 37b626987ad0dd8ec6bf4cc9ef289918
     Pseudo is Ultrasoft + core correction, Zval = 15.0
     Generated by new atomic code, or converted to UPF format
     Using radial grid of  969 points,  7 beta functions with:
                l(1) =   0
                l(2) =   0
                l(3) =   1
                l(4) =   1
                l(5) =   2
                l(6) =   2
                l(7) =   2
     Q(r) pseudized with  6 coefficients,  rinner =    1.050   1.050   1.050
                                                       1.050   1.050

     PseudoPot. # 3 for H  read from file:
     /home/camp/zhonxu/pseudo/h_pbe_v1.uspp.F.UPF
     MD5 check sum: 3408e3ff4ec8b0a4e358431e7e038a48
     Pseudo is Ultrasoft, Zval =  1.0
     Generated by new atomic code, or converted to UPF format
     Using radial grid of  615 points,  2 beta functions with:
                l(1) =   0
                l(2) =   0
     Q(r) pseudized with  8 coefficients,  rinner =    0.700

     atomic species   valence    mass     pseudopotential
        O0             6.00    15.99940     O ( 1.00)
        Rh1           15.00   102.90550     Rh( 1.00)
        H2             1.00     1.00794     H ( 1.00)

     Simplified LDA+U calculation (l_max = 2) with parameters (eV):
     atomic species    L          U    alpha       J0     beta
        Rh1            2     2.5000   0.0000   0.0000   0.0000

     No symmetry found

   Cartesian axes

     site n.     atom                  positions (alat units)
         1           O0  tau(   1) = (   0.0000000   0.0000000   1.6092425  )
         2           O0  tau(   2) = (   0.0000000   0.5172566   1.7020614  )
         3           Rh1 tau(   3) = (   0.2500000   0.5172566   1.9209336  )
         4           Rh1 tau(   4) = (   0.0000000   0.0000000   1.9260761  )
         5           O0  tau(   5) = (   0.2500000   0.8379556   1.9243336  )
         6           O0  tau(   6) = (   0.2500000   0.1965575   1.9234411  )
         7           O0  tau(   7) = (   0.0000000   0.5172566   2.1185137  )
         8           O0  tau(   8) = (   0.0000000   0.0000000   2.2473721  )
         9           Rh1 tau(   9) = (   0.2500000   0.0000000   2.4498821  )
        10           Rh1 tau(  10) = (   0.0000000   0.5172566   2.4276124  )
        11           O0  tau(  11) = (   0.2500000   0.7138141   2.4560020  )
        12           O0  tau(  12) = (   0.2500000   0.3206991   2.4560870  )
        13           O0  tau(  13) = (   0.0000000   0.0000000   2.6421072  )
        14           O0  tau(  14) = (   0.5000000   0.0000000   1.6092425  )
        15           O0  tau(  15) = (   0.5000000   0.5172566   1.7020614  )
        16           Rh1 tau(  16) = (   0.7500000   0.5172566   1.9209336  )
        17           Rh1 tau(  17) = (   0.5000000   0.0000000   1.9260761  )
        18           O0  tau(  18) = (   0.7500000   0.8379556   1.9243336  )
        19           O0  tau(  19) = (   0.7500000   0.1965575   1.9234411  )
        20           O0  tau(  20) = (   0.5000000   0.5172566   2.1185137  )
        21           O0  tau(  21) = (   0.5000000   0.0000000   2.2473721  )
        22           Rh1 tau(  22) = (   0.7500000   0.0000000   2.4498821  )
        23           Rh1 tau(  23) = (   0.5000000   0.5172566   2.4276124  )
        24           O0  tau(  24) = (   0.7500000   0.7138141   2.4560020  )
        25           O0  tau(  25) = (   0.7500000   0.3206991   2.4560870  )
        26           O0  tau(  26) = (   0.5000000   0.0000000   2.6421072  )
        27           H2  tau(  27) = (  -0.0000700   0.6610229   1.6318947  )
        28           H2  tau(  28) = (   0.4999300   0.6610125   1.6318947  )
        29           H2  tau(  29) = (   0.1484400   0.0336527   1.5632581  )
        30           H2  tau(  30) = (   0.6484400   0.0336527   1.5632581  )

     number of k points=    10  Methfessel-Paxton smearing, width (Ry)=  0.0100
                       cart. coord. in units 2pi/alat
        k(    1) = (   0.0000000   0.0000000   0.0000000), wk =   0.1250000
        k(    2) = (   0.0000000   0.2416596   0.0000000), wk =   0.2500000
        k(    3) = (   0.0000000  -0.4833191   0.0000000), wk =   0.1250000
        k(    4) = (   0.2500000   0.0000000   0.0000000), wk =   0.2500000
        k(    5) = (   0.2500000   0.2416596   0.0000000), wk =   0.2500000
        k(    6) = (   0.2500000  -0.4833191   0.0000000), wk =   0.2500000
        k(    7) = (  -0.5000000   0.0000000   0.0000000), wk =   0.1250000
        k(    8) = (  -0.5000000   0.2416596   0.0000000), wk =   0.2500000
        k(    9) = (  -0.5000000  -0.4833191   0.0000000), wk =   0.1250000
        k(   10) = (  -0.2500000   0.2416596   0.0000000), wk =   0.2500000

     Largest allocated arrays     est. size (Mb)     dimensions
     Largest temporary arrays     est. size (Mb)     dimensions

     Check: negative/imaginary core charge=   -0.000002    0.000000

     Initial potential from superposition of free atoms
     Check: negative starting charge=   -0.642992

     starting charge  227.99915, renormalised to  232.00000

     negative rho (up, down):  0.654E+00 0.000E+00
     Number of +U iterations with fixed ns =  0
     Starting occupations:
 --- enter write_ns ---
 LDA+U parameters:
U( 2)     =  2.50000000
alpha( 2) =  0.00000000
atom    3   Tr[ns(na)] =   7.00000
    eigenvalues:
  0.700  0.700  0.700  0.700  0.700
    eigenvectors:
  1.000  0.000  0.000  0.000  0.000
  0.000  1.000  0.000  0.000  0.000
  0.000  0.000  1.000  0.000  0.000
  0.000  0.000  0.000  1.000  0.000
  0.000  0.000  0.000  0.000  1.000
    occupations:
  0.700  0.000  0.000  0.000  0.000
  0.000  0.700  0.000  0.000  0.000
  0.000  0.000  0.700  0.000  0.000
  0.000  0.000  0.000  0.700  0.000
  0.000  0.000  0.000  0.000  0.700
atom    4   Tr[ns(na)] =   7.00000
    eigenvalues:
  0.700  0.700  0.700  0.700  0.700
    eigenvectors:
  1.000  0.000  0.000  0.000  0.000
  0.000  1.000  0.000  0.000  0.000
  0.000  0.000  1.000  0.000  0.000
  0.000  0.000  0.000  1.000  0.000
  0.000  0.000  0.000  0.000  1.000
    occupations:
  0.700  0.000  0.000  0.000  0.000
  0.000  0.700  0.000  0.000  0.000
  0.000  0.000  0.700  0.000  0.000
  0.000  0.000  0.000  0.700  0.000
  0.000  0.000  0.000  0.000  0.700
atom    9   Tr[ns(na)] =   7.00000
    eigenvalues:
  0.700  0.700  0.700  0.700  0.700
    eigenvectors:
  1.000  0.000  0.000  0.000  0.000
  0.000  1.000  0.000  0.000  0.000
  0.000  0.000  1.000  0.000  0.000
  0.000  0.000  0.000  1.000  0.000
  0.000  0.000  0.000  0.000  1.000
    occupations:
  0.700  0.000  0.000  0.000  0.000
  0.000  0.700  0.000  0.000  0.000
  0.000  0.000  0.700  0.000  0.000
  0.000  0.000  0.000  0.700  0.000
  0.000  0.000  0.000  0.000  0.700
atom   10   Tr[ns(na)] =   7.00000
    eigenvalues:
  0.700  0.700  0.700  0.700  0.700
    eigenvectors:
  1.000  0.000  0.000  0.000  0.000
  0.000  1.000  0.000  0.000  0.000
  0.000  0.000  1.000  0.000  0.000
  0.000  0.000  0.000  1.000  0.000
  0.000  0.000  0.000  0.000  1.000
    occupations:
  0.700  0.000  0.000  0.000  0.000
  0.000  0.700  0.000  0.000  0.000
  0.000  0.000  0.700  0.000  0.000
  0.000  0.000  0.000  0.700  0.000
  0.000  0.000  0.000  0.000  0.700
atom   16   Tr[ns(na)] =   7.00000
    eigenvalues:
  0.700  0.700  0.700  0.700  0.700
    eigenvectors:
  1.000  0.000  0.000  0.000  0.000
  0.000  1.000  0.000  0.000  0.000
  0.000  0.000  1.000  0.000  0.000
  0.000  0.000  0.000  1.000  0.000
  0.000  0.000  0.000  0.000  1.000
    occupations:
  0.700  0.000  0.000  0.000  0.000
  0.000  0.700  0.000  0.000  0.000
  0.000  0.000  0.700  0.000  0.000
  0.000  0.000  0.000  0.700  0.000
  0.000  0.000  0.000  0.000  0.700
atom   17   Tr[ns(na)] =   7.00000
    eigenvalues:
  0.700  0.700  0.700  0.700  0.700
    eigenvectors:
  1.000  0.000  0.000  0.000  0.000
  0.000  1.000  0.000  0.000  0.000
  0.000  0.000  1.000  0.000  0.000
  0.000  0.000  0.000  1.000  0.000
  0.000  0.000  0.000  0.000  1.000
    occupations:
  0.700  0.000  0.000  0.000  0.000
  0.000  0.700  0.000  0.000  0.000
  0.000  0.000  0.700  0.000  0.000
  0.000  0.000  0.000  0.700  0.000
  0.000  0.000  0.000  0.000  0.700
atom   22   Tr[ns(na)] =   7.00000
    eigenvalues:
  0.700  0.700  0.700  0.700  0.700
    eigenvectors:
  1.000  0.000  0.000  0.000  0.000
  0.000  1.000  0.000  0.000  0.000
  0.000  0.000  1.000  0.000  0.000
  0.000  0.000  0.000  1.000  0.000
  0.000  0.000  0.000  0.000  1.000
    occupations:
  0.700  0.000  0.000  0.000  0.000
  0.000  0.700  0.000  0.000  0.000
  0.000  0.000  0.700  0.000  0.000
[...]
 -0.000 -0.007  0.001 -0.000  0.958
atom    4   Tr[ns(na)] =   8.01215
    eigenvalues:
  0.602  0.650  0.864  0.915  0.975
    eigenvectors:
  0.001  0.992  0.000  0.000  0.007
  0.000  0.000  0.052  0.948  0.000
  0.000  0.000  0.948  0.052  0.000
  0.000  0.007  0.000  0.000  0.993
  0.999  0.001  0.000  0.000  0.000
    occupations:
  0.653 -0.004 -0.001  0.028  0.001
 -0.004  0.912  0.011  0.001 -0.001
 -0.001  0.011  0.866 -0.001  0.001
  0.028  0.001 -0.001  0.973  0.000
  0.001 -0.001  0.001  0.000  0.602
atom    9   Tr[ns(na)] =   8.00601
    eigenvalues:
  0.636  0.648  0.857  0.885  0.978
    eigenvectors:
  0.000  0.155  0.000  0.000  0.845
  0.999  0.001  0.000  0.000  0.000
  0.000  0.000  1.000  0.000  0.000
  0.001  0.844  0.000  0.000  0.155
  0.000  0.000  0.000  1.000  0.000
    occupations:
  0.926  0.000 -0.000 -0.119 -0.001
  0.000  0.636  0.000  0.000 -0.000
 -0.000  0.000  0.857 -0.000 -0.000
 -0.119  0.000 -0.000  0.699  0.001
 -0.001 -0.000 -0.000  0.001  0.885
atom   10   Tr[ns(na)] =   8.00859
    eigenvalues:
  0.595  0.599  0.918  0.920  0.973
    eigenvectors:
  0.000  0.995  0.000  0.000  0.005
  0.000  0.000  0.005  0.995  0.000
  0.000  0.000  0.994  0.005  0.000
  0.000  0.005  0.000  0.000  0.995
  1.000  0.000  0.000  0.000  0.000
    occupations:
  0.601  0.000  0.002  0.026 -0.000
  0.000  0.920 -0.000  0.000 -0.001
  0.002 -0.000  0.918  0.000  0.000
  0.026  0.000  0.000  0.971  0.000
 -0.000 -0.001  0.000  0.000  0.595
atom   16   Tr[ns(na)] =   8.02662
    eigenvalues:
  0.584  0.602  0.900  0.959  0.968
    eigenvectors:
  0.000  0.209  0.003  0.000  0.788
  1.000  0.000  0.000  0.000  0.000
  0.000  0.000  0.997  0.000  0.003
  0.000  0.791  0.000  0.000  0.209
  0.000  0.000  0.000  0.999  0.000
    occupations:
  0.891 -0.000  0.002 -0.148 -0.000
 -0.000  0.585 -0.000 -0.000 -0.007
  0.002 -0.000  0.900 -0.005  0.001
 -0.148 -0.000 -0.005  0.679 -0.000
 -0.000 -0.007  0.001 -0.000  0.958
atom   17   Tr[ns(na)] =   8.01213
    eigenvalues:
  0.602  0.650  0.864  0.915  0.975
    eigenvectors:
  0.001  0.992  0.000  0.000  0.007
  0.000  0.000  0.052  0.948  0.000
  0.000  0.000  0.948  0.052  0.000
  0.000  0.007  0.000  0.000  0.993
  0.999  0.001  0.000  0.000  0.000
    occupations:
  0.653 -0.004 -0.001  0.028  0.001
 -0.004  0.912  0.011  0.001 -0.001
 -0.001  0.011  0.866 -0.001  0.001
  0.028  0.001 -0.001  0.973  0.000
  0.001 -0.001  0.001  0.000  0.602
atom   22   Tr[ns(na)] =   8.00601
    eigenvalues:
  0.636  0.648  0.857  0.885  0.978
    eigenvectors:
  0.000  0.155  0.000  0.000  0.845
  0.999  0.001  0.000  0.000  0.000
  0.000  0.000  1.000  0.000  0.000
  0.001  0.844  0.000  0.000  0.155
  0.000  0.000  0.000  1.000  0.000
    occupations:
  0.926  0.000 -0.000 -0.119 -0.001
  0.000  0.636  0.000  0.000 -0.000
 -0.000  0.000  0.857 -0.000 -0.000
 -0.119  0.000 -0.000  0.699  0.001
 -0.001 -0.000 -0.000  0.001  0.885
atom   23   Tr[ns(na)] =   8.00852
    eigenvalues:
  0.595  0.599  0.918  0.920  0.973
    eigenvectors:
  0.000  0.995  0.000  0.000  0.005
  0.000  0.000  0.005  0.995  0.000
  0.000  0.000  0.995  0.005  0.000
  0.000  0.005  0.000  0.000  0.995
  1.000  0.000  0.000  0.000  0.000
    occupations:
  0.601  0.000  0.002  0.026 -0.000
  0.000  0.920 -0.000  0.000 -0.001
  0.002 -0.000  0.918  0.000  0.000
  0.026  0.000  0.000  0.971  0.000
 -0.000 -0.001  0.000  0.000  0.595
N of occupied +U levels =  64.1066679
 --- exit write_ns ---

     Threshold (ethr) on eigenvalues was too large:
     Diagonalizing with lowered threshold

     Davidson diagonalization with overlap
     ethr =  4.15E-08,  avg # of iterations =  1.9

[...]

     total energy              =   -1947.23827674 Ry
     Harris-Foulkes estimate   =   -1947.23827674 Ry
     estimated scf accuracy    <       0.00000003 Ry

     iteration # 15     ecut=    40.00 Ry     beta=0.70
     Davidson diagonalization with overlap
     ethr =  1.09E-11,  avg # of iterations =  1.0

     negative rho (up, down):  0.688E+00 0.000E+00

     End of self-consistent calculation
 --- enter write_ns ---
 LDA+U parameters:
U( 2)     =  2.50000000
alpha( 2) =  0.00000000
atom    3   Tr[ns(na)] =   8.02556
    eigenvalues:
  0.584  0.602  0.900  0.959  0.968
    eigenvectors:
  0.000  0.209  0.003  0.000  0.788
  1.000  0.000  0.000  0.000  0.000
  0.000  0.000  0.997  0.000  0.003
  0.000  0.791  0.000  0.000  0.209
  0.000  0.000  0.000  0.999  0.000
    occupations:
  0.891 -0.000  0.002 -0.148 -0.000
 -0.000  0.585 -0.000 -0.000 -0.007
  0.002 -0.000  0.900 -0.005  0.001
 -0.148 -0.000 -0.005  0.679 -0.000
 -0.000 -0.007  0.001 -0.000  0.958
atom    4   Tr[ns(na)] =   8.01066
    eigenvalues:
  0.602  0.650  0.863  0.915  0.975
    eigenvectors:
  0.001  0.992  0.000  0.000  0.007
  0.000  0.000  0.052  0.948  0.000
  0.000  0.000  0.948  0.052  0.000
  0.000  0.007  0.000  0.000  0.993
  0.999  0.001  0.000  0.000  0.000
    occupations:
  0.653 -0.004 -0.001  0.028  0.001
 -0.004  0.912  0.011  0.001 -0.001
 -0.001  0.011  0.866 -0.001  0.001
  0.028  0.001 -0.001  0.973  0.000
  0.001 -0.001  0.001  0.000  0.602
atom    9   Tr[ns(na)] =   8.00674
    eigenvalues:
  0.636  0.648  0.857  0.885  0.978
    eigenvectors:
  0.000  0.155  0.000  0.000  0.845
  0.999  0.001  0.000  0.000  0.000
  0.000  0.000  1.000  0.000  0.000
  0.001  0.844  0.000  0.000  0.155
  0.000  0.000  0.000  1.000  0.000
    occupations:
  0.926  0.000 -0.000 -0.119 -0.001
  0.000  0.636  0.000  0.000 -0.000
 -0.000  0.000  0.857 -0.000 -0.000
 -0.119  0.000 -0.000  0.699  0.001
 -0.001 -0.000 -0.000  0.001  0.885
atom   10   Tr[ns(na)] =   8.01053
    eigenvalues:
  0.595  0.599  0.918  0.920  0.973
    eigenvectors:
  0.000  0.995  0.000  0.000  0.005
  0.000  0.000  0.005  0.995  0.000
  0.000  0.000  0.994  0.005  0.000
  0.000  0.005  0.000  0.000  0.995
  1.000  0.000  0.000  0.000  0.000
    occupations:
  0.601  0.000  0.002  0.026 -0.000
  0.000  0.920 -0.000  0.000 -0.001
  0.002 -0.000  0.918  0.000  0.000
  0.026  0.000  0.000  0.971  0.000
 -0.000 -0.001  0.000  0.000  0.595
atom   16   Tr[ns(na)] =   8.02556
    eigenvalues:
  0.584  0.602  0.900  0.959  0.968
    eigenvectors:
  0.000  0.209  0.003  0.000  0.788
  1.000  0.000  0.000  0.000  0.000
  0.000  0.000  0.997  0.000  0.003
  0.000  0.791  0.000  0.000  0.209
  0.000  0.000  0.000  0.999  0.000
    occupations:
  0.891 -0.000  0.002 -0.148 -0.000
 -0.000  0.585 -0.000 -0.000 -0.007
  0.002 -0.000  0.900 -0.005  0.001
 -0.148 -0.000 -0.005  0.679 -0.000
 -0.000 -0.007  0.001 -0.000  0.958
atom   17   Tr[ns(na)] =   8.01065
    eigenvalues:
  0.602  0.650  0.863  0.915  0.975
    eigenvectors:
  0.001  0.992  0.000  0.000  0.007
  0.000  0.000  0.052  0.948  0.000
  0.000  0.000  0.948  0.052  0.000
  0.000  0.007  0.000  0.000  0.993
  0.999  0.001  0.000  0.000  0.000
    occupations:
  0.653 -0.004 -0.001  0.028  0.001
 -0.004  0.912  0.011  0.001 -0.001
 -0.001  0.011  0.866 -0.001  0.001
  0.028  0.001 -0.001  0.973  0.000
  0.001 -0.001  0.001  0.000  0.602
atom   22   Tr[ns(na)] =   8.00674
    eigenvalues:
  0.636  0.648  0.857  0.885  0.978
    eigenvectors:
  0.000  0.155  0.000  0.000  0.845
  0.999  0.001  0.000  0.000  0.000
  0.000  0.000  1.000  0.000  0.000
  0.001  0.844  0.000  0.000  0.155
  0.000  0.000  0.000  1.000  0.000
    occupations:
  0.926  0.000 -0.000 -0.119 -0.001
  0.000  0.636  0.000  0.000 -0.000
 -0.000  0.000  0.857 -0.000 -0.000
 -0.119  0.000 -0.000  0.699  0.001
 -0.001 -0.000 -0.000  0.001  0.885
atom   23   Tr[ns(na)] =   8.01055
    eigenvalues:
  0.595  0.599  0.918  0.920  0.973
    eigenvectors:
  0.000  0.995  0.000  0.000  0.005
  0.000  0.000  0.005  0.995  0.000
  0.000  0.000  0.994  0.005  0.000
  0.000  0.005  0.000  0.000  0.995
  1.000  0.000  0.000  0.000  0.000
    occupations:
  0.601  0.000  0.002  0.026 -0.000
  0.000  0.920 -0.000  0.000 -0.001
  0.002 -0.000  0.918  0.000  0.000
  0.026  0.000  0.000  0.971  0.000
 -0.000 -0.001  0.000  0.000  0.595
N of occupied +U levels =  64.1069904
 --- exit write_ns ---

[...]

          k = 0.2500-0.4833 0.0000 ( 30510 PWs)   bands (ev):

[...]

          k =-0.2500 0.2417 0.0000 ( 30481 PWs)   bands (ev):

   -49.0810 -49.0401 -49.0307 -49.0304 -49.0257 -48.9994 -48.9082 -48.9080
   -48.9042 -48.9005 -48.9005 -48.8948 -48.8273 -48.8208 -48.7293 -48.7239
   -48.7205 -48.6630 -48.6517 -48.6430 -48.6236 -48.6108 -48.5996 -48.5869
   -21.4128 -21.1316 -20.9283 -20.8238 -20.5628 -20.4632 -20.3726 -20.3639
   -20.2380 -20.1848 -20.0799 -20.0453 -20.0109 -19.8785 -19.8168 -19.7720
   -18.9785 -18.8673  -9.7434  -9.5618  -9.5313  -9.2920  -8.9445  -8.8518
    -8.7368  -8.6703  -8.6685  -8.5511  -8.5197  -8.4276  -8.4210  -8.2580
    -8.1373  -8.1008  -7.9164  -7.8509  -7.5397  -7.4130  -7.3470  -7.2497
    -7.0866  -6.8779  -6.8643  -6.7057  -6.6865  -6.4358  -6.3908  -6.2793
    -6.2645  -6.1797  -6.1031  -6.0055  -5.9430  -5.8944  -5.8283  -5.7494
    -5.5794  -5.4607  -5.3658  -5.2645  -5.0966  -4.9342  -4.8904  -4.8233
    -4.6803  -4.5814  -4.4691  -4.3864  -4.0769  -4.0437  -3.9574  -3.7828
    -3.7649  -3.6276  -3.6044  -3.5660  -3.4310  -3.4239  -3.2771  -3.2539
    -3.2086  -3.0927  -3.0113  -2.9678  -2.8601  -2.8185  -2.5717  -2.3746
    -2.1181  -2.0318  -1.9912  -1.9023  -1.8779  -1.6747  -1.5060  -1.4507
    -1.0053  -0.7347  -0.3211  -0.1639   0.3743   0.5066   0.5762   0.8717
     1.0818   1.3455   1.5041   1.5797   1.7467   1.7882   1.8980   2.1141
     3.6245   3.9659   4.5005   4.8962   5.2764   5.4416   5.5065   5.7530
     5.9557   6.2178   6.3425   6.3969   6.4078   6.6603   6.8007   6.9545
     7.1975   7.3490   7.4393   7.6198   7.6991   7.8597   8.0258   8.0386
     8.0924   8.2375   8.3871   8.3975   8.6278   8.7591   8.8189   8.8847
     8.9036   9.1801   9.3320   9.4283   9.5382   9.6370   9.6761   9.7238
     9.8554   9.9088  10.1246  10.1587  10.2572  10.2868  10.3514  10.5058
    10.5829  10.6445  10.7757  10.8325  10.8719  10.9976  11.0229  11.1892
    11.3177  11.3230  11.4288  11.4589  11.5036  11.5859  11.6930  11.7255
    11.8136  12.0011  12.1069  12.1478  12.1551  12.2135  12.2516  12.3695
    12.4294  12.5088  12.5833  12.6065  12.7051  12.7821  12.8877  12.9977
    13.0483  13.1082  13.2238  13.2364  13.3377  13.3669  13.4371  13.5403
    13.6513  13.6996  13.7952  13.8500  13.8552  14.0613  14.0904  14.1293
    14.1708  14.2700  14.3706  14.4712  14.5630  14.5706  14.6583  14.7200
    14.7926  15.0477  15.2269  15.2975  15.3640  15.4198  15.4734  15.4879
    15.5323  15.6177  15.6858  15.6989  15.7877  15.7929  15.9581  15.9943
    16.0597  16.0708  16.1847  16.2885  16.3283  16.3627  16.4004  16.4895
    16.5383  16.5645  16.6089  16.6309  16.7311  16.8186  16.9807  16.9864
    17.1323  17.2061  17.2217  17.3260  17.3271  17.4163  17.4911  17.5296
    17.5709  17.6262  17.7422  17.7657  17.8724  17.8865  18.0509  18.0650
    18.0988  18.1493  18.2454  18.3488  18.4150  18.4874  18.4999  18.6558
    18.7243  18.8627  18.8644  18.9178  18.9781  19.0290  19.0685  19.1418
    19.2067  19.2225  19.3024  19.4635  19.4674  19.5550  19.6710  19.7225
    19.7477  19.9091  19.9111  20.0327  20.1353  20.2243  20.3061  20.3372
    20.4570  20.5430  20.6120  20.6600  20.6667  20.7500  20.8373  20.8988
    20.9380  21.0263  21.1114  21.1200  21.1722  21.2462  21.3211  21.3635
    21.4024  21.4392  21.5621  21.6376  21.6647  21.7187  21.7935  21.8472
    21.8537  21.9172  22.0057  22.1075

     the Fermi energy is    -1.8876 ev

!    total energy              =   -1947.23827674 Ry
     Harris-Foulkes estimate   =   -1947.23827674 Ry
     estimated scf accuracy    <          2.8E-09 Ry

     The total energy is the sum of the following terms:

     one-electron contribution =  -22618.75987206 Ry
     hartree contribution      =   11355.78866299 Ry
     xc contribution           =    -365.14133333 Ry
     ewald contribution        =    9679.88596811 Ry
     Hubbard energy            =       0.98962859 Ry
     smearing contrib. (-TS)   =      -0.00133104 Ry

     convergence has been achieved in  15 iterations

     Forces acting on atoms (Ry/au):

     negative rho (up, down):  0.688E+00 0.000E+00
     atom    1 type  1   force =    -0.00676549   -0.01312672    0.00014588
     atom    2 type  1   force =     0.00009987    0.00471165   -0.00045193
     atom    3 type  2   force =    -0.00012209    0.00474414   -0.00038599
     atom    4 type  2   force =     0.00829599    0.00877534   -0.00009059
     atom    5 type  1   force =    -0.00177073   -0.02963595    0.00002201
     atom    6 type  1   force =     0.00289391    0.02661267    0.00002124
     atom    7 type  1   force =    -0.00029511   -0.00081470    0.00049810
     atom    8 type  1   force =    -0.00291484   -0.00062802   -0.00015616
     atom    9 type  2   force =     0.00123133   -0.00017764   -0.00038236
     atom   10 type  2   force =     0.00002218   -0.00181617    0.00026578
     atom   11 type  1   force =    -0.00015959    0.00867866    0.00012976
     atom   12 type  1   force =     0.00030910   -0.00805772    0.00014928
     atom   13 type  1   force =    -0.00072538   -0.00003036   -0.00026752
     atom   14 type  1   force =    -0.00676049   -0.01312551    0.00015126
     atom   15 type  1   force =     0.00009864    0.00470790   -0.00045136
     atom   16 type  2   force =    -0.00011888    0.00474428   -0.00038544
     atom   17 type  2   force =     0.00829436    0.00877520   -0.00009227
     atom   18 type  1   force =    -0.00177244   -0.02963560    0.00002235
     atom   19 type  1   force =     0.00289217    0.02661223    0.00002134
     atom   20 type  1   force =    -0.00029610   -0.00081479    0.00050070
     atom   21 type  1   force =    -0.00291374   -0.00062799   -0.00016636
     atom   22 type  2   force =     0.00123265   -0.00017772   -0.00038313
     atom   23 type  2   force =     0.00002240   -0.00181645    0.00026628
     atom   24 type  1   force =    -0.00015492    0.00867916    0.00012987
     atom   25 type  1   force =     0.00031370   -0.00805817    0.00014943
     atom   26 type  1   force =    -0.00072454   -0.00003036   -0.00026434
     atom   27 type  3   force =     0.00001330    0.00047079    0.00055356
     atom   28 type  3   force =     0.00001331    0.00047397    0.00055278
     atom   29 type  3   force =    -0.00011811    0.00029421   -0.00005097
     atom   30 type  3   force =    -0.00012044    0.00029365   -0.00005123

     Total force =     0.001800     Total SCF correction =     0.000155

     bfgs converged in   9 scf cycles and   8 bfgs steps
     (criteria: energy < 0.10E-03, force < 0.10E-02)

     End of BFGS Geometry Optimization

     Final energy   =   -1947.2382767381 Ry
Begin final coordinates

ATOMIC_POSITIONS (crystal)
O0       0.000000000   0.000000000   0.378763132    0   0   1
O0       0.000000000   0.500000000   0.401182009    0   0   1
Rh1      0.250000000   0.500000000   0.452406701    0   0   1
Rh1      0.000000000   0.000000000   0.453145774    0   0   1
O0       0.250000000   0.810000000   0.452838381    0   0   1
O0       0.250000000   0.190000000   0.452637120    0   0   1
O0       0.000000000   0.500000000   0.499076243    0   0   1
O0       0.000000000   0.000000000   0.528633481    0   0   1
Rh1      0.250000000   0.000000000   0.576058430    0   0   1
Rh1      0.000000000   0.500000000   0.571301737    0   0   1
O0       0.250000000   0.690000000   0.576969531    0   0   1
O0       0.250000000   0.310000000   0.576981776    0   0   1
O0       0.000000000   0.000000000   0.621428781    0   0   1
O0       0.500000000   0.000000000   0.378762996    0   0   1
O0       0.500000000   0.500000000   0.401182001    0   0   1
Rh1      0.750000000   0.500000000   0.452406677    0   0   1
Rh1      0.500000000   0.000000000   0.453145833    0   0   1
O0       0.750000000   0.810000000   0.452838350    0   0   1
O0       0.750000000   0.190000000   0.452637100    0   0   1
O0       0.500000000   0.500000000   0.499076015    0   0   1
O0       0.500000000   0.000000000   0.528633873    0   0   1
Rh1      0.750000000   0.000000000   0.576058471    0   0   1
Rh1      0.500000000   0.500000000   0.571301729    0   0   1
O0       0.750000000   0.690000000   0.576969538    0   0   1
O0       0.750000000   0.310000000   0.576981777    0   0   1
O0       0.500000000   0.000000000   0.621428679    0   0   1
H2      -0.000176685   0.638239958   0.384449955
H2       0.499823279   0.638238970   0.384449621
H2       0.148423559   0.033409788   0.368057037
H2       0.648424306   0.033409802   0.368057252
End final coordinates

     General routines

     Parallel routines
     Hubbard U routines

   This run was terminated on:   9:26:24   9May2014

   JOB DONE.