     Program PWSCF v.5.0.2 (svn rev. 9656) starts on  6May2014 at 10:28:34

     Current dimensions of program PWSCF are:
     Max number of different atomic species (ntypx) = 10
     Max number of k-points (npk) =  40000
     Max angular momentum in pseudopotentials (lmaxx) =  3
     Reading input from pwscf.in
Warning: card &CELL ignored
Warning: card / ignored

     Subspace diagonalization in iterative solution of the eigenvalue problem:
     a serial algorithm will be used

     Found symmetry operation: I + ( -0.5000  0.0000  0.0000)
     This is a supercell, fractional translations are disabled

     bravais-lattice index     =            0
     lattice parameter (alat)  =      12.2076  a.u.
     unit-cell volume          =    7496.5096 (a.u.)^3
     number of atoms/cell      =           30
     number of atomic types    =            3
     number of electrons       =       240.00
     number of Kohn-Sham states=          360
     kinetic-energy cutoff     =      40.0000  Ry
     charge density cutoff     =     500.0000  Ry
     convergence threshold     =      1.0E-06
     mixing beta               =       0.7000
     number of iterations used =            8  plain     mixing
     Exchange-correlation      = SLA  PW   PBE  PBE ( 1 4 3 4 0)
     EXX-fraction              =        0.00
     nstep                     =           50

     celldm(1)=  12.207631  celldm(2)=   0.000000  celldm(3)=   0.000000
     celldm(4)=   0.000000  celldm(5)=   0.000000  celldm(6)=   0.000000

     crystal axes: (cart. coord. in units of alat)
               a(1) = (   1.000000   0.000000   0.000000 )
               a(2) = (   0.000000   1.004836   0.000000 )
               a(3) = (   0.000000   0.000000   4.100811 )

     reciprocal axes: (cart. coord. in units 2 pi/alat)
               b(1) = (  1.000000  0.000000  0.000000 )
               b(2) = (  0.000000  0.995187  0.000000 )
               b(3) = (  0.000000  0.000000  0.243854 )

     PseudoPot. # 1 for O  read from file:
     /home/camp/zhonxu/pseudo/o_pbe_v1.01.uspp.F.UPF
     MD5 check sum: 2bcb18d16ea4b960afae9ec6d52f22d2
     Pseudo is Ultrasoft + core correction, Zval =  6.0
     Generated by new atomic code, or converted to UPF format
     Using radial grid of  737 points,  5 beta functions with:
                l(1) =   0
                l(2) =   0
                l(3) =   1
                l(4) =   1
                l(5) =   2
     Q(r) pseudized with  8 coefficients,  rinner =    0.900   0.900   0.900
                                                       0.900   0.900

     PseudoPot. # 2 for Pt read from file:
     /home/camp/zhonxu/pseudo/pt_pbe_v1.uspp.F.UPF
     MD5 check sum: 4c71d6ad5ef119f1eb26a4d0b7884226
     Pseudo is Ultrasoft + core correction, Zval = 16.0
     Generated by new atomic code, or converted to UPF format
     Using radial grid of  985 points,  6 beta functions with:
                l(1) =   0
                l(2) =   0
                l(3) =   1
                l(4) =   1
                l(5) =   2
                l(6) =   2
     Q(r) pseudized with  8 coefficients,  rinner =    1.300   1.300   1.300
                                                       1.300   1.300

     PseudoPot. # 3 for H  read from file:
     /home/camp/zhonxu/pseudo/h_pbe_v1.uspp.F.UPF
     MD5 check sum: 3408e3ff4ec8b0a4e358431e7e038a48
     Pseudo is Ultrasoft, Zval =  1.0
     Generated by new atomic code, or converted to UPF format
     Using radial grid of  615 points,  2 beta functions with:
                l(1) =   0
                l(2) =   0
     Q(r) pseudized with  8 coefficients,  rinner =    0.700

     atomic species   valence    mass     pseudopotential
        O0             6.00    15.99940     O ( 1.00)
        Pt1           16.00   195.08000     Pt( 1.00)
        H2             1.00     1.00794     H ( 1.00)

     Simplified LDA+U calculation (l_max = 2) with parameters (eV):
     atomic species    L          U    alpha       J0     beta
        Pt1            2     6.5000   0.0000   0.0000   0.0000

     No symmetry found

   Cartesian axes

     site n.     atom                  positions (alat units)
         1           O0  tau(   1) = (   0.0000000   0.0000000   1.5457188  )
         2           O0  tau(   2) = (   0.0000000   0.5024180   1.6369208  )
         3           Pt1 tau(   3) = (   0.2500000   0.5024180   1.8413872  )
         4           Pt1 tau(   4) = (   0.0000000   0.0000000   1.8534436  )
         5           O0  tau(   5) = (   0.2500000   0.8139171   1.8157162  )
         6           O0  tau(   6) = (   0.2500000   0.1909188   1.8824364  )
         7           O0  tau(   7) = (   0.0000000   0.5024180   2.0315829  )
         8           O0  tau(   8) = (   0.0000000   0.0000000   2.1708464  )
         9           Pt1 tau(   9) = (   0.2500000   0.0000000   2.3625593  )
        10           Pt1 tau(  10) = (   0.0000000   0.5024180   2.3549318  )
        11           O0  tau(  11) = (   0.2500000   0.6933368   2.3911010  )
        12           O0  tau(  12) = (   0.2500000   0.3114991   2.3934384  )
        13           O0  tau(  13) = (   0.0000000   0.0000000   2.5491052  )
        14           O0  tau(  14) = (   0.5000000   0.0000000   1.5457188  )
        15           O0  tau(  15) = (   0.5000000   0.5024180   1.6369208  )
        16           Pt1 tau(  16) = (   0.7500000   0.5024180   1.8413872  )
        17           Pt1 tau(  17) = (   0.5000000   0.0000000   1.8534436  )
        18           O0  tau(  18) = (   0.7500000   0.8139171   1.8157162  )
        19           O0  tau(  19) = (   0.7500000   0.1909188   1.8824364  )
        20           O0  tau(  20) = (   0.5000000   0.5024180   2.0315829  )
        21           O0  tau(  21) = (   0.5000000   0.0000000   2.1708464  )
        22           Pt1 tau(  22) = (   0.7500000   0.0000000   2.3625593  )
        23           Pt1 tau(  23) = (   0.5000000   0.5024180   2.3549318  )
        24           O0  tau(  24) = (   0.7500000   0.6933368   2.3911010  )
        25           O0  tau(  25) = (   0.7500000   0.3114991   2.3934384  )
        26           O0  tau(  26) = (   0.5000000   0.0000000   2.5491052  )
        27           H2  tau(  27) = (  -0.0000500   0.6431553   1.5728661  )
        28           H2  tau(  28) = (   0.4999500   0.6431553   1.5728661  )
        29           H2  tau(  29) = (   0.1440700   0.0315318   1.5048747  )
        30           H2  tau(  30) = (   0.6440700   0.0315318   1.5048747  )

     number of k points=    10  Methfessel-Paxton smearing, width (Ry)=  0.0100
                       cart. coord. in units 2pi/alat
        k(    1) = (   0.0000000   0.0000000   0.0000000), wk =   0.1250000
        k(    2) = (   0.0000000   0.2487968   0.0000000), wk =   0.2500000
        k(    3) = (   0.0000000  -0.4975937   0.0000000), wk =   0.1250000
        k(    4) = (   0.2500000   0.0000000   0.0000000), wk =   0.2500000
        k(    5) = (   0.2500000   0.2487968   0.0000000), wk =   0.2500000
        k(    6) = (   0.2500000  -0.4975937   0.0000000), wk =   0.2500000
        k(    7) = (  -0.5000000   0.0000000   0.0000000), wk =   0.1250000
        k(    8) = (  -0.5000000   0.2487968   0.0000000), wk =   0.2500000
        k(    9) = (  -0.5000000  -0.4975937   0.0000000), wk =   0.1250000
        k(   10) = (  -0.2500000   0.2487968   0.0000000), wk =   0.2500000

     Largest allocated arrays     est. size (Mb)     dimensions
     Largest temporary arrays     est. size (Mb)     dimensions

     Check: negative/imaginary core charge=   -0.000003    0.000000

     Initial potential from superposition of free atoms
     Check: negative starting charge=   -1.537272

     starting charge  235.99985, renormalised to  240.00000

     negative rho (up, down):  0.156E+01 0.000E+00
     Number of +U iterations with fixed ns =  0
     Starting occupations:
 --- enter write_ns ---
 LDA+U parameters:
U( 2)     =  6.50000000
alpha( 2) =  0.00000000
atom    3   Tr[ns(na)] =   8.00000
    eigenvalues:
  0.800  0.800  0.800  0.800  0.800
    eigenvectors:
  1.000  0.000  0.000  0.000  0.000
  0.000  1.000  0.000  0.000  0.000
  0.000  0.000  1.000  0.000  0.000
  0.000  0.000  0.000  1.000  0.000
  0.000  0.000  0.000  0.000  1.000
    occupations:
  0.800  0.000  0.000  0.000  0.000
  0.000  0.800  0.000  0.000  0.000
  0.000  0.000  0.800  0.000  0.000
  0.000  0.000  0.000  0.800  0.000
  0.000  0.000  0.000  0.000  0.800
atom    4   Tr[ns(na)] =   8.00000
    eigenvalues:
  0.800  0.800  0.800  0.800  0.800
    eigenvectors:
  1.000  0.000  0.000  0.000  0.000
  0.000  1.000  0.000  0.000  0.000
  0.000  0.000  1.000  0.000  0.000
  0.000  0.000  0.000  1.000  0.000
  0.000  0.000  0.000  0.000  1.000
    occupations:
  0.800  0.000  0.000  0.000  0.000
  0.000  0.800  0.000  0.000  0.000
  0.000  0.000  0.800  0.000  0.000
  0.000  0.000  0.000  0.800  0.000
  0.000  0.000  0.000  0.000  0.800
atom    9   Tr[ns(na)] =   8.00000
    eigenvalues:
  0.800  0.800  0.800  0.800  0.800
    eigenvectors:
  1.000  0.000  0.000  0.000  0.000
  0.000  1.000  0.000  0.000  0.000
  0.000  0.000  1.000  0.000  0.000
  0.000  0.000  0.000  1.000  0.000
  0.000  0.000  0.000  0.000  1.000
    occupations:
  0.800  0.000  0.000  0.000  0.000
  0.000  0.800  0.000  0.000  0.000
  0.000  0.000  0.800  0.000  0.000
  0.000  0.000  0.000  0.800  0.000
  0.000  0.000  0.000  0.000  0.800
atom   10   Tr[ns(na)] =   8.00000
    eigenvalues:
  0.800  0.800  0.800  0.800  0.800
    eigenvectors:
  1.000  0.000  0.000  0.000  0.000
  0.000  1.000  0.000  0.000  0.000
  0.000  0.000  1.000  0.000  0.000
  0.000  0.000  0.000  1.000  0.000
  0.000  0.000  0.000  0.000  1.000
    occupations:
  0.800  0.000  0.000  0.000  0.000
  0.000  0.800  0.000  0.000  0.000
  0.000  0.000  0.800  0.000  0.000
  0.000  0.000  0.000  0.800  0.000
  0.000  0.000  0.000  0.000  0.800
atom   16   Tr[ns(na)] =   8.00000
    eigenvalues:
  0.800  0.800  0.800  0.800  0.800
    eigenvectors:
  1.000  0.000  0.000  0.000  0.000
  0.000  1.000  0.000  0.000  0.000
  0.000  0.000  1.000  0.000  0.000
  0.000  0.000  0.000  1.000  0.000
  0.000  0.000  0.000  0.000  1.000
    occupations:
  0.800  0.000  0.000  0.000  0.000
  0.000  0.800  0.000  0.000  0.000
  0.000  0.000  0.800  0.000  0.000
  0.000  0.000  0.000  0.800  0.000
  0.000  0.000  0.000  0.000  0.800
atom   17   Tr[ns(na)] =   8.00000
    eigenvalues:
  0.800  0.800  0.800  0.800  0.800
    eigenvectors:
  1.000  0.000  0.000  0.000  0.000
  0.000  1.000  0.000  0.000  0.000
  0.000  0.000  1.000  0.000  0.000
  0.000  0.000  0.000  1.000  0.000
  0.000  0.000  0.000  0.000  1.000
    occupations:
  0.800  0.000  0.000  0.000  0.000
  0.000  0.800  0.000  0.000  0.000
  0.000  0.000  0.800  0.000  0.000
  0.000  0.000  0.000  0.800  0.000
  0.000  0.000  0.000  0.000  0.800
atom   22   Tr[ns(na)] =   8.00000
    eigenvalues:
  0.800  0.800  0.800  0.800  0.800
    eigenvectors:
  1.000  0.000  0.000  0.000  0.000
  0.000  1.000  0.000  0.000  0.000
  0.000  0.000  1.000  0.000  0.000
  0.000  0.000  0.000  1.000  0.000
  0.000  0.000  0.000  0.000  1.000
    occupations:
[...]
    eigenvectors:
  0.001  0.140  0.000  0.000  0.859
  0.996  0.004  0.000  0.000  0.000
  0.000  0.000  0.000  1.000  0.000
  0.003  0.856  0.000  0.000  0.141
  0.000  0.000  1.000  0.000  0.000
    occupations:
  0.953  0.000 -0.000 -0.089  0.000
  0.000  0.726  0.000  0.000 -0.000
 -0.000  0.000  0.971 -0.001 -0.000
 -0.089  0.000 -0.001  0.769  0.000
  0.000 -0.000 -0.000  0.000  0.966
atom   10   Tr[ns(na)] =   8.84513
    eigenvalues:
  0.666  0.802  0.976  0.989  0.989
    eigenvectors:
  0.000  0.976  0.000  0.024  0.000
  0.000  0.000  1.000  0.000  0.000
  0.000  0.000  0.000  0.002  0.997
  0.000  0.024  0.000  0.974  0.002
  1.000  0.000  0.000  0.000  0.000
    occupations:
  0.807  0.000  0.001  0.028  0.000
  0.000  0.976 -0.000  0.000 -0.001
  0.001 -0.000  0.989 -0.000 -0.000
  0.028  0.000 -0.000  0.984 -0.000
  0.000 -0.001 -0.000 -0.000  0.666
atom   16   Tr[ns(na)] =   8.80321
    eigenvalues:
  0.711  0.722  0.987  0.990  0.992
    eigenvectors:
  0.173  0.000  0.795  0.000  0.032
  0.000  1.000  0.000  0.000  0.000
  0.004  0.000  0.051  0.000  0.945
  0.822  0.000  0.155  0.000  0.023
  0.000  0.000  0.000  1.000  0.000
    occupations:
  0.939 -0.000  0.007 -0.104  0.000
 -0.000  0.722  0.000  0.000 -0.001
  0.007  0.000  0.991  0.017 -0.000
 -0.104  0.000  0.017  0.760  0.000
  0.000 -0.001 -0.000  0.000  0.990
atom   17   Tr[ns(na)] =   8.78094
    eigenvalues:
  0.701  0.725  0.986  0.988  0.989
    eigenvectors:
  0.000  0.985  0.011  0.002  0.002
  0.012  0.000  0.024  0.927  0.037
  0.000  0.005  0.700  0.001  0.294
  0.000  0.010  0.264  0.060  0.666
  0.988  0.000  0.000  0.011  0.000
    occupations:
  0.729 -0.004 -0.018  0.026 -0.001
 -0.004  0.985  0.000  0.000  0.031
 -0.018  0.000  0.986  0.003  0.000
  0.026  0.000  0.003  0.986  0.000
 -0.001  0.031  0.000  0.000  0.705
atom   22   Tr[ns(na)] =   8.76990
    eigenvalues:
  0.726  0.733  0.966  0.971  0.989
    eigenvectors:
  0.001  0.140  0.000  0.000  0.859
  0.996  0.004  0.000  0.000  0.000
  0.000  0.000  0.000  1.000  0.000
  0.003  0.856  0.000  0.000  0.141
  0.000  0.000  1.000  0.000  0.000
    occupations:
  0.953  0.000 -0.000 -0.089  0.000
  0.000  0.726  0.000  0.000 -0.000
 -0.000  0.000  0.971 -0.001 -0.000
 -0.089  0.000 -0.001  0.769  0.000
  0.000 -0.000 -0.000  0.000  0.966
atom   23   Tr[ns(na)] =   8.84509
    eigenvalues:
  0.666  0.802  0.976  0.989  0.989
    eigenvectors:
  0.000  0.976  0.000  0.024  0.000
  0.000  0.000  1.000  0.000  0.000
  0.000  0.000  0.000  0.002  0.997
  0.000  0.024  0.000  0.974  0.002
  1.000  0.000  0.000  0.000  0.000
    occupations:
  0.807  0.000  0.001  0.028  0.000
  0.000  0.976 -0.000  0.000 -0.001
  0.001 -0.000  0.989 -0.000 -0.000
  0.028  0.000 -0.000  0.984 -0.000
  0.000 -0.001 -0.000 -0.000  0.666
N of occupied +U levels =  70.3983407
 --- exit write_ns ---

     Threshold (ethr) on eigenvalues was too large:
     Diagonalizing with lowered threshold

     Davidson diagonalization with overlap
     ethr =  1.14E-08,  avg # of iterations =  1.9

[...]

     total energy              =   -2247.01801032 Ry
     Harris-Foulkes estimate   =   -2247.01801034 Ry
     estimated scf accuracy    <       0.00000008 Ry

     iteration # 12     ecut=    40.00 Ry     beta=0.70
     Davidson diagonalization with overlap
     ethr =  9.73E-12,  avg # of iterations =  2.0

     negative rho (up, down):  0.158E+01 0.000E+00

     End of self-consistent calculation
 --- enter write_ns ---
 LDA+U parameters:
U( 2)     =  6.50000000
alpha( 2) =  0.00000000
atom    3   Tr[ns(na)] =   8.80270
    eigenvalues:
  0.711  0.722  0.987  0.990  0.992
    eigenvectors:
  0.173  0.000  0.795  0.000  0.031
  0.000  1.000  0.000  0.000  0.000
  0.004  0.000  0.050  0.000  0.946
  0.822  0.000  0.155  0.000  0.023
  0.000  0.000  0.000  1.000  0.000
    occupations:
  0.939 -0.000  0.007 -0.104  0.000
 -0.000  0.722  0.000  0.000 -0.001
  0.007  0.000  0.991  0.017 -0.000
 -0.104  0.000  0.017  0.760  0.000
  0.000 -0.001 -0.000  0.000  0.990
atom    4   Tr[ns(na)] =   8.78053
    eigenvalues:
  0.701  0.725  0.986  0.988  0.989
    eigenvectors:
  0.000  0.985  0.011  0.002  0.002
  0.012  0.000  0.024  0.926  0.038
  0.000  0.005  0.697  0.001  0.298
  0.000  0.010  0.268  0.060  0.662
  0.988  0.000  0.000  0.011  0.000
    occupations:
  0.729 -0.004 -0.018  0.026 -0.001
 -0.004  0.985  0.000  0.000  0.031
 -0.018  0.000  0.986  0.003  0.000
  0.026  0.000  0.003  0.986  0.000
 -0.001  0.031  0.000  0.000  0.705
atom    9   Tr[ns(na)] =   8.77017
    eigenvalues:
  0.726  0.733  0.966  0.971  0.989
    eigenvectors:
  0.001  0.140  0.000  0.000  0.859
  0.996  0.004  0.000  0.000  0.000
  0.000  0.000  0.000  1.000  0.000
  0.003  0.856  0.000  0.000  0.141
  0.000  0.000  1.000  0.000  0.000
    occupations:
  0.953  0.000 -0.000 -0.089  0.000
  0.000  0.726  0.000  0.000 -0.000
 -0.000  0.000  0.971 -0.001 -0.000
 -0.089  0.000 -0.001  0.769  0.000
  0.000 -0.000 -0.000  0.000  0.966
atom   10   Tr[ns(na)] =   8.84540
    eigenvalues:
  0.667  0.802  0.976  0.989  0.989
    eigenvectors:
  0.000  0.976  0.000  0.024  0.000
  0.000  0.000  1.000  0.000  0.000
  0.000  0.000  0.000  0.003  0.997
  0.000  0.024  0.000  0.974  0.002
  1.000  0.000  0.000  0.000  0.000
    occupations:
  0.807  0.000  0.001  0.028  0.000
  0.000  0.976 -0.000  0.000 -0.001
  0.001 -0.000  0.989 -0.000 -0.000
  0.028  0.000 -0.000  0.984 -0.000
  0.000 -0.001 -0.000 -0.000  0.667
atom   16   Tr[ns(na)] =   8.80270
    eigenvalues:
  0.711  0.722  0.987  0.990  0.992
    eigenvectors:
  0.173  0.000  0.795  0.000  0.031
  0.000  1.000  0.000  0.000  0.000
  0.004  0.000  0.050  0.000  0.946
  0.822  0.000  0.155  0.000  0.023
  0.000  0.000  0.000  1.000  0.000
    occupations:
  0.939 -0.000  0.007 -0.104  0.000
 -0.000  0.722  0.000  0.000 -0.001
  0.007  0.000  0.991  0.017 -0.000
 -0.104  0.000  0.017  0.760  0.000
  0.000 -0.001 -0.000  0.000  0.990
atom   17   Tr[ns(na)] =   8.78054
    eigenvalues:
  0.701  0.725  0.986  0.988  0.989
    eigenvectors:
  0.000  0.985  0.011  0.002  0.002
  0.012  0.000  0.024  0.926  0.038
  0.000  0.005  0.697  0.001  0.298
  0.000  0.010  0.268  0.060  0.662
  0.988  0.000  0.000  0.011  0.000
    occupations:
  0.729 -0.004 -0.018  0.026 -0.001
 -0.004  0.985  0.000  0.000  0.031
 -0.018  0.000  0.986  0.003  0.000
  0.026  0.000  0.003  0.986  0.000
 -0.001  0.031  0.000  0.000  0.705
atom   22   Tr[ns(na)] =   8.77017
    eigenvalues:
  0.726  0.733  0.966  0.971  0.989
    eigenvectors:
  0.001  0.140  0.000  0.000  0.859
  0.996  0.004  0.000  0.000  0.000
  0.000  0.000  0.000  1.000  0.000
  0.003  0.856  0.000  0.000  0.141
  0.000  0.000  1.000  0.000  0.000
    occupations:
  0.953  0.000 -0.000 -0.089  0.000
  0.000  0.726  0.000  0.000 -0.000
 -0.000  0.000  0.971 -0.001 -0.000
 -0.089  0.000 -0.001  0.769  0.000
  0.000 -0.000 -0.000  0.000  0.966
atom   23   Tr[ns(na)] =   8.84538
    eigenvalues:
  0.667  0.802  0.976  0.989  0.989
    eigenvectors:
  0.000  0.976  0.000  0.024  0.000
  0.000  0.000  1.000  0.000  0.000
  0.000  0.000  0.000  0.003  0.997
  0.000  0.024  0.000  0.974  0.002
  1.000  0.000  0.000  0.000  0.000
    occupations:
  0.807  0.000  0.001  0.028  0.000
  0.000  0.976 -0.000  0.000 -0.001
  0.001 -0.000  0.989 -0.000 -0.000
  0.028  0.000 -0.000  0.984 -0.000
  0.000 -0.001 -0.000 -0.000  0.667
N of occupied +U levels =  70.3975853
 --- exit write_ns ---

[...]

          k = 0.2500-0.4976 0.0000 ( 32026 PWs)   bands (ev):

[...]

          k =-0.2500 0.2488 0.0000 ( 32025 PWs)   bands (ev):

   -55.1034 -55.1019 -55.0710 -55.0624 -55.0620 -55.0314 -54.9603 -54.9580
   -54.9568 -54.9552 -54.8518 -54.8478 -54.7749 -54.7699 -54.7385 -54.7352
   -54.7033 -54.6982 -54.4524 -54.4119 -54.1123 -54.1072 -53.8233 -53.8205
   -22.2019 -22.0475 -21.3419 -21.2373 -20.9721 -20.8317 -20.7863 -20.6565
   -20.6258 -20.6018 -20.4431 -20.3415 -20.3362 -20.1567 -20.1000 -20.0672
   -19.3486 -19.1124 -11.2971 -11.1702 -11.0817 -10.8973 -10.5887 -10.4731
   -10.4570 -10.0248  -9.9367  -9.8961  -9.7522  -9.6179  -9.4730  -9.3675
    -9.3201  -9.2540  -9.0725  -8.9561  -8.9398  -8.7181  -8.5293  -8.4326
    -8.3426  -8.2256  -8.1619  -8.0769  -7.9173  -7.8259  -7.7502  -7.6845
    -7.6829  -7.5864  -7.3298  -7.3084  -7.2145  -7.1814  -7.1290  -6.9729
    -6.8654  -6.6889  -6.6665  -6.3949  -6.2997  -6.0971  -5.8536  -5.7142
    -5.6888  -5.6323  -5.4653  -5.3277  -5.1710  -5.1512  -4.9245  -4.8065
    -4.6022  -4.5970  -4.4836  -4.4391  -4.2047  -4.1551  -4.0199  -3.8784
    -3.7524  -3.7144  -3.6739  -3.6061  -3.3025  -3.2820  -2.9932  -2.8783
    -2.8537  -2.7780  -2.6467  -2.6021  -2.5675  -2.4723  -2.0884  -2.0019
    -1.9328  -1.5693  -1.2134  -0.7384  -0.4784  -0.4128  -0.2411   0.2081
     0.4464   0.6292   0.7649   0.9294   1.1553   1.1779   1.3123   1.5355
     3.0669   3.6981   4.5331   4.9627   5.0441   5.0676   5.1647   5.5377
     5.7078   5.9322   6.0538   6.2071   6.3807   6.4783   6.5730   6.6352
     6.7556   6.8060   7.0162   7.0806   7.2521   7.3962   7.4335   7.5042
     7.6214   7.7333   7.8044   7.9859   8.1218   8.1726   8.2577   8.3281
     8.3784   8.5061   8.5286   8.6404   8.7694   8.8763   9.0267   9.1202
     9.3072   9.3320   9.4458   9.5708   9.6268   9.7766   9.9010   9.9401
    10.0838  10.1262  10.1998  10.2182  10.4141  10.5155  10.5253  10.6311
    10.6525  10.8263  10.8442  10.9784  11.1458  11.2424  11.3417  11.3985
    11.4212  11.5616  11.6634  11.7148  11.7947  11.8084  11.9085  11.9297
    12.0042  12.1610  12.2159  12.2326  12.3162  12.3743  12.4405  12.5219
    12.5858  12.6202  12.7259  12.8074  12.8952  12.9296  13.0519  13.1084
    13.1719  13.2556  13.4102  13.5166  13.6294  13.6441  13.7088  13.8273
    13.8284  13.8984  14.0277  14.0537  14.1248  14.3093  14.3677  14.4402
    14.4695  14.6266  14.6827  14.7469  14.8446  14.9137  15.0796  15.1548
    15.2212  15.2377  15.3473  15.3541  15.4393  15.5105  15.5701  15.6240
    15.6258  15.6718  15.7641  15.8168  15.8735  15.9446  16.0258  16.0361
    16.1773  16.1785  16.2387  16.3406  16.3977  16.4976  16.6098  16.7187
    16.7755  16.8657  16.8949  17.0236  17.0628  17.1215  17.1257  17.1731
    17.2226  17.2387  17.2895  17.2935  17.3338  17.3728  17.4006  17.4049
    17.4228  17.4300  17.4595  17.4621  17.5095  17.6269  17.7014  17.7801
    17.7888  17.8884  18.0409  18.0761  18.1078  18.1883  18.1958  18.2565
    18.2704  18.3752  18.4140  18.4152  18.5360  18.6109  18.7105  18.7164
    18.7476  18.8996  18.9389  19.0078  19.0333  19.1099  19.1576  19.2957
    19.3431  19.4024  19.4085  19.5725  19.6234  19.7868  19.8341  19.8442
    19.9017  19.9474  19.9891  20.0574  20.0866  20.1053  20.2538  20.2745
    20.3139  20.3395  20.5158  20.5263  20.6707  20.6928  20.7728  20.8032
    20.8169  20.9284  20.9328  20.9997  21.0485  21.2137  21.2465  21.2593
    21.3585  21.4407  21.4419  21.5305  21.5839  21.6254  21.6609  21.7773

     the Fermi energy is    -1.9229 ev

!    total energy              =   -2247.01801032 Ry
     Harris-Foulkes estimate   =   -2247.01801033 Ry
     estimated scf accuracy    <          8.1E-09 Ry

     The total energy is the sum of the following terms:

     one-electron contribution =  -22787.62285377 Ry
     hartree contribution      =   11435.68700119 Ry
     xc contribution           =    -565.20013534 Ry
     ewald contribution        =    9668.42282473 Ry
     Hubbard energy            =       1.69615873 Ry
     smearing contrib. (-TS)   =      -0.00100587 Ry

     convergence has been achieved in  12 iterations

     Forces acting on atoms (Ry/au):

     negative rho (up, down):  0.158E+01 0.000E+00
     atom    1 type  1   force =    -0.00739360   -0.00401042   -0.00035458
     atom    2 type  1   force =     0.00008150    0.00448391    0.00052685
     atom    3 type  2   force =    -0.00046816    0.00206523   -0.00041972
     atom    4 type  2   force =     0.00970523    0.00165445    0.00018867
     atom    5 type  1   force =     0.00117869   -0.00151200    0.00008111
     atom    6 type  1   force =     0.00017422    0.00069824    0.00005870
     atom    7 type  1   force =     0.00002036    0.00458203    0.00021053
     atom    8 type  1   force =    -0.00392400   -0.00795921    0.00084958
     atom    9 type  2   force =     0.00175522    0.00082055   -0.00063653
     atom   10 type  2   force =    -0.00002691   -0.00143017    0.00058923
     atom   11 type  1   force =    -0.00000900   -0.00584906   -0.00044429
     atom   12 type  1   force =     0.00007690    0.00660060   -0.00031338
     atom   13 type  1   force =    -0.00105844   -0.00019780    0.00008955
     atom   14 type  1   force =    -0.00738806   -0.00400978   -0.00034623
     atom   15 type  1   force =     0.00008145    0.00448893    0.00053432
     atom   16 type  2   force =    -0.00047572    0.00206528   -0.00041973
     atom   17 type  2   force =     0.00970446    0.00165443    0.00018423
     atom   18 type  1   force =     0.00117951   -0.00151200    0.00008122
     atom   19 type  1   force =     0.00017381    0.00069825    0.00005875
     atom   20 type  1   force =     0.00002041    0.00458207    0.00017250
     atom   21 type  1   force =    -0.00392371   -0.00795919    0.00084802
     atom   22 type  2   force =     0.00175669    0.00082046   -0.00063666
     atom   23 type  2   force =    -0.00002683   -0.00143025    0.00060936
     atom   24 type  1   force =    -0.00001230   -0.00584910   -0.00044436
     atom   25 type  1   force =     0.00007309    0.00660067   -0.00031343
     atom   26 type  1   force =    -0.00105862   -0.00019786    0.00008427
     atom   27 type  3   force =     0.00001722   -0.00021904    0.00024270
     atom   28 type  3   force =     0.00001723   -0.00022465    0.00024566
     atom   29 type  3   force =    -0.00012290    0.00027326   -0.00066336
     atom   30 type  3   force =    -0.00012773    0.00027216   -0.00066296

     Total force =     0.002486     Total SCF correction =     0.000253
     SCF correction compared to forces is large: reduce conv_thr to get better values

     bfgs converged in   9 scf cycles and   8 bfgs steps
     (criteria: energy < 0.10E-03, force < 0.10E-02)

     End of BFGS Geometry Optimization

     Final energy   =   -2247.0180103232 Ry
Begin final coordinates

ATOMIC_POSITIONS (crystal)
O0       0.000000000   0.000000000   0.376756711    0   0   1
O0       0.000000000   0.500000000   0.399418323    0   0   1
Pt1      0.250000000   0.500000000   0.448908734    0   0   1
Pt1      0.000000000   0.000000000   0.451834414    0   0   1
O0       0.250000000   0.810000000   0.441536154    0   0   1
O0       0.250000000   0.190000000   0.459836565    0   0   1
O0       0.000000000   0.500000000   0.495297003    0   0   1
O0       0.000000000   0.000000000   0.529315465    0   0   1
Pt1      0.250000000   0.000000000   0.575777379    0   0   1
Pt1      0.000000000   0.500000000   0.573794635    0   0   1
O0       0.250000000   0.690000000   0.583503986    0   0   1
O0       0.250000000   0.310000000   0.583890191    0   0   1
O0       0.000000000   0.000000000   0.621377099    0   0   1
O0       0.500000000   0.000000000   0.376756001    0   0   1
O0       0.500000000   0.500000000   0.399417798    0   0   1
Pt1      0.750000000   0.500000000   0.448908730    0   0   1
Pt1      0.500000000   0.000000000   0.451834183    0   0   1
O0       0.750000000   0.810000000   0.441536114    0   0   1
O0       0.750000000   0.190000000   0.459836542    0   0   1
O0       0.500000000   0.500000000   0.495298659    0   0   1
O0       0.500000000   0.000000000   0.529315487    0   0   1
Pt1      0.750000000   0.000000000   0.575777387    0   0   1
Pt1      0.500000000   0.500000000   0.573793419    0   0   1
O0       0.750000000   0.690000000   0.583504005    0   0   1
O0       0.750000000   0.310000000   0.583890213    0   0   1
O0       0.500000000   0.000000000   0.621377538    0   0   1
H2      -0.000032876   0.641303690   0.384441403
H2       0.499967142   0.641304389   0.384440972
H2       0.144322346   0.032459422   0.367242569
H2       0.644323298   0.032459492   0.367242321
End final coordinates

     General routines

     Parallel routines
     Hubbard U routines

   This run was terminated on:  18:18: 3   6May2014

   JOB DONE.
Running PBS batch system epilogue script
Job id: 340804.audhumbla.fysik.dtu.dk
Username: zhonxu
Groupname: campgst
Jobname: PtO2/Eads-2-layers/bare-U-6.5
Sessionid: 11495
Queuename: verylong
Accounting:
This job has allocated the following 16 nodes:
b024 b024 b024 b024 b024 b024 b024 b024 b023 b023 b023 b023 b023 b023 b023 b023
Finished epilogue job 340804.audhumbla.fysik.dtu.dk for zhonxu