     Program PWSCF v.5.0.2 (svn rev. 9656) starts on 24Jan2014 at 12: 8:38

     Current dimensions of program PWSCF are:
     Max number of different atomic species (ntypx) = 10
     Max number of k-points (npk) =  40000
     Max angular momentum in pseudopotentials (lmaxx) =  3
     Reading input from MoO2-v-1.10.in

     Subspace diagonalization in iterative solution of the eigenvalue problem:
     a serial algorithm will be used

     bravais-lattice index     =            0
     lattice parameter (alat)  =       9.1290  a.u.
     unit-cell volume          =     490.2854 (a.u.)^3
     number of atoms/cell      =            6
     number of atomic types    =            2
     number of electrons       =        52.00
     number of Kohn-Sham states=           78
     kinetic-energy cutoff     =      40.0000  Ry
     charge density cutoff     =     500.0000  Ry
     convergence threshold     =      1.0E-06
     mixing beta               =       0.3000
     number of iterations used =            8  plain     mixing
     Exchange-correlation      = SLA  PW   PBE  PBE ( 1 4 3 4 0)
     EXX-fraction              =        0.00
     nstep                     =           50

     celldm(1)=   9.128957  celldm(2)=   0.000000  celldm(3)=   0.000000
     celldm(4)=   0.000000  celldm(5)=   0.000000  celldm(6)=   0.000000

     crystal axes: (cart. coord. in units of alat)
               a(1) = (   1.000000   0.000000   0.000000 )
               a(2) = (   0.000000   1.000000   0.000000 )
               a(3) = (   0.000000   0.000000   0.644444 )

     reciprocal axes: (cart. coord. in units 2 pi/alat)
               b(1) = (  1.000000  0.000000  0.000000 )
               b(2) = (  0.000000  1.000000  0.000000 )
               b(3) = (  0.000000  0.000000  1.551724 )

     PseudoPot. # 1 for Mo read from file:
     /home/camp/zhonxu/pseudo/mo_pbe_v1.uspp.F.UPF
     MD5 check sum: 30c4dcd161f5d35cd49bb5239c51a633
     Pseudo is Ultrasoft + core correction, Zval = 14.0
     Generated by new atomic code, or converted to UPF format
     Using radial grid of  889 points,  6 beta functions with:
                l(1) =   0
                l(2) =   0
                l(3) =   1
                l(4) =   1
                l(5) =   2
                l(6) =   2
     Q(r) pseudized with  6 coefficients,  rinner =    1.000   1.000   1.000
                                                       1.000   1.000

     PseudoPot. # 2 for O  read from file:
     /home/camp/zhonxu/pseudo/o_pbe_v1.01.uspp.F.UPF
     MD5 check sum: 2bcb18d16ea4b960afae9ec6d52f22d2
     Pseudo is Ultrasoft + core correction, Zval =  6.0
     Generated by new atomic code, or converted to UPF format
     Using radial grid of  737 points,  5 beta functions with:
                l(1) =   0
                l(2) =   0
                l(3) =   1
                l(4) =   1
                l(5) =   2
     Q(r) pseudized with  8 coefficients,  rinner =    0.900   0.900   0.900
                                                       0.900   0.900

     atomic species   valence    mass     pseudopotential
        Mo0           14.00    95.94000     Mo( 1.00)
        O1             6.00    15.99940     O ( 1.00)

     Starting magnetic structure
     atomic species   magnetization
        Mo0          0.600
        O1           0.000

      8 Sym. Ops., with inversion, found
          (note:  8 additional sym.ops. were found but ignored
           their fractional translations are incommensurate with FFT grid)

   Cartesian axes

     site n.     atom                  positions (alat units)
         1           Mo0 tau(   1) = (   0.0000000   0.0000000   0.0000000  )
         2           Mo0 tau(   2) = (   0.5000000   0.5000000   0.3222222  )
         3           O1  tau(   3) = (   0.3050000   0.3050000   0.0000000  )
         4           O1  tau(   4) = (  -0.3050000  -0.3050000   0.0000000  )
         5           O1  tau(   5) = (   0.8050000   0.1950000   0.3222222  )
         6           O1  tau(   6) = (   0.1950000   0.8050000   0.3222222  )

     number of k points=    54  Methfessel-Paxton smearing, width (Ry)=  0.0100
                       cart. coord. in units 2pi/alat
        k(    1) = (   0.0000000   0.0000000   0.0000000), wk =   0.0080000
        k(    2) = (   0.0000000   0.0000000   0.3103448), wk =   0.0160000
        k(    3) = (   0.0000000   0.0000000   0.6206897), wk =   0.0160000
        k(    4) = (   0.0000000   0.2000000   0.0000000), wk =   0.0320000
        k(    5) = (   0.0000000   0.2000000   0.3103448), wk =   0.0640000
        k(    6) = (   0.0000000   0.2000000   0.6206897), wk =   0.0640000
        k(    7) = (   0.0000000   0.4000000   0.0000000), wk =   0.0320000
        k(    8) = (   0.0000000   0.4000000   0.3103448), wk =   0.0640000
        k(    9) = (   0.0000000   0.4000000   0.6206897), wk =   0.0640000
        k(   10) = (   0.2000000   0.2000000   0.0000000), wk =   0.0160000
        k(   11) = (   0.2000000   0.2000000   0.3103448), wk =   0.0320000
        k(   12) = (   0.2000000   0.2000000   0.6206897), wk =   0.0320000
        k(   13) = (   0.2000000   0.4000000   0.0000000), wk =   0.0320000
        k(   14) = (   0.2000000   0.4000000   0.3103448), wk =   0.0640000
        k(   15) = (   0.2000000   0.4000000   0.6206897), wk =   0.0640000
        k(   16) = (   0.4000000   0.4000000   0.0000000), wk =   0.0160000
        k(   17) = (   0.4000000   0.4000000   0.3103448), wk =   0.0320000
        k(   18) = (   0.4000000   0.4000000   0.6206897), wk =   0.0320000
        k(   19) = (  -0.2000000   0.2000000   0.0000000), wk =   0.0160000
        k(   20) = (  -0.2000000   0.2000000  -0.3103448), wk =   0.0320000
        k(   21) = (  -0.2000000   0.2000000  -0.6206897), wk =   0.0320000
        k(   22) = (  -0.2000000   0.4000000   0.0000000), wk =   0.0320000
        k(   23) = (  -0.2000000   0.4000000  -0.3103448), wk =   0.0640000
        k(   24) = (  -0.2000000   0.4000000  -0.6206897), wk =   0.0640000
        k(   25) = (  -0.4000000   0.4000000   0.0000000), wk =   0.0160000
        k(   26) = (  -0.4000000   0.4000000  -0.3103448), wk =   0.0320000
        k(   27) = (  -0.4000000   0.4000000  -0.6206897), wk =   0.0320000
        k(   28) = (   0.0000000   0.0000000   0.0000000), wk =   0.0080000
        k(   29) = (   0.0000000   0.0000000   0.3103448), wk =   0.0160000
        k(   30) = (   0.0000000   0.0000000   0.6206897), wk =   0.0160000
        k(   31) = (   0.0000000   0.2000000   0.0000000), wk =   0.0320000
        k(   32) = (   0.0000000   0.2000000   0.3103448), wk =   0.0640000
        k(   33) = (   0.0000000   0.2000000   0.6206897), wk =   0.0640000
        k(   34) = (   0.0000000   0.4000000   0.0000000), wk =   0.0320000
        k(   35) = (   0.0000000   0.4000000   0.3103448), wk =   0.0640000
        k(   36) = (   0.0000000   0.4000000   0.6206897), wk =   0.0640000
        k(   37) = (   0.2000000   0.2000000   0.0000000), wk =   0.0160000
        k(   38) = (   0.2000000   0.2000000   0.3103448), wk =   0.0320000
        k(   39) = (   0.2000000   0.2000000   0.6206897), wk =   0.0320000
        k(   40) = (   0.2000000   0.4000000   0.0000000), wk =   0.0320000
        k(   41) = (   0.2000000   0.4000000   0.3103448), wk =   0.0640000
        k(   42) = (   0.2000000   0.4000000   0.6206897), wk =   0.0640000
        k(   43) = (   0.4000000   0.4000000   0.0000000), wk =   0.0160000
        k(   44) = (   0.4000000   0.4000000   0.3103448), wk =   0.0320000
        k(   45) = (   0.4000000   0.4000000   0.6206897), wk =   0.0320000
        k(   46) = (  -0.2000000   0.2000000   0.0000000), wk =   0.0160000
        k(   47) = (  -0.2000000   0.2000000  -0.3103448), wk =   0.0320000
        k(   48) = (  -0.2000000   0.2000000  -0.6206897), wk =   0.0320000
        k(   49) = (  -0.2000000   0.4000000   0.0000000), wk =   0.0320000
        k(   50) = (  -0.2000000   0.4000000  -0.3103448), wk =   0.0640000
        k(   51) = (  -0.2000000   0.4000000  -0.6206897), wk =   0.0640000
        k(   52) = (  -0.4000000   0.4000000   0.0000000), wk =   0.0160000
        k(   53) = (  -0.4000000   0.4000000  -0.3103448), wk =   0.0320000
        k(   54) = (  -0.4000000   0.4000000  -0.6206897), wk =   0.0320000

     Largest allocated arrays     est. size (Mb)     dimensions
     Largest temporary arrays     est. size (Mb)     dimensions

     Check: negative/imaginary core charge=   -0.000007    0.000000

     Initial potential from superposition of free atoms

     starting charge   51.99787, renormalised to   52.00000
     Starting wfc are   42 randomized atomic wfcs

     Self-consistent Calculation

     iteration #  1     ecut=    40.00 Ry     beta=0.30
     Davidson diagonalization with overlap
     ethr =  1.00E-02,  avg # of iterations =  5.3

     negative rho (up, down):  0.000E+00 0.204E-03

     total energy              =    -406.88144187 Ry
     Harris-Foulkes estimate   =    -407.13414773 Ry
     estimated scf accuracy    <       2.55442488 Ry

     total magnetization       =     4.00 Bohr mag/cell
     absolute magnetization    =     5.10 Bohr mag/cell

[...]

     End of self-consistent calculation

 ------ SPIN UP ------------

          k = 0.0000 0.0000 0.0000 (  2079 PWs)   bands (ev):

   -51.0127 -51.0037 -25.2250 -25.2250 -25.1048 -25.1048 -24.9913 -24.9631
    -8.1743  -7.4556  -6.5975  -6.5975   3.6551   3.6673   4.7678   5.2934
     5.2934   7.2488   7.2488   7.6949   8.6355   8.8530   8.8530   9.3541
    10.2108  10.6229  10.9226  11.0170  11.0170  13.5712  13.7436  15.8889
    16.6393  16.6393  17.7331  19.9493  19.9494  23.3216  24.6547  24.9001
    25.9111  26.9638  26.9638  27.1634  29.2614  30.0018  30.7457  30.7457
    31.6162  31.6162  33.1718  35.8519  35.9256  35.9256  36.6380  37.2582
    38.6035  39.0324  39.5031  39.5978  39.5978  39.6195  39.9811  39.9811
    40.8387  41.4461  41.4461  43.0380  43.7173  45.5461  45.5461  46.0103
    46.2878  46.8898  46.8898  47.3261  47.6742  48.4039

[...]

          k =-0.2000 0.2000 0.0000 (  2069 PWs)   bands (ev):

[...]

 ------ SPIN DOWN ----------

[...]

     the Fermi energy is    11.9322 ev

!    total energy              =    -407.76282189 Ry
     Harris-Foulkes estimate   =    -407.76281976 Ry
     estimated scf accuracy    <       0.00000043 Ry

     The total energy is the sum of the following terms:

     one-electron contribution =    -124.94132668 Ry
     hartree contribution      =      89.18983766 Ry
     xc contribution           =     -67.31271037 Ry
     ewald contribution        =    -304.69830307 Ry
     smearing contrib. (-TS)   =      -0.00031943 Ry

[...]

     convergence has been achieved in  11 iterations

     Forces acting on atoms (Ry/au):

     negative rho (up, down):  0.000E+00 0.203E-02
     atom    1 type  1   force =     0.00000000    0.00000000    0.00000000
     atom    2 type  1   force =     0.00000000    0.00000000    0.00000000
     atom    3 type  2   force =    -0.00790812   -0.00790812    0.00000000
     atom    4 type  2   force =     0.00790812    0.00790812   -0.00000000
[...]
        k(    6) = (  -0.0000010   0.2034885   0.5995903), wk =   0.0640000
        k(    7) = (  -0.0000019   0.4069771   0.0000000), wk =   0.0320000
        k(    8) = (  -0.0000019   0.4069771   0.2997951), wk =   0.0640000
        k(    9) = (  -0.0000019   0.4069771   0.5995903), wk =   0.0640000
        k(   10) = (   0.2034876   0.2034876   0.0000000), wk =   0.0160000
        k(   11) = (   0.2034876   0.2034876   0.2997951), wk =   0.0320000
        k(   12) = (   0.2034876   0.2034876   0.5995903), wk =   0.0320000
        k(   13) = (   0.2034866   0.4069761   0.0000000), wk =   0.0320000
        k(   14) = (   0.2034866   0.4069761   0.2997951), wk =   0.0640000
        k(   15) = (   0.2034866   0.4069761   0.5995903), wk =   0.0640000
        k(   16) = (   0.4069752   0.4069752   0.0000000), wk =   0.0160000
        k(   17) = (   0.4069752   0.4069752   0.2997951), wk =   0.0320000
        k(   18) = (   0.4069752   0.4069752   0.5995903), wk =   0.0320000
        k(   19) = (  -0.2034895   0.2034895   0.0000000), wk =   0.0160000
        k(   20) = (  -0.2034895   0.2034895  -0.2997951), wk =   0.0320000
        k(   21) = (  -0.2034895   0.2034895  -0.5995903), wk =   0.0320000
        k(   22) = (  -0.2034905   0.4069780   0.0000000), wk =   0.0320000
        k(   23) = (  -0.2034905   0.4069780  -0.2997951), wk =   0.0640000
        k(   24) = (  -0.2034905   0.4069780  -0.5995903), wk =   0.0640000
        k(   25) = (  -0.4069790   0.4069790   0.0000000), wk =   0.0160000
        k(   26) = (  -0.4069790   0.4069790  -0.2997951), wk =   0.0320000
        k(   27) = (  -0.4069790   0.4069790  -0.5995903), wk =   0.0320000
        k(   28) = (   0.0000000   0.0000000   0.0000000), wk =   0.0080000
        k(   29) = (   0.0000000   0.0000000   0.2997951), wk =   0.0160000
        k(   30) = (   0.0000000   0.0000000   0.5995903), wk =   0.0160000
        k(   31) = (  -0.0000010   0.2034885   0.0000000), wk =   0.0320000
        k(   32) = (  -0.0000010   0.2034885   0.2997951), wk =   0.0640000
        k(   33) = (  -0.0000010   0.2034885   0.5995903), wk =   0.0640000
        k(   34) = (  -0.0000019   0.4069771   0.0000000), wk =   0.0320000
        k(   35) = (  -0.0000019   0.4069771   0.2997951), wk =   0.0640000
        k(   36) = (  -0.0000019   0.4069771   0.5995903), wk =   0.0640000
        k(   37) = (   0.2034876   0.2034876   0.0000000), wk =   0.0160000
        k(   38) = (   0.2034876   0.2034876   0.2997951), wk =   0.0320000
        k(   39) = (   0.2034876   0.2034876   0.5995903), wk =   0.0320000
        k(   40) = (   0.2034866   0.4069761   0.0000000), wk =   0.0320000
        k(   41) = (   0.2034866   0.4069761   0.2997951), wk =   0.0640000
        k(   42) = (   0.2034866   0.4069761   0.5995903), wk =   0.0640000
        k(   43) = (   0.4069752   0.4069752   0.0000000), wk =   0.0160000
        k(   44) = (   0.4069752   0.4069752   0.2997951), wk =   0.0320000
        k(   45) = (   0.4069752   0.4069752   0.5995903), wk =   0.0320000
        k(   46) = (  -0.2034895   0.2034895   0.0000000), wk =   0.0160000
        k(   47) = (  -0.2034895   0.2034895  -0.2997951), wk =   0.0320000
        k(   48) = (  -0.2034895   0.2034895  -0.5995903), wk =   0.0320000
        k(   49) = (  -0.2034905   0.4069780   0.0000000), wk =   0.0320000
        k(   50) = (  -0.2034905   0.4069780  -0.2997951), wk =   0.0640000
        k(   51) = (  -0.2034905   0.4069780  -0.5995903), wk =   0.0640000
        k(   52) = (  -0.4069790   0.4069790   0.0000000), wk =   0.0160000
        k(   53) = (  -0.4069790   0.4069790  -0.2997951), wk =   0.0320000
        k(   54) = (  -0.4069790   0.4069790  -0.5995903), wk =   0.0320000

[...]

     Threshold (ethr) on eigenvalues was too large:
     Diagonalizing with lowered threshold

     Davidson diagonalization with overlap
     ethr =  4.30E-08,  avg # of iterations =  1.0

[...]

     Volume is kept fixed: isostatic pressure set to zero

     bfgs converged in   7 scf cycles and   6 bfgs steps
     (criteria: energy < 0.10E-03, force < 0.10E-02, cell < 0.50E+00)

     End of BFGS Geometry Optimization

     Final enthalpy =    -407.7692648843 Ry
Begin final coordinates
     new unit-cell volume =    490.28540 a.u.^3 (    72.65280 Ang^3 )

CELL_PARAMETERS (alat=  9.12895696)
   0.982856326   0.000004664   0.000000000
   0.000004664   0.982856326   0.000000000
   0.000000000   0.000000000   0.667122226

ATOMIC_POSITIONS (crystal)
Mo0      0.000000000   0.000000000   0.000000000    0   0   0
Mo0      0.500000000   0.500000000   0.500000000    0   0   0
O1       0.305018685   0.305018685   0.000000000    1   1   0
O1      -0.305018685  -0.305018685   0.000000000    1   1   0
O1       0.805016424   0.194983576   0.500000000    1   1   0
O1       0.194983576   0.805016424   0.500000000    1   1   0
End final coordinates

     A final scf calculation at the relaxed structure.
     The G-vectors are recalculated for the final unit cell
     Results may differ from those at the preceding step.

     bravais-lattice index     =            0
     lattice parameter (alat)  =       9.1290  a.u.
     unit-cell volume          =     490.2854 (a.u.)^3
     number of atoms/cell      =            6
     number of atomic types    =            2
     number of electrons       =        52.00
     number of Kohn-Sham states=           78
     kinetic-energy cutoff     =      40.0000  Ry
     charge density cutoff     =     500.0000  Ry
     convergence threshold     =      1.0E-08
     mixing beta               =       0.3000
     number of iterations used =            8  plain     mixing
     Exchange-correlation      = SLA  PW   PBE  PBE ( 1 4 3 4 0)
     EXX-fraction              =        0.00

     celldm(1)=   9.128957  celldm(2)=   0.000000  celldm(3)=   0.000000
     celldm(4)=   0.000000  celldm(5)=   0.000000  celldm(6)=   0.000000

     crystal axes: (cart. coord. in units of alat)
               a(1) = (   0.982856   0.000005   0.000000 )
               a(2) = (   0.000005   0.982856   0.000000 )
               a(3) = (   0.000000   0.000000   0.667122 )

     reciprocal axes: (cart. coord. in units 2 pi/alat)
               b(1) = (  1.017443 -0.000005  0.000000 )
               b(2) = ( -0.000005  1.017443  0.000000 )
               b(3) = (  0.000000  0.000000  1.498976 )

     PseudoPot. # 1 for Mo read from file:
     /home/camp/zhonxu/pseudo/mo_pbe_v1.uspp.F.UPF
     MD5 check sum: 30c4dcd161f5d35cd49bb5239c51a633
     Pseudo is Ultrasoft + core correction, Zval = 14.0
     Generated by new atomic code, or converted to UPF format
     Using radial grid of  889 points,  6 beta functions with:
                l(1) =   0
                l(2) =   0
                l(3) =   1
                l(4) =   1
                l(5) =   2
                l(6) =   2
     Q(r) pseudized with  6 coefficients,  rinner =    1.000   1.000   1.000
                                                       1.000   1.000

     PseudoPot. # 2 for O  read from file:
     /home/camp/zhonxu/pseudo/o_pbe_v1.01.uspp.F.UPF
     MD5 check sum: 2bcb18d16ea4b960afae9ec6d52f22d2
     Pseudo is Ultrasoft + core correction, Zval =  6.0
     Generated by new atomic code, or converted to UPF format
     Using radial grid of  737 points,  5 beta functions with:
                l(1) =   0
                l(2) =   0
                l(3) =   1
                l(4) =   1
                l(5) =   2
     Q(r) pseudized with  8 coefficients,  rinner =    0.900   0.900   0.900
                                                       0.900   0.900

     atomic species   valence    mass     pseudopotential
        Mo0           14.00    95.94000     Mo( 1.00)
        O1             6.00    15.99940     O ( 1.00)

     Starting magnetic structure
     atomic species   magnetization
        Mo0          0.600
        O1           0.000

      8 Sym. Ops., with inversion, found
          (note:  8 additional sym.ops. were found but ignored
           their fractional translations are incommensurate with FFT grid)

   Cartesian axes

     site n.     atom                  positions (alat units)
         1           Mo0 tau(   1) = (   0.0000000   0.0000000   0.0000000  )
         2           Mo0 tau(   2) = (   0.4914305   0.4914305   0.3335611  )
         3           O1  tau(   3) = (   0.2997910   0.2997910   0.0000000  )
         4           O1  tau(   4) = (  -0.2997910  -0.2997910   0.0000000  )
         5           O1  tau(   5) = (   0.7912164   0.1916446   0.3335611  )
         6           O1  tau(   6) = (   0.1916446   0.7912164   0.3335611  )

     number of k points=    54  Methfessel-Paxton smearing, width (Ry)=  0.0100
                       cart. coord. in units 2pi/alat
        k(    1) = (   0.0000000   0.0000000   0.0000000), wk =   0.0080000
        k(    2) = (   0.0000000   0.0000000   0.2997951), wk =   0.0160000
        k(    3) = (   0.0000000   0.0000000   0.5995903), wk =   0.0160000
        k(    4) = (  -0.0000010   0.2034885   0.0000000), wk =   0.0320000
        k(    5) = (  -0.0000010   0.2034885   0.2997951), wk =   0.0640000
        k(    6) = (  -0.0000010   0.2034885   0.5995903), wk =   0.0640000
        k(    7) = (  -0.0000019   0.4069771   0.0000000), wk =   0.0320000
        k(    8) = (  -0.0000019   0.4069771   0.2997951), wk =   0.0640000
        k(    9) = (  -0.0000019   0.4069771   0.5995903), wk =   0.0640000
        k(   10) = (   0.2034876   0.2034876   0.0000000), wk =   0.0160000
        k(   11) = (   0.2034876   0.2034876   0.2997951), wk =   0.0320000
        k(   12) = (   0.2034876   0.2034876   0.5995903), wk =   0.0320000
        k(   13) = (   0.2034866   0.4069761   0.0000000), wk =   0.0320000
        k(   14) = (   0.2034866   0.4069761   0.2997951), wk =   0.0640000
        k(   15) = (   0.2034866   0.4069761   0.5995903), wk =   0.0640000
        k(   16) = (   0.4069752   0.4069752   0.0000000), wk =   0.0160000
        k(   17) = (   0.4069752   0.4069752   0.2997951), wk =   0.0320000
        k(   18) = (   0.4069752   0.4069752   0.5995903), wk =   0.0320000
        k(   19) = (  -0.2034895   0.2034895   0.0000000), wk =   0.0160000
        k(   20) = (  -0.2034895   0.2034895  -0.2997951), wk =   0.0320000
        k(   21) = (  -0.2034895   0.2034895  -0.5995903), wk =   0.0320000
        k(   22) = (  -0.2034905   0.4069780   0.0000000), wk =   0.0320000
        k(   23) = (  -0.2034905   0.4069780  -0.2997951), wk =   0.0640000
        k(   24) = (  -0.2034905   0.4069780  -0.5995903), wk =   0.0640000
        k(   25) = (  -0.4069790   0.4069790   0.0000000), wk =   0.0160000
        k(   26) = (  -0.4069790   0.4069790  -0.2997951), wk =   0.0320000
        k(   27) = (  -0.4069790   0.4069790  -0.5995903), wk =   0.0320000
        k(   28) = (   0.0000000   0.0000000   0.0000000), wk =   0.0080000
        k(   29) = (   0.0000000   0.0000000   0.2997951), wk =   0.0160000
        k(   30) = (   0.0000000   0.0000000   0.5995903), wk =   0.0160000
        k(   31) = (  -0.0000010   0.2034885   0.0000000), wk =   0.0320000
        k(   32) = (  -0.0000010   0.2034885   0.2997951), wk =   0.0640000
        k(   33) = (  -0.0000010   0.2034885   0.5995903), wk =   0.0640000
        k(   34) = (  -0.0000019   0.4069771   0.0000000), wk =   0.0320000
        k(   35) = (  -0.0000019   0.4069771   0.2997951), wk =   0.0640000
        k(   36) = (  -0.0000019   0.4069771   0.5995903), wk =   0.0640000
        k(   37) = (   0.2034876   0.2034876   0.0000000), wk =   0.0160000
        k(   38) = (   0.2034876   0.2034876   0.2997951), wk =   0.0320000
        k(   39) = (   0.2034876   0.2034876   0.5995903), wk =   0.0320000
        k(   40) = (   0.2034866   0.4069761   0.0000000), wk =   0.0320000
        k(   41) = (   0.2034866   0.4069761   0.2997951), wk =   0.0640000
        k(   42) = (   0.2034866   0.4069761   0.5995903), wk =   0.0640000
        k(   43) = (   0.4069752   0.4069752   0.0000000), wk =   0.0160000
        k(   44) = (   0.4069752   0.4069752   0.2997951), wk =   0.0320000
        k(   45) = (   0.4069752   0.4069752   0.5995903), wk =   0.0320000
        k(   46) = (  -0.2034895   0.2034895   0.0000000), wk =   0.0160000
        k(   47) = (  -0.2034895   0.2034895  -0.2997951), wk =   0.0320000
        k(   48) = (  -0.2034895   0.2034895  -0.5995903), wk =   0.0320000
        k(   49) = (  -0.2034905   0.4069780   0.0000000), wk =   0.0320000
        k(   50) = (  -0.2034905   0.4069780  -0.2997951), wk =   0.0640000
        k(   51) = (  -0.2034905   0.4069780  -0.5995903), wk =   0.0640000
        k(   52) = (  -0.4069790   0.4069790   0.0000000), wk =   0.0160000
        k(   53) = (  -0.4069790   0.4069790  -0.2997951), wk =   0.0320000
        k(   54) = (  -0.4069790   0.4069790  -0.5995903), wk =   0.0320000

     Largest allocated arrays     est. size (Mb)     dimensions
     Largest temporary arrays     est. size (Mb)     dimensions

     Check: negative/imaginary core charge=   -0.000007    0.000000

     Initial potential from superposition of free atoms

     starting charge   51.99787, renormalised to   52.00000
     Starting wfc are   42 randomized atomic wfcs

     Self-consistent Calculation

[...]

     total energy              =    -407.76926946 Ry
     Harris-Foulkes estimate   =    -407.76926855 Ry
     estimated scf accuracy    <       0.00000003 Ry

[...]

     iteration # 12     ecut=    40.00 Ry     beta=0.30
     Davidson diagonalization with overlap
     ethr =  6.49E-11,  avg # of iterations =  2.2

     negative rho (up, down):  0.000E+00 0.202E-02

     End of self-consistent calculation

 ------ SPIN UP ------------

[...]

 ------ SPIN DOWN ----------

[...]

          k = 0.4070 0.4070 0.5996 (  2096 PWs)   bands (ev):

[...]

          k =-0.4070 0.4070-0.5996 (  2096 PWs)   bands (ev):

   -49.7444 -49.7441 -23.9628 -23.9560 -23.8223 -23.8141 -23.5990 -23.5987
    -7.1644  -6.9926  -6.9656  -6.7896   5.1823   5.3486   5.4125   5.5481
     6.1120   6.3962   7.2749   7.3297   8.1103   8.2732   8.7170   8.8481
    12.4666  12.8679  13.3244  13.4888  13.5530  13.7812  15.5921  16.0234
    16.6116  17.0252  20.6128  20.9383  22.2428  23.1618  23.2949  24.1040
    25.1226  25.4416  27.8730  28.0557  29.3592  29.8465  31.1182  31.5253
    33.3655  33.5507  33.6188  34.6948  36.5981  36.6795  37.6547  37.9988
    38.7532  39.3015  40.0195  40.7887  41.4064  41.5871  41.7979  42.3382
    42.6069  42.7674  43.1031  43.4946  44.3903  44.8331  45.1561  46.3689
    46.4457  47.1386  47.2073  47.7803  47.8999  48.8305

     the Fermi energy is    11.8676 ev

!    total energy              =    -407.76927032 Ry
     Harris-Foulkes estimate   =    -407.76926947 Ry
     estimated scf accuracy    <          5.3E-09 Ry

     The total energy is the sum of the following terms:

     one-electron contribution =    -121.81326561 Ry
     hartree contribution      =      87.66960093 Ry
     xc contribution           =     -67.27864694 Ry
     ewald contribution        =    -306.34696795 Ry
     smearing contrib. (-TS)   =       0.00000925 Ry

     total magnetization       =     4.01 Bohr mag/cell
     absolute magnetization    =     4.09 Bohr mag/cell

     convergence has been achieved in  12 iterations

     Forces acting on atoms (Ry/au):

     negative rho (up, down):  0.000E+00 0.202E-02
     atom    1 type  1   force =     0.00000000    0.00000000    0.00000000
     atom    2 type  1   force =     0.00000000    0.00000000    0.00000000
     atom    3 type  2   force =     0.00041725    0.00041725   -0.00000000
     atom    4 type  2   force =    -0.00041725   -0.00041725   -0.00000000
     atom    5 type  2   force =     0.00042707   -0.00042707    0.00000000
     atom    6 type  2   force =    -0.00042707    0.00042707    0.00000000

     Total force =     0.001194     Total SCF correction =     0.000054

     entering subroutine stress ...

     negative rho (up, down):  0.000E+00 0.202E-02
          total   stress  (Ry/bohr**3)                   (kbar)     P=  -97.87
  -0.00066566  -0.00000017   0.00000000        -97.92     -0.02      0.00
  -0.00000017  -0.00066566   0.00000000         -0.02    -97.92      0.00
   0.00000000   0.00000000  -0.00066466          0.00      0.00    -97.78

     General routines

     Parallel routines

   This run was terminated on:  12:59:33  24Jan2014

   JOB DONE.
Running PBS batch system epilogue script
Job id: 251891.audhumbla.fysik.dtu.dk
Username: zhonxu
Groupname: campgst
Jobname: MoO2/fine-EOS/ferro/MoO2-v-1.10
Sessionid: 2109
Queuename: verylong
Accounting:
This job has allocated the following 4 nodes:
q006 q006 q006 q006
Finished epilogue job 251891.audhumbla.fysik.dtu.dk for zhonxu