     Program PWSCF v.5.0.2 (svn rev. 9656) starts on  1May2014 at  6: 3:47

     Current dimensions of program PWSCF are:
     Max number of different atomic species (ntypx) = 10
     Max number of k-points (npk) =  40000
     Max angular momentum in pseudopotentials (lmaxx) =  3
     Reading input from pwscf.in
Warning: card &CELL ignored
Warning: card / ignored

     Subspace diagonalization in iterative solution of the eigenvalue problem:
     a serial algorithm will be used

     bravais-lattice index     =            0
     lattice parameter (alat)  =      10.1289  a.u.
     unit-cell volume          =    6836.7721 (a.u.)^3
     number of atoms/cell      =           31
     number of atomic types    =            3
     number of electrons       =       238.00
     number of Kohn-Sham states=          357
     kinetic-energy cutoff     =      40.0000  Ry
     charge density cutoff     =     500.0000  Ry
     convergence threshold     =      1.0E-06
     mixing beta               =       0.7000
     number of iterations used =            8  plain     mixing
     Exchange-correlation      = SLA  PW   PBE  PBE ( 1 4 3 4 0)
     EXX-fraction              =        0.00
     nstep                     =           50

     celldm(1)=  10.128932  celldm(2)=   0.000000  celldm(3)=   0.000000
     celldm(4)=   0.000000  celldm(5)=   0.000000  celldm(6)=   0.000000

     crystal axes: (cart. coord. in units of alat)
               a(1) = (   1.000000   0.000000   0.000000 )
               a(2) = (   0.000000   1.306037   0.000000 )
               a(3) = (   0.000000   0.000000   5.037380 )

     reciprocal axes: (cart. coord. in units 2 pi/alat)
               b(1) = (  1.000000  0.000000  0.000000 )
               b(2) = (  0.000000  0.765675  0.000000 )
               b(3) = (  0.000000  0.000000  0.198516 )

     PseudoPot. # 1 for O  read from file:
     /home/camp/zhonxu/pseudo/o_pbe_v1.01.uspp.F.UPF
     MD5 check sum: 2bcb18d16ea4b960afae9ec6d52f22d2
     Pseudo is Ultrasoft + core correction, Zval =  6.0
     Generated by new atomic code, or converted to UPF format
     Using radial grid of  737 points,  5 beta functions with:
                l(1) =   0
                l(2) =   0
                l(3) =   1
                l(4) =   1
                l(5) =   2
     Q(r) pseudized with  8 coefficients,  rinner =    0.900   0.900   0.900
                                                       0.900   0.900

     PseudoPot. # 2 for Re read from file:
     /home/camp/zhonxu/pseudo/re_pbe_v1.uspp.F.UPF
     MD5 check sum: 6f5a5dcaf9c96c20d0ffdde0de57afc6
     Pseudo is Ultrasoft + core correction, Zval = 15.0
     Generated by new atomic code, or converted to UPF format
     Using radial grid of  981 points,  8 beta functions with:
                l(1) =   0
                l(2) =   0
                l(3) =   1
                l(4) =   1
                l(5) =   2
                l(6) =   2
                l(7) =   3
                l(8) =   3
     Q(r) pseudized with  8 coefficients,  rinner =    1.000   1.000   1.000
                                                       1.000   1.000   1.000
                                                       1.000

     PseudoPot. # 3 for H  read from file:
     /home/camp/zhonxu/pseudo/h_pbe_v1.uspp.F.UPF
     MD5 check sum: 3408e3ff4ec8b0a4e358431e7e038a48
     Pseudo is Ultrasoft, Zval =  1.0
     Generated by new atomic code, or converted to UPF format
     Using radial grid of  615 points,  2 beta functions with:
                l(1) =   0
                l(2) =   0
     Q(r) pseudized with  8 coefficients,  rinner =    0.700

     atomic species   valence    mass     pseudopotential
        O0             6.00    15.99940     O ( 1.00)
        Re1           15.00   186.20700     Re( 1.00)
        H2             1.00     1.00794     H ( 1.00)

     Simplified LDA+U calculation (l_max = 2) with parameters (eV):
     atomic species    L          U    alpha       J0     beta
        Re1            2     2.0000   0.0000   0.0000   0.0000

     No symmetry found

   Cartesian axes

     site n.     atom                  positions (alat units)
         1           O0  tau(   1) = (   0.0000000   0.0000000   1.8646870  )
         2           O0  tau(   2) = (   0.0000000   0.6530184   1.9287121  )
         3           Re1 tau(   3) = (   0.2500000   0.6530184   2.2295948  )
         4           Re1 tau(   4) = (   0.0000000   0.0000000   2.2312068  )
         5           O0  tau(   5) = (   0.2500000   1.0187087   2.2244063  )
         6           O0  tau(   6) = (   0.2500000   0.2873281   2.2234996  )
         7           O0  tau(   7) = (   0.0000000   0.6530184   2.5067011  )
         8           O0  tau(   8) = (   0.0000000   0.0000000   2.5914802  )
         9           Re1 tau(   9) = (   0.2500000   0.0000000   2.8910532  )
        10           Re1 tau(  10) = (   0.0000000   0.6530184   2.8571012  )
        11           O0  tau(  11) = (   0.2500000   0.9403465   2.8803235  )
        12           O0  tau(  12) = (   0.2500000   0.3656903   2.8804747  )
        13           O0  tau(  13) = (   0.0000000   0.0000000   3.1540044  )
        14           O0  tau(  14) = (   0.5000000   0.0000000   1.8645359  )
        15           O0  tau(  15) = (   0.5000000   0.6530184   1.9300722  )
        16           Re1 tau(  16) = (   0.7500000   0.6530184   2.2295444  )
        17           Re1 tau(  17) = (   0.5000000   0.0000000   2.2295948  )
        18           O0  tau(  18) = (   0.7500000   1.0187087   2.2239529  )
        19           O0  tau(  19) = (   0.7500000   0.2873281   2.2238522  )
        20           O0  tau(  20) = (   0.5000000   0.6530184   2.5186397  )
        21           O0  tau(  21) = (   0.5000000   0.0000000   2.5912283  )
        22           Re1 tau(  22) = (   0.7500000   0.0000000   2.8912547  )
        23           Re1 tau(  23) = (   0.5000000   0.6530184   2.9058631  )
        24           O0  tau(  24) = (   0.7500000   0.9403465   2.8806762  )
        25           O0  tau(  25) = (   0.7500000   0.3656903   2.8804243  )
        26           O0  tau(  26) = (   0.5000000   0.0000000   3.1508309  )
        27           H2  tau(  27) = (  -0.0003300   0.8166387   1.8441345  )
        28           H2  tau(  28) = (   0.4996000   0.8128642   1.8387445  )
        29           H2  tau(  29) = (   0.1687200   0.0311098   1.7921991  )
        30           H2  tau(  30) = (   0.6701100   0.0285761   1.7932066  )
        31           O0  tau(  31) = (   0.4998900   0.6523393   3.2273487  )

     number of k points=    10  Methfessel-Paxton smearing, width (Ry)=  0.0100
                       cart. coord. in units 2pi/alat
        k(    1) = (   0.0000000   0.0000000   0.0000000), wk =   0.1250000
        k(    2) = (   0.0000000   0.1914188   0.0000000), wk =   0.2500000
        k(    3) = (   0.0000000  -0.3828376   0.0000000), wk =   0.1250000
        k(    4) = (   0.2500000   0.0000000   0.0000000), wk =   0.2500000
        k(    5) = (   0.2500000   0.1914188   0.0000000), wk =   0.2500000
        k(    6) = (   0.2500000  -0.3828376   0.0000000), wk =   0.2500000
        k(    7) = (  -0.5000000   0.0000000   0.0000000), wk =   0.1250000
        k(    8) = (  -0.5000000   0.1914188   0.0000000), wk =   0.2500000
        k(    9) = (  -0.5000000  -0.3828376   0.0000000), wk =   0.1250000
        k(   10) = (  -0.2500000   0.1914188   0.0000000), wk =   0.2500000

     Largest allocated arrays     est. size (Mb)     dimensions
     Largest temporary arrays     est. size (Mb)     dimensions

     Check: negative/imaginary core charge=   -0.000003    0.000000

     Initial potential from superposition of free atoms
     Check: negative starting charge=   -0.237495

     starting charge  233.99958, renormalised to  238.00000

     negative rho (up, down):  0.242E+00 0.000E+00
     Number of +U iterations with fixed ns =  0
     Starting occupations:
 --- enter write_ns ---
 LDA+U parameters:
U( 2)     =  2.00000000
alpha( 2) =  0.00000000
atom    3   Tr[ns(na)] =   5.00000
    eigenvalues:
  0.500  0.500  0.500  0.500  0.500
    eigenvectors:
  1.000  0.000  0.000  0.000  0.000
  0.000  1.000  0.000  0.000  0.000
  0.000  0.000  1.000  0.000  0.000
  0.000  0.000  0.000  1.000  0.000
  0.000  0.000  0.000  0.000  1.000
    occupations:
  0.500  0.000  0.000  0.000  0.000
  0.000  0.500  0.000  0.000  0.000
  0.000  0.000  0.500  0.000  0.000
  0.000  0.000  0.000  0.500  0.000
  0.000  0.000  0.000  0.000  0.500
atom    4   Tr[ns(na)] =   5.00000
    eigenvalues:
  0.500  0.500  0.500  0.500  0.500
    eigenvectors:
  1.000  0.000  0.000  0.000  0.000
  0.000  1.000  0.000  0.000  0.000
  0.000  0.000  1.000  0.000  0.000
  0.000  0.000  0.000  1.000  0.000
  0.000  0.000  0.000  0.000  1.000
    occupations:
  0.500  0.000  0.000  0.000  0.000
  0.000  0.500  0.000  0.000  0.000
  0.000  0.000  0.500  0.000  0.000
  0.000  0.000  0.000  0.500  0.000
  0.000  0.000  0.000  0.000  0.500
atom    9   Tr[ns(na)] =   5.00000
    eigenvalues:
  0.500  0.500  0.500  0.500  0.500
    eigenvectors:
  1.000  0.000  0.000  0.000  0.000
  0.000  1.000  0.000  0.000  0.000
  0.000  0.000  1.000  0.000  0.000
  0.000  0.000  0.000  1.000  0.000
  0.000  0.000  0.000  0.000  1.000
    occupations:
  0.500  0.000  0.000  0.000  0.000
  0.000  0.500  0.000  0.000  0.000
  0.000  0.000  0.500  0.000  0.000
  0.000  0.000  0.000  0.500  0.000
  0.000  0.000  0.000  0.000  0.500
atom   10   Tr[ns(na)] =   5.00000
    eigenvalues:
  0.500  0.500  0.500  0.500  0.500
    eigenvectors:
  1.000  0.000  0.000  0.000  0.000
  0.000  1.000  0.000  0.000  0.000
  0.000  0.000  1.000  0.000  0.000
  0.000  0.000  0.000  1.000  0.000
  0.000  0.000  0.000  0.000  1.000
    occupations:
  0.500  0.000  0.000  0.000  0.000
  0.000  0.500  0.000  0.000  0.000
  0.000  0.000  0.500  0.000  0.000
  0.000  0.000  0.000  0.500  0.000
  0.000  0.000  0.000  0.000  0.500
atom   16   Tr[ns(na)] =   5.00000
    eigenvalues:
  0.500  0.500  0.500  0.500  0.500
    eigenvectors:
  1.000  0.000  0.000  0.000  0.000
  0.000  1.000  0.000  0.000  0.000
  0.000  0.000  1.000  0.000  0.000
  0.000  0.000  0.000  1.000  0.000
  0.000  0.000  0.000  0.000  1.000
    occupations:
  0.500  0.000  0.000  0.000  0.000
  0.000  0.500  0.000  0.000  0.000
  0.000  0.000  0.500  0.000  0.000
  0.000  0.000  0.000  0.500  0.000
  0.000  0.000  0.000  0.000  0.500
atom   17   Tr[ns(na)] =   5.00000
    eigenvalues:
  0.500  0.500  0.500  0.500  0.500
    eigenvectors:
  1.000  0.000  0.000  0.000  0.000
  0.000  1.000  0.000  0.000  0.000
  0.000  0.000  1.000  0.000  0.000
  0.000  0.000  0.000  1.000  0.000
  0.000  0.000  0.000  0.000  1.000
    occupations:
  0.500  0.000  0.000  0.000  0.000
  0.000  0.500  0.000  0.000  0.000
  0.000  0.000  0.500  0.000  0.000
  0.000  0.000  0.000  0.500  0.000
  0.000  0.000  0.000  0.000  0.500
atom   22   Tr[ns(na)] =   5.00000
    eigenvalues:
  0.500  0.500  0.500  0.500  0.500
    eigenvectors:
  1.000  0.000  0.000  0.000  0.000
  0.000  1.000  0.000  0.000  0.000
  0.000  0.000  1.000  0.000  0.000
  0.000  0.000  0.000  1.000  0.000
[...]
  1.000  0.000  0.000  0.000  0.000
    occupations:
  0.607  0.003  0.000 -0.021  0.001
  0.003  0.704  0.007 -0.000 -0.002
  0.000  0.007  0.620  0.000 -0.000
 -0.021 -0.000  0.000  0.770 -0.000
  0.001 -0.002 -0.000 -0.000  0.566
atom    9   Tr[ns(na)] =   6.53575
    eigenvalues:
  0.591  0.606  0.608  0.718  0.745
    eigenvectors:
  0.257  0.000  0.000  0.000  0.743
  0.000  0.997  0.002  0.000  0.000
  0.000  0.002  0.986  0.012  0.000
  0.743  0.000  0.000  0.000  0.257
  0.000  0.000  0.012  0.987  0.001
    occupations:
  0.705 -0.000 -0.000 -0.067  0.001
 -0.000  0.606  0.000  0.000  0.000
 -0.000  0.000  0.609  0.000 -0.012
 -0.067  0.000  0.000  0.631 -0.000
  0.001  0.000 -0.012 -0.000  0.717
atom   10   Tr[ns(na)] =   6.50799
    eigenvalues:
  0.485  0.543  0.669  0.720  0.836
    eigenvectors:
  0.999  0.000  0.000  0.001  0.000
  0.000  0.000  0.000  0.000  1.000
  0.000  0.000  1.000  0.000  0.000
  0.001  0.000  0.000  0.999  0.000
  0.000  1.000  0.000  0.000  0.000
    occupations:
  0.485  0.000 -0.000 -0.007 -0.000
  0.000  0.836  0.001 -0.000  0.000
 -0.000  0.001  0.669 -0.000  0.000
 -0.007 -0.000 -0.000  0.720 -0.000
 -0.000  0.000  0.000 -0.000  0.543
atom   16   Tr[ns(na)] =   6.55536
    eigenvalues:
  0.541  0.570  0.627  0.763  0.776
    eigenvectors:
  0.000  0.359  0.004  0.630  0.007
  0.998  0.000  0.000  0.000  0.001
  0.000  0.000  0.991  0.009  0.000
  0.001  0.640  0.005  0.351  0.004
  0.001  0.000  0.000  0.010  0.988
    occupations:
  0.693  0.003  0.011 -0.092 -0.001
  0.003  0.541 -0.001 -0.003 -0.007
  0.011 -0.001  0.629 -0.007  0.002
 -0.092 -0.003 -0.007  0.639  0.001
 -0.001 -0.007  0.002  0.001  0.775
atom   17   Tr[ns(na)] =   6.52575
    eigenvalues:
  0.566  0.606  0.613  0.701  0.776
    eigenvectors:
  0.000  0.984  0.001  0.001  0.014
  0.000  0.001  0.005  0.994  0.000
  0.000  0.001  0.994  0.005  0.000
  0.000  0.014  0.000  0.000  0.985
  1.000  0.000  0.000  0.000  0.000
    occupations:
  0.609  0.003  0.000 -0.020  0.000
  0.003  0.700  0.006 -0.000 -0.001
  0.000  0.006  0.613  0.002 -0.000
 -0.020 -0.000  0.002  0.774 -0.000
  0.000 -0.001 -0.000 -0.000  0.566
atom   22   Tr[ns(na)] =   6.53517
    eigenvalues:
  0.592  0.606  0.608  0.718  0.744
    eigenvectors:
  0.257  0.000  0.000  0.007  0.736
  0.000  0.990  0.010  0.000  0.000
  0.000  0.009  0.978  0.012  0.000
  0.743  0.000  0.000  0.003  0.254
  0.000  0.000  0.012  0.978  0.010
    occupations:
  0.705  0.000 -0.000 -0.066  0.002
  0.000  0.606  0.000 -0.000  0.000
 -0.000  0.000  0.609  0.000  0.012
 -0.066 -0.000  0.000  0.631 -0.001
  0.002  0.000  0.012 -0.001  0.717
atom   23   Tr[ns(na)] =   6.54897
    eigenvalues:
  0.580  0.606  0.619  0.653  0.816
    eigenvectors:
  0.000  0.000  0.000  0.981  0.019
  0.000  0.000  1.000  0.000  0.000
  0.000  1.000  0.000  0.000  0.000
  0.000  0.000  0.000  0.019  0.981
  1.000  0.000  0.000  0.000  0.000
    occupations:
  0.657  0.000 -0.000 -0.022 -0.000
  0.000  0.619 -0.000 -0.000  0.000
 -0.000 -0.000  0.606  0.001  0.000
 -0.022 -0.000  0.001  0.813 -0.000
 -0.000  0.000  0.000 -0.000  0.580
N of occupied +U levels =  52.2980440
 --- exit write_ns ---

     Threshold (ethr) on eigenvalues was too large:
     Diagonalizing with lowered threshold

     Davidson diagonalization with overlap
     ethr =  3.58E-08,  avg # of iterations =  1.8

[...]

     total energy              =   -2174.07927973 Ry
     Harris-Foulkes estimate   =   -2174.07927974 Ry
     estimated scf accuracy    <       0.00000006 Ry

     iteration # 15     ecut=    40.00 Ry     beta=0.70
     Davidson diagonalization with overlap
     ethr =  1.38E-11,  avg # of iterations =  1.0

     negative rho (up, down):  0.247E+00 0.000E+00

     End of self-consistent calculation
 --- enter write_ns ---
 LDA+U parameters:
U( 2)     =  2.00000000
alpha( 2) =  0.00000000
atom    3   Tr[ns(na)] =   6.55373
    eigenvalues:
  0.541  0.570  0.627  0.763  0.775
    eigenvectors:
  0.000  0.359  0.004  0.629  0.008
  0.998  0.000  0.000  0.000  0.001
  0.000  0.000  0.991  0.009  0.000
  0.001  0.640  0.005  0.350  0.004
  0.001  0.000  0.000  0.012  0.987
    occupations:
  0.693 -0.003  0.011 -0.092  0.001
 -0.003  0.541  0.001  0.003 -0.007
  0.011  0.001  0.628 -0.007 -0.002
 -0.092  0.003 -0.007  0.639 -0.001
  0.001 -0.007 -0.002 -0.001  0.775
atom    4   Tr[ns(na)] =   6.53283
    eigenvalues:
  0.566  0.604  0.619  0.705  0.773
    eigenvectors:
  0.000  0.983  0.000  0.001  0.016
  0.000  0.001  0.007  0.992  0.000
  0.000  0.000  0.993  0.007  0.000
  0.000  0.016  0.000  0.000  0.984
  1.000  0.000  0.000  0.000  0.000
    occupations:
  0.607  0.003  0.000 -0.021  0.001
  0.003  0.704  0.007 -0.000 -0.002
  0.000  0.007  0.619  0.000 -0.000
 -0.021 -0.000  0.000  0.770 -0.000
  0.001 -0.002 -0.000 -0.000  0.566
atom    9   Tr[ns(na)] =   6.53603
    eigenvalues:
  0.591  0.606  0.608  0.718  0.745
    eigenvectors:
  0.257  0.000  0.000  0.000  0.743
  0.000  0.997  0.002  0.000  0.000
  0.000  0.002  0.986  0.012  0.000
  0.743  0.000  0.000  0.000  0.256
  0.000  0.000  0.012  0.988  0.001
    occupations:
  0.705 -0.000 -0.000 -0.067  0.001
 -0.000  0.606  0.000  0.000  0.000
 -0.000  0.000  0.609  0.000 -0.012
 -0.067  0.000  0.000  0.631 -0.000
  0.001  0.000 -0.012 -0.000  0.717
atom   10   Tr[ns(na)] =   6.50806
    eigenvalues:
  0.485  0.543  0.669  0.720  0.836
    eigenvectors:
  0.999  0.000  0.000  0.001  0.000
  0.000  0.000  0.000  0.000  1.000
  0.000  0.000  1.000  0.000  0.000
  0.001  0.000  0.000  0.999  0.000
  0.000  1.000  0.000  0.000  0.000
    occupations:
  0.485  0.000 -0.000 -0.007 -0.000
  0.000  0.836  0.001 -0.000  0.000
 -0.000  0.001  0.669 -0.000  0.000
 -0.007 -0.000 -0.000  0.720 -0.000
 -0.000  0.000  0.000 -0.000  0.543
atom   16   Tr[ns(na)] =   6.55376
    eigenvalues:
  0.541  0.570  0.627  0.763  0.775
    eigenvectors:
  0.000  0.359  0.004  0.630  0.007
  0.998  0.000  0.000  0.000  0.001
  0.000  0.000  0.991  0.009  0.000
  0.001  0.640  0.005  0.350  0.004
  0.001  0.000  0.000  0.011  0.988
    occupations:
  0.693  0.003  0.011 -0.092 -0.001
  0.003  0.541 -0.001 -0.003 -0.007
  0.011 -0.001  0.628 -0.007  0.002
 -0.092 -0.003 -0.007  0.639  0.001
 -0.001 -0.007  0.002  0.001  0.775
atom   17   Tr[ns(na)] =   6.52448
    eigenvalues:
  0.566  0.606  0.613  0.701  0.776
    eigenvectors:
  0.000  0.984  0.001  0.001  0.014
  0.000  0.001  0.005  0.994  0.000
  0.000  0.001  0.994  0.005  0.000
  0.000  0.014  0.000  0.000  0.985
  1.000  0.000  0.000  0.000  0.000
    occupations:
  0.609  0.003  0.000 -0.020  0.000
  0.003  0.700  0.006 -0.000 -0.001
  0.000  0.006  0.613  0.002 -0.000
 -0.020 -0.000  0.002  0.774 -0.000
  0.000 -0.001 -0.000 -0.000  0.566
atom   22   Tr[ns(na)] =   6.53551
    eigenvalues:
  0.592  0.606  0.608  0.718  0.744
    eigenvectors:
  0.256  0.000  0.000  0.008  0.736
  0.000  0.991  0.009  0.000  0.000
  0.000  0.009  0.979  0.012  0.000
  0.743  0.000  0.000  0.003  0.254
  0.000  0.000  0.012  0.978  0.010
    occupations:
  0.705  0.000 -0.000 -0.066  0.002
  0.000  0.606  0.000 -0.000  0.000
 -0.000  0.000  0.609  0.000  0.012
 -0.066 -0.000  0.000  0.631 -0.001
  0.002  0.000  0.012 -0.001  0.717
atom   23   Tr[ns(na)] =   6.54922
    eigenvalues:
  0.580  0.606  0.619  0.653  0.816
    eigenvectors:
  0.000  0.000  0.000  0.981  0.019
  0.000  0.000  1.000  0.000  0.000
  0.000  1.000  0.000  0.000  0.000
  0.000  0.000  0.000  0.019  0.981
  1.000  0.000  0.000  0.000  0.000
    occupations:
  0.656  0.000 -0.000 -0.022 -0.000
  0.000  0.619 -0.000 -0.000  0.000
 -0.000 -0.000  0.606  0.001  0.000
 -0.022 -0.000  0.001  0.813 -0.000
 -0.000  0.000  0.000 -0.000  0.580
N of occupied +U levels =  52.2936245
 --- exit write_ns ---

[...]

          k = 0.2500-0.3828 0.0000 ( 29202 PWs)   bands (ev):

[...]

          k =-0.2500 0.1914 0.0000 ( 29229 PWs)   bands (ev):

   -82.1824 -81.5715 -81.4874 -81.3359 -81.2957 -81.0625 -81.0235 -80.9749
   -44.3591 -44.0292 -43.8942 -43.6528 -43.4969 -43.4877 -43.4670 -43.3922
   -43.3484 -43.3347 -43.2724 -43.1872 -43.1560 -43.0819 -43.0745 -43.0326
   -42.9924 -42.9723 -42.9646 -42.9114 -42.9102 -42.8506 -42.7510 -42.5177
   -21.0713 -20.6559 -20.5958 -20.4717 -20.3755 -20.1003 -20.0791 -20.0463
   -19.8510 -19.7572 -19.6584 -19.6158 -19.5498 -19.3871 -19.3596 -19.1867
   -18.6271 -18.5684 -18.3706  -9.2541  -9.0884  -8.9961  -8.8803  -8.7708
    -8.6908  -8.5291  -8.4587  -8.2396  -8.1576  -8.0759  -7.8360  -7.7519
    -7.6215  -7.4418  -7.3080  -7.1621  -7.0035  -6.9053  -6.7977  -6.6792
    -6.4961  -6.4023  -6.2706  -6.0744  -6.0095  -5.8788  -5.7738  -5.7104
    -5.5052  -5.4349  -5.3544  -5.2596  -5.2023  -5.0626  -5.0075  -4.9191
    -4.8787  -4.7953  -4.6684  -4.4478  -4.3943  -4.2333  -4.1640  -4.0750
    -4.0313  -3.9270  -3.8681  -3.7212  -3.6559  -3.5872  -3.5298  -3.3615
    -3.1947  -3.0512  -2.9570  -2.8465  -2.4764  -2.4322  -2.1488  -1.2961
    -1.2034  -1.1398  -0.9485  -0.3285  -0.2986   0.1907   0.2774   0.3244
     0.5077   0.5531   0.6670   0.8885   1.0689   1.2119   1.2851   1.3113
     1.3794   1.6286   1.6415   1.9096   2.1503   3.2424   3.4366   3.4578
     3.6292   3.7099   3.8808   4.1595   4.2586   4.3809   4.4782   4.6814
     4.8244   5.2210   5.4538   5.5349   5.7714   5.8619   6.0499   6.1756
     6.2626   6.4181   6.6710   6.8699   7.0999   7.2564   7.3924   7.5941
     7.6164   7.8186   8.0578   8.1053   8.2200   8.3628   8.5261   8.5918
     8.6307   8.7023   8.9173   9.0343   9.1488   9.3707   9.4578   9.5769
     9.6660   9.7640   9.8405   9.8880   9.9302  10.0075  10.0451  10.1841
    10.2542  10.3263  10.3967  10.4331  10.5355  10.6777  10.7834  10.9081
    11.0136  11.0843  11.1784  11.3660  11.4149  11.5356  11.5902  11.7898
    11.8341  11.9373  12.1026  12.2393  12.3541  12.5251  12.5465  12.5959
    12.6887  12.7164  12.8186  12.8758  12.9664  13.0463  13.1096  13.2494
    13.3311  13.4778  13.5450  13.5900  13.6900  13.7395  13.7624  13.8523
    13.8666  13.9308  14.0465  14.1250  14.1707  14.2167  14.2508  14.4156
    14.4750  14.4891  14.5163  14.6534  14.6674  14.8069  14.8372  14.9023
    14.9977  15.0232  15.0733  15.1453  15.1878  15.2339  15.2955  15.4719
    15.5344  15.5778  15.6683  15.7825  15.8900  16.0478  16.0937  16.1477
    16.2174  16.2997  16.3432  16.4380  16.5191  16.5567  16.6211  16.6652
    16.7655  16.8722  16.9348  17.0406  17.1262  17.1814  17.2543  17.3610
    17.4564  17.4987  17.5966  17.7234  17.7490  17.8195  17.8924  17.9396
    18.0043  18.0877  18.1367  18.1800  18.2887  18.3071  18.3532  18.4314
    18.5090  18.6123  18.6551  18.7336  18.8022  18.8945  18.9477  19.0184
    19.0928  19.1928  19.2896  19.4145  19.4848  19.5719  19.6385  19.6960
    19.7748  19.9014  19.9962  20.0598  20.0961  20.1964  20.2249  20.3525
    20.4688  20.4900  20.5685  20.5980  20.6643  20.7037  20.8124  20.8804
    20.9396  21.0315  21.0851  21.1674  21.1997  21.2609  21.2957  21.3672
    21.4335  21.4796  21.5551  21.6168  21.6399  21.7339  21.8229  21.9080
    21.9697  22.0509  22.0941  22.1785  22.2065  22.2355  22.3234  22.4131
    22.4314  22.4811  22.5285  22.5678  22.6370  22.6868  22.7162  22.7837
    22.8082  22.8700  22.9371  22.9913  23.0443

     the Fermi energy is     0.2433 ev

!    total energy              =   -2174.07927973 Ry
     Harris-Foulkes estimate   =   -2174.07927973 Ry
     estimated scf accuracy    <          7.0E-09 Ry

     The total energy is the sum of the following terms:

     one-electron contribution =  -24232.86475144 Ry
     hartree contribution      =   12131.26297752 Ry
     xc contribution           =    -594.25628416 Ry
     ewald contribution        =   10520.49397048 Ry
     Hubbard energy            =       1.28609581 Ry
     smearing contrib. (-TS)   =      -0.00128795 Ry

     convergence has been achieved in  15 iterations

     Forces acting on atoms (Ry/au):

     negative rho (up, down):  0.247E+00 0.000E+00
     atom    1 type  1   force =    -0.00681503   -0.00685762   -0.00053868
     atom    2 type  1   force =     0.00007883    0.00439814   -0.00031170
     atom    3 type  2   force =     0.03370642   -0.00292599   -0.00016686
     atom    4 type  2   force =     0.00185690    0.00747423    0.00039960
     atom    5 type  1   force =     0.00346191    0.00867930    0.00025876
     atom    6 type  1   force =     0.00201692   -0.00915076    0.00033800
     atom    7 type  1   force =    -0.00004602   -0.00016773    0.00012377
     atom    8 type  1   force =     0.00259154   -0.00120562   -0.00016955
     atom    9 type  2   force =    -0.01704937    0.00185676   -0.00009407
     atom   10 type  2   force =    -0.00011982   -0.00104920    0.00015596
     atom   11 type  1   force =    -0.01312471   -0.01449544   -0.00041312
     atom   12 type  1   force =    -0.01402572    0.01437398   -0.00045453
     atom   13 type  1   force =    -0.00041265   -0.00042967    0.00041670
     atom   14 type  1   force =    -0.00307571   -0.00621212   -0.00035102
     atom   15 type  1   force =    -0.00006405    0.00263006   -0.00026898
     atom   16 type  2   force =    -0.03402402   -0.00274126   -0.00017099
     atom   17 type  2   force =     0.00118830    0.00813621    0.00017180
     atom   18 type  1   force =     0.00003281    0.00852508    0.00027684
     atom   19 type  1   force =    -0.00153479   -0.00904364    0.00032539
     atom   20 type  1   force =    -0.00004615   -0.00156640   -0.00062693
     atom   21 type  1   force =     0.00313830   -0.00191426    0.00025966
     atom   22 type  2   force =     0.01367175    0.00216238   -0.00010322
     atom   23 type  2   force =     0.00010445    0.00012491    0.00047163
     atom   24 type  1   force =     0.01354922   -0.01461856   -0.00041643
     atom   25 type  1   force =     0.01358868    0.01417633   -0.00044627
     atom   26 type  1   force =    -0.00046926   -0.00080481    0.00031071
     atom   27 type  3   force =    -0.00000442    0.00028046    0.00044468
     atom   28 type  3   force =    -0.00000368    0.00023718    0.00036177
     atom   29 type  3   force =     0.00094210    0.00010813   -0.00001015
     atom   30 type  3   force =     0.00088635    0.00003338    0.00000882
     atom   31 type  1   force =     0.00000092   -0.00001344    0.00021842

     Total force =     0.002276     Total SCF correction =     0.000447
     SCF correction compared to forces is large: reduce conv_thr to get better values

     bfgs converged in   7 scf cycles and   6 bfgs steps
     (criteria: energy < 0.10E-03, force < 0.10E-02)

     End of BFGS Geometry Optimization

     Final energy   =   -2174.0792797299 Ry
Begin final coordinates

ATOMIC_POSITIONS (crystal)
O0       0.000000000   0.000000000   0.370559801    0   0   1
O0       0.000000000   0.500000000   0.383224196    0   0   1
Re1      0.250000000   0.500000000   0.442733542    0   0   1
Re1      0.000000000   0.000000000   0.443071363    0   0   1
O0       0.250000000   0.780000000   0.441765865    0   0   1
O0       0.250000000   0.220000000   0.441526310    0   0   1
O0       0.000000000   0.500000000   0.497597593    0   0   1
O0       0.000000000   0.000000000   0.514232041    0   0   1
Re1      0.250000000   0.000000000   0.573769041    0   0   1
Re1      0.000000000   0.500000000   0.567142232    0   0   1
O0       0.250000000   0.720000000   0.571471683    0   0   1
O0       0.250000000   0.280000000   0.571516827    0   0   1
O0       0.000000000   0.000000000   0.625910634    0   0   1
O0       0.500000000   0.000000000   0.370498586    0   0   1
O0       0.500000000   0.500000000   0.383434395    0   0   1
Re1      0.750000000   0.500000000   0.442728595    0   0   1
Re1      0.500000000   0.000000000   0.442724912    0   0   1
O0       0.750000000   0.780000000   0.441654049    0   0   1
O0       0.750000000   0.220000000   0.441601458    0   0   1
O0       0.500000000   0.500000000   0.500283174    0   0   1
O0       0.500000000   0.000000000   0.514192483    0   0   1
Re1      0.750000000   0.000000000   0.573811575    0   0   1
Re1      0.500000000   0.500000000   0.576393772    0   0   1
O0       0.750000000   0.720000000   0.571540553    0   0   1
O0       0.750000000   0.280000000   0.571507742    0   0   1
O0       0.500000000   0.000000000   0.625287609    0   0   1
H2      -0.000336454   0.624920465   0.366300490
H2       0.499586766   0.622155603   0.365235795
H2       0.168187178   0.023651553   0.355947562
H2       0.669736910   0.021628849   0.356157923
O0       0.499893581   0.499404314   0.640028201
End final coordinates

     General routines

     Parallel routines
     Hubbard U routines

   This run was terminated on:  14:40: 1   1May2014

   JOB DONE.