     Program PWSCF v.5.0.2 (svn rev. 9656) starts on  7Apr2014 at 20:32:36

     Current dimensions of program PWSCF are:
     Max number of different atomic species (ntypx) = 10
     Max number of k-points (npk) =  40000
     Max angular momentum in pseudopotentials (lmaxx) =  3
     Reading input from pwscf.in
Warning: card &CELL ignored
Warning: card / ignored

     Subspace diagonalization in iterative solution of the eigenvalue problem:
     a serial algorithm will be used

     bravais-lattice index     =            0
     lattice parameter (alat)  =      12.0187  a.u.
     unit-cell volume          =    7280.5819 (a.u.)^3
     number of atoms/cell      =           32
     number of atomic types    =            3
     number of electrons       =       239.00
     number of Kohn-Sham states=          358
     kinetic-energy cutoff     =      40.0000  Ry
     charge density cutoff     =     500.0000  Ry
     convergence threshold     =      1.0E-06
     mixing beta               =       0.3000
     number of iterations used =            8  plain     mixing
     Exchange-correlation      = SLA  PW   PBE  PBE ( 1 4 3 4 0)
     EXX-fraction              =        0.00
     nstep                     =           50

     celldm(1)=  12.018658  celldm(2)=   0.000000  celldm(3)=   0.000000
     celldm(4)=   0.000000  celldm(5)=   0.000000  celldm(6)=   0.000000

     crystal axes: (cart. coord. in units of alat)
               a(1) = (   1.000000   0.000000   0.000000 )
               a(2) = (   0.000000   1.009517   0.000000 )
               a(3) = (   0.000000   0.000000   4.154171 )

     reciprocal axes: (cart. coord. in units 2 pi/alat)
               b(1) = (  1.000000  0.000000  0.000000 )
               b(2) = (  0.000000  0.990572  0.000000 )
               b(3) = (  0.000000  0.000000  0.240722 )

     PseudoPot. # 1 for O  read from file:
     /home/camp/zhonxu/pseudo/o_pbe_v1.01.uspp.F.UPF
     MD5 check sum: 2bcb18d16ea4b960afae9ec6d52f22d2
     Pseudo is Ultrasoft + core correction, Zval =  6.0
     Generated by new atomic code, or converted to UPF format
     Using radial grid of  737 points,  5 beta functions with:
                l(1) =   0
                l(2) =   0
                l(3) =   1
                l(4) =   1
                l(5) =   2
     Q(r) pseudized with  8 coefficients,  rinner =    0.900   0.900   0.900
                                                       0.900   0.900

     PseudoPot. # 2 for Ir read from file:
     /home/camp/zhonxu/pseudo/ir_pbe_v1.uspp.F.UPF
     MD5 check sum: abf987a9674477536ede83817f8f8b70
     Pseudo is Ultrasoft + core correction, Zval = 15.0
     Generated by new atomic code, or converted to UPF format
     Using radial grid of  983 points,  7 beta functions with:
                l(1) =   0
                l(2) =   0
                l(3) =   1
                l(4) =   1
                l(5) =   1
                l(6) =   2
                l(7) =   2
     Q(r) pseudized with  8 coefficients,  rinner =    1.350   1.350   1.350
                                                       1.350   1.350

     PseudoPot. # 3 for H  read from file:
     /home/camp/zhonxu/pseudo/h_pbe_v1.uspp.F.UPF
     MD5 check sum: 3408e3ff4ec8b0a4e358431e7e038a48
     Pseudo is Ultrasoft, Zval =  1.0
     Generated by new atomic code, or converted to UPF format
     Using radial grid of  615 points,  2 beta functions with:
                l(1) =   0
                l(2) =   0
     Q(r) pseudized with  8 coefficients,  rinner =    0.700

     atomic species   valence    mass     pseudopotential
        O0             6.00    15.99940     O ( 1.00)
        Ir1           15.00   192.22000     Ir( 1.00)
        H2             1.00     1.00794     H ( 1.00)

     Starting magnetic structure
     atomic species   magnetization
        O0           0.000
        Ir1          0.000
        H2           0.000

     No symmetry found

   Cartesian axes

     site n.     atom                  positions (alat units)
         1           O0  tau(   1) = (   0.0000000   0.0000000   1.5733093  )
         2           O0  tau(   2) = (   0.0000000   0.5047586   1.6698107  )
         3           Ir1 tau(   3) = (   0.2500000   0.5047586   1.8781424  )
         4           Ir1 tau(   4) = (   0.0000000   0.0000000   1.8844152  )
         5           O0  tau(   5) = (   0.2500000   0.8177090   1.8820473  )
         6           O0  tau(   6) = (   0.2500000   0.1918083   1.8806349  )
         7           O0  tau(   7) = (   0.0000000   0.5047586   2.0694835  )
         8           O0  tau(   8) = (   0.0000000   0.0000000   2.1995922  )
         9           Ir1 tau(   9) = (   0.2500000   0.0000000   2.3955444  )
        10           Ir1 tau(  10) = (   0.0000000   0.5047586   2.3761860  )
        11           O0  tau(  11) = (   0.2500000   0.6965669   2.3928027  )
        12           O0  tau(  12) = (   0.2500000   0.3129503   2.3929688  )
        13           O0  tau(  13) = (   0.0000000   0.0000000   2.5814021  )
        14           O0  tau(  14) = (   0.5000000   0.0000000   1.5726031  )
        15           O0  tau(  15) = (   0.5000000   0.5047586   1.6667782  )
        16           Ir1 tau(  16) = (   0.7500000   0.5047586   1.8781839  )
        17           Ir1 tau(  17) = (   0.5000000   0.0000000   1.8838752  )
        18           O0  tau(  18) = (   0.7500000   0.8177090   1.8820889  )
        19           O0  tau(  19) = (   0.7500000   0.1918083   1.8806764  )
        20           O0  tau(  20) = (   0.5000000   0.5047586   2.0711037  )
        21           O0  tau(  21) = (   0.5000000   0.0000000   2.1996337  )
        22           Ir1 tau(  22) = (   0.7500000   0.0000000   2.3959183  )
        23           Ir1 tau(  23) = (   0.5000000   0.5047586   2.3877346  )
        24           O0  tau(  24) = (   0.7500000   0.6965669   2.3908918  )
        25           O0  tau(  25) = (   0.7500000   0.3129503   2.3911410  )
        26           O0  tau(  26) = (   0.5000000   0.0000000   2.5792834  )
        27           H2  tau(  27) = (  -0.0000400   0.6412050   1.5935817  )
        28           H2  tau(  28) = (   0.4999500   0.6427192   1.5934986  )
        29           H2  tau(  29) = (   0.1436200   0.0338289   1.5249963  )
        30           H2  tau(  30) = (   0.6436400   0.0340712   1.5248717  )
        31           O0  tau(  31) = (   0.5159900   0.5047788   2.6890366  )
        32           H2  tau(  32) = (   0.3711600   0.5049201   2.7452426  )

     number of k points=    20  Methfessel-Paxton smearing, width (Ry)=  0.0100
                       cart. coord. in units 2pi/alat
        k(    1) = (   0.0000000   0.0000000   0.0000000), wk =   0.0625000
        k(    2) = (   0.0000000   0.2476431   0.0000000), wk =   0.1250000
        k(    3) = (   0.0000000  -0.4952862   0.0000000), wk =   0.0625000
        k(    4) = (   0.2500000   0.0000000   0.0000000), wk =   0.1250000
        k(    5) = (   0.2500000   0.2476431   0.0000000), wk =   0.1250000
        k(    6) = (   0.2500000  -0.4952862   0.0000000), wk =   0.1250000
        k(    7) = (  -0.5000000   0.0000000   0.0000000), wk =   0.0625000
        k(    8) = (  -0.5000000   0.2476431   0.0000000), wk =   0.1250000
        k(    9) = (  -0.5000000  -0.4952862   0.0000000), wk =   0.0625000
        k(   10) = (  -0.2500000   0.2476431   0.0000000), wk =   0.1250000
        k(   11) = (   0.0000000   0.0000000   0.0000000), wk =   0.0625000
        k(   12) = (   0.0000000   0.2476431   0.0000000), wk =   0.1250000
        k(   13) = (   0.0000000  -0.4952862   0.0000000), wk =   0.0625000
        k(   14) = (   0.2500000   0.0000000   0.0000000), wk =   0.1250000
        k(   15) = (   0.2500000   0.2476431   0.0000000), wk =   0.1250000
        k(   16) = (   0.2500000  -0.4952862   0.0000000), wk =   0.1250000
        k(   17) = (  -0.5000000   0.0000000   0.0000000), wk =   0.0625000
        k(   18) = (  -0.5000000   0.2476431   0.0000000), wk =   0.1250000
        k(   19) = (  -0.5000000  -0.4952862   0.0000000), wk =   0.0625000
        k(   20) = (  -0.2500000   0.2476431   0.0000000), wk =   0.1250000

     Largest allocated arrays     est. size (Mb)     dimensions
     Largest temporary arrays     est. size (Mb)     dimensions

     Check: negative/imaginary core charge=   -0.000003    0.000000

     Initial potential from superposition of free atoms
     Check: negative starting charge=(component1):   -1.667053
     Check: negative starting charge=(component2):   -1.667053

     starting charge  234.99967, renormalised to  239.00000

     negative rho (up, down):  0.170E+01 0.170E+01
     Starting wfc are  177 randomized atomic wfcs

     Self-consistent Calculation

     iteration #  1     ecut=    40.00 Ry     beta=0.30
     Davidson diagonalization with overlap
     ethr =  1.00E-02,  avg # of iterations =  9.0

     negative rho (up, down):  0.159E+01 0.159E+01

     total energy              =   -2099.91025461 Ry
     Harris-Foulkes estimate   =   -2112.59108828 Ry
     estimated scf accuracy    <      26.95939750 Ry

     total magnetization       =     0.00 Bohr mag/cell
     absolute magnetization    =     0.01 Bohr mag/cell

[...]

     End of self-consistent calculation

 ------ SPIN UP ------------

          k = 0.0000 0.0000 0.0000 ( 31045 PWs)   bands (ev):

   -51.2505 -51.2491 -51.2304 -51.1764 -51.1317 -51.0864 -51.0780 -51.0654
   -51.0496 -51.0287 -50.9777 -50.9218 -50.8965 -50.8863 -50.8816 -50.8802
   -50.8643 -50.8590 -50.7751 -50.7543 -50.7515 -50.7326 -50.7213 -50.5500
   -21.6693 -21.2890 -21.0930 -21.0665 -20.4378 -20.3894 -20.3330 -20.2778
   -20.2024 -20.1776 -20.1567 -19.9221 -19.8120 -19.7329 -19.6924 -19.6342
   -19.4703 -18.6065 -18.4967 -10.2401 -10.2171  -9.7867  -8.9507  -8.7442
    -8.6795  -8.6608  -8.6576  -8.6425  -8.6038  -8.5692  -8.4563  -8.3267
    -8.2133  -8.1364  -8.0048  -7.9666  -7.8917  -7.8096  -7.5701  -7.2998
    -7.2348  -7.0627  -6.9736  -6.5629  -6.3639  -6.3461  -6.3210  -5.9450
    -5.7503  -5.6537  -5.5469  -5.4533  -5.4118  -5.3054  -5.2939  -5.2205
    -5.1111  -5.0161  -4.9482  -4.7689  -4.7394  -4.7173  -4.5373  -4.4750
    -4.3667  -4.2526  -4.1445  -3.9953  -3.9528  -3.9021  -3.8241  -3.5456
    -3.4528  -3.3559  -3.1132  -3.0765  -3.0691  -3.0281  -2.8891  -2.8844
    -2.5922  -2.5622  -2.5106  -2.4458  -2.3392  -2.2654  -2.1578  -1.9965
    -1.8123  -1.6449  -1.5971  -1.4841  -1.4455  -1.1081  -0.8600  -0.7465
    -0.6628  -0.4458  -0.3730  -0.0878   0.1730   0.8232   1.2684   1.3985
     1.4522   1.4798   1.6174   2.0322   2.3063   2.5737   2.7539   3.0317
     3.1695   3.3500   3.3612   3.5579   3.7688   4.1666   4.4211   4.8939
     4.9961   5.7925   5.9811   6.2681   6.3157   6.8997   6.9284   6.9747
     7.2522   7.5632   7.7018   7.7476   7.7892   7.9021   7.9877   8.0507
     8.0593   8.1318   8.2003   8.2928   8.3223   8.3395   8.3824   8.4543
     8.5115   8.6287   8.6665   8.7020   8.7215   8.8201   8.8364   8.8478
     8.8577   8.8890   8.9902   8.9941   9.0132   9.0263   9.0713   9.2195
     9.2818   9.3598   9.4245   9.4555   9.6048   9.6824   9.8677  10.0396
[...]
     atom   15 type  1   force =     0.00034934    0.00576820    0.00154694
     atom   16 type  2   force =    -0.03079506    0.00556631    0.00441285
     atom   17 type  2   force =     0.00977177    0.00826843   -0.00030063
     atom   18 type  1   force =    -0.00152448   -0.01644300   -0.00043850
     atom   19 type  1   force =     0.00251367    0.01463189   -0.00031571
     atom   20 type  1   force =    -0.00132171   -0.00475706    0.00513560
     atom   21 type  1   force =    -0.00356484   -0.00052613   -0.00304583
     atom   22 type  2   force =    -0.00602490    0.00033161   -0.00331700
     atom   23 type  2   force =     0.00742203   -0.00051141   -0.00589023
     atom   24 type  1   force =     0.01016266    0.01067975   -0.00282399
     atom   25 type  1   force =     0.01060196   -0.01072603   -0.00270844
     atom   26 type  1   force =    -0.00184941   -0.00015067   -0.00064558
     atom   27 type  3   force =    -0.00002734   -0.00103011   -0.00014880
     atom   28 type  3   force =    -0.00000956    0.00095273    0.00034475
     atom   29 type  3   force =    -0.00005077    0.00003203    0.00042309
     atom   30 type  3   force =     0.00023323    0.00058363   -0.00032976
     atom   31 type  1   force =    -0.01238863   -0.00001926    0.01166986
     atom   32 type  3   force =     0.00849067    0.00001998    0.00486014

     Total force =     0.024378     Total SCF correction =     0.003469
     SCF correction compared to forces is large: reduce conv_thr to get better values

     BFGS Geometry Optimization

     number of scf cycles    =   1
     number of bfgs steps    =   0

     energy   new            =   -2107.4533814786 Ry

     new trust radius        =       0.0170195188 bohr
     new conv_thr            =       0.0000010000 Ry

ATOMIC_POSITIONS (crystal)
O0       0.000000000   0.000000000   0.378738805    0   0   1
O0       0.000000000   0.500000000   0.401989973    0   0   1
Ir1      0.250000000   0.500000000   0.452197957    0   0   1
Ir1      0.000000000   0.000000000   0.453606652    0   0   1
O0       0.250000000   0.810000000   0.453041060    0   0   1
O0       0.250000000   0.190000000   0.452703518    0   0   1
O0       0.000000000   0.500000000   0.498146432    0   0   1
O0       0.000000000   0.000000000   0.529464867    0   0   1
Ir1      0.250000000   0.000000000   0.576637258    0   0   1
Ir1      0.000000000   0.500000000   0.571848300    0   0   1
O0       0.250000000   0.690000000   0.575993555    0   0   1
O0       0.250000000   0.310000000   0.576036067    0   0   1
O0       0.000000000   0.000000000   0.621367997    0   0   1
O0       0.500000000   0.000000000   0.378558740    0   0   1
O0       0.500000000   0.500000000   0.401260984    0   0   1
Ir1      0.750000000   0.500000000   0.452208385    0   0   1
Ir1      0.500000000   0.000000000   0.453483979    0   0   1
O0       0.750000000   0.810000000   0.453051217    0   0   1
O0       0.750000000   0.190000000   0.452713677    0   0   1
O0       0.500000000   0.500000000   0.498662861    0   0   1
O0       0.500000000   0.000000000   0.529438995    0   0   1
Ir1      0.750000000   0.000000000   0.576683564    0   0   1
Ir1      0.500000000   0.500000000   0.574662025    0   0   1
O0       0.750000000   0.690000000   0.575483438    0   0   1
O0       0.750000000   0.310000000   0.575545753    0   0   1
O0       0.500000000   0.000000000   0.620877070    0   0   1
H2      -0.000042275   0.635075098   0.383607020
H2       0.499949205   0.636738523   0.383596905
H2       0.143615775   0.033512640   0.367108474
H2       0.643659406   0.033798102   0.367063395
O0       0.514959217   0.500018412   0.647543736
H2       0.371866457   0.500161647   0.660937344

     Check: negative starting charge=(component1):   -3.334106
     NEW-OLD atomic charge density approx. for the potential

     Check: negative/imaginary core charge=   -0.000003    0.000000
     Check: negative starting charge=(component1):   -3.333675

[...]

     Total force =     0.022645     Total SCF correction =     0.001921

[...]

     energy   old            =   -2107.4533814786 Ry
     energy   new            =   -2107.4536177974 Ry

     CASE: energy  _new < energy  _old

[...]

     Threshold (ethr) on eigenvalues was too large:
     Diagonalizing with lowered threshold

     Davidson diagonalization with overlap
     ethr =  7.32E-08,  avg # of iterations =  1.0

[...]

     number of scf cycles    =  14
     number of bfgs steps    =  13

     energy   old            =   -2107.4547942149 Ry
     energy   new            =   -2107.4548029215 Ry

     CASE: energy  _new < energy  _old

     new trust radius        =       0.0057167907 bohr
     new conv_thr            =       0.0000000100 Ry

ATOMIC_POSITIONS (crystal)
O0       0.000000000   0.000000000   0.378301739    0   0   1
O0       0.000000000   0.500000000   0.402577170    0   0   1
Ir1      0.250000000   0.500000000   0.452663755    0   0   1
Ir1      0.000000000   0.000000000   0.453131076    0   0   1
O0       0.250000000   0.810000000   0.452786310    0   0   1
O0       0.250000000   0.190000000   0.452497434    0   0   1
O0       0.000000000   0.500000000   0.498237625    0   0   1
O0       0.000000000   0.000000000   0.528807241    0   0   1
Ir1      0.250000000   0.000000000   0.575960538    0   0   1
Ir1      0.000000000   0.500000000   0.571664472    0   0   1
O0       0.250000000   0.690000000   0.575897749    0   0   1
O0       0.250000000   0.310000000   0.575981849    0   0   1
O0       0.000000000   0.000000000   0.620565177    0   0   1
O0       0.500000000   0.000000000   0.378047318    0   0   1
O0       0.500000000   0.500000000   0.401960190    0   0   1
Ir1      0.750000000   0.500000000   0.452675325    0   0   1
Ir1      0.500000000   0.000000000   0.452975708    0   0   1
O0       0.750000000   0.810000000   0.452808154    0   0   1
O0       0.750000000   0.190000000   0.452500605    0   0   1
O0       0.500000000   0.500000000   0.499463569    0   0   1
O0       0.500000000   0.000000000   0.528730147    0   0   1
Ir1      0.750000000   0.000000000   0.575934882    0   0   1
Ir1      0.500000000   0.500000000   0.575585898    0   0   1
O0       0.750000000   0.690000000   0.575225447    0   0   1
O0       0.750000000   0.310000000   0.575330185    0   0   1
O0       0.500000000   0.000000000   0.620116565    0   0   1
H2      -0.000040816   0.633914733   0.383764428
H2       0.500009721   0.636916301   0.384387514
H2       0.143704079   0.033669512   0.366763513
H2       0.643165423   0.035402299   0.366491917
O0       0.515693946   0.499995785   0.648619578
H2       0.374407049   0.500334489   0.663806924

     Check: negative starting charge=(component1):   -3.334634
     NEW-OLD atomic charge density approx. for the potential

     Check: negative/imaginary core charge=   -0.000003    0.000000
     Check: negative starting charge=(component1):   -3.334669

[...]

     Self-consistent Calculation

[...]

     Threshold (ethr) on eigenvalues was too large:
     Diagonalizing with lowered threshold

     Davidson diagonalization with overlap
     ethr =  3.43E-09,  avg # of iterations =  2.3

[...]

     total energy              =   -2107.45481105 Ry
     Harris-Foulkes estimate   =   -2107.45481106 Ry
     estimated scf accuracy    <       0.00000001 Ry

[...]

     iteration # 19     ecut=    40.00 Ry     beta=0.30
     Davidson diagonalization with overlap
     ethr =  5.17E-12,  avg # of iterations =  2.0

     negative rho (up, down):  0.156E+01 0.156E+01

     End of self-consistent calculation

 ------ SPIN UP ------------

[...]

 ------ SPIN DOWN ----------

[...]

          k = 0.2500-0.4953 0.0000 ( 31088 PWs)   bands (ev):

[...]

          k =-0.2500 0.2476 0.0000 ( 31099 PWs)   bands (ev):

   -51.2287 -51.2252 -51.2140 -51.1555 -51.1082 -51.0763 -51.0543 -51.0453
   -51.0415 -51.0331 -50.9788 -50.9086 -50.9081 -50.8970 -50.8801 -50.8723
   -50.8576 -50.8459 -50.7818 -50.7488 -50.7351 -50.7318 -50.7062 -50.5572
   -21.5038 -21.1171 -21.0597 -20.9332 -20.6264 -20.4663 -20.4389 -20.2727
   -20.1763 -20.1426 -20.0765 -19.9128 -19.8889 -19.8407 -19.7365 -19.6698
   -19.4937 -18.6333 -18.5416  -9.7216  -9.5780  -9.5248  -9.1902  -8.8693
    -8.7507  -8.6670  -8.6019  -8.5304  -8.4896  -8.4469  -8.3935  -8.3423
    -8.2864  -7.9572  -7.8997  -7.7954  -7.6540  -7.5110  -7.4179  -7.2927
    -7.0992  -7.0535  -6.9839  -6.5845  -6.4065  -6.3374  -6.2374  -6.1496
    -6.1042  -6.0681  -5.9855  -5.9155  -5.8745  -5.7709  -5.6737  -5.5605
    -5.4528  -5.3560  -5.2000  -4.9881  -4.9072  -4.8101  -4.6650  -4.6325
    -4.4730  -4.4214  -4.2163  -4.1167  -4.0794  -3.9103  -3.7260  -3.6242
    -3.3519  -3.2741  -3.2401  -3.0337  -2.6255  -2.5286  -2.4607  -2.4062
    -2.3368  -2.2966  -2.2564  -2.1736  -2.1321  -2.0962  -2.0497  -1.9169
    -1.8856  -1.6980  -1.5247  -1.3783  -1.0756  -0.9584  -0.7859  -0.7673
    -0.6871  -0.5016  -0.3849  -0.2161  -0.0221   0.9131   0.9564   1.2020
     1.6149   1.6906   2.1127   2.2089   2.6034   2.6594   2.7873   2.8523
     3.0906   3.2545   3.2971   3.6528   3.7905   4.3042   4.8911   5.3129
     5.4615   5.5976   5.7076   6.0457   6.3026   6.5813   6.6744   6.7181
     6.7864   6.9665   7.1835   7.2545   7.3577   7.4177   7.5472   7.6927
     7.9252   8.0447   8.0775   8.1510   8.2643   8.4524   8.5121   8.5511
     8.7142   8.7565   8.8318   8.8379   8.8560   8.8575   8.8735   8.9129
     8.9642   8.9978   9.0023   9.0073   9.0563   9.1548   9.2011   9.4146
     9.5285   9.5886   9.6853   9.7461   9.8208   9.9001  10.0641  10.1468
    10.2302  10.3229  10.3857  10.4736  10.4961  10.5376  10.6183  10.8265
    10.8783  10.9891  11.0115  11.0719  11.1422  11.2455  11.4084  11.5379
    11.5777  11.6893  11.7069  11.7852  11.8325  11.9856  12.1615  12.2135
    12.2637  12.2954  12.3723  12.4481  12.5556  12.6339  12.6619  12.7395
    12.7766  12.8184  12.9228  12.9957  13.0665  13.1126  13.1855  13.2088
    13.3051  13.4182  13.4395  13.5900  13.6419  13.7727  13.8685  13.9265
    13.9883  14.0530  14.1360  14.2139  14.3063  14.3983  14.4541  14.5455
    14.6909  14.7353  14.7830  14.9110  14.9977  15.1465  15.2220  15.2987
    15.4033  15.4327  15.5192  15.5541  15.6241  15.7824  15.8253  15.8697
    15.9201  15.9790  16.0013  16.0952  16.1466  16.1690  16.2281  16.3039
    16.3806  16.4177  16.4367  16.5022  16.5493  16.6458  16.7139  16.7689
    16.8148  16.9105  17.1121  17.1489  17.1841  17.3116  17.3342  17.4217
    17.4896  17.5534  17.5695  17.6359  17.6907  17.7448  17.7732  17.8726
    17.9312  17.9906  18.0404  18.1470  18.2183  18.2685  18.3240  18.3809
    18.4875  18.5641  18.6361  18.6838  18.7700  18.8720  18.9449  18.9812
    19.0494  19.1189  19.1400  19.2316  19.2765  19.3396  19.3861  19.5201
    19.5721  19.6245  19.7075  19.7417  19.8651  19.9218  19.9880  20.0669
    20.1298  20.2274  20.3447  20.3894  20.4401  20.5547  20.6197  20.7194
    20.7529  20.7794  20.8584  20.8849  20.9293  20.9962  21.0726  21.1359
    21.1966  21.2849  21.3160  21.3875  21.4436  21.4839  21.5446  21.5773
    21.7080  21.7534  21.8197  21.8536  21.9174  21.9647

     the Fermi energy is    -0.7772 ev

!    total energy              =   -2107.45481106 Ry
     Harris-Foulkes estimate   =   -2107.45481106 Ry
     estimated scf accuracy    <          3.7E-09 Ry

     The total energy is the sum of the following terms:

     one-electron contribution =  -22716.93281873 Ry
     hartree contribution      =   11401.51260347 Ry
     xc contribution           =    -577.09987020 Ry
     ewald contribution        =    9785.06535439 Ry
     smearing contrib. (-TS)   =      -0.00007999 Ry

     total magnetization       =     0.00 Bohr mag/cell
     absolute magnetization    =     0.00 Bohr mag/cell

     convergence has been achieved in  19 iterations

     Forces acting on atoms (Ry/au):

     negative rho (up, down):  0.156E+01 0.156E+01
     atom    1 type  1   force =    -0.00708648   -0.01398021   -0.00006915
     atom    2 type  1   force =     0.00052760    0.00518527   -0.00041404
     atom    3 type  2   force =     0.03241520    0.00626952   -0.00003091
     atom    4 type  2   force =     0.00929380    0.00851209    0.00007311
     atom    5 type  1   force =    -0.00215926   -0.01659148    0.00012549
     atom    6 type  1   force =     0.00314921    0.01419955    0.00015064
     atom    7 type  1   force =     0.00133334   -0.00164349    0.00052961
     atom    8 type  1   force =    -0.00266599   -0.00069749    0.00018234
     atom    9 type  2   force =     0.00819616    0.00019525    0.00020420
     atom   10 type  2   force =    -0.00738540   -0.00139308    0.00037609
     atom   11 type  1   force =    -0.00766410    0.00666185    0.00014830
     atom   12 type  1   force =    -0.00755418   -0.00635329    0.00013417
     atom   13 type  1   force =    -0.00094739   -0.00010391    0.00011601
     atom   14 type  1   force =    -0.00789139   -0.01466558    0.00000696
     atom   15 type  1   force =     0.00031605    0.00694503    0.00027366
     atom   16 type  2   force =    -0.03347700    0.00564708   -0.00003016
     atom   17 type  2   force =     0.00978564    0.00869962    0.00017013
     atom   18 type  1   force =    -0.00166034   -0.01635559    0.00011159
     atom   19 type  1   force =     0.00273493    0.01477463    0.00012648
     atom   20 type  1   force =    -0.00081251   -0.00475239   -0.00088428
     atom   21 type  1   force =    -0.00394840   -0.00058204    0.00029677
     atom   22 type  2   force =    -0.00540089    0.00044213    0.00001866
     atom   23 type  2   force =     0.00250803   -0.00046861   -0.00063671
     atom   24 type  1   force =     0.00919114    0.01013907   -0.00050879
     atom   25 type  1   force =     0.00975528   -0.01016714   -0.00051329
     atom   26 type  1   force =    -0.00124790   -0.00020334   -0.00003497
     atom   27 type  3   force =    -0.00001449    0.00031090   -0.00005456
     atom   28 type  3   force =     0.00001200   -0.00015763    0.00004054
     atom   29 type  3   force =    -0.00002307   -0.00002111   -0.00016826
     atom   30 type  3   force =    -0.00004712    0.00011427   -0.00013343
     atom   31 type  1   force =     0.00034068    0.00000312    0.00002311
     atom   32 type  3   force =     0.00042685    0.00003698    0.00037068

     Total force =     0.001825     Total SCF correction =     0.000101

     bfgs converged in  15 scf cycles and  14 bfgs steps
     (criteria: energy < 0.10E-03, force < 0.10E-02)

     End of BFGS Geometry Optimization

     Final energy   =   -2107.4548110558 Ry
Begin final coordinates

ATOMIC_POSITIONS (crystal)
O0       0.000000000   0.000000000   0.378301739    0   0   1
O0       0.000000000   0.500000000   0.402577170    0   0   1
Ir1      0.250000000   0.500000000   0.452663755    0   0   1
Ir1      0.000000000   0.000000000   0.453131076    0   0   1
O0       0.250000000   0.810000000   0.452786310    0   0   1
O0       0.250000000   0.190000000   0.452497434    0   0   1
O0       0.000000000   0.500000000   0.498237625    0   0   1
O0       0.000000000   0.000000000   0.528807241    0   0   1
Ir1      0.250000000   0.000000000   0.575960538    0   0   1
Ir1      0.000000000   0.500000000   0.571664472    0   0   1
O0       0.250000000   0.690000000   0.575897749    0   0   1
O0       0.250000000   0.310000000   0.575981849    0   0   1
O0       0.000000000   0.000000000   0.620565177    0   0   1
O0       0.500000000   0.000000000   0.378047318    0   0   1
O0       0.500000000   0.500000000   0.401960190    0   0   1
Ir1      0.750000000   0.500000000   0.452675325    0   0   1
Ir1      0.500000000   0.000000000   0.452975708    0   0   1
O0       0.750000000   0.810000000   0.452808154    0   0   1
O0       0.750000000   0.190000000   0.452500605    0   0   1
O0       0.500000000   0.500000000   0.499463569    0   0   1
O0       0.500000000   0.000000000   0.528730147    0   0   1
Ir1      0.750000000   0.000000000   0.575934882    0   0   1
Ir1      0.500000000   0.500000000   0.575585898    0   0   1
O0       0.750000000   0.690000000   0.575225447    0   0   1
O0       0.750000000   0.310000000   0.575330185    0   0   1
O0       0.500000000   0.000000000   0.620116565    0   0   1
H2      -0.000040816   0.633914733   0.383764428
H2       0.500009721   0.636916301   0.384387514
H2       0.143704079   0.033669512   0.366763513
H2       0.643165423   0.035402299   0.366491917
O0       0.515693946   0.499995785   0.648619578
H2       0.374407049   0.500334489   0.663806924
End final coordinates

     General routines

     Parallel routines

   This run was terminated on:   2:20:49   9Apr2014

   JOB DONE.