     Program PWSCF v.5.0.2 (svn rev. 9656) starts on 25Feb2014 at 15:24:34

     Current dimensions of program PWSCF are:
     Max number of different atomic species (ntypx) = 10
     Max number of k-points (npk) =  40000
     Max angular momentum in pseudopotentials (lmaxx) =  3
     Reading input from slab-relax.in
Warning: card &CELL ignored
Warning: card / ignored

     Subspace diagonalization in iterative solution of the eigenvalue problem:
     a serial algorithm will be used

     Found symmetry operation: I + ( -0.5000  0.0000  0.0000)
     This is a supercell, fractional translations are disabled

     bravais-lattice index     =            0
     lattice parameter (alat)  =      11.7919  a.u.
     unit-cell volume          =    9723.6088 (a.u.)^3
     number of atoms/cell      =           48
     number of atomic types    =            2
     number of electrons       =       448.00
     number of Kohn-Sham states=          648
     kinetic-energy cutoff     =      40.0000  Ry
     charge density cutoff     =     500.0000  Ry
     convergence threshold     =      1.0E-06
     mixing beta               =       0.3000
     number of iterations used =            8  plain     mixing
     Exchange-correlation      = SLA  PW   PBE  PBE ( 1 4 3 4 0)
     EXX-fraction              =        0.00
     nstep                     =           50

     celldm(1)=  11.791891  celldm(2)=   0.000000  celldm(3)=   0.000000
     celldm(4)=   0.000000  celldm(5)=   0.000000  celldm(6)=   0.000000

     crystal axes: (cart. coord. in units of alat)
               a(1) = (   1.000000   0.000000   0.000000 )
               a(2) = (   0.000000   1.026665   0.000000 )
               a(3) = (   0.000000   0.000000   5.776283 )

     reciprocal axes: (cart. coord. in units 2 pi/alat)
               b(1) = (  1.000000  0.000000  0.000000 )
               b(2) = (  0.000000  0.974028  0.000000 )
               b(3) = (  0.000000  0.000000  0.173122 )

     PseudoPot. # 1 for O  read from file:
     /home/camp/zhonxu/pseudo/o_pbe_v1.01.uspp.F.UPF
     MD5 check sum: 2bcb18d16ea4b960afae9ec6d52f22d2
     Pseudo is Ultrasoft + core correction, Zval =  6.0
     Generated by new atomic code, or converted to UPF format
     Using radial grid of  737 points,  5 beta functions with:
                l(1) =   0
                l(2) =   0
                l(3) =   1
                l(4) =   1
                l(5) =   2
     Q(r) pseudized with  8 coefficients,  rinner =    0.900   0.900   0.900
                                                       0.900   0.900

     PseudoPot. # 2 for Ru read from file:
     /home/camp/zhonxu/pseudo/ru_pbe_v1.uspp.F.UPF
     MD5 check sum: df00be1c11b23341d9806d8f1dfa10cf
     Pseudo is Ultrasoft + core correction, Zval = 16.0
     Generated by new atomic code, or converted to UPF format
     Using radial grid of  967 points,  6 beta functions with:
                l(1) =   0
                l(2) =   0
                l(3) =   1
                l(4) =   1
                l(5) =   2
                l(6) =   2
     Q(r) pseudized with  8 coefficients,  rinner =    1.300   1.300   1.300
                                                       1.300   1.300

     atomic species   valence    mass     pseudopotential
        O0             6.00    15.99940     O ( 1.00)
        Ru1           16.00   101.07000     Ru( 1.00)

      4 Sym. Ops. (no inversion) found

   Cartesian axes

     site n.     atom                  positions (alat units)
         1           O0  tau(   1) = (   0.0000000   0.5133323   1.9230980  )
         2           Ru1 tau(   2) = (   0.2500000   0.5133323   2.1181631  )
         3           Ru1 tau(   3) = (   0.0000000   0.0000000   2.1181631  )
         4           O0  tau(   4) = (   0.2500000   0.8315984   2.1181631  )
         5           O0  tau(   5) = (   0.2500000   0.1950663   2.1181631  )
         6           O0  tau(   6) = (   0.0000000   0.5133323   2.3132282  )
         7           O0  tau(   7) = (   0.0000000   0.0000000   2.4364363  )
         8           Ru1 tau(   8) = (   0.2500000   0.0000000   2.6315014  )
         9           Ru1 tau(   9) = (   0.0000000   0.5133323   2.6315014  )
        10           O0  tau(  10) = (   0.2500000   0.7083986   2.6315014  )
        11           O0  tau(  11) = (   0.2500000   0.3182660   2.6315014  )
        12           O0  tau(  12) = (   0.0000000   0.0000000   2.8265665  )
        13           O0  tau(  13) = (   0.0000000   0.5133323   2.9497169  )
        14           Ru1 tau(  14) = (   0.2500000   0.5133323   3.1447820  )
        15           Ru1 tau(  15) = (   0.0000000   0.0000000   3.1447820  )
        16           O0  tau(  16) = (   0.2500000   0.8315984   3.1447820  )
        17           O0  tau(  17) = (   0.2500000   0.1950663   3.1447820  )
        18           O0  tau(  18) = (   0.0000000   0.5133323   3.3398471  )
        19           O0  tau(  19) = (   0.0000000   0.0000000   3.4630552  )
        20           Ru1 tau(  20) = (   0.2500000   0.0000000   3.6581203  )
        21           Ru1 tau(  21) = (   0.0000000   0.5133323   3.6581203  )
        22           O0  tau(  22) = (   0.2500000   0.7083986   3.6581203  )
        23           O0  tau(  23) = (   0.2500000   0.3182660   3.6581203  )
        24           O0  tau(  24) = (   0.0000000   0.0000000   3.8531854  )
        25           O0  tau(  25) = (   0.5000000   0.5133323   1.9230980  )
        26           Ru1 tau(  26) = (   0.7500000   0.5133323   2.1181631  )
        27           Ru1 tau(  27) = (   0.5000000   0.0000000   2.1181631  )
        28           O0  tau(  28) = (   0.7500000   0.8315984   2.1181631  )
        29           O0  tau(  29) = (   0.7500000   0.1950663   2.1181631  )
        30           O0  tau(  30) = (   0.5000000   0.5133323   2.3132282  )
        31           O0  tau(  31) = (   0.5000000   0.0000000   2.4364363  )
        32           Ru1 tau(  32) = (   0.7500000   0.0000000   2.6315014  )
        33           Ru1 tau(  33) = (   0.5000000   0.5133323   2.6315014  )
        34           O0  tau(  34) = (   0.7500000   0.7083986   2.6315014  )
        35           O0  tau(  35) = (   0.7500000   0.3182660   2.6315014  )
        36           O0  tau(  36) = (   0.5000000   0.0000000   2.8265665  )
        37           O0  tau(  37) = (   0.5000000   0.5133323   2.9497169  )
        38           Ru1 tau(  38) = (   0.7500000   0.5133323   3.1447820  )
        39           Ru1 tau(  39) = (   0.5000000   0.0000000   3.1447820  )
        40           O0  tau(  40) = (   0.7500000   0.8315984   3.1447820  )
        41           O0  tau(  41) = (   0.7500000   0.1950663   3.1447820  )
        42           O0  tau(  42) = (   0.5000000   0.5133323   3.3398471  )
        43           O0  tau(  43) = (   0.5000000   0.0000000   3.4630552  )
        44           Ru1 tau(  44) = (   0.7500000   0.0000000   3.6581203  )
        45           Ru1 tau(  45) = (   0.5000000   0.5133323   3.6581203  )
        46           O0  tau(  46) = (   0.7500000   0.7083986   3.6581203  )
        47           O0  tau(  47) = (   0.7500000   0.3182660   3.6581203  )
        48           O0  tau(  48) = (   0.5000000   0.0000000   3.8531854  )

     number of k points=     9  Methfessel-Paxton smearing, width (Ry)=  0.0100
                       cart. coord. in units 2pi/alat
        k(    1) = (   0.0000000   0.0000000   0.0000000), wk =   0.1250000
        k(    2) = (   0.0000000   0.2435070   0.0000000), wk =   0.2500000
        k(    3) = (   0.0000000  -0.4870139   0.0000000), wk =   0.1250000
        k(    4) = (   0.2500000   0.0000000   0.0000000), wk =   0.2500000
        k(    5) = (   0.2500000   0.2435070   0.0000000), wk =   0.5000000
        k(    6) = (   0.2500000  -0.4870139   0.0000000), wk =   0.2500000
        k(    7) = (  -0.5000000   0.0000000   0.0000000), wk =   0.1250000
        k(    8) = (  -0.5000000   0.2435070   0.0000000), wk =   0.2500000
        k(    9) = (  -0.5000000  -0.4870139   0.0000000), wk =   0.1250000

     Largest allocated arrays     est. size (Mb)     dimensions
     Largest temporary arrays     est. size (Mb)     dimensions

     Check: negative/imaginary core charge=   -0.000004    0.000000

     Initial potential from superposition of free atoms
     Check: negative starting charge=   -1.046242

     starting charge  431.99970, renormalised to  448.00000

     negative rho (up, down):  0.108E+01 0.000E+00
     Starting wfc are  336 randomized atomic wfcs

     Self-consistent Calculation

     iteration #  1     ecut=    40.00 Ry     beta=0.30
     Davidson diagonalization with overlap
     ethr =  1.00E-02,  avg # of iterations =  6.7

     negative rho (up, down):  0.115E+01 0.000E+00

     total energy              =   -4116.31983533 Ry
     Harris-Foulkes estimate   =   -4131.21555700 Ry
     estimated scf accuracy    <      31.74992590 Ry

[...]

     End of self-consistent calculation

          k = 0.0000 0.0000 0.0000 ( 41487 PWs)   bands (ev):

   -72.9044 -72.9043 -72.8941 -72.8941 -72.7444 -72.7443 -72.7339 -72.7338
   -72.6524 -72.6522 -72.6421 -72.6419 -72.4255 -72.4254 -72.4149 -72.4149
   -42.9677 -42.9676 -42.9650 -42.9650 -42.9543 -42.9542 -42.9048 -42.9039
   -42.8899 -42.8894 -42.8650 -42.8638 -42.8503 -42.8498 -42.7885 -42.7883
   -42.7878 -42.7878 -42.7493 -42.7493 -42.7235 -42.7234 -42.6858 -42.6856
   -42.6099 -42.6092 -42.6021 -42.6019 -42.5654 -42.5654 -42.5633 -42.5633
   -42.5593 -42.5589 -42.5385 -42.5384 -42.5055 -42.5049 -42.4534 -42.4532
   -42.4252 -42.4248 -42.3567 -42.3567 -42.2689 -42.2689 -42.2387 -42.2387
   -19.2473 -19.0439 -18.8328 -18.7372 -18.6653 -18.4302 -18.2731 -18.2498
   -18.2073 -18.1758 -18.1317 -18.0233 -18.0112 -18.0024 -17.9588 -17.9538
   -17.9415 -17.8931 -17.8901 -17.8481 -17.8130 -17.7888 -17.6740 -17.6130
   -17.4408 -17.4305 -17.3658 -17.3086 -16.5966 -16.5966 -16.5326 -16.5287
    -7.4413  -7.4392  -7.4185  -7.4039  -7.1682  -7.1667  -6.4503  -6.4206
    -6.2383  -6.1985  -6.1860  -6.1418  -6.1153  -6.0672  -6.0343  -6.0163
    -6.0130  -6.0012  -5.9914  -5.9696  -5.8890  -5.8865  -5.8598  -5.8219
    -5.8107  -5.7586  -5.7444  -5.7182  -5.5871  -5.5574  -5.5249  -5.5165
    -5.4881  -5.4016  -5.3845  -5.2366  -4.9840  -4.8911  -4.8291  -4.7183
    -4.6817  -4.0624  -4.0478  -3.9676  -3.9615  -3.9448  -3.9104  -3.9037
    -3.8852  -3.8695  -3.7392  -3.6891  -3.6098  -3.6037  -3.5687  -3.4504
    -3.4406  -3.4370  -3.4110  -3.3406  -3.2659  -3.2352  -3.2252  -3.0920
    -2.9831  -2.9077  -2.8735  -2.8479  -2.8364  -2.7740  -2.7254  -2.6515
    -2.6260  -2.5855  -2.5762  -2.5590  -2.4554  -2.4420  -2.4141  -2.3104
    -2.2509  -2.2509  -2.0537  -1.9375  -1.9087  -1.9082  -1.8959  -1.8856
    -1.7920  -1.7435  -1.6145  -1.4537  -1.3834  -1.3221  -1.1850  -1.1676
    -0.5723  -0.5576  -0.5571  -0.5286  -0.5255  -0.5140  -0.4842  -0.4436
    -0.4198  -0.2984  -0.2811  -0.1683  -0.1268  -0.1177  -0.0851  -0.0103
    -0.0003   0.0807   0.1089   0.1260   0.1726   0.1732   0.1771   0.2068
     0.2263   0.2587   0.2636   0.3159   0.4369   0.4572   0.4674   0.6115
[...]
     energy   new            =   -4124.2973618588 Ry

     CASE: energy  _new < energy  _old

     new trust radius        =       0.0049410584 bohr
     new conv_thr            =       0.0000000100 Ry

ATOMIC_POSITIONS (crystal)
O0       0.000000000   0.500000000   0.332930000    0   0   0
Ru1      0.250000000   0.500000000   0.366700000    0   0   0
Ru1      0.000000000   0.000000000   0.366700000    0   0   0
O0       0.250000000   0.810000000   0.366700000    0   0   0
O0       0.250000000   0.190000000   0.366700000    0   0   0
O0       0.000000000   0.500000000   0.400470000    0   0   0
O0       0.000000000   0.000000000   0.421800000    0   0   0
Ru1      0.250000000   0.000000000   0.455570000    0   0   0
Ru1      0.000000000   0.500000000   0.455570000    0   0   0
O0       0.250000000   0.690000000   0.455570000    0   0   0
O0       0.250000000   0.310000000   0.455570000    0   0   0
O0       0.000000000   0.000000000   0.489340000    0   0   0
O0       0.000000000   0.500000000   0.509450064
Ru1      0.250000011   0.500000000   0.543722662
Ru1      0.000000000   0.000000000   0.544600240
O0       0.250000006   0.806468195   0.544217956
O0       0.250000006   0.193531805   0.544217956
O0       0.000000000   0.500000000   0.577998280
O0       0.000000000   0.000000000   0.598665924
Ru1      0.250000025   0.000000000   0.635674383
Ru1      0.000000000   0.500000000   0.630218611
O0       0.250000123   0.689657306   0.634660506
O0       0.250000123   0.310342694   0.634660506
O0       0.000000000   0.000000000   0.665938252
O0       0.500000000   0.500000000   0.332930000    0   0   0
Ru1      0.750000000   0.500000000   0.366700000    0   0   0
Ru1      0.500000000   0.000000000   0.366700000    0   0   0
O0       0.750000000   0.810000000   0.366700000    0   0   0
O0       0.750000000   0.190000000   0.366700000    0   0   0
O0       0.500000000   0.500000000   0.400470000    0   0   0
O0       0.500000000   0.000000000   0.421800000    0   0   0
Ru1      0.750000000   0.000000000   0.455570000    0   0   0
Ru1      0.500000000   0.500000000   0.455570000    0   0   0
O0       0.750000000   0.690000000   0.455570000    0   0   0
O0       0.750000000   0.310000000   0.455570000    0   0   0
O0       0.500000000   0.000000000   0.489340000    0   0   0
O0       0.500000000   0.500000000   0.509450064
Ru1      0.749999989   0.500000000   0.543722662
Ru1      0.500000000   0.000000000   0.544600254
O0       0.749999994   0.806468195   0.544217956
O0       0.749999994   0.193531805   0.544217956
O0       0.500000000   0.500000000   0.577998269
O0       0.500000000   0.000000000   0.598665931
Ru1      0.749999975  -0.000000000   0.635674383
Ru1      0.500000000   0.500000000   0.630218663
O0       0.749999877   0.689657306   0.634660506
O0       0.749999877   0.310342694   0.634660506
O0       0.500000000   0.000000000   0.665938212

     Check: negative starting charge=   -1.046900
     NEW-OLD atomic charge density approx. for the potential

     Check: negative/imaginary core charge=   -0.000004    0.000000
     Check: negative starting charge=   -1.046882

[...]

     Self-consistent Calculation

[...]

     total energy              =   -4124.29737984 Ry
     Harris-Foulkes estimate   =   -4124.29737984 Ry
     estimated scf accuracy    <       0.00000001 Ry

     iteration # 26     ecut=    40.00 Ry     beta=0.30
     Davidson diagonalization with overlap
     ethr =  2.44E-12,  avg # of iterations =  1.0

     negative rho (up, down):  0.115E+01 0.000E+00

     End of self-consistent calculation

[...]

          k = 0.2500-0.4870 0.0000 ( 41596 PWs)   bands (ev):

[...]

          k =-0.5000-0.4870 0.0000 ( 41560 PWs)   bands (ev):

   -72.9159 -72.9159 -72.7702 -72.7702 -72.6095 -72.6095 -72.5857 -72.5857
   -72.5526 -72.5526 -72.5486 -72.5486 -72.4852 -72.4852 -72.2905 -72.2905
   -43.0144 -43.0144 -42.8815 -42.8815 -42.8335 -42.8335 -42.7915 -42.7915
   -42.7913 -42.7913 -42.7745 -42.7745 -42.7630 -42.7630 -42.7603 -42.7603
   -42.7416 -42.7416 -42.7254 -42.7254 -42.6093 -42.6093 -42.5660 -42.5660
   -42.5301 -42.5301 -42.4884 -42.4884 -42.4856 -42.4856 -42.4560 -42.4560
   -42.4491 -42.4491 -42.4348 -42.4348 -42.4273 -42.4273 -42.3416 -42.3415
   -42.3360 -42.3360 -42.3171 -42.3171 -42.2890 -42.2890 -42.1267 -42.1267
   -18.6218 -18.6218 -18.3852 -18.3852 -18.2647 -18.2647 -18.1434 -18.1434
   -18.0425 -18.0425 -17.9944 -17.9944 -17.9591 -17.9591 -17.8938 -17.8938
   -17.8234 -17.8234 -17.7758 -17.7758 -17.7577 -17.7577 -17.6987 -17.6987
   -17.6922 -17.6922 -17.6162 -17.6162 -17.2765 -17.2765 -16.5218 -16.5218
    -6.6333  -6.6333  -6.4689  -6.4689  -6.1603  -6.1603  -5.9751  -5.9751
    -5.8790  -5.8790  -5.8617  -5.8617  -5.8551  -5.8551  -5.8376  -5.8376
    -5.8047  -5.8047  -5.7840  -5.7840  -5.5507  -5.5507  -5.5402  -5.5402
    -5.5099  -5.5099  -5.4409  -5.4409  -5.4229  -5.4229  -5.1690  -5.1690
    -5.1460  -5.1460  -5.1156  -5.1156  -5.1144  -5.1144  -5.0841  -5.0841
    -4.6865  -4.6865  -4.5739  -4.5739  -4.5513  -4.5513  -4.4270  -4.4270
    -4.0743  -4.0743  -4.0394  -4.0394  -3.9766  -3.9766  -3.8184  -3.8184
    -3.7646  -3.7646  -3.6868  -3.6868  -3.6657  -3.6657  -3.6621  -3.6621
    -3.4853  -3.4853  -3.4001  -3.4001  -3.3825  -3.3825  -3.3492  -3.3492
    -2.9914  -2.9914  -2.9422  -2.9422  -2.4554  -2.4554  -2.2854  -2.2854
    -2.1989  -2.1989  -2.1480  -2.1480  -2.0111  -2.0111  -1.9534  -1.9534
    -1.7418  -1.7418  -1.7180  -1.7180  -1.6529  -1.6529  -1.4820  -1.4820
    -0.3827  -0.3826  -0.3162  -0.3162  -0.0693  -0.0693  -0.0423  -0.0423
     0.1230   0.1230   0.2481   0.2481   0.3348   0.3348   0.3674   0.3674
     0.6577   0.6577   0.8209   0.8209   0.8750   0.8750   0.9411   0.9411
     1.0102   1.0102   1.0207   1.0207   1.0714   1.0714   1.1116   1.1116
     1.1198   1.1198   1.1918   1.1918   1.3301   1.3301   1.3911   1.3911
     1.4659   1.4659   1.5176   1.5176   1.5961   1.5961   1.6521   1.6521
     2.3537   2.3537   2.6563   2.6563   3.4263   3.4263   3.4787   3.4787
     3.5377   3.5377   3.5988   3.5988   3.7494   3.7494   3.8175   3.8175
     4.3838   4.3838   4.4521   4.4521   4.7827   4.7827   4.8637   4.8637
     5.2668   5.2668   5.3408   5.3408   5.5511   5.5511   5.6173   5.6173
     6.9467   6.9467   6.9733   6.9733   7.6460   7.6460   7.8328   7.8328
     7.9355   7.9355   7.9628   7.9628   8.2319   8.2319   8.2653   8.2653
     8.6608   8.6608   8.6936   8.6936   9.1905   9.1905   9.2157   9.2157
     9.6267   9.6267   9.6429   9.6429   9.9445   9.9445   9.9970   9.9970
    10.1405  10.1405  10.1976  10.1976  10.7487  10.7487  10.7922  10.7922
    10.9706  10.9706  10.9937  10.9937  11.5649  11.5649  11.6031  11.6031
    12.0214  12.0214  12.0573  12.0573  12.6562  12.6562  12.6972  12.6972
    13.0574  13.0574  13.0731  13.0731  13.3292  13.3292  13.3975  13.3975
    13.8092  13.8093  13.8298  13.8298  13.8889  13.8889  13.9079  13.9079
    13.9919  13.9919  14.1300  14.1300  14.1603  14.1603  14.2508  14.2508
    14.2866  14.2866  14.3608  14.3608  14.5080  14.5080  14.6511  14.6511
    14.7887  14.7887  14.8124  14.8124  14.9332  14.9332  14.9648  14.9648
    15.1136  15.1136  15.1757  15.1757  15.1866  15.1866  15.1956  15.1956
    15.3352  15.3352  15.3527  15.3527  15.5267  15.5267  15.5555  15.5555
    15.6439  15.6439  15.6473  15.6473  15.7346  15.7346  15.7370  15.7370
    15.8210  15.8210  15.8651  15.8651  15.9807  15.9807  16.0285  16.0285
    16.0751  16.0751  16.0917  16.0917  16.1673  16.1673  16.1765  16.1765
    16.3361  16.3361  16.3694  16.3694  16.4219  16.4219  16.4308  16.4308
    16.6910  16.6910  16.7357  16.7357  16.7783  16.7783  16.8643  16.8643
    17.0000  17.0000  17.0046  17.0046  17.2369  17.2369  17.2457  17.2457
    17.4232  17.4232  17.4346  17.4346  17.7089  17.7089  17.7145  17.7145
    17.8122  17.8122  17.8927  17.8927  18.0447  18.0447  18.0592  18.0592
    18.2419  18.2419  18.3191  18.3191  18.3350  18.3350  18.3814  18.3814
    18.5195  18.5195  18.5207  18.5207  18.7721  18.7721  18.8391  18.8391
    18.9922  18.9922  19.1185  19.1185  19.1487  19.1487  19.2139  19.2139
    19.3572  19.3572  19.3937  19.3937  19.5055  19.5055  19.5281  19.5281
[...]
    22.7753  22.7753  22.8459  22.8459  22.8804  22.8804  22.9010  22.9010
    22.9560  22.9560  23.0350  23.0350  23.1286  23.1286  23.1728  23.1728
    23.2943  23.2943  23.2944  23.2944  23.4255  23.4255  23.4403  23.4403
    23.6648  23.6648  23.7186  23.7186  23.8098  23.8098  23.8811  23.8811
    23.9568  23.9568  23.9589  23.9589  24.0828  24.0828  24.0941  24.0941
    24.1465  24.1465  24.1653  24.1653  24.4143  24.4143  24.4314  24.4314
    24.4760  24.4760  24.4806  24.4806  24.5942  24.5942  24.6366  24.6366
    24.9261  24.9261  24.9388  24.9388  25.0040  25.0040  25.0205  25.0205
    25.2227  25.2227  25.2235  25.2235  25.3876  25.3876  25.4082  25.4082
    25.5047  25.5047  25.5219  25.5219  25.6905  25.6905  25.7279  25.7279
    25.8343  25.8343  25.9149  25.9149  26.0056  26.0056  26.0607  26.0607
    26.1425  26.1425  26.2009  26.2009  26.4463  26.4463  26.5373  26.5373
    26.6020  26.6020  26.6703  26.6703  26.9561  26.9561  26.9999  26.9999
    27.0259  27.0259  27.0989  27.0989  27.1809  27.1809  27.1846  27.1846
    27.3595  27.3595  27.3685  27.3685  27.3992  27.3992  27.4539  27.4539

     the Fermi energy is     1.0034 ev

!    total energy              =   -4124.29737983 Ry
     Harris-Foulkes estimate   =   -4124.29737984 Ry
     estimated scf accuracy    <          4.2E-09 Ry

     The total energy is the sum of the following terms:

     one-electron contribution =  -86176.57074938 Ry
     hartree contribution      =   43145.81904891 Ry
     xc contribution           =    -626.87792384 Ry
     ewald contribution        =   39533.33378037 Ry
     smearing contrib. (-TS)   =      -0.00153590 Ry

     convergence has been achieved in  26 iterations

     Forces acting on atoms (Ry/au):

     negative rho (up, down):  0.115E+01 0.000E+00
     atom    1 type  1   force =     0.00000000    0.00000000    0.05547939
     atom    2 type  2   force =     0.00000003    0.00000000   -0.08850400
     atom    3 type  2   force =     0.00000000    0.00000000    0.08283102
     atom    4 type  1   force =    -0.00000053   -0.00419917   -0.02527280
     atom    5 type  1   force =    -0.00000053    0.00419917   -0.02527280
     atom    6 type  1   force =     0.00000000    0.00000000    0.03776301
     atom    7 type  1   force =     0.00000000    0.00000000   -0.03012940
     atom    8 type  2   force =     0.00000003    0.00000000   -0.02094388
     atom    9 type  2   force =     0.00000000    0.00000000   -0.01341164
     atom   10 type  1   force =    -0.00000027    0.02309573   -0.00277913
     atom   11 type  1   force =    -0.00000027   -0.02309573   -0.00277913
     atom   12 type  1   force =     0.00000000    0.00000000    0.03366458
     atom   13 type  1   force =     0.00000000    0.00000000    0.00081474
     atom   14 type  2   force =    -0.00000005    0.00000000    0.00020952
     atom   15 type  2   force =     0.00000000    0.00000000   -0.00023946
     atom   16 type  1   force =     0.00000025   -0.00016403    0.00045293
     atom   17 type  1   force =     0.00000025    0.00016403    0.00045293
     atom   18 type  1   force =     0.00000000    0.00000000   -0.00093478
     atom   19 type  1   force =     0.00000000    0.00000000   -0.00045734
     atom   20 type  2   force =    -0.00000099    0.00000000    0.00002815
     atom   21 type  2   force =     0.00000000    0.00000000   -0.00097764
     atom   22 type  1   force =     0.00000167   -0.00002604   -0.00016002
     atom   23 type  1   force =     0.00000167    0.00002604   -0.00016002
     atom   24 type  1   force =     0.00000000    0.00000000    0.00032482
     atom   25 type  1   force =     0.00000000    0.00000000    0.05547925
     atom   26 type  2   force =    -0.00000003    0.00000000   -0.08850400
     atom   27 type  2   force =     0.00000000    0.00000000    0.08283095
     atom   28 type  1   force =     0.00000053   -0.00419917   -0.02527280
     atom   29 type  1   force =     0.00000053    0.00419917   -0.02527280
     atom   30 type  1   force =     0.00000000    0.00000000    0.03776279
     atom   31 type  1   force =     0.00000000    0.00000000   -0.03012885
     atom   32 type  2   force =    -0.00000003    0.00000000   -0.02094388
     atom   33 type  2   force =     0.00000000    0.00000000   -0.01341173
     atom   34 type  1   force =     0.00000027    0.02309573   -0.00277913
     atom   35 type  1   force =     0.00000027   -0.02309573   -0.00277913
     atom   36 type  1   force =     0.00000000    0.00000000    0.03366490
     atom   37 type  1   force =     0.00000000    0.00000000    0.00081520
     atom   38 type  2   force =     0.00000005    0.00000000    0.00020952
     atom   39 type  2   force =     0.00000000    0.00000000   -0.00023990
     atom   40 type  1   force =    -0.00000025   -0.00016403    0.00045293
     atom   41 type  1   force =    -0.00000025    0.00016403    0.00045293
     atom   42 type  1   force =     0.00000000    0.00000000   -0.00093028
     atom   43 type  1   force =     0.00000000    0.00000000   -0.00045731
     atom   44 type  2   force =     0.00000099    0.00000000    0.00002815
     atom   45 type  2   force =     0.00000000    0.00000000   -0.00098048
     atom   46 type  1   force =    -0.00000167   -0.00002604   -0.00016002
     atom   47 type  1   force =    -0.00000167    0.00002604   -0.00016002
     atom   48 type  1   force =     0.00000000    0.00000000    0.00032470

     Total force =     0.002618     Total SCF correction =     0.000256

     bfgs converged in  11 scf cycles and  10 bfgs steps
     (criteria: energy < 0.10E-03, force < 0.10E-02)

     End of BFGS Geometry Optimization

     Final energy   =   -4124.2973798348 Ry
Begin final coordinates

ATOMIC_POSITIONS (crystal)
O0       0.000000000   0.500000000   0.332930000    0   0   0
Ru1      0.250000000   0.500000000   0.366700000    0   0   0
Ru1      0.000000000   0.000000000   0.366700000    0   0   0
O0       0.250000000   0.810000000   0.366700000    0   0   0
O0       0.250000000   0.190000000   0.366700000    0   0   0
O0       0.000000000   0.500000000   0.400470000    0   0   0
O0       0.000000000   0.000000000   0.421800000    0   0   0
Ru1      0.250000000   0.000000000   0.455570000    0   0   0
Ru1      0.000000000   0.500000000   0.455570000    0   0   0
O0       0.250000000   0.690000000   0.455570000    0   0   0
O0       0.250000000   0.310000000   0.455570000    0   0   0
O0       0.000000000   0.000000000   0.489340000    0   0   0
O0       0.000000000   0.500000000   0.509450064
Ru1      0.250000011   0.500000000   0.543722662
Ru1      0.000000000   0.000000000   0.544600240
O0       0.250000006   0.806468195   0.544217956
O0       0.250000006   0.193531805   0.544217956
O0       0.000000000   0.500000000   0.577998280
O0       0.000000000   0.000000000   0.598665924
Ru1      0.250000025   0.000000000   0.635674383
Ru1      0.000000000   0.500000000   0.630218611
O0       0.250000123   0.689657306   0.634660506
O0       0.250000123   0.310342694   0.634660506
O0       0.000000000   0.000000000   0.665938252
O0       0.500000000   0.500000000   0.332930000    0   0   0
Ru1      0.750000000   0.500000000   0.366700000    0   0   0
Ru1      0.500000000   0.000000000   0.366700000    0   0   0
O0       0.750000000   0.810000000   0.366700000    0   0   0
O0       0.750000000   0.190000000   0.366700000    0   0   0
O0       0.500000000   0.500000000   0.400470000    0   0   0
O0       0.500000000   0.000000000   0.421800000    0   0   0
Ru1      0.750000000   0.000000000   0.455570000    0   0   0
Ru1      0.500000000   0.500000000   0.455570000    0   0   0
O0       0.750000000   0.690000000   0.455570000    0   0   0
O0       0.750000000   0.310000000   0.455570000    0   0   0
O0       0.500000000   0.000000000   0.489340000    0   0   0
O0       0.500000000   0.500000000   0.509450064
Ru1      0.749999989   0.500000000   0.543722662
Ru1      0.500000000   0.000000000   0.544600254
O0       0.749999994   0.806468195   0.544217956
O0       0.749999994   0.193531805   0.544217956
O0       0.500000000   0.500000000   0.577998269
O0       0.500000000   0.000000000   0.598665931
Ru1      0.749999975  -0.000000000   0.635674383
Ru1      0.500000000   0.500000000   0.630218663
O0       0.749999877   0.689657306   0.634660506
O0       0.749999877   0.310342694   0.634660506
O0       0.500000000   0.000000000   0.665938212
End final coordinates

     General routines

     Parallel routines

   This run was terminated on:  10:28:58  27Feb2014

   JOB DONE.