     Program PWSCF v.5.0.2 (svn rev. 9656) starts on 28Apr2014 at  4:58:18

     Current dimensions of program PWSCF are:
     Max number of different atomic species (ntypx) = 10
     Max number of k-points (npk) =  40000
     Max angular momentum in pseudopotentials (lmaxx) =  3
     Reading input from pwscf.in
Warning: card &CELL ignored
Warning: card / ignored

     Subspace diagonalization in iterative solution of the eigenvalue problem:
     a serial algorithm will be used

     bravais-lattice index     =            0
     lattice parameter (alat)  =      12.2076  a.u.
     unit-cell volume          =    7496.5096 (a.u.)^3
     number of atoms/cell      =           32
     number of atomic types    =            3
     number of electrons       =       247.00
     number of Kohn-Sham states=          370
     kinetic-energy cutoff     =      40.0000  Ry
     charge density cutoff     =     500.0000  Ry
     convergence threshold     =      1.0E-06
     mixing beta               =       0.7000
     number of iterations used =            8  plain     mixing
     Exchange-correlation      = SLA  PW   PBE  PBE ( 1 4 3 4 0)
     EXX-fraction              =        0.00
     nstep                     =           50

     celldm(1)=  12.207631  celldm(2)=   0.000000  celldm(3)=   0.000000
     celldm(4)=   0.000000  celldm(5)=   0.000000  celldm(6)=   0.000000

     crystal axes: (cart. coord. in units of alat)
               a(1) = (   1.000000   0.000000   0.000000 )
               a(2) = (   0.000000   1.004836   0.000000 )
               a(3) = (   0.000000   0.000000   4.100811 )

     reciprocal axes: (cart. coord. in units 2 pi/alat)
               b(1) = (  1.000000  0.000000  0.000000 )
               b(2) = (  0.000000  0.995187  0.000000 )
               b(3) = (  0.000000  0.000000  0.243854 )

     PseudoPot. # 1 for O  read from file:
     /home/camp/zhonxu/pseudo/o_pbe_v1.01.uspp.F.UPF
     MD5 check sum: 2bcb18d16ea4b960afae9ec6d52f22d2
     Pseudo is Ultrasoft + core correction, Zval =  6.0
     Generated by new atomic code, or converted to UPF format
     Using radial grid of  737 points,  5 beta functions with:
                l(1) =   0
                l(2) =   0
                l(3) =   1
                l(4) =   1
                l(5) =   2
     Q(r) pseudized with  8 coefficients,  rinner =    0.900   0.900   0.900
                                                       0.900   0.900

     PseudoPot. # 2 for Pt read from file:
     /home/camp/zhonxu/pseudo/pt_pbe_v1.uspp.F.UPF
     MD5 check sum: 4c71d6ad5ef119f1eb26a4d0b7884226
     Pseudo is Ultrasoft + core correction, Zval = 16.0
     Generated by new atomic code, or converted to UPF format
     Using radial grid of  985 points,  6 beta functions with:
                l(1) =   0
                l(2) =   0
                l(3) =   1
                l(4) =   1
                l(5) =   2
                l(6) =   2
     Q(r) pseudized with  8 coefficients,  rinner =    1.300   1.300   1.300
                                                       1.300   1.300

     PseudoPot. # 3 for H  read from file:
     /home/camp/zhonxu/pseudo/h_pbe_v1.uspp.F.UPF
     MD5 check sum: 3408e3ff4ec8b0a4e358431e7e038a48
     Pseudo is Ultrasoft, Zval =  1.0
     Generated by new atomic code, or converted to UPF format
     Using radial grid of  615 points,  2 beta functions with:
                l(1) =   0
                l(2) =   0
     Q(r) pseudized with  8 coefficients,  rinner =    0.700

     atomic species   valence    mass     pseudopotential
        O0             6.00    15.99940     O ( 1.00)
        Pt1           16.00   195.08000     Pt( 1.00)
        H2             1.00     1.00794     H ( 1.00)

     Simplified LDA+U calculation (l_max = 2) with parameters (eV):
     atomic species    L          U    alpha       J0     beta
        Pt1            2     4.0000   0.0000   0.0000   0.0000

     No symmetry found

   Cartesian axes

     site n.     atom                  positions (alat units)
         1           O0  tau(   1) = (   0.0000000   0.0000000   1.5486303  )
         2           O0  tau(   2) = (   0.0000000   0.5024180   1.6456145  )
         3           Pt1 tau(   3) = (   0.2500000   0.5024180   1.8492198  )
         4           Pt1 tau(   4) = (   0.0000000   0.0000000   1.8561502  )
         5           O0  tau(   5) = (   0.2500000   0.8139171   1.8185047  )
         6           O0  tau(   6) = (   0.2500000   0.1909188   1.8850199  )
         7           O0  tau(   7) = (   0.0000000   0.5024180   2.0364218  )
         8           O0  tau(   8) = (   0.0000000   0.0000000   2.1712565  )
         9           Pt1 tau(   9) = (   0.2500000   0.0000000   2.3611651  )
        10           Pt1 tau(  10) = (   0.0000000   0.5024180   2.3568182  )
        11           O0  tau(  11) = (   0.2500000   0.6933368   2.3352889  )
        12           O0  tau(  12) = (   0.2500000   0.3114991   2.3978263  )
        13           O0  tau(  13) = (   0.0000000   0.0000000   2.5469728  )
        14           O0  tau(  14) = (   0.5000000   0.0000000   1.5487944  )
        15           O0  tau(  15) = (   0.5000000   0.5024180   1.6432360  )
        16           Pt1 tau(  16) = (   0.7500000   0.5024180   1.8492608  )
        17           Pt1 tau(  17) = (   0.5000000   0.0000000   1.8561092  )
        18           O0  tau(  18) = (   0.7500000   0.8139171   1.8183407  )
        19           O0  tau(  19) = (   0.7500000   0.1909188   1.8850199  )
        20           O0  tau(  20) = (   0.5000000   0.5024180   2.0398255  )
        21           O0  tau(  21) = (   0.5000000   0.0000000   2.1711335  )
        22           Pt1 tau(  22) = (   0.7500000   0.0000000   2.3611651  )
        23           Pt1 tau(  23) = (   0.5000000   0.5024180   2.3633795  )
        24           O0  tau(  24) = (   0.7500000   0.6933368   2.3343868  )
        25           O0  tau(  25) = (   0.7500000   0.3114991   2.3965141  )
        26           O0  tau(  26) = (   0.5000000   0.0000000   2.5473419  )
        27           H2  tau(  27) = (   0.0000800   0.6431151   1.5815188  )
        28           H2  tau(  28) = (   0.4999900   0.6432457   1.5795915  )
        29           H2  tau(  29) = (   0.1433600   0.0342348   1.5075812  )
        30           H2  tau(  30) = (   0.6432100   0.0348377   1.5077042  )
        31           O0  tau(  31) = (   0.5002800   0.5276996   2.6647891  )
        32           H2  tau(  32) = (   0.4897800   0.3840985   2.7162543  )

     number of k points=    10  Methfessel-Paxton smearing, width (Ry)=  0.0100
                       cart. coord. in units 2pi/alat
        k(    1) = (   0.0000000   0.0000000   0.0000000), wk =   0.1250000
        k(    2) = (   0.0000000   0.2487968   0.0000000), wk =   0.2500000
        k(    3) = (   0.0000000  -0.4975937   0.0000000), wk =   0.1250000
        k(    4) = (   0.2500000   0.0000000   0.0000000), wk =   0.2500000
        k(    5) = (   0.2500000   0.2487968   0.0000000), wk =   0.2500000
        k(    6) = (   0.2500000  -0.4975937   0.0000000), wk =   0.2500000
        k(    7) = (  -0.5000000   0.0000000   0.0000000), wk =   0.1250000
        k(    8) = (  -0.5000000   0.2487968   0.0000000), wk =   0.2500000
        k(    9) = (  -0.5000000  -0.4975937   0.0000000), wk =   0.1250000
        k(   10) = (  -0.2500000   0.2487968   0.0000000), wk =   0.2500000

     Largest allocated arrays     est. size (Mb)     dimensions
     Largest temporary arrays     est. size (Mb)     dimensions

     Check: negative/imaginary core charge=   -0.000003    0.000000

     Initial potential from superposition of free atoms
     Check: negative starting charge=   -1.535574

     starting charge  242.99984, renormalised to  247.00000

     negative rho (up, down):  0.156E+01 0.000E+00
     Number of +U iterations with fixed ns =  0
     Starting occupations:
 --- enter write_ns ---
 LDA+U parameters:
U( 2)     =  4.00000000
alpha( 2) =  0.00000000
atom    3   Tr[ns(na)] =   8.00000
    eigenvalues:
  0.800  0.800  0.800  0.800  0.800
    eigenvectors:
  1.000  0.000  0.000  0.000  0.000
  0.000  1.000  0.000  0.000  0.000
  0.000  0.000  1.000  0.000  0.000
  0.000  0.000  0.000  1.000  0.000
  0.000  0.000  0.000  0.000  1.000
    occupations:
  0.800  0.000  0.000  0.000  0.000
  0.000  0.800  0.000  0.000  0.000
  0.000  0.000  0.800  0.000  0.000
  0.000  0.000  0.000  0.800  0.000
  0.000  0.000  0.000  0.000  0.800
atom    4   Tr[ns(na)] =   8.00000
    eigenvalues:
  0.800  0.800  0.800  0.800  0.800
    eigenvectors:
  1.000  0.000  0.000  0.000  0.000
  0.000  1.000  0.000  0.000  0.000
  0.000  0.000  1.000  0.000  0.000
  0.000  0.000  0.000  1.000  0.000
  0.000  0.000  0.000  0.000  1.000
    occupations:
  0.800  0.000  0.000  0.000  0.000
  0.000  0.800  0.000  0.000  0.000
  0.000  0.000  0.800  0.000  0.000
  0.000  0.000  0.000  0.800  0.000
  0.000  0.000  0.000  0.000  0.800
atom    9   Tr[ns(na)] =   8.00000
    eigenvalues:
  0.800  0.800  0.800  0.800  0.800
    eigenvectors:
  1.000  0.000  0.000  0.000  0.000
  0.000  1.000  0.000  0.000  0.000
  0.000  0.000  1.000  0.000  0.000
  0.000  0.000  0.000  1.000  0.000
  0.000  0.000  0.000  0.000  1.000
    occupations:
  0.800  0.000  0.000  0.000  0.000
  0.000  0.800  0.000  0.000  0.000
  0.000  0.000  0.800  0.000  0.000
  0.000  0.000  0.000  0.800  0.000
  0.000  0.000  0.000  0.000  0.800
atom   10   Tr[ns(na)] =   8.00000
    eigenvalues:
  0.800  0.800  0.800  0.800  0.800
    eigenvectors:
  1.000  0.000  0.000  0.000  0.000
  0.000  1.000  0.000  0.000  0.000
  0.000  0.000  1.000  0.000  0.000
  0.000  0.000  0.000  1.000  0.000
  0.000  0.000  0.000  0.000  1.000
    occupations:
  0.800  0.000  0.000  0.000  0.000
  0.000  0.800  0.000  0.000  0.000
  0.000  0.000  0.800  0.000  0.000
  0.000  0.000  0.000  0.800  0.000
  0.000  0.000  0.000  0.000  0.800
atom   16   Tr[ns(na)] =   8.00000
    eigenvalues:
  0.800  0.800  0.800  0.800  0.800
    eigenvectors:
  1.000  0.000  0.000  0.000  0.000
  0.000  1.000  0.000  0.000  0.000
  0.000  0.000  1.000  0.000  0.000
  0.000  0.000  0.000  1.000  0.000
  0.000  0.000  0.000  0.000  1.000
    occupations:
  0.800  0.000  0.000  0.000  0.000
  0.000  0.800  0.000  0.000  0.000
  0.000  0.000  0.800  0.000  0.000
  0.000  0.000  0.000  0.800  0.000
  0.000  0.000  0.000  0.000  0.800
atom   17   Tr[ns(na)] =   8.00000
    eigenvalues:
  0.800  0.800  0.800  0.800  0.800
    eigenvectors:
  1.000  0.000  0.000  0.000  0.000
  0.000  1.000  0.000  0.000  0.000
  0.000  0.000  1.000  0.000  0.000
  0.000  0.000  0.000  1.000  0.000
  0.000  0.000  0.000  0.000  1.000
    occupations:
  0.800  0.000  0.000  0.000  0.000
  0.000  0.800  0.000  0.000  0.000
  0.000  0.000  0.800  0.000  0.000
  0.000  0.000  0.000  0.800  0.000
  0.000  0.000  0.000  0.000  0.800
atom   22   Tr[ns(na)] =   8.00000
    eigenvalues:
  0.800  0.800  0.800  0.800  0.800
    eigenvectors:
  1.000  0.000  0.000  0.000  0.000
  0.000  1.000  0.000  0.000  0.000
  0.000  0.000  1.000  0.000  0.000
  0.000  0.000  0.000  1.000  0.000
  0.000  0.000  0.000  0.000  1.000
[...]
  0.026  0.000  0.003  0.984  0.000
 -0.001  0.030  0.000  0.000  0.695
atom    9   Tr[ns(na)] =   8.70358
    eigenvalues:
  0.715  0.725  0.958  0.966  0.987
    eigenvectors:
  0.000  0.136  0.000  0.012  0.851
  1.000  0.000  0.000  0.000  0.000
  0.000  0.009  0.008  0.977  0.006
  0.000  0.854  0.000  0.003  0.142
  0.000  0.000  0.992  0.008  0.000
    occupations:
  0.951  0.000 -0.007 -0.089  0.000
  0.000  0.715 -0.000  0.000 -0.003
 -0.007 -0.000  0.964 -0.022  0.001
 -0.089  0.000 -0.022  0.763  0.001
  0.000 -0.003  0.001  0.001  0.958
atom   10   Tr[ns(na)] =   8.76055
    eigenvalues:
  0.671  0.752  0.984  0.985  0.989
    eigenvectors:
  0.000  0.982  0.000  0.010  0.008
  0.010  0.000  0.988  0.002  0.000
  0.000  0.000  0.001  0.305  0.694
  0.000  0.017  0.001  0.684  0.298
  0.990  0.000  0.010  0.000  0.000
    occupations:
  0.756 -0.001 -0.005  0.031 -0.000
 -0.001  0.981 -0.000  0.000 -0.031
 -0.005 -0.000  0.987 -0.001  0.000
  0.031  0.000 -0.001  0.982  0.000
 -0.000 -0.031  0.000  0.000  0.674
atom   16   Tr[ns(na)] =   8.72629
    eigenvalues:
  0.692  0.707  0.986  0.988  0.990
    eigenvectors:
  0.007  0.163  0.821  0.000  0.008
  0.954  0.046  0.000  0.000  0.000
  0.000  0.005  0.016  0.000  0.979
  0.038  0.786  0.162  0.000  0.013
  0.000  0.000  0.000  0.999  0.000
    occupations:
  0.938 -0.001  0.008 -0.105 -0.000
 -0.001  0.693 -0.001 -0.003 -0.002
  0.008 -0.001  0.989  0.018 -0.000
 -0.105 -0.003  0.018  0.755 -0.000
 -0.000 -0.002 -0.000 -0.000  0.988
atom   17   Tr[ns(na)] =   8.71957
    eigenvalues:
  0.691  0.714  0.982  0.986  0.987
    eigenvectors:
  0.000  0.985  0.007  0.003  0.004
  0.011  0.000  0.057  0.902  0.030
  0.000  0.005  0.874  0.032  0.089
  0.000  0.009  0.061  0.054  0.876
  0.989  0.000  0.001  0.010  0.000
    occupations:
  0.718 -0.005 -0.019  0.026 -0.001
 -0.005  0.982  0.000  0.000  0.030
 -0.019  0.000  0.981  0.003  0.000
  0.026  0.000  0.003  0.984  0.000
 -0.001  0.030  0.000  0.000  0.694
atom   22   Tr[ns(na)] =   8.70326
    eigenvalues:
  0.715  0.725  0.958  0.966  0.987
    eigenvectors:
  0.001  0.136  0.000  0.012  0.851
  0.996  0.004  0.000  0.000  0.000
  0.000  0.009  0.013  0.972  0.006
  0.003  0.851  0.000  0.003  0.142
  0.000  0.000  0.987  0.013  0.000
    occupations:
  0.951  0.001 -0.007 -0.089 -0.000
  0.001  0.715  0.000  0.000 -0.003
 -0.007  0.000  0.964 -0.022 -0.001
 -0.089  0.000 -0.022  0.763 -0.001
 -0.000 -0.003 -0.001 -0.001  0.959
atom   23   Tr[ns(na)] =   8.70719
    eigenvalues:
  0.690  0.717  0.973  0.985  0.988
    eigenvectors:
  0.000  0.975  0.000  0.000  0.025
  0.015  0.000  0.983  0.001  0.001
  0.000  0.017  0.002  0.432  0.549
  0.000  0.008  0.000  0.567  0.425
  0.985  0.000  0.015  0.000  0.000
    occupations:
  0.724 -0.001  0.035  0.024  0.000
 -0.001  0.969  0.001 -0.000 -0.034
  0.035  0.001  0.982 -0.002  0.000
  0.024 -0.000 -0.002  0.984 -0.000
  0.000 -0.034  0.000 -0.000  0.695
N of occupied +U levels =  69.7682431
 --- exit write_ns ---

     Threshold (ethr) on eigenvalues was too large:
     Diagonalizing with lowered threshold

     Davidson diagonalization with overlap
     ethr =  1.53E-08,  avg # of iterations =  2.0

[...]

     total energy              =   -2281.06295530 Ry
     Harris-Foulkes estimate   =   -2281.06295531 Ry
     estimated scf accuracy    <       0.00000002 Ry

     iteration # 12     ecut=    40.00 Ry     beta=0.70
     Davidson diagonalization with overlap
     ethr =  7.96E-12,  avg # of iterations =  1.0

     negative rho (up, down):  0.158E+01 0.000E+00

     End of self-consistent calculation
 --- enter write_ns ---
 LDA+U parameters:
U( 2)     =  4.00000000
alpha( 2) =  0.00000000
atom    3   Tr[ns(na)] =   8.72589
    eigenvalues:
  0.692  0.707  0.986  0.988  0.991
    eigenvectors:
  0.007  0.164  0.817  0.003  0.009
  0.955  0.045  0.000  0.000  0.000
  0.000  0.005  0.019  0.000  0.977
  0.038  0.787  0.161  0.001  0.014
  0.000  0.000  0.004  0.996  0.000
    occupations:
  0.938  0.001  0.007 -0.105  0.000
  0.001  0.693  0.001  0.003 -0.002
  0.007  0.001  0.989  0.018  0.000
 -0.105  0.003  0.018  0.755  0.001
  0.000 -0.002  0.000  0.001  0.988
atom    4   Tr[ns(na)] =   8.72214
    eigenvalues:
  0.692  0.714  0.983  0.986  0.987
    eigenvectors:
  0.000  0.985  0.008  0.003  0.004
  0.010  0.000  0.061  0.885  0.044
  0.000  0.005  0.852  0.028  0.115
  0.000  0.009  0.078  0.076  0.837
  0.990  0.000  0.001  0.009  0.000
    occupations:
  0.718 -0.005 -0.019  0.026 -0.001
 -0.005  0.983  0.000  0.000  0.030
 -0.019  0.000  0.982  0.003  0.000
  0.026  0.000  0.003  0.984  0.000
 -0.001  0.030  0.000  0.000  0.695
atom    9   Tr[ns(na)] =   8.70390
    eigenvalues:
  0.715  0.725  0.959  0.967  0.987
    eigenvectors:
  0.000  0.136  0.000  0.012  0.851
  1.000  0.000  0.000  0.000  0.000
  0.000  0.009  0.007  0.977  0.007
  0.000  0.854  0.000  0.003  0.142
  0.000  0.000  0.993  0.007  0.000
    occupations:
  0.951  0.000 -0.007 -0.089  0.000
  0.000  0.715 -0.000  0.000 -0.003
 -0.007 -0.000  0.964 -0.022  0.001
 -0.089  0.000 -0.022  0.763  0.001
  0.000 -0.003  0.001  0.001  0.959
atom   10   Tr[ns(na)] =   8.75748
    eigenvalues:
  0.670  0.751  0.984  0.985  0.989
    eigenvectors:
  0.000  0.982  0.000  0.010  0.008
  0.010  0.000  0.988  0.001  0.000
  0.000  0.000  0.001  0.305  0.694
  0.000  0.017  0.001  0.684  0.298
  0.990  0.000  0.010  0.000  0.000
    occupations:
  0.755 -0.001 -0.005  0.031 -0.000
 -0.001  0.981 -0.000  0.000 -0.031
 -0.005 -0.000  0.987 -0.001  0.000
  0.031  0.000 -0.001  0.982  0.000
 -0.000 -0.031  0.000  0.000  0.673
atom   16   Tr[ns(na)] =   8.72611
    eigenvalues:
  0.692  0.707  0.986  0.988  0.990
    eigenvectors:
  0.007  0.164  0.821  0.000  0.008
  0.956  0.044  0.000  0.000  0.000
  0.000  0.005  0.016  0.000  0.979
  0.037  0.788  0.162  0.000  0.013
  0.000  0.000  0.000  0.999  0.000
    occupations:
  0.938 -0.001  0.007 -0.105 -0.000
 -0.001  0.693 -0.001 -0.003 -0.002
  0.007 -0.001  0.989  0.018 -0.000
 -0.105 -0.003  0.018  0.755 -0.000
 -0.000 -0.002 -0.000 -0.000  0.988
atom   17   Tr[ns(na)] =   8.71997
    eigenvalues:
  0.692  0.714  0.982  0.986  0.987
    eigenvectors:
  0.000  0.985  0.007  0.003  0.004
  0.010  0.000  0.057  0.902  0.030
  0.000  0.005  0.873  0.032  0.090
  0.000  0.009  0.062  0.054  0.875
  0.989  0.000  0.001  0.010  0.000
    occupations:
  0.718 -0.005 -0.019  0.026 -0.001
 -0.005  0.982  0.000  0.000  0.030
 -0.019  0.000  0.981  0.003  0.000
  0.026  0.000  0.003  0.984  0.000
 -0.001  0.030  0.000  0.000  0.695
atom   22   Tr[ns(na)] =   8.70362
    eigenvalues:
  0.715  0.725  0.959  0.966  0.987
    eigenvectors:
  0.001  0.136  0.000  0.012  0.851
  0.996  0.004  0.000  0.000  0.000
  0.000  0.009  0.012  0.972  0.006
  0.003  0.851  0.000  0.003  0.142
  0.000  0.000  0.987  0.012  0.000
    occupations:
  0.951  0.001 -0.007 -0.089 -0.000
  0.001  0.715  0.000  0.000 -0.003
 -0.007  0.000  0.964 -0.022 -0.001
 -0.089  0.000 -0.022  0.763 -0.001
 -0.000 -0.003 -0.001 -0.001  0.959
atom   23   Tr[ns(na)] =   8.70707
    eigenvalues:
  0.690  0.717  0.973  0.985  0.988
    eigenvectors:
  0.000  0.975  0.000  0.000  0.025
  0.015  0.000  0.983  0.001  0.001
  0.000  0.017  0.002  0.433  0.548
  0.000  0.008  0.000  0.566  0.426
  0.985  0.000  0.015  0.000  0.000
    occupations:
  0.724 -0.001  0.035  0.024  0.000
 -0.001  0.969  0.001 -0.000 -0.034
  0.035  0.001  0.982 -0.002  0.000
  0.024 -0.000 -0.002  0.984 -0.000
  0.000 -0.034  0.000 -0.000  0.695
N of occupied +U levels =  69.7661905
 --- exit write_ns ---

[...]

          k = 0.2500-0.4976 0.0000 ( 32026 PWs)   bands (ev):

[...]

          k =-0.2500 0.2488 0.0000 ( 32025 PWs)   bands (ev):

   -55.3922 -55.3532 -55.3415 -55.3009 -55.2406 -55.2015 -55.1957 -55.1919
   -55.1880 -55.1819 -55.1249 -55.0345 -55.0291 -55.0254 -55.0182 -54.9183
   -54.9180 -54.9125 -54.9096 -54.9039 -54.8009 -54.6851 -54.4576 -54.1852
   -22.0319 -21.8186 -21.1303 -20.9590 -20.6942 -20.6173 -20.5342 -20.4919
   -20.3873 -20.2448 -20.2116 -20.1328 -20.0509 -19.9580 -19.8940 -19.8745
   -19.7176 -19.1717 -18.9695 -10.6773 -10.4601 -10.3032 -10.2608  -9.8439
    -9.7784  -9.6482  -9.4231  -9.3959  -9.3396  -9.2524  -9.1462  -9.0473
    -8.9646  -8.9266  -8.7963  -8.7506  -8.6051  -8.3736  -8.1643  -8.0179
    -7.9746  -7.8541  -7.7501  -7.6798  -7.4951  -7.4661  -7.3719  -7.1911
    -7.1310  -7.0736  -6.9772  -6.8850  -6.7957  -6.7463  -6.6822  -6.6663
    -6.5364  -6.4666  -6.3812  -6.3145  -6.0607  -5.9724  -5.7352  -5.6635
    -5.4717  -5.3680  -5.3058  -5.2131  -5.1432  -5.0871  -4.8925  -4.8466
    -4.6640  -4.5918  -4.4343  -4.3055  -4.2740  -4.1560  -3.9422  -3.8778
    -3.8053  -3.7206  -3.6974  -3.5702  -3.5103  -3.4019  -3.3538  -3.0869
    -3.0531  -2.7825  -2.6375  -2.5422  -2.4002  -2.3741  -2.3275  -2.2672
    -2.1895  -1.9967  -1.8095  -1.7280  -1.6076  -1.0270  -0.7748  -0.5835
    -0.2254  -0.0845   0.3130   0.5527   0.7889   0.8769   1.0255   1.0936
     1.3353   1.4719   1.5295   1.8834   3.2570   3.9432   4.6326   5.0526
     5.1152   5.2143   5.2866   5.5509   6.0293   6.1988   6.2869   6.3371
     6.4781   6.6014   6.6793   6.7804   6.8757   6.9537   7.1437   7.2300
     7.3975   7.5117   7.5448   7.6879   7.7480   7.8544   7.9610   8.0597
     8.2316   8.3270   8.3680   8.4570   8.5212   8.6148   8.6895   8.7891
     8.9244   8.9834   9.0580   9.1953   9.3466   9.4361   9.5958   9.6462
     9.7561   9.8155   9.9287  10.0804  10.1338  10.1937  10.2490  10.3753
    10.5179  10.5578  10.6149  10.7083  10.7502  10.9558  11.0029  11.0965
    11.1895  11.2078  11.3707  11.4327  11.4999  11.6480  11.7428  11.7986
    11.8755  11.9255  12.0190  12.0353  12.0994  12.2350  12.2976  12.3544
    12.3978  12.4596  12.5267  12.5776  12.6547  12.7287  12.7944  12.9357
    12.9885  13.0329  13.1158  13.2148  13.2545  13.4706  13.5403  13.5809
    13.6199  13.6773  13.7372  13.8312  13.9436  13.9910  14.0692  14.0889
    14.1848  14.2959  14.3691  14.5004  14.5639  14.6477  14.7285  14.8483
    14.9049  15.0015  15.0812  15.1865  15.2463  15.2994  15.3265  15.4052
    15.4608  15.5122  15.5793  15.6281  15.7029  15.7341  15.7752  15.8501
    15.8915  15.9887  16.0138  16.0596  16.1280  16.2377  16.3211  16.3881
    16.4744  16.5263  16.6350  16.7253  16.7898  16.8221  16.9059  16.9442
    16.9807  17.0059  17.0124  17.0281  17.0637  17.0905  17.1388  17.1628
    17.1843  17.2129  17.2306  17.2554  17.3153  17.3444  17.3949  17.4860
    17.5268  17.5525  17.6241  17.6472  17.7624  17.8490  17.9154  17.9519
    18.0107  18.0553  18.1426  18.1820  18.2493  18.3468  18.4731  18.5055
    18.5861  18.6084  18.6363  18.7252  18.7989  18.8623  18.8978  18.9752
    19.0214  19.1315  19.1825  19.2409  19.2951  19.3607  19.4509  19.5461
    19.6565  19.6912  19.8225  19.8768  19.9433  19.9993  20.0469  20.0774
    20.1267  20.1623  20.2712  20.3475  20.3609  20.4154  20.5163  20.5638
    20.6584  20.6910  20.7350  20.8125  20.9062  20.9628  20.9918  21.0307
    21.0896  21.2116  21.2640  21.3057  21.3404  21.3664  21.4661  21.5079
    21.5793  21.6320  21.7044  21.7589  21.7997  21.9051  21.9997  22.0778
    22.1439  22.1877

     the Fermi energy is    -1.7168 ev

!    total energy              =   -2281.06295530 Ry
     Harris-Foulkes estimate   =   -2281.06295531 Ry
     estimated scf accuracy    <          4.6E-09 Ry

     The total energy is the sum of the following terms:

     one-electron contribution =  -23729.81585445 Ry
     hartree contribution      =   11908.95397924 Ry
     xc contribution           =    -573.04022378 Ry
     ewald contribution        =   10111.74202064 Ry
     Hubbard energy            =       1.09701086 Ry
     smearing contrib. (-TS)   =       0.00011218 Ry

     convergence has been achieved in  12 iterations

     Forces acting on atoms (Ry/au):

     negative rho (up, down):  0.158E+01 0.000E+00
     atom    1 type  1   force =    -0.00849114   -0.00400140    0.00003726
     atom    2 type  1   force =     0.00038402    0.00282240   -0.00088618
     atom    3 type  2   force =     0.01417529    0.00794893   -0.00020093
     atom    4 type  2   force =     0.01080153    0.00416423   -0.00023833
     atom    5 type  1   force =     0.00132930   -0.00351321   -0.00062317
     atom    6 type  1   force =    -0.00002723   -0.00303281   -0.00003997
     atom    7 type  1   force =     0.00023564   -0.00093392   -0.00019385
     atom    8 type  1   force =    -0.00426259   -0.00074902   -0.00006800
     atom    9 type  2   force =     0.00314495    0.00284946   -0.00035463
     atom   10 type  2   force =    -0.00041006   -0.02370367    0.00088985
     atom   11 type  1   force =     0.00356320    0.00197747    0.00053540
     atom   12 type  1   force =    -0.01281207    0.00740023   -0.00009075
     atom   13 type  1   force =    -0.00107851   -0.00654130   -0.00015951
     atom   14 type  1   force =    -0.00822889   -0.00375726    0.00006600
     atom   15 type  1   force =     0.00011737    0.00204540    0.00050803
     atom   16 type  2   force =    -0.01538846    0.00793811   -0.00023578
     atom   17 type  2   force =     0.01049730    0.00542757   -0.00012320
     atom   18 type  1   force =     0.00099040   -0.00359604   -0.00045326
     atom   19 type  1   force =     0.00004114   -0.00294014   -0.00012009
     atom   20 type  1   force =     0.00036086   -0.00199327    0.00026071
     atom   21 type  1   force =    -0.00395407    0.00163401    0.00016811
     atom   22 type  2   force =     0.00078101    0.00312271   -0.00043901
     atom   23 type  2   force =    -0.00060710    0.00049131    0.00000963
     atom   24 type  1   force =    -0.00347078    0.00250436    0.00035385
     atom   25 type  1   force =     0.01292852    0.00764029   -0.00000110
     atom   26 type  1   force =    -0.00119673   -0.00482829    0.00019778
     atom   27 type  3   force =    -0.00002341    0.00040456   -0.00016452
     atom   28 type  3   force =     0.00003250   -0.00024459   -0.00005210
     atom   29 type  3   force =     0.00011655   -0.00000430    0.00059243
     atom   30 type  3   force =     0.00009857   -0.00005627    0.00049145
     atom   31 type  1   force =     0.00011899    0.00082062    0.00025976
     atom   32 type  3   force =     0.00023392    0.00070384    0.00007413

     Total force =     0.002397     Total SCF correction =     0.000183

     bfgs converged in  16 scf cycles and  15 bfgs steps
     (criteria: energy < 0.10E-03, force < 0.10E-02)

     End of BFGS Geometry Optimization

     Final energy   =   -2281.0629553009 Ry
Begin final coordinates

ATOMIC_POSITIONS (crystal)
O0       0.000000000   0.000000000   0.377519625    0   0   1
O0       0.000000000   0.500000000   0.401674774    0   0   1
Pt1      0.250000000   0.500000000   0.451151464    0   0   1
Pt1      0.000000000   0.000000000   0.452587630    0   0   1
O0       0.250000000   0.810000000   0.442839824    0   0   1
O0       0.250000000   0.190000000   0.460655382    0   0   1
O0       0.000000000   0.500000000   0.496779937    0   0   1
O0       0.000000000   0.000000000   0.529592377    0   0   1
Pt1      0.250000000   0.000000000   0.575718080    0   0   1
Pt1      0.000000000   0.500000000   0.574296304    0   0   1
O0       0.250000000   0.690000000   0.566877498    0   0   1
O0       0.250000000   0.310000000   0.585675948    0   0   1
O0       0.000000000   0.000000000   0.621130654    0   0   1
O0       0.500000000   0.000000000   0.377573017    0   0   1
O0       0.500000000   0.500000000   0.401124554    0   0   1
Pt1      0.750000000   0.500000000   0.451151677    0   0   1
Pt1      0.500000000   0.000000000   0.452619292    0   0   1
O0       0.750000000   0.810000000   0.442821532    0   0   1
O0       0.750000000   0.190000000   0.460662163    0   0   1
O0       0.500000000   0.500000000   0.497336869    0   0   1
O0       0.500000000   0.000000000   0.529553600    0   0   1
Pt1      0.750000000   0.000000000   0.575723892    0   0   1
Pt1      0.500000000   0.500000000   0.576040742    0   0   1
O0       0.750000000   0.690000000   0.566999079    0   0   1
O0       0.750000000   0.310000000   0.585565416    0   0   1
O0       0.500000000   0.000000000   0.621129731    0   0   1
H2       0.000081036   0.640548102   0.386340098
H2       0.499988555   0.641237129   0.386119000
H2       0.143410153   0.034003276   0.367537764
H2       0.643427020   0.034070538   0.367600781
O0       0.499260195   0.530970398   0.649558947
H2       0.492615204   0.388651155   0.662662352
End final coordinates

     General routines

     Parallel routines
     Hubbard U routines

   This run was terminated on:  19: 8:14  28Apr2014

   JOB DONE.