     Program PWSCF v.5.0.2 (svn rev. 9656) starts on 23Jan2014 at 18:16:53

     Current dimensions of program PWSCF are:
     Max number of different atomic species (ntypx) = 10
     Max number of k-points (npk) =  40000
     Max angular momentum in pseudopotentials (lmaxx) =  3
     Reading input from TiO2-v-1.1.in

     Subspace diagonalization in iterative solution of the eigenvalue problem:
     a serial algorithm will be used

     bravais-lattice index     =            0
     lattice parameter (alat)  =       8.9385  a.u.
     unit-cell volume          =     460.2364 (a.u.)^3
     number of atoms/cell      =            6
     number of atomic types    =            2
     number of electrons       =        48.00
     number of Kohn-Sham states=           69
     kinetic-energy cutoff     =      40.0000  Ry
     charge density cutoff     =     500.0000  Ry
     convergence threshold     =      1.0E-06
     mixing beta               =       0.7000
     number of iterations used =            8  plain     mixing
     Exchange-correlation      = SLA  PW   PBE  PBE ( 1 4 3 4 0)
     EXX-fraction              =        0.00
     nstep                     =           50

     celldm(1)=   8.938511  celldm(2)=   0.000000  celldm(3)=   0.000000
     celldm(4)=   0.000000  celldm(5)=   0.000000  celldm(6)=   0.000000

     crystal axes: (cart. coord. in units of alat)
               a(1) = (   1.000000   0.000000   0.000000 )
               a(2) = (   0.000000   1.000000   0.000000 )
               a(3) = (   0.000000   0.000000   0.644444 )

     reciprocal axes: (cart. coord. in units 2 pi/alat)
               b(1) = (  1.000000  0.000000  0.000000 )
               b(2) = (  0.000000  1.000000  0.000000 )
               b(3) = (  0.000000  0.000000  1.551724 )

     PseudoPot. # 1 for Ti read from file:
     /home/camp/zhonxu/pseudo/ti_pbe_v1.uspp.F.UPF
     MD5 check sum: bcc8f6961b3b91f0cac3ca967d22d0fb
     Pseudo is Ultrasoft + core correction, Zval = 12.0
     Generated by new atomic code, or converted to UPF format
     Using radial grid of  851 points,  6 beta functions with:
                l(1) =   0
                l(2) =   0
                l(3) =   1
                l(4) =   1
                l(5) =   2
                l(6) =   2
     Q(r) pseudized with  6 coefficients,  rinner =    1.000   1.000   1.000
                                                       1.000   1.000

     PseudoPot. # 2 for O  read from file:
     /home/camp/zhonxu/pseudo/o_pbe_v1.01.uspp.F.UPF
     MD5 check sum: 2bcb18d16ea4b960afae9ec6d52f22d2
     Pseudo is Ultrasoft + core correction, Zval =  6.0
     Generated by new atomic code, or converted to UPF format
     Using radial grid of  737 points,  5 beta functions with:
                l(1) =   0
                l(2) =   0
                l(3) =   1
                l(4) =   1
                l(5) =   2
     Q(r) pseudized with  8 coefficients,  rinner =    0.900   0.900   0.900
                                                       0.900   0.900

     atomic species   valence    mass     pseudopotential
        Ti0           12.00    47.88000     Ti( 1.00)
        O1             6.00    15.99940     O ( 1.00)

     Starting magnetic structure
     atomic species   magnetization
        Ti0          0.600
        O1           0.000

      8 Sym. Ops., with inversion, found
          (note:  8 additional sym.ops. were found but ignored
           their fractional translations are incommensurate with FFT grid)

   Cartesian axes

     site n.     atom                  positions (alat units)
         1           Ti0 tau(   1) = (   0.0000000   0.0000000   0.0000000  )
         2           Ti0 tau(   2) = (   0.5000000   0.5000000   0.3222222  )
         3           O1  tau(   3) = (   0.3050000   0.3050000   0.0000000  )
         4           O1  tau(   4) = (  -0.3050000  -0.3050000   0.0000000  )
         5           O1  tau(   5) = (   0.8050000   0.1950000   0.3222222  )
         6           O1  tau(   6) = (   0.1950000   0.8050000   0.3222222  )

     number of k points=    54  Methfessel-Paxton smearing, width (Ry)=  0.0100
                       cart. coord. in units 2pi/alat
        k(    1) = (   0.0000000   0.0000000   0.0000000), wk =   0.0080000
        k(    2) = (   0.0000000   0.0000000   0.3103448), wk =   0.0160000
        k(    3) = (   0.0000000   0.0000000   0.6206897), wk =   0.0160000
        k(    4) = (   0.0000000   0.2000000   0.0000000), wk =   0.0320000
        k(    5) = (   0.0000000   0.2000000   0.3103448), wk =   0.0640000
        k(    6) = (   0.0000000   0.2000000   0.6206897), wk =   0.0640000
        k(    7) = (   0.0000000   0.4000000   0.0000000), wk =   0.0320000
        k(    8) = (   0.0000000   0.4000000   0.3103448), wk =   0.0640000
        k(    9) = (   0.0000000   0.4000000   0.6206897), wk =   0.0640000
        k(   10) = (   0.2000000   0.2000000   0.0000000), wk =   0.0160000
        k(   11) = (   0.2000000   0.2000000   0.3103448), wk =   0.0320000
        k(   12) = (   0.2000000   0.2000000   0.6206897), wk =   0.0320000
        k(   13) = (   0.2000000   0.4000000   0.0000000), wk =   0.0320000
        k(   14) = (   0.2000000   0.4000000   0.3103448), wk =   0.0640000
        k(   15) = (   0.2000000   0.4000000   0.6206897), wk =   0.0640000
        k(   16) = (   0.4000000   0.4000000   0.0000000), wk =   0.0160000
        k(   17) = (   0.4000000   0.4000000   0.3103448), wk =   0.0320000
        k(   18) = (   0.4000000   0.4000000   0.6206897), wk =   0.0320000
        k(   19) = (  -0.2000000   0.2000000   0.0000000), wk =   0.0160000
        k(   20) = (  -0.2000000   0.2000000  -0.3103448), wk =   0.0320000
        k(   21) = (  -0.2000000   0.2000000  -0.6206897), wk =   0.0320000
        k(   22) = (  -0.2000000   0.4000000   0.0000000), wk =   0.0320000
        k(   23) = (  -0.2000000   0.4000000  -0.3103448), wk =   0.0640000
        k(   24) = (  -0.2000000   0.4000000  -0.6206897), wk =   0.0640000
        k(   25) = (  -0.4000000   0.4000000   0.0000000), wk =   0.0160000
        k(   26) = (  -0.4000000   0.4000000  -0.3103448), wk =   0.0320000
        k(   27) = (  -0.4000000   0.4000000  -0.6206897), wk =   0.0320000
        k(   28) = (   0.0000000   0.0000000   0.0000000), wk =   0.0080000
        k(   29) = (   0.0000000   0.0000000   0.3103448), wk =   0.0160000
        k(   30) = (   0.0000000   0.0000000   0.6206897), wk =   0.0160000
        k(   31) = (   0.0000000   0.2000000   0.0000000), wk =   0.0320000
        k(   32) = (   0.0000000   0.2000000   0.3103448), wk =   0.0640000
        k(   33) = (   0.0000000   0.2000000   0.6206897), wk =   0.0640000
        k(   34) = (   0.0000000   0.4000000   0.0000000), wk =   0.0320000
        k(   35) = (   0.0000000   0.4000000   0.3103448), wk =   0.0640000
        k(   36) = (   0.0000000   0.4000000   0.6206897), wk =   0.0640000
        k(   37) = (   0.2000000   0.2000000   0.0000000), wk =   0.0160000
        k(   38) = (   0.2000000   0.2000000   0.3103448), wk =   0.0320000
        k(   39) = (   0.2000000   0.2000000   0.6206897), wk =   0.0320000
        k(   40) = (   0.2000000   0.4000000   0.0000000), wk =   0.0320000
        k(   41) = (   0.2000000   0.4000000   0.3103448), wk =   0.0640000
        k(   42) = (   0.2000000   0.4000000   0.6206897), wk =   0.0640000
        k(   43) = (   0.4000000   0.4000000   0.0000000), wk =   0.0160000
        k(   44) = (   0.4000000   0.4000000   0.3103448), wk =   0.0320000
        k(   45) = (   0.4000000   0.4000000   0.6206897), wk =   0.0320000
        k(   46) = (  -0.2000000   0.2000000   0.0000000), wk =   0.0160000
        k(   47) = (  -0.2000000   0.2000000  -0.3103448), wk =   0.0320000
        k(   48) = (  -0.2000000   0.2000000  -0.6206897), wk =   0.0320000
        k(   49) = (  -0.2000000   0.4000000   0.0000000), wk =   0.0320000
        k(   50) = (  -0.2000000   0.4000000  -0.3103448), wk =   0.0640000
        k(   51) = (  -0.2000000   0.4000000  -0.6206897), wk =   0.0640000
        k(   52) = (  -0.4000000   0.4000000   0.0000000), wk =   0.0160000
        k(   53) = (  -0.4000000   0.4000000  -0.3103448), wk =   0.0320000
        k(   54) = (  -0.4000000   0.4000000  -0.6206897), wk =   0.0320000

     Largest allocated arrays     est. size (Mb)     dimensions
     Largest temporary arrays     est. size (Mb)     dimensions

     Check: negative/imaginary core charge=   -0.000014    0.000000

     Initial potential from superposition of free atoms
     Check: negative starting charge=(component1):   -0.020156
     Check: negative starting charge=(component2):   -0.004969

     starting charge   45.99991, renormalised to   48.00000

     negative rho (up, down):  0.210E-01 0.518E-02
     Starting wfc are   36 randomized atomic wfcs

     Self-consistent Calculation

     iteration #  1     ecut=    40.00 Ry     beta=0.70
     Davidson diagonalization with overlap
     ethr =  1.00E-02,  avg # of iterations =  5.1

     negative rho (up, down):  0.160E-01 0.125E-01

     total energy              =    -365.60122795 Ry
     Harris-Foulkes estimate   =    -365.22226759 Ry
     estimated scf accuracy    <       2.62511054 Ry

     total magnetization       =     0.00 Bohr mag/cell
     absolute magnetization    =     1.83 Bohr mag/cell

[...]

     End of self-consistent calculation

 ------ SPIN UP ------------

          k = 0.0000 0.0000 0.0000 (  1955 PWs)   bands (ev):

   -49.2858 -49.2755 -25.5275 -25.5275 -25.4122 -25.4122 -25.3853 -25.3612
    -9.8988  -8.8515  -8.3053  -8.3053   2.5065   2.9938   3.5332   4.3753
     4.3753   5.5092   5.5092   5.9930   7.1859   7.4727   7.4727   7.9065
     9.5812   9.8365  10.0425  10.1170  10.1170  11.6642  11.9302  13.7917
    13.7917  14.6431  15.1306  18.9969  18.9969  21.7771  22.7996  23.5961
    24.7106  26.1274  26.1274  26.8203  27.9300  29.7119  31.0111  31.0111
    31.8327  32.4888  32.4888  32.8391  32.8391  32.8902  33.3608  35.1784
    37.3641  37.5389  38.2159  38.6964  38.6964  39.9884  39.9884  40.1042
    42.2805  42.2805  42.2931  43.3487  45.5489

[...]

          k =-0.2000 0.2000 0.0000 (  1967 PWs)   bands (ev):

[...]

 ------ SPIN DOWN ----------

[...]

     the Fermi energy is     8.5637 ev

!    total energy              =    -366.48713599 Ry
     Harris-Foulkes estimate   =    -366.48713599 Ry
     estimated scf accuracy    <          4.5E-09 Ry

     The total energy is the sum of the following terms:

     one-electron contribution =    -136.20046585 Ry
     hartree contribution      =      89.31016013 Ry
     xc contribution           =     -62.96534941 Ry
     ewald contribution        =    -256.63148086 Ry
     smearing contrib. (-TS)   =       0.00000000 Ry

[...]

     convergence has been achieved in  12 iterations

     Forces acting on atoms (Ry/au):

     negative rho (up, down):  0.123E-01 0.123E-01
     atom    1 type  1   force =     0.00000000    0.00000000    0.00000000
     atom    2 type  1   force =     0.00000000    0.00000000    0.00000000
     atom    3 type  2   force =     0.00779589    0.00779589    0.00000000
[...]
        k(    9) = (   0.0000028   0.3963301   0.6322378), wk =   0.0640000
        k(   10) = (   0.1981664   0.1981664   0.0000000), wk =   0.0160000
        k(   11) = (   0.1981664   0.1981664   0.3161189), wk =   0.0320000
        k(   12) = (   0.1981664   0.1981664   0.6322378), wk =   0.0320000
        k(   13) = (   0.1981678   0.3963314   0.0000000), wk =   0.0320000
        k(   14) = (   0.1981678   0.3963314   0.3161189), wk =   0.0640000
        k(   15) = (   0.1981678   0.3963314   0.6322378), wk =   0.0640000
        k(   16) = (   0.3963328   0.3963328   0.0000000), wk =   0.0160000
        k(   17) = (   0.3963328   0.3963328   0.3161189), wk =   0.0320000
        k(   18) = (   0.3963328   0.3963328   0.6322378), wk =   0.0320000
        k(   19) = (  -0.1981636   0.1981636   0.0000000), wk =   0.0160000
        k(   20) = (  -0.1981636   0.1981636  -0.3161189), wk =   0.0320000
        k(   21) = (  -0.1981636   0.1981636  -0.6322378), wk =   0.0320000
        k(   22) = (  -0.1981622   0.3963287   0.0000000), wk =   0.0320000
        k(   23) = (  -0.1981622   0.3963287  -0.3161189), wk =   0.0640000
        k(   24) = (  -0.1981622   0.3963287  -0.6322378), wk =   0.0640000
        k(   25) = (  -0.3963273   0.3963273   0.0000000), wk =   0.0160000
        k(   26) = (  -0.3963273   0.3963273  -0.3161189), wk =   0.0320000
        k(   27) = (  -0.3963273   0.3963273  -0.6322378), wk =   0.0320000
        k(   28) = (   0.0000000   0.0000000   0.0000000), wk =   0.0080000
        k(   29) = (   0.0000000   0.0000000   0.3161189), wk =   0.0160000
        k(   30) = (   0.0000000   0.0000000   0.6322378), wk =   0.0160000
        k(   31) = (   0.0000014   0.1981650   0.0000000), wk =   0.0320000
        k(   32) = (   0.0000014   0.1981650   0.3161189), wk =   0.0640000
        k(   33) = (   0.0000014   0.1981650   0.6322378), wk =   0.0640000
        k(   34) = (   0.0000028   0.3963301   0.0000000), wk =   0.0320000
        k(   35) = (   0.0000028   0.3963301   0.3161189), wk =   0.0640000
        k(   36) = (   0.0000028   0.3963301   0.6322378), wk =   0.0640000
        k(   37) = (   0.1981664   0.1981664   0.0000000), wk =   0.0160000
        k(   38) = (   0.1981664   0.1981664   0.3161189), wk =   0.0320000
        k(   39) = (   0.1981664   0.1981664   0.6322378), wk =   0.0320000
        k(   40) = (   0.1981678   0.3963314   0.0000000), wk =   0.0320000
        k(   41) = (   0.1981678   0.3963314   0.3161189), wk =   0.0640000
        k(   42) = (   0.1981678   0.3963314   0.6322378), wk =   0.0640000
        k(   43) = (   0.3963328   0.3963328   0.0000000), wk =   0.0160000
        k(   44) = (   0.3963328   0.3963328   0.3161189), wk =   0.0320000
        k(   45) = (   0.3963328   0.3963328   0.6322378), wk =   0.0320000
        k(   46) = (  -0.1981636   0.1981636   0.0000000), wk =   0.0160000
        k(   47) = (  -0.1981636   0.1981636  -0.3161189), wk =   0.0320000
        k(   48) = (  -0.1981636   0.1981636  -0.6322378), wk =   0.0320000
        k(   49) = (  -0.1981622   0.3963287   0.0000000), wk =   0.0320000
        k(   50) = (  -0.1981622   0.3963287  -0.3161189), wk =   0.0640000
        k(   51) = (  -0.1981622   0.3963287  -0.6322378), wk =   0.0640000
        k(   52) = (  -0.3963273   0.3963273   0.0000000), wk =   0.0160000
        k(   53) = (  -0.3963273   0.3963273  -0.3161189), wk =   0.0320000
        k(   54) = (  -0.3963273   0.3963273  -0.6322378), wk =   0.0320000

     Check: negative/imaginary core charge=   -0.000014    0.000000
     Check: negative starting charge=(component1):   -0.024989

[...]

     Total force =     0.000151     Total SCF correction =     0.000013

[...]

     Volume is kept fixed: isostatic pressure set to zero

     bfgs converged in   6 scf cycles and   5 bfgs steps
     (criteria: energy < 0.10E-03, force < 0.10E-02, cell < 0.50E+00)

     End of BFGS Geometry Optimization

     Final enthalpy =    -366.4897698824 Ry
Begin final coordinates
     new unit-cell volume =    460.23642 a.u.^3 (    68.20000 Ang^3 )

CELL_PARAMETERS (alat=  8.93851073)
   1.009259830  -0.000007098   0.000000000
  -0.000007098   1.009259830   0.000000000
   0.000000000   0.000000000   0.632673302

ATOMIC_POSITIONS (crystal)
Ti0      0.000000000   0.000000000   0.000000000    0   0   0
Ti0      0.500000000   0.500000000   0.500000000    0   0   0
O1       0.308432307   0.308432307   0.000000000    1   1   0
O1      -0.308432307  -0.308432307   0.000000000    1   1   0
O1       0.808433023   0.191566977   0.500000000    1   1   0
O1       0.191566977   0.808433023   0.500000000    1   1   0
End final coordinates

     A final scf calculation at the relaxed structure.
     The G-vectors are recalculated for the final unit cell
     Results may differ from those at the preceding step.

     bravais-lattice index     =            0
     lattice parameter (alat)  =       8.9385  a.u.
     unit-cell volume          =     460.2364 (a.u.)^3
     number of atoms/cell      =            6
     number of atomic types    =            2
     number of electrons       =        48.00
     number of Kohn-Sham states=           69
     kinetic-energy cutoff     =      40.0000  Ry
     charge density cutoff     =     500.0000  Ry
     convergence threshold     =      1.0E-08
     mixing beta               =       0.7000
     number of iterations used =            8  plain     mixing
     Exchange-correlation      = SLA  PW   PBE  PBE ( 1 4 3 4 0)
     EXX-fraction              =        0.00

     celldm(1)=   8.938511  celldm(2)=   0.000000  celldm(3)=   0.000000
     celldm(4)=   0.000000  celldm(5)=   0.000000  celldm(6)=   0.000000

     crystal axes: (cart. coord. in units of alat)
               a(1) = (   1.009260  -0.000007   0.000000 )
               a(2) = (  -0.000007   1.009260   0.000000 )
               a(3) = (   0.000000   0.000000   0.632673 )

     reciprocal axes: (cart. coord. in units 2 pi/alat)
               b(1) = (  0.990825  0.000007 -0.000000 )
               b(2) = (  0.000007  0.990825 -0.000000 )
               b(3) = ( -0.000000 -0.000000  1.580595 )

     PseudoPot. # 1 for Ti read from file:
     /home/camp/zhonxu/pseudo/ti_pbe_v1.uspp.F.UPF
     MD5 check sum: bcc8f6961b3b91f0cac3ca967d22d0fb
     Pseudo is Ultrasoft + core correction, Zval = 12.0
     Generated by new atomic code, or converted to UPF format
     Using radial grid of  851 points,  6 beta functions with:
                l(1) =   0
                l(2) =   0
                l(3) =   1
                l(4) =   1
                l(5) =   2
                l(6) =   2
     Q(r) pseudized with  6 coefficients,  rinner =    1.000   1.000   1.000
                                                       1.000   1.000

     PseudoPot. # 2 for O  read from file:
     /home/camp/zhonxu/pseudo/o_pbe_v1.01.uspp.F.UPF
     MD5 check sum: 2bcb18d16ea4b960afae9ec6d52f22d2
     Pseudo is Ultrasoft + core correction, Zval =  6.0
     Generated by new atomic code, or converted to UPF format
     Using radial grid of  737 points,  5 beta functions with:
                l(1) =   0
                l(2) =   0
                l(3) =   1
                l(4) =   1
                l(5) =   2
     Q(r) pseudized with  8 coefficients,  rinner =    0.900   0.900   0.900
                                                       0.900   0.900

     atomic species   valence    mass     pseudopotential
        Ti0           12.00    47.88000     Ti( 1.00)
        O1             6.00    15.99940     O ( 1.00)

     Starting magnetic structure
     atomic species   magnetization
        Ti0          0.600
        O1           0.000

      8 Sym. Ops., with inversion, found
          (note:  8 additional sym.ops. were found but ignored
           their fractional translations are incommensurate with FFT grid)

   Cartesian axes

     site n.     atom                  positions (alat units)
         1           Ti0 tau(   1) = (   0.0000000   0.0000000   0.0000000  )
         2           Ti0 tau(   2) = (   0.5046264   0.5046264   0.3163367  )
         3           O1  tau(   3) = (   0.3112861   0.3112861   0.0000000  )
         4           O1  tau(   4) = (  -0.3112861  -0.3112861   0.0000000  )
         5           O1  tau(   5) = (   0.8159176   0.1933351   0.3163367  )
         6           O1  tau(   6) = (   0.1933351   0.8159176   0.3163367  )

     number of k points=    54  Methfessel-Paxton smearing, width (Ry)=  0.0100
                       cart. coord. in units 2pi/alat
        k(    1) = (   0.0000000   0.0000000   0.0000000), wk =   0.0080000
        k(    2) = (   0.0000000   0.0000000   0.3161189), wk =   0.0160000
        k(    3) = (   0.0000000   0.0000000   0.6322378), wk =   0.0160000
        k(    4) = (   0.0000014   0.1981650   0.0000000), wk =   0.0320000
        k(    5) = (   0.0000014   0.1981650   0.3161189), wk =   0.0640000
        k(    6) = (   0.0000014   0.1981650   0.6322378), wk =   0.0640000
        k(    7) = (   0.0000028   0.3963301   0.0000000), wk =   0.0320000
        k(    8) = (   0.0000028   0.3963301   0.3161189), wk =   0.0640000
        k(    9) = (   0.0000028   0.3963301   0.6322378), wk =   0.0640000
        k(   10) = (   0.1981664   0.1981664   0.0000000), wk =   0.0160000
        k(   11) = (   0.1981664   0.1981664   0.3161189), wk =   0.0320000
        k(   12) = (   0.1981664   0.1981664   0.6322378), wk =   0.0320000
        k(   13) = (   0.1981678   0.3963314   0.0000000), wk =   0.0320000
        k(   14) = (   0.1981678   0.3963314   0.3161189), wk =   0.0640000
        k(   15) = (   0.1981678   0.3963314   0.6322378), wk =   0.0640000
        k(   16) = (   0.3963328   0.3963328   0.0000000), wk =   0.0160000
        k(   17) = (   0.3963328   0.3963328   0.3161189), wk =   0.0320000
        k(   18) = (   0.3963328   0.3963328   0.6322378), wk =   0.0320000
        k(   19) = (  -0.1981636   0.1981636   0.0000000), wk =   0.0160000
        k(   20) = (  -0.1981636   0.1981636  -0.3161189), wk =   0.0320000
        k(   21) = (  -0.1981636   0.1981636  -0.6322378), wk =   0.0320000
        k(   22) = (  -0.1981622   0.3963287   0.0000000), wk =   0.0320000
        k(   23) = (  -0.1981622   0.3963287  -0.3161189), wk =   0.0640000
        k(   24) = (  -0.1981622   0.3963287  -0.6322378), wk =   0.0640000
        k(   25) = (  -0.3963273   0.3963273   0.0000000), wk =   0.0160000
        k(   26) = (  -0.3963273   0.3963273  -0.3161189), wk =   0.0320000
        k(   27) = (  -0.3963273   0.3963273  -0.6322378), wk =   0.0320000
        k(   28) = (   0.0000000   0.0000000   0.0000000), wk =   0.0080000
        k(   29) = (   0.0000000   0.0000000   0.3161189), wk =   0.0160000
        k(   30) = (   0.0000000   0.0000000   0.6322378), wk =   0.0160000
        k(   31) = (   0.0000014   0.1981650   0.0000000), wk =   0.0320000
        k(   32) = (   0.0000014   0.1981650   0.3161189), wk =   0.0640000
        k(   33) = (   0.0000014   0.1981650   0.6322378), wk =   0.0640000
        k(   34) = (   0.0000028   0.3963301   0.0000000), wk =   0.0320000
        k(   35) = (   0.0000028   0.3963301   0.3161189), wk =   0.0640000
        k(   36) = (   0.0000028   0.3963301   0.6322378), wk =   0.0640000
        k(   37) = (   0.1981664   0.1981664   0.0000000), wk =   0.0160000
        k(   38) = (   0.1981664   0.1981664   0.3161189), wk =   0.0320000
        k(   39) = (   0.1981664   0.1981664   0.6322378), wk =   0.0320000
        k(   40) = (   0.1981678   0.3963314   0.0000000), wk =   0.0320000
        k(   41) = (   0.1981678   0.3963314   0.3161189), wk =   0.0640000
        k(   42) = (   0.1981678   0.3963314   0.6322378), wk =   0.0640000
        k(   43) = (   0.3963328   0.3963328   0.0000000), wk =   0.0160000
        k(   44) = (   0.3963328   0.3963328   0.3161189), wk =   0.0320000
        k(   45) = (   0.3963328   0.3963328   0.6322378), wk =   0.0320000
        k(   46) = (  -0.1981636   0.1981636   0.0000000), wk =   0.0160000
        k(   47) = (  -0.1981636   0.1981636  -0.3161189), wk =   0.0320000
        k(   48) = (  -0.1981636   0.1981636  -0.6322378), wk =   0.0320000
        k(   49) = (  -0.1981622   0.3963287   0.0000000), wk =   0.0320000
        k(   50) = (  -0.1981622   0.3963287  -0.3161189), wk =   0.0640000
        k(   51) = (  -0.1981622   0.3963287  -0.6322378), wk =   0.0640000
        k(   52) = (  -0.3963273   0.3963273   0.0000000), wk =   0.0160000
        k(   53) = (  -0.3963273   0.3963273  -0.3161189), wk =   0.0320000
        k(   54) = (  -0.3963273   0.3963273  -0.6322378), wk =   0.0320000

     Largest allocated arrays     est. size (Mb)     dimensions
     Largest temporary arrays     est. size (Mb)     dimensions

     Check: negative/imaginary core charge=   -0.000014    0.000000

     Initial potential from superposition of free atoms
     Check: negative starting charge=(component1):   -0.020266
     Check: negative starting charge=(component2):   -0.004985

     starting charge   45.99991, renormalised to   48.00000

     negative rho (up, down):  0.211E-01 0.520E-02
     Starting wfc are   36 randomized atomic wfcs

     Self-consistent Calculation

[...]

     total energy              =    -366.48979353 Ry
     Harris-Foulkes estimate   =    -366.48979354 Ry
     estimated scf accuracy    <       0.00000005 Ry

[...]

     iteration # 13     ecut=    40.00 Ry     beta=0.70
     Davidson diagonalization with overlap
     ethr =  1.12E-10,  avg # of iterations =  2.0

     negative rho (up, down):  0.124E-01 0.124E-01

     End of self-consistent calculation

 ------ SPIN UP ------------

[...]

 ------ SPIN DOWN ----------

[...]

          k = 0.3963 0.3963 0.6322 (  1975 PWs)   bands (ev):

[...]

          k =-0.3963 0.3963-0.6322 (  1975 PWs)   bands (ev):

   -49.2021 -49.2018 -25.6599 -25.6584 -25.3969 -25.3929 -25.3640 -25.3621
    -8.8730  -8.7970  -8.6494  -8.5691   3.4256   3.6193   3.6750   3.8208
     4.5010   4.7028   5.3823   5.4086   6.4999   6.6060   6.8772   7.0843
    10.0347  10.3397  10.7417  10.7902  10.8314  11.0526  12.6241  13.0200
    13.4346  13.8192  19.1486  19.5007  20.8875  21.4954  22.1402  22.5751
    23.9751  24.1134  25.2940  25.5504  26.5253  27.0440  29.6086  30.8315
    31.1234  31.5944  31.9538  32.8663  34.9116  35.0393  36.7934  37.5112
    38.7947  39.1750  39.7581  40.3247  40.4821  40.8094  41.1084  41.4965
    42.4265  43.0331  43.2046  44.0978  44.1952

     the Fermi energy is     8.6171 ev

!    total energy              =    -366.48979354 Ry
     Harris-Foulkes estimate   =    -366.48979354 Ry
     estimated scf accuracy    <          2.0E-09 Ry

     The total energy is the sum of the following terms:

     one-electron contribution =    -138.77754889 Ry
     hartree contribution      =      90.60001418 Ry
     xc contribution           =     -63.00752996 Ry
     ewald contribution        =    -255.30472888 Ry
     smearing contrib. (-TS)   =       0.00000000 Ry

     total magnetization       =    -0.00 Bohr mag/cell
     absolute magnetization    =     0.00 Bohr mag/cell

     convergence has been achieved in  13 iterations

     Forces acting on atoms (Ry/au):

     negative rho (up, down):  0.124E-01 0.124E-01
     atom    1 type  1   force =     0.00000000    0.00000000    0.00000000
     atom    2 type  1   force =     0.00000000    0.00000000    0.00000000
     atom    3 type  2   force =     0.00005568    0.00005568   -0.00000000
     atom    4 type  2   force =    -0.00005568   -0.00005568   -0.00000000
     atom    5 type  2   force =     0.00005366   -0.00005366   -0.00000000
     atom    6 type  2   force =    -0.00005366    0.00005366   -0.00000000

     Total force =     0.000155     Total SCF correction =     0.000024
     SCF correction compared to forces is large: reduce conv_thr to get better values

     entering subroutine stress ...

     negative rho (up, down):  0.124E-01 0.124E-01
          total   stress  (Ry/bohr**3)                   (kbar)     P= -117.23
  -0.00079637   0.00000014   0.00000000       -117.15      0.02      0.00
   0.00000014  -0.00079637   0.00000000          0.02   -117.15      0.00
   0.00000000   0.00000000  -0.00079799          0.00      0.00   -117.39

     General routines

     Parallel routines

   This run was terminated on:  18:56:42  23Jan2014

   JOB DONE.
Running PBS batch system epilogue script
Job id: 251199.audhumbla.fysik.dtu.dk
Username: zhonxu
Groupname: campgst
Jobname: TiO2/coarse-EOS/TiO2-v-1.1
Sessionid: 18230
Queuename: verylong
Accounting:
This job has allocated the following 4 nodes:
q043 q043 q043 q043
Finished epilogue job 251199.audhumbla.fysik.dtu.dk for zhonxu