     Program PWSCF v.5.0.2 (svn rev. 9656) starts on 20Mar2014 at  9:21:13

     Current dimensions of program PWSCF are:
     Max number of different atomic species (ntypx) = 10
     Max number of k-points (npk) =  40000
     Max angular momentum in pseudopotentials (lmaxx) =  3
     Reading input from pwscf.in
Warning: card &CELL ignored
Warning: card / ignored

     Subspace diagonalization in iterative solution of the eigenvalue problem:
     a serial algorithm will be used

     bravais-lattice index     =            0
     lattice parameter (alat)  =      11.1872  a.u.
     unit-cell volume          =    7531.8600 (a.u.)^3
     number of atoms/cell      =           31
     number of atomic types    =            3
     number of electrons       =       222.00
     number of Kohn-Sham states=          333
     kinetic-energy cutoff     =      40.0000  Ry
     charge density cutoff     =     500.0000  Ry
     convergence threshold     =      1.0E-06
     mixing beta               =       0.7000
     number of iterations used =            8  plain     mixing
     Exchange-correlation      = SLA  PW   PBE  PBE ( 1 4 3 4 0)
     EXX-fraction              =        0.00
     nstep                     =           50

     celldm(1)=  11.187179  celldm(2)=   0.000000  celldm(3)=   0.000000
     celldm(4)=   0.000000  celldm(5)=   0.000000  celldm(6)=   0.000000

     crystal axes: (cart. coord. in units of alat)
               a(1) = (   1.000000   0.000000   0.000000 )
               a(2) = (   0.000000   1.180104   0.000000 )
               a(3) = (   0.000000   0.000000   4.558482 )

     reciprocal axes: (cart. coord. in units 2 pi/alat)
               b(1) = (  1.000000  0.000000  0.000000 )
               b(2) = (  0.000000  0.847383  0.000000 )
               b(3) = (  0.000000  0.000000  0.219371 )

     PseudoPot. # 1 for O  read from file:
     /home/camp/zhonxu/pseudo/o_pbe_v1.01.uspp.F.UPF
     MD5 check sum: 2bcb18d16ea4b960afae9ec6d52f22d2
     Pseudo is Ultrasoft + core correction, Zval =  6.0
     Generated by new atomic code, or converted to UPF format
     Using radial grid of  737 points,  5 beta functions with:
                l(1) =   0
                l(2) =   0
                l(3) =   1
                l(4) =   1
                l(5) =   2
     Q(r) pseudized with  8 coefficients,  rinner =    0.900   0.900   0.900
                                                       0.900   0.900

     PseudoPot. # 2 for Nb read from file:
     /home/camp/zhonxu/pseudo/nb_pbe_v1.uspp.F.UPF
     MD5 check sum: 573aab8a2fa660278ed4a62cd769473f
     Pseudo is Ultrasoft + core correction, Zval = 13.0
     Generated by new atomic code, or converted to UPF format
     Using radial grid of  887 points,  6 beta functions with:
                l(1) =   0
                l(2) =   0
                l(3) =   1
                l(4) =   1
                l(5) =   2
                l(6) =   2
     Q(r) pseudized with  6 coefficients,  rinner =    1.000   1.000   1.000
                                                       1.000   1.000

     PseudoPot. # 3 for H  read from file:
     /home/camp/zhonxu/pseudo/h_pbe_v1.uspp.F.UPF
     MD5 check sum: 3408e3ff4ec8b0a4e358431e7e038a48
     Pseudo is Ultrasoft, Zval =  1.0
     Generated by new atomic code, or converted to UPF format
     Using radial grid of  615 points,  2 beta functions with:
                l(1) =   0
                l(2) =   0
     Q(r) pseudized with  8 coefficients,  rinner =    0.700

     atomic species   valence    mass     pseudopotential
        O0             6.00    15.99940     O ( 1.00)
        Nb1           13.00    92.90640     Nb( 1.00)
        H2             1.00     1.00794     H ( 1.00)

     Starting magnetic structure
     atomic species   magnetization
        O0           0.000
        Nb1          0.000
        H2           0.000

     No symmetry found

   Cartesian axes

     site n.     atom                  positions (alat units)
         1           O0  tau(   1) = (   0.0000000   0.0000000   1.7080633  )
         2           O0  tau(   2) = (   0.0000000   0.5900519   1.7583889  )
         3           Nb1 tau(   3) = (   0.2500000   0.5900519   2.0066439  )
         4           Nb1 tau(   4) = (   0.0000000   0.0000000   2.0401487  )
         5           O0  tau(   5) = (   0.2500000   0.9322821   2.0429294  )
         6           O0  tau(   6) = (   0.2500000   0.2478218   2.0431118  )
         7           O0  tau(   7) = (   0.0000000   0.5900519   2.2709903  )
         8           O0  tau(   8) = (   0.0000000   0.0000000   2.3999042  )
         9           Nb1 tau(   9) = (   0.2500000   0.0000000   2.6489340  )
        10           Nb1 tau(  10) = (   0.0000000   0.5900519   2.5868019  )
        11           O0  tau(  11) = (   0.2500000   0.8378738   2.6444667  )
        12           O0  tau(  12) = (   0.2500000   0.3422301   2.6445123  )
        13           O0  tau(  13) = (   0.0000000   0.0000000   2.8518777  )
        14           O0  tau(  14) = (   0.5000000   0.0000000   1.7080633  )
        15           O0  tau(  15) = (   0.5000000   0.5900519   1.7583889  )
        16           Nb1 tau(  16) = (   0.7500000   0.5900519   2.0066439  )
        17           Nb1 tau(  17) = (   0.5000000   0.0000000   2.0401487  )
        18           O0  tau(  18) = (   0.7500000   0.9322821   2.0429294  )
        19           O0  tau(  19) = (   0.7500000   0.2478218   2.0431118  )
        20           O0  tau(  20) = (   0.5000000   0.5900519   2.2709903  )
        21           O0  tau(  21) = (   0.5000000   0.0000000   2.3999497  )
        22           Nb1 tau(  22) = (   0.7500000   0.0000000   2.6489340  )
        23           Nb1 tau(  23) = (   0.5000000   0.5900519   2.5867563  )
        24           O0  tau(  24) = (   0.7500000   0.8378738   2.6444667  )
        25           O0  tau(  25) = (   0.7500000   0.3422301   2.6445123  )
        26           O0  tau(  26) = (   0.5000000   0.0000000   2.8518777  )
        27           H2  tau(  27) = (  -0.0004200   0.5934860   1.5928705  )
        28           H2  tau(  28) = (   0.4995800   0.5932146   1.5928249  )
        29           H2  tau(  29) = (   0.1513000  -0.0014397   1.6372701  )
        30           H2  tau(  30) = (   0.6512900  -0.0014397   1.6372701  )
        31           O0  tau(  31) = (   0.5000000   0.5900519   2.8180993  )

     number of k points=    20  Methfessel-Paxton smearing, width (Ry)=  0.0100
                       cart. coord. in units 2pi/alat
        k(    1) = (   0.0000000   0.0000000   0.0000000), wk =   0.0625000
        k(    2) = (   0.0000000   0.2118458   0.0000000), wk =   0.1250000
        k(    3) = (   0.0000000  -0.4236915   0.0000000), wk =   0.0625000
        k(    4) = (   0.2500000   0.0000000   0.0000000), wk =   0.1250000
        k(    5) = (   0.2500000   0.2118458   0.0000000), wk =   0.1250000
        k(    6) = (   0.2500000  -0.4236915   0.0000000), wk =   0.1250000
        k(    7) = (  -0.5000000   0.0000000   0.0000000), wk =   0.0625000
        k(    8) = (  -0.5000000   0.2118458   0.0000000), wk =   0.1250000
        k(    9) = (  -0.5000000  -0.4236915   0.0000000), wk =   0.0625000
        k(   10) = (  -0.2500000   0.2118458   0.0000000), wk =   0.1250000
        k(   11) = (   0.0000000   0.0000000   0.0000000), wk =   0.0625000
        k(   12) = (   0.0000000   0.2118458   0.0000000), wk =   0.1250000
        k(   13) = (   0.0000000  -0.4236915   0.0000000), wk =   0.0625000
        k(   14) = (   0.2500000   0.0000000   0.0000000), wk =   0.1250000
        k(   15) = (   0.2500000   0.2118458   0.0000000), wk =   0.1250000
        k(   16) = (   0.2500000  -0.4236915   0.0000000), wk =   0.1250000
        k(   17) = (  -0.5000000   0.0000000   0.0000000), wk =   0.0625000
        k(   18) = (  -0.5000000   0.2118458   0.0000000), wk =   0.1250000
        k(   19) = (  -0.5000000  -0.4236915   0.0000000), wk =   0.0625000
        k(   20) = (  -0.2500000   0.2118458   0.0000000), wk =   0.1250000

     Largest allocated arrays     est. size (Mb)     dimensions
     Largest temporary arrays     est. size (Mb)     dimensions

     Check: negative/imaginary core charge=   -0.000003    0.000000

     Initial potential from superposition of free atoms
     Check: negative starting charge=(component1):   -0.001919
     Check: negative starting charge=(component2):   -0.001919

     starting charge  221.97807, renormalised to  222.00000

     negative rho (up, down):  0.192E-02 0.192E-02
     Starting wfc are  184 randomized atomic wfcs

     Self-consistent Calculation

     iteration #  1     ecut=    40.00 Ry     beta=0.70
     Davidson diagonalization with overlap
     ethr =  1.00E-02,  avg # of iterations =  6.0

     negative rho (up, down):  0.177E-02 0.176E-02

     total energy              =   -1554.21163094 Ry
     Harris-Foulkes estimate   =   -1565.76392752 Ry
     estimated scf accuracy    <      14.63373790 Ry

     total magnetization       =     0.00 Bohr mag/cell
     absolute magnetization    =     0.01 Bohr mag/cell

[...]

     End of self-consistent calculation

 ------ SPIN UP ------------

          k = 0.0000 0.0000 0.0000 ( 32167 PWs)   bands (ev):

   -56.6180 -56.5297 -56.1181 -56.1096 -56.0890 -56.0399 -56.0045 -55.0562
   -34.4844 -33.4733 -32.8242 -32.6941 -32.6911 -32.6221 -32.6033 -32.5966
   -32.5647 -32.4865 -32.4539 -32.3599 -32.3585 -32.2835 -32.2686 -32.1324
   -32.1308 -32.0171 -31.9666 -31.9422 -31.8190 -31.7647 -30.6851 -30.6335
   -20.9581 -20.7536 -19.6465 -19.3424 -19.2028 -19.1650 -19.0327 -18.8661
   -18.7972 -18.7966 -18.6170 -18.4423 -18.2327 -18.1303 -18.0643 -17.8881
   -17.7068 -17.6994 -15.1341  -9.3888  -9.0336  -8.0178  -7.5650  -7.3664
    -7.3613  -7.0684  -7.0240  -6.5313  -6.5084  -6.3739  -6.3217  -6.2922
    -6.2481  -6.1354  -6.1016  -5.9414  -5.8844  -5.7149  -5.6127  -5.5020
    -5.4061  -5.3767  -5.2367  -5.1347  -5.0589  -4.9675  -4.9086  -4.7637
    -4.6447  -4.5085  -4.3760  -4.3168  -4.1730  -3.9661  -3.9130  -3.8926
    -3.8574  -3.6181  -3.5451  -3.5109  -3.4965  -3.4946  -3.3849  -3.2470
    -3.1276  -3.0785  -3.0713  -2.9536  -2.9290  -2.8838  -2.7919  -2.7130
    -2.3905  -2.2065  -1.9382  -1.7986  -0.4926  -0.4070  -0.1511   0.9834
     1.2218   1.2482   1.2728   1.3394   1.3761   1.5078   1.5524   1.6569
     1.6597   2.0842   2.1997   2.2027   2.6096   2.6275   2.9396   3.0019
     3.3503   3.3944   3.4125   3.8018   3.9082   4.2378   4.3581   4.4257
     4.4918   4.7052   4.7765   4.9410   5.1468   5.2219   5.4454   5.5744
     5.7524   5.7669   5.8723   5.8954   5.9652   6.0348   6.0973   6.3112
     6.3426   6.4330   6.4662   6.5124   6.8656   6.8966   6.9741   6.9864
     7.2967   7.4673   7.5397   7.7752   7.8393   7.8656   7.9800   8.1212
     8.1516   8.2684   8.5132   8.5244   8.5563   8.6902   8.7190   8.7770
     8.8309   8.9776   9.0627   9.1137   9.1462   9.2819   9.3429   9.4712
     9.4780   9.5648   9.6155   9.6596   9.7722   9.8278  10.0372  10.0472
    10.2492  10.3109  10.3958  10.6965  10.8499  10.9601  11.0280  11.0506
[...]
     atom    8 type  1   force =     0.00175642   -0.00006054   -0.00979362
     atom    9 type  2   force =     0.00199508    0.00004761    0.00441654
     atom   10 type  2   force =     0.00013147   -0.00001648   -0.00035086
     atom   11 type  1   force =    -0.08035726    0.02026582   -0.03701728
     atom   12 type  1   force =    -0.08035268   -0.02029712   -0.03707716
     atom   13 type  1   force =     0.00031975   -0.00002373   -0.00473983
     atom   14 type  1   force =    -0.00027095   -0.00054574   -0.00095055
     atom   15 type  1   force =    -0.00099250    0.00051583    0.00713533
     atom   16 type  2   force =     0.02462349   -0.00054550    0.04269170
     atom   17 type  2   force =    -0.00289704    0.00040393    0.00870378
     atom   18 type  1   force =     0.00399223   -0.02639814   -0.00704330
     atom   19 type  1   force =     0.00405339    0.02616972   -0.00726521
     atom   20 type  1   force =     0.00060396    0.00018369   -0.37714817
     atom   21 type  1   force =     0.00168325   -0.00007012   -0.00361547
     atom   22 type  2   force =    -0.00252459    0.00003434    0.00438481
     atom   23 type  2   force =     0.00005421   -0.00003303   -1.25385298
     atom   24 type  1   force =     0.08038496    0.02025872   -0.03708939
     atom   25 type  1   force =     0.08039182   -0.02026502   -0.03714472
     atom   26 type  1   force =     0.00037973   -0.00002037   -0.00521913
     atom   27 type  3   force =     0.00000664   -0.00024759   -0.00331940
     atom   28 type  3   force =    -0.00008901   -0.00026088    0.00359781
     atom   29 type  3   force =    -0.00007294    0.00042181   -0.00029667
     atom   30 type  3   force =     0.00034032    0.00042843   -0.00019368
     atom   31 type  1   force =    -0.00000217    0.00004238    1.71290746

     Total force =     1.712907     Total SCF correction =     0.000242

     BFGS Geometry Optimization

     number of scf cycles    =   1
     number of bfgs steps    =   0

     energy   new            =   -1561.9185639951 Ry

     new trust radius        =       0.5000000000 bohr
     new conv_thr            =       0.0000010000 Ry

ATOMIC_POSITIONS (crystal)
O0       0.000000000   0.000000000   0.374700000    0   0   0
O0       0.000000000   0.500000000   0.385740000    0   0   0
Nb1      0.250000000   0.500000000   0.440200000    0   0   0
Nb1      0.000000000   0.000000000   0.447550000    0   0   0
O0       0.250000000   0.790000000   0.448160000    0   0   0
O0       0.250000000   0.210000000   0.448200000    0   0   0
O0       0.000000000   0.500000000   0.498190000    0   0   0
O0       0.000000000   0.000000000   0.526470000    0   0   0
Nb1      0.250000000   0.000000000   0.581100000    0   0   0
Nb1      0.000000000   0.500000000   0.567470000    0   0   0
O0       0.250000000   0.710000000   0.580120000    0   0   0
O0       0.250000000   0.290000000   0.580130000    0   0   0
O0       0.000000000   0.000000000   0.625620000    0   0   0
O0       0.500000000   0.000000000   0.374700000    0   0   0
O0       0.500000000   0.500000000   0.385740000    0   0   0
Nb1      0.750000000   0.500000000   0.440200000    0   0   0
Nb1      0.500000000   0.000000000   0.447550000    0   0   0
O0       0.750000000   0.790000000   0.448160000    0   0   0
O0       0.750000000   0.210000000   0.448200000    0   0   0
O0       0.500000000   0.500000000   0.498190000    0   0   0
O0       0.500000000   0.000000000   0.526480000    0   0   0
Nb1      0.750000000   0.000000000   0.581100000    0   0   0
Nb1      0.500000000   0.500000000   0.567460000    0   0   0
O0       0.750000000   0.710000000   0.580120000    0   0   0
O0       0.750000000   0.290000000   0.580130000    0   0   0
O0       0.500000000   0.000000000   0.625620000    0   0   0
H2      -0.000420000   0.502910000   0.349430000    0   0   0
H2       0.499580000   0.502680000   0.349420000    0   0   0
H2       0.151300000  -0.001220000   0.359170000    0   0   0
H2       0.651290000  -0.001220000   0.359170000    0   0   0
O0       0.499999943   0.500000937   0.628014584

     Check: negative starting charge=(component1):   -0.003837
     NEW-OLD atomic charge density approx. for the potential

     Check: negative/imaginary core charge=   -0.000003    0.000000
     Check: negative starting charge=(component1):   -0.003830

[...]

     energy   old            =   -1561.9185639951 Ry
     energy   new            =   -1562.3504693426 Ry

     CASE: energy  _new < energy  _old

[...]

     Threshold (ethr) on eigenvalues was too large:
     Diagonalizing with lowered threshold

     Davidson diagonalization with overlap
     ethr =  5.05E-08,  avg # of iterations =  1.0

[...]

     number of scf cycles    =   6
     number of bfgs steps    =   5

     energy   old            =   -1562.3882886376 Ry
     energy   new            =   -1562.3884008161 Ry

     CASE: energy  _new < energy  _old

     new trust radius        =       0.0019532045 bohr
     new conv_thr            =       0.0000000112 Ry

ATOMIC_POSITIONS (crystal)
O0       0.000000000   0.000000000   0.374700000    0   0   0
O0       0.000000000   0.500000000   0.385740000    0   0   0
Nb1      0.250000000   0.500000000   0.440200000    0   0   0
Nb1      0.000000000   0.000000000   0.447550000    0   0   0
O0       0.250000000   0.790000000   0.448160000    0   0   0
O0       0.250000000   0.210000000   0.448200000    0   0   0
O0       0.000000000   0.500000000   0.498190000    0   0   0
O0       0.000000000   0.000000000   0.526470000    0   0   0
Nb1      0.250000000   0.000000000   0.581100000    0   0   0
Nb1      0.000000000   0.500000000   0.567470000    0   0   0
O0       0.250000000   0.710000000   0.580120000    0   0   0
O0       0.250000000   0.290000000   0.580130000    0   0   0
O0       0.000000000   0.000000000   0.625620000    0   0   0
O0       0.500000000   0.000000000   0.374700000    0   0   0
O0       0.500000000   0.500000000   0.385740000    0   0   0
Nb1      0.750000000   0.500000000   0.440200000    0   0   0
Nb1      0.500000000   0.000000000   0.447550000    0   0   0
O0       0.750000000   0.790000000   0.448160000    0   0   0
O0       0.750000000   0.210000000   0.448200000    0   0   0
O0       0.500000000   0.500000000   0.498190000    0   0   0
O0       0.500000000   0.000000000   0.526480000    0   0   0
Nb1      0.750000000   0.000000000   0.581100000    0   0   0
Nb1      0.500000000   0.500000000   0.567460000    0   0   0
O0       0.750000000   0.710000000   0.580120000    0   0   0
O0       0.750000000   0.290000000   0.580130000    0   0   0
O0       0.500000000   0.000000000   0.625620000    0   0   0
H2      -0.000420000   0.502910000   0.349430000    0   0   0
H2       0.499580000   0.502680000   0.349420000    0   0   0
H2       0.151300000  -0.001220000   0.359170000    0   0   0
H2       0.651290000  -0.001220000   0.359170000    0   0   0
O0       0.500006712   0.500017596   0.633833694

     Check: negative starting charge=(component1):   -0.003822
     NEW-OLD atomic charge density approx. for the potential

     Check: negative/imaginary core charge=   -0.000003    0.000000
     Check: negative starting charge=(component1):   -0.003822

[...]

     Self-consistent Calculation

[...]

     Threshold (ethr) on eigenvalues was too large:
     Diagonalizing with lowered threshold

     Davidson diagonalization with overlap
     ethr =  5.01E-10,  avg # of iterations =  2.0

[...]

     total energy              =   -1562.38840214 Ry
     Harris-Foulkes estimate   =   -1562.38840214 Ry
     estimated scf accuracy    <       0.00000001 Ry

[...]

     iteration #  9     ecut=    40.00 Ry     beta=0.70
     Davidson diagonalization with overlap
     ethr =  6.56E-12,  avg # of iterations =  1.0

     negative rho (up, down):  0.177E-02 0.177E-02

     End of self-consistent calculation

 ------ SPIN UP ------------

[...]

 ------ SPIN DOWN ----------

[...]

          k = 0.2500-0.4237 0.0000 ( 32188 PWs)   bands (ev):

[...]

          k =-0.2500 0.2118 0.0000 ( 32165 PWs)   bands (ev):

   -56.9058 -56.8434 -56.5835 -56.5654 -56.5220 -56.5107 -56.4589 -55.2785
   -33.6312 -33.1298 -33.0932 -32.9904 -32.9814 -32.9730 -32.9279 -32.9220
   -32.9006 -32.8787 -32.8014 -32.7825 -32.7284 -32.6907 -32.5859 -32.5721
   -32.4667 -32.4443 -32.4362 -32.4091 -32.3436 -31.8145 -31.5167 -31.4072
   -21.3524 -21.1865 -19.9704 -19.6632 -19.6129 -19.4587 -19.4052 -19.2411
   -19.0339 -19.0014 -18.8617 -18.8290 -18.8148 -18.7277 -18.3377 -18.2845
   -18.2034 -18.1516 -15.5790  -9.7497  -9.4903  -8.2233  -7.5457  -7.3703
    -7.1821  -7.0609  -6.9518  -6.8781  -6.8229  -6.7124  -6.6913  -6.5296
    -6.5082  -6.4543  -6.3298  -6.2404  -6.2078  -6.1065  -5.7928  -5.7487
    -5.7024  -5.6122  -5.4966  -5.3875  -5.2440  -5.1682  -4.9956  -4.9438
    -4.8961  -4.7910  -4.6944  -4.6455  -4.5268  -4.3932  -4.3583  -4.3183
    -4.2725  -4.2337  -4.1587  -4.1172  -4.0171  -3.8715  -3.7619  -3.7055
    -3.5679  -3.4560  -3.4133  -3.3731  -3.3225  -3.2364  -3.0594  -3.0326
    -2.7487  -1.5533  -1.2009  -0.9969  -0.7267  -0.1720   0.0954   0.2128
     0.4377   0.6466   0.9767   1.0689   1.1059   1.2023   1.4530   1.5868
     1.6003   1.6991   1.8389   1.9177   2.0786   2.1447   2.2016   2.2370
     2.2637   2.5945   2.6039   2.8142   3.3291   3.6874   3.7799   3.9321
     4.2341   4.3496   4.4030   4.4827   4.5807   4.8192   4.8575   4.9470
     5.0934   5.1943   5.2573   5.4417   5.5743   5.7353   5.8579   5.8916
     6.0409   6.0815   6.3896   6.4648   6.5305   6.5747   6.6825   6.7641
     7.0083   7.1647   7.1842   7.4312   7.5783   7.5942   7.7089   7.8429
     7.9094   7.9374   7.9840   8.1838   8.3343   8.4708   8.5786   8.7352
     8.8187   8.8517   8.8924   9.0130   9.1421   9.2712   9.3020   9.4526
     9.5375   9.6380   9.6881   9.8925   9.9729  10.0218  10.1116  10.1380
    10.2349  10.4543  10.5541  10.6221  10.6541  10.8526  10.8809  11.0150
    11.1587  11.1715  11.2646  11.3106  11.3841  11.4103  11.5422  11.5944
    11.6980  11.7604  11.8390  11.9036  11.9170  12.0453  12.0900  12.1320
    12.2726  12.3131  12.3665  12.4155  12.5185  12.5922  12.7019  12.7381
    12.8037  12.8840  12.9448  12.9723  13.0655  13.1414  13.2475  13.2695
    13.3271  13.4991  13.5415  13.6253  13.7110  13.7426  13.7771  13.8958
    13.9931  14.0095  14.1511  14.1898  14.2123  14.2678  14.3186  14.4074
    14.6221  14.6539  14.7183  14.7976  14.8760  14.9667  15.0284  15.1304
    15.1426  15.2030  15.3827  15.4034  15.4568  15.4797  15.5239  15.5325
    15.6067  15.6414  15.7970  15.8893  15.9296  15.9822  16.0857  16.1739
    16.2276  16.3665  16.4166  16.4787  16.5194  16.5761  16.6061  16.6468
    16.7246  16.8082  16.8383  16.9853  17.0440  17.1099  17.1800  17.2116
    17.3153  17.3666  17.4229  17.4465  17.4970  17.5709  17.6166  17.7445
    17.8093  17.9540  17.9725  18.1052  18.2018  18.2056  18.2245  18.3746
    18.4171  18.5021  18.5175  18.5953  18.6224  18.6726  18.7574  18.7784
    18.9044  18.9792  19.0418  19.0600  19.0975  19.2056  19.2621  19.2997
    19.3812  19.4201  19.4593  19.5094  19.5400  19.6512  19.7006  19.7303
    19.7591  19.8869  19.9229  20.0367  20.0686

     the Fermi energy is     0.2362 ev

!    total energy              =   -1562.38840216 Ry
     Harris-Foulkes estimate   =   -1562.38840214 Ry
     estimated scf accuracy    <          8.0E-09 Ry

     The total energy is the sum of the following terms:

     one-electron contribution =  -18971.65745700 Ry
     hartree contribution      =    9510.71432878 Ry
     xc contribution           =    -286.73514686 Ry
     ewald contribution        =    8185.28980387 Ry
     smearing contrib. (-TS)   =       0.00006904 Ry

     total magnetization       =     0.00 Bohr mag/cell
     absolute magnetization    =     0.01 Bohr mag/cell

     convergence has been achieved in   9 iterations

     Forces acting on atoms (Ry/au):

     negative rho (up, down):  0.177E-02 0.177E-02
     atom    1 type  1   force =     0.00071973   -0.00054242    0.00097437
     atom    2 type  1   force =    -0.00108877    0.00071256   -0.00859990
     atom    3 type  2   force =    -0.03916279   -0.00052132    0.02940283
     atom    4 type  2   force =    -0.00433535    0.00040078    0.01230114
     atom    5 type  1   force =    -0.00086496   -0.02817383   -0.00657213
     atom    6 type  1   force =    -0.00048588    0.02795913   -0.00681729
     atom    7 type  1   force =     0.00029819    0.00016805    0.01591643
     atom    8 type  1   force =     0.00182676   -0.00006059   -0.01913522
     atom    9 type  2   force =     0.00495136    0.00003631    0.02190320
     atom   10 type  2   force =     0.00010435   -0.00001131    0.01661795
     atom   11 type  1   force =    -0.05844450    0.00206429   -0.04539662
     atom   12 type  1   force =    -0.05842551   -0.00207649   -0.04544778
     atom   13 type  1   force =     0.00034795   -0.00002216   -0.01233388
     atom   14 type  1   force =     0.00006504   -0.00055080    0.00049924
     atom   15 type  1   force =    -0.00110394    0.00048959    0.00817309
     atom   16 type  2   force =     0.04166446   -0.00051607    0.03008550
     atom   17 type  2   force =    -0.00322656    0.00040944    0.01007688
     atom   18 type  1   force =     0.00154558   -0.02787501   -0.00672651
     atom   19 type  1   force =     0.00160980    0.02763862   -0.00695752
     atom   20 type  1   force =     0.00049732    0.00018437   -0.21557837
     atom   21 type  1   force =     0.00172967   -0.00007299   -0.00910767
     atom   22 type  2   force =    -0.00555375    0.00002567    0.02189531
     atom   23 type  2   force =     0.00002472   -0.00003567    0.32342329
     atom   24 type  1   force =     0.05847960    0.00205978   -0.04545560
     atom   25 type  1   force =     0.05846948   -0.00205402   -0.04550521
     atom   26 type  1   force =     0.00040520   -0.00001698   -0.01645663
     atom   27 type  3   force =    -0.00000751   -0.00024433   -0.00324389
     atom   28 type  3   force =    -0.00008905   -0.00024821    0.00359039
     atom   29 type  3   force =    -0.00020550    0.00042486   -0.00083651
     atom   30 type  3   force =     0.00024714    0.00043199   -0.00072053
     atom   31 type  1   force =     0.00000774    0.00001675    0.00003159

     Total force =     0.000037     Total SCF correction =     0.000001

     bfgs converged in   7 scf cycles and   6 bfgs steps
     (criteria: energy < 0.10E-03, force < 0.10E-02)

     End of BFGS Geometry Optimization

     Final energy   =   -1562.3884021586 Ry
Begin final coordinates

ATOMIC_POSITIONS (crystal)
O0       0.000000000   0.000000000   0.374700000    0   0   0
O0       0.000000000   0.500000000   0.385740000    0   0   0
Nb1      0.250000000   0.500000000   0.440200000    0   0   0
Nb1      0.000000000   0.000000000   0.447550000    0   0   0
O0       0.250000000   0.790000000   0.448160000    0   0   0
O0       0.250000000   0.210000000   0.448200000    0   0   0
O0       0.000000000   0.500000000   0.498190000    0   0   0
O0       0.000000000   0.000000000   0.526470000    0   0   0
Nb1      0.250000000   0.000000000   0.581100000    0   0   0
Nb1      0.000000000   0.500000000   0.567470000    0   0   0
O0       0.250000000   0.710000000   0.580120000    0   0   0
O0       0.250000000   0.290000000   0.580130000    0   0   0
O0       0.000000000   0.000000000   0.625620000    0   0   0
O0       0.500000000   0.000000000   0.374700000    0   0   0
O0       0.500000000   0.500000000   0.385740000    0   0   0
Nb1      0.750000000   0.500000000   0.440200000    0   0   0
Nb1      0.500000000   0.000000000   0.447550000    0   0   0
O0       0.750000000   0.790000000   0.448160000    0   0   0
O0       0.750000000   0.210000000   0.448200000    0   0   0
O0       0.500000000   0.500000000   0.498190000    0   0   0
O0       0.500000000   0.000000000   0.526480000    0   0   0
Nb1      0.750000000   0.000000000   0.581100000    0   0   0
Nb1      0.500000000   0.500000000   0.567460000    0   0   0
O0       0.750000000   0.710000000   0.580120000    0   0   0
O0       0.750000000   0.290000000   0.580130000    0   0   0
O0       0.500000000   0.000000000   0.625620000    0   0   0
H2      -0.000420000   0.502910000   0.349430000    0   0   0
H2       0.499580000   0.502680000   0.349420000    0   0   0
H2       0.151300000  -0.001220000   0.359170000    0   0   0
H2       0.651290000  -0.001220000   0.359170000    0   0   0
O0       0.500006712   0.500017596   0.633833694
End final coordinates

     General routines

     Parallel routines

   This run was terminated on:  21: 3:47  20Mar2014

   JOB DONE.