     Program PWSCF v.5.0.2 (svn rev. 9656) starts on  8May2014 at 23:49:16

     Current dimensions of program PWSCF are:
     Max number of different atomic species (ntypx) = 10
     Max number of k-points (npk) =  40000
     Max angular momentum in pseudopotentials (lmaxx) =  3
     Reading input from pwscf.in
Warning: card &CELL ignored
Warning: card / ignored

     Subspace diagonalization in iterative solution of the eigenvalue problem:
     a serial algorithm will be used

     bravais-lattice index     =            0
     lattice parameter (alat)  =      11.1872  a.u.
     unit-cell volume          =    7531.8600 (a.u.)^3
     number of atoms/cell      =           30
     number of atomic types    =            3
     number of electrons       =       216.00
     number of Kohn-Sham states=          324
     kinetic-energy cutoff     =      40.0000  Ry
     charge density cutoff     =     500.0000  Ry
     convergence threshold     =      1.0E-06
     mixing beta               =       0.7000
     number of iterations used =            8  plain     mixing
     Exchange-correlation      = SLA  PW   PBE  PBE ( 1 4 3 4 0)
     EXX-fraction              =        0.00
     nstep                     =           50

     celldm(1)=  11.187179  celldm(2)=   0.000000  celldm(3)=   0.000000
     celldm(4)=   0.000000  celldm(5)=   0.000000  celldm(6)=   0.000000

     crystal axes: (cart. coord. in units of alat)
               a(1) = (   1.000000   0.000000   0.000000 )
               a(2) = (   0.000000   1.180104   0.000000 )
               a(3) = (   0.000000   0.000000   4.558482 )

     reciprocal axes: (cart. coord. in units 2 pi/alat)
               b(1) = (  1.000000  0.000000  0.000000 )
               b(2) = (  0.000000  0.847383  0.000000 )
               b(3) = (  0.000000  0.000000  0.219371 )

     PseudoPot. # 1 for O  read from file:
     /home/camp/zhonxu/pseudo/o_pbe_v1.01.uspp.F.UPF
     MD5 check sum: 2bcb18d16ea4b960afae9ec6d52f22d2
     Pseudo is Ultrasoft + core correction, Zval =  6.0
     Generated by new atomic code, or converted to UPF format
     Using radial grid of  737 points,  5 beta functions with:
                l(1) =   0
                l(2) =   0
                l(3) =   1
                l(4) =   1
                l(5) =   2
     Q(r) pseudized with  8 coefficients,  rinner =    0.900   0.900   0.900
                                                       0.900   0.900

     PseudoPot. # 2 for Nb read from file:
     /home/camp/zhonxu/pseudo/nb_pbe_v1.uspp.F.UPF
     MD5 check sum: 573aab8a2fa660278ed4a62cd769473f
     Pseudo is Ultrasoft + core correction, Zval = 13.0
     Generated by new atomic code, or converted to UPF format
     Using radial grid of  887 points,  6 beta functions with:
                l(1) =   0
                l(2) =   0
                l(3) =   1
                l(4) =   1
                l(5) =   2
                l(6) =   2
     Q(r) pseudized with  6 coefficients,  rinner =    1.000   1.000   1.000
                                                       1.000   1.000

     PseudoPot. # 3 for H  read from file:
     /home/camp/zhonxu/pseudo/h_pbe_v1.uspp.F.UPF
     MD5 check sum: 3408e3ff4ec8b0a4e358431e7e038a48
     Pseudo is Ultrasoft, Zval =  1.0
     Generated by new atomic code, or converted to UPF format
     Using radial grid of  615 points,  2 beta functions with:
                l(1) =   0
                l(2) =   0
     Q(r) pseudized with  8 coefficients,  rinner =    0.700

     atomic species   valence    mass     pseudopotential
        O0             6.00    15.99940     O ( 1.00)
        Nb1           13.00    92.90640     Nb( 1.00)
        H2             1.00     1.00794     H ( 1.00)

     Simplified LDA+U calculation (l_max = 2) with parameters (eV):
     atomic species    L          U    alpha       J0     beta
        Nb1            2     2.5000   0.0000   0.0000   0.0000

     No symmetry found

   Cartesian axes

     site n.     atom                  positions (alat units)
         1           O0  tau(   1) = (   0.0000000   0.0000000   1.7080633  )
         2           O0  tau(   2) = (   0.0000000   0.5900519   1.7583889  )
         3           Nb1 tau(   3) = (   0.2500000   0.5900519   2.0066439  )
         4           Nb1 tau(   4) = (   0.0000000   0.0000000   2.0401487  )
         5           O0  tau(   5) = (   0.2500000   0.9322821   2.0429294  )
         6           O0  tau(   6) = (   0.2500000   0.2478218   2.0431118  )
         7           O0  tau(   7) = (   0.0000000   0.5900519   2.2709903  )
         8           O0  tau(   8) = (   0.0000000   0.0000000   2.3999042  )
         9           Nb1 tau(   9) = (   0.2500000   0.0000000   2.6489340  )
        10           Nb1 tau(  10) = (   0.0000000   0.5900519   2.5868019  )
        11           O0  tau(  11) = (   0.2500000   0.8378738   2.6444667  )
        12           O0  tau(  12) = (   0.2500000   0.3422301   2.6445123  )
        13           O0  tau(  13) = (   0.0000000   0.0000000   2.8518777  )
        14           O0  tau(  14) = (   0.5000000   0.0000000   1.7080633  )
        15           O0  tau(  15) = (   0.5000000   0.5900519   1.7583889  )
        16           Nb1 tau(  16) = (   0.7500000   0.5900519   2.0066439  )
        17           Nb1 tau(  17) = (   0.5000000   0.0000000   2.0401487  )
        18           O0  tau(  18) = (   0.7500000   0.9322821   2.0429294  )
        19           O0  tau(  19) = (   0.7500000   0.2478218   2.0431118  )
        20           O0  tau(  20) = (   0.5000000   0.5900519   2.2709903  )
        21           O0  tau(  21) = (   0.5000000   0.0000000   2.3999497  )
        22           Nb1 tau(  22) = (   0.7500000   0.0000000   2.6489340  )
        23           Nb1 tau(  23) = (   0.5000000   0.5900519   2.5867563  )
        24           O0  tau(  24) = (   0.7500000   0.8378738   2.6444667  )
        25           O0  tau(  25) = (   0.7500000   0.3422301   2.6445123  )
        26           O0  tau(  26) = (   0.5000000   0.0000000   2.8518777  )
        27           H2  tau(  27) = (  -0.0004200   0.5934860   1.5928705  )
        28           H2  tau(  28) = (   0.4995800   0.5932146   1.5928249  )
        29           H2  tau(  29) = (   0.1513000  -0.0014397   1.6372701  )
        30           H2  tau(  30) = (   0.6512900  -0.0014397   1.6372701  )

     number of k points=    10  Methfessel-Paxton smearing, width (Ry)=  0.0100
                       cart. coord. in units 2pi/alat
        k(    1) = (   0.0000000   0.0000000   0.0000000), wk =   0.1250000
        k(    2) = (   0.0000000   0.2118458   0.0000000), wk =   0.2500000
        k(    3) = (   0.0000000  -0.4236915   0.0000000), wk =   0.1250000
        k(    4) = (   0.2500000   0.0000000   0.0000000), wk =   0.2500000
        k(    5) = (   0.2500000   0.2118458   0.0000000), wk =   0.2500000
        k(    6) = (   0.2500000  -0.4236915   0.0000000), wk =   0.2500000
        k(    7) = (  -0.5000000   0.0000000   0.0000000), wk =   0.1250000
        k(    8) = (  -0.5000000   0.2118458   0.0000000), wk =   0.2500000
        k(    9) = (  -0.5000000  -0.4236915   0.0000000), wk =   0.1250000
        k(   10) = (  -0.2500000   0.2118458   0.0000000), wk =   0.2500000

     Largest allocated arrays     est. size (Mb)     dimensions
     Largest temporary arrays     est. size (Mb)     dimensions

     Check: negative/imaginary core charge=   -0.000003    0.000000

     Initial potential from superposition of free atoms
     Check: negative starting charge=   -0.003843

     starting charge  215.97807, renormalised to  216.00000

     negative rho (up, down):  0.384E-02 0.000E+00
     Number of +U iterations with fixed ns =  0
     Starting occupations:
 --- enter write_ns ---
 LDA+U parameters:
U( 2)     =  2.50000000
alpha( 2) =  0.00000000
atom    3   Tr[ns(na)] =   3.00000
    eigenvalues:
  0.300  0.300  0.300  0.300  0.300
    eigenvectors:
  1.000  0.000  0.000  0.000  0.000
  0.000  1.000  0.000  0.000  0.000
  0.000  0.000  1.000  0.000  0.000
  0.000  0.000  0.000  1.000  0.000
  0.000  0.000  0.000  0.000  1.000
    occupations:
  0.300  0.000  0.000  0.000  0.000
  0.000  0.300  0.000  0.000  0.000
  0.000  0.000  0.300  0.000  0.000
  0.000  0.000  0.000  0.300  0.000
  0.000  0.000  0.000  0.000  0.300
atom    4   Tr[ns(na)] =   3.00000
    eigenvalues:
  0.300  0.300  0.300  0.300  0.300
    eigenvectors:
  1.000  0.000  0.000  0.000  0.000
  0.000  1.000  0.000  0.000  0.000
  0.000  0.000  1.000  0.000  0.000
  0.000  0.000  0.000  1.000  0.000
  0.000  0.000  0.000  0.000  1.000
    occupations:
  0.300  0.000  0.000  0.000  0.000
  0.000  0.300  0.000  0.000  0.000
  0.000  0.000  0.300  0.000  0.000
  0.000  0.000  0.000  0.300  0.000
  0.000  0.000  0.000  0.000  0.300
atom    9   Tr[ns(na)] =   3.00000
    eigenvalues:
  0.300  0.300  0.300  0.300  0.300
    eigenvectors:
  1.000  0.000  0.000  0.000  0.000
  0.000  1.000  0.000  0.000  0.000
  0.000  0.000  1.000  0.000  0.000
  0.000  0.000  0.000  1.000  0.000
  0.000  0.000  0.000  0.000  1.000
    occupations:
  0.300  0.000  0.000  0.000  0.000
  0.000  0.300  0.000  0.000  0.000
  0.000  0.000  0.300  0.000  0.000
  0.000  0.000  0.000  0.300  0.000
  0.000  0.000  0.000  0.000  0.300
atom   10   Tr[ns(na)] =   3.00000
    eigenvalues:
  0.300  0.300  0.300  0.300  0.300
    eigenvectors:
  1.000  0.000  0.000  0.000  0.000
  0.000  1.000  0.000  0.000  0.000
  0.000  0.000  1.000  0.000  0.000
  0.000  0.000  0.000  1.000  0.000
  0.000  0.000  0.000  0.000  1.000
    occupations:
  0.300  0.000  0.000  0.000  0.000
  0.000  0.300  0.000  0.000  0.000
  0.000  0.000  0.300  0.000  0.000
  0.000  0.000  0.000  0.300  0.000
  0.000  0.000  0.000  0.000  0.300
atom   16   Tr[ns(na)] =   3.00000
    eigenvalues:
  0.300  0.300  0.300  0.300  0.300
    eigenvectors:
  1.000  0.000  0.000  0.000  0.000
  0.000  1.000  0.000  0.000  0.000
  0.000  0.000  1.000  0.000  0.000
  0.000  0.000  0.000  1.000  0.000
  0.000  0.000  0.000  0.000  1.000
    occupations:
  0.300  0.000  0.000  0.000  0.000
  0.000  0.300  0.000  0.000  0.000
  0.000  0.000  0.300  0.000  0.000
  0.000  0.000  0.000  0.300  0.000
  0.000  0.000  0.000  0.000  0.300
atom   17   Tr[ns(na)] =   3.00000
    eigenvalues:
  0.300  0.300  0.300  0.300  0.300
    eigenvectors:
  1.000  0.000  0.000  0.000  0.000
  0.000  1.000  0.000  0.000  0.000
  0.000  0.000  1.000  0.000  0.000
  0.000  0.000  0.000  1.000  0.000
  0.000  0.000  0.000  0.000  1.000
    occupations:
  0.300  0.000  0.000  0.000  0.000
  0.000  0.300  0.000  0.000  0.000
  0.000  0.000  0.300  0.000  0.000
  0.000  0.000  0.000  0.300  0.000
  0.000  0.000  0.000  0.000  0.300
atom   22   Tr[ns(na)] =   3.00000
    eigenvalues:
  0.300  0.300  0.300  0.300  0.300
    eigenvectors:
  1.000  0.000  0.000  0.000  0.000
  0.000  1.000  0.000  0.000  0.000
  0.000  0.000  1.000  0.000  0.000
  0.000  0.000  0.000  1.000  0.000
  0.000  0.000  0.000  0.000  1.000
    occupations:
  0.300  0.000  0.000  0.000  0.000
  0.000  0.300  0.000  0.000  0.000
  0.000  0.000  0.300  0.000  0.000
  0.000  0.000  0.000  0.300  0.000
[...]
  0.000  0.000  0.000  0.584  0.416
  0.992  0.008  0.000  0.000  0.000
    occupations:
  0.666  0.000  0.001 -0.086 -0.000
  0.000  0.504  0.000  0.000  0.000
  0.001  0.000  0.422 -0.000 -0.005
 -0.086  0.000 -0.000  0.637  0.000
 -0.000  0.000 -0.005  0.000  0.369
atom    4   Tr[ns(na)] =   5.24216
    eigenvalues:
  0.409  0.445  0.549  0.581  0.637
    eigenvectors:
  0.000  0.005  0.000  0.995  0.000
  0.000  0.994  0.000  0.005  0.001
  1.000  0.000  0.000  0.000  0.000
  0.000  0.001  0.000  0.000  0.999
  0.000  0.000  1.000  0.000  0.000
    occupations:
  0.580  0.009 -0.000  0.001 -0.000
  0.009  0.446  0.000 -0.006 -0.000
 -0.000  0.000  0.409  0.000  0.001
  0.001 -0.006  0.000  0.636  0.000
 -0.000 -0.000  0.001  0.000  0.549
atom    9   Tr[ns(na)] =   5.28632
    eigenvalues:
  0.452  0.465  0.512  0.605  0.609
    eigenvectors:
  0.885  0.000  0.000  0.115  0.000
  0.000  0.000  0.000  0.000  1.000
  0.000  0.000  1.000  0.000  0.000
  0.115  0.000  0.000  0.885  0.000
  0.000  1.000  0.000  0.000  0.000
    occupations:
  0.470 -0.000 -0.000  0.049  0.000
 -0.000  0.609  0.000 -0.000  0.000
 -0.000  0.000  0.512  0.000  0.000
  0.049 -0.000  0.000  0.588 -0.000
  0.000  0.000  0.000 -0.000  0.465
atom   10   Tr[ns(na)] =   5.13191
    eigenvalues:
  0.376  0.493  0.508  0.516  0.673
    eigenvectors:
  0.000  0.995  0.000  0.000  0.005
  0.000  0.000  1.000  0.000  0.000
  1.000  0.000  0.000  0.000  0.000
  0.000  0.005  0.000  0.000  0.995
  0.000  0.000  0.000  1.000  0.000
    occupations:
  0.494  0.000  0.000 -0.013 -0.000
  0.000  0.508 -0.000 -0.000 -0.000
  0.000 -0.000  0.376 -0.000  0.000
 -0.013 -0.000 -0.000  0.672 -0.000
 -0.000 -0.000  0.000 -0.000  0.516
atom   16   Tr[ns(na)] =   5.19668
    eigenvalues:
  0.368  0.422  0.504  0.565  0.739
    eigenvectors:
  0.000  0.000  0.000  0.416  0.584
  0.000  0.000  1.000  0.000  0.000
  0.008  0.992  0.000  0.000  0.000
  0.000  0.000  0.000  0.584  0.416
  0.992  0.008  0.000  0.000  0.000
    occupations:
  0.666  0.000  0.001 -0.086  0.000
  0.000  0.504  0.000  0.000  0.000
  0.001  0.000  0.422 -0.000 -0.005
 -0.086  0.000 -0.000  0.637 -0.000
  0.000  0.000 -0.005 -0.000  0.369
atom   17   Tr[ns(na)] =   5.24212
    eigenvalues:
  0.409  0.445  0.549  0.581  0.637
    eigenvectors:
  0.000  0.005  0.000  0.995  0.000
  0.000  0.994  0.000  0.005  0.001
  1.000  0.000  0.000  0.000  0.000
  0.000  0.001  0.000  0.000  0.999
  0.000  0.000  1.000  0.000  0.000
    occupations:
  0.580  0.009 -0.000  0.001 -0.000
  0.009  0.446  0.000 -0.006 -0.000
 -0.000  0.000  0.409  0.000  0.001
  0.001 -0.006  0.000  0.636  0.000
 -0.000 -0.000  0.001  0.000  0.549
atom   22   Tr[ns(na)] =   5.28632
    eigenvalues:
  0.452  0.465  0.512  0.605  0.609
    eigenvectors:
  0.885  0.000  0.000  0.115  0.000
  0.000  0.000  0.000  0.000  1.000
  0.000  0.000  1.000  0.000  0.000
  0.115  0.000  0.000  0.885  0.000
  0.000  1.000  0.000  0.000  0.000
    occupations:
  0.470 -0.000 -0.000  0.049  0.000
 -0.000  0.609  0.000 -0.000  0.000
 -0.000  0.000  0.512  0.000  0.000
  0.049 -0.000  0.000  0.588 -0.000
  0.000  0.000  0.000 -0.000  0.465
atom   23   Tr[ns(na)] =   5.13196
    eigenvalues:
  0.376  0.493  0.508  0.516  0.673
    eigenvectors:
  0.000  0.995  0.000  0.000  0.005
  0.000  0.000  1.000  0.000  0.000
  1.000  0.000  0.000  0.000  0.000
  0.000  0.005  0.000  0.000  0.995
  0.000  0.000  0.000  1.000  0.000
    occupations:
  0.494  0.000  0.000 -0.013 -0.000
  0.000  0.508 -0.000 -0.000  0.000
  0.000 -0.000  0.376 -0.000  0.000
 -0.013 -0.000 -0.000  0.672 -0.000
 -0.000  0.000  0.000 -0.000  0.516
N of occupied +U levels =  41.7141763
 --- exit write_ns ---

     Threshold (ethr) on eigenvalues was too large:
     Diagonalizing with lowered threshold

     Davidson diagonalization with overlap
     ethr =  4.58E-09,  avg # of iterations =  3.0

[...]

     total energy              =   -1528.43408860 Ry
     Harris-Foulkes estimate   =   -1528.43408860 Ry
     estimated scf accuracy    <       0.00000002 Ry

     iteration # 10     ecut=    40.00 Ry     beta=0.70
     Davidson diagonalization with overlap
     ethr =  1.02E-11,  avg # of iterations =  1.0

     negative rho (up, down):  0.359E-02 0.000E+00

     End of self-consistent calculation
 --- enter write_ns ---
 LDA+U parameters:
U( 2)     =  2.50000000
alpha( 2) =  0.00000000
atom    3   Tr[ns(na)] =   5.19716
    eigenvalues:
  0.368  0.422  0.504  0.565  0.739
    eigenvectors:
  0.000  0.000  0.000  0.416  0.584
  0.000  0.000  1.000  0.000  0.000
  0.008  0.992  0.000  0.000  0.000
  0.000  0.000  0.000  0.584  0.416
  0.992  0.008  0.000  0.000  0.000
    occupations:
  0.666  0.000  0.001 -0.086 -0.000
  0.000  0.504  0.000  0.000  0.000
  0.001  0.000  0.422 -0.000 -0.005
 -0.086  0.000 -0.000  0.637  0.000
 -0.000  0.000 -0.005  0.000  0.369
atom    4   Tr[ns(na)] =   5.24296
    eigenvalues:
  0.409  0.446  0.549  0.581  0.637
    eigenvectors:
  0.000  0.005  0.000  0.995  0.000
  0.000  0.994  0.000  0.005  0.001
  1.000  0.000  0.000  0.000  0.000
  0.000  0.001  0.000  0.000  0.999
  0.000  0.000  1.000  0.000  0.000
    occupations:
  0.580  0.009 -0.000  0.001 -0.000
  0.009  0.446  0.000 -0.006 -0.000
 -0.000  0.000  0.409  0.000  0.001
  0.001 -0.006  0.000  0.636  0.000
 -0.000 -0.000  0.001  0.000  0.549
atom    9   Tr[ns(na)] =   5.28615
    eigenvalues:
  0.453  0.465  0.511  0.605  0.609
    eigenvectors:
  0.885  0.000  0.000  0.115  0.000
  0.000  0.000  0.000  0.000  1.000
  0.000  0.000  1.000  0.000  0.000
  0.115  0.000  0.000  0.885  0.000
  0.000  1.000  0.000  0.000  0.000
    occupations:
  0.470 -0.000 -0.000  0.049  0.000
 -0.000  0.609  0.000 -0.000  0.000
 -0.000  0.000  0.511  0.000  0.000
  0.049 -0.000  0.000  0.588 -0.000
  0.000  0.000  0.000 -0.000  0.465
atom   10   Tr[ns(na)] =   5.13154
    eigenvalues:
  0.376  0.493  0.507  0.516  0.673
    eigenvectors:
  0.000  0.995  0.000  0.000  0.005
  0.000  0.000  1.000  0.000  0.000
  1.000  0.000  0.000  0.000  0.000
  0.000  0.005  0.000  0.000  0.995
  0.000  0.000  0.000  1.000  0.000
    occupations:
  0.494  0.000  0.000 -0.013 -0.000
  0.000  0.507 -0.000 -0.000 -0.000
  0.000 -0.000  0.376 -0.000  0.000
 -0.013 -0.000 -0.000  0.672 -0.000
 -0.000 -0.000  0.000 -0.000  0.516
atom   16   Tr[ns(na)] =   5.19715
    eigenvalues:
  0.368  0.422  0.504  0.565  0.739
    eigenvectors:
  0.000  0.000  0.000  0.416  0.584
  0.000  0.000  1.000  0.000  0.000
  0.008  0.992  0.000  0.000  0.000
  0.000  0.000  0.000  0.584  0.416
  0.992  0.008  0.000  0.000  0.000
    occupations:
  0.666  0.000  0.001 -0.086  0.000
  0.000  0.504  0.000  0.000  0.000
  0.001  0.000  0.422 -0.000 -0.005
 -0.086  0.000 -0.000  0.637 -0.000
  0.000  0.000 -0.005 -0.000  0.369
atom   17   Tr[ns(na)] =   5.24292
    eigenvalues:
  0.409  0.446  0.549  0.581  0.637
    eigenvectors:
  0.000  0.005  0.000  0.995  0.000
  0.000  0.994  0.000  0.005  0.001
  1.000  0.000  0.000  0.000  0.000
  0.000  0.001  0.000  0.000  0.999
  0.000  0.000  1.000  0.000  0.000
    occupations:
  0.580  0.009 -0.000  0.001 -0.000
  0.009  0.446  0.000 -0.006 -0.000
 -0.000  0.000  0.409  0.000  0.001
  0.001 -0.006  0.000  0.636  0.000
 -0.000 -0.000  0.001  0.000  0.549
atom   22   Tr[ns(na)] =   5.28615
    eigenvalues:
  0.453  0.465  0.511  0.605  0.609
    eigenvectors:
  0.885  0.000  0.000  0.115  0.000
  0.000  0.000  0.000  0.000  1.000
  0.000  0.000  1.000  0.000  0.000
  0.115  0.000  0.000  0.885  0.000
  0.000  1.000  0.000  0.000  0.000
    occupations:
  0.470 -0.000 -0.000  0.049  0.000
 -0.000  0.609  0.000 -0.000  0.000
 -0.000  0.000  0.511  0.000  0.000
  0.049 -0.000  0.000  0.588 -0.000
  0.000  0.000  0.000 -0.000  0.465
atom   23   Tr[ns(na)] =   5.13155
    eigenvalues:
  0.376  0.493  0.507  0.516  0.673
    eigenvectors:
  0.000  0.995  0.000  0.000  0.005
  0.000  0.000  1.000  0.000  0.000
  1.000  0.000  0.000  0.000  0.000
  0.000  0.005  0.000  0.000  0.995
  0.000  0.000  0.000  1.000  0.000
    occupations:
  0.494  0.000  0.000 -0.013 -0.000
  0.000  0.507 -0.000 -0.000  0.000
  0.000 -0.000  0.376 -0.000  0.000
 -0.013 -0.000 -0.000  0.672 -0.000
 -0.000  0.000  0.000 -0.000  0.516
N of occupied +U levels =  41.7155735
 --- exit write_ns ---

[...]

          k = 0.2500-0.4237 0.0000 ( 32188 PWs)   bands (ev):

[...]

          k =-0.2500 0.2118 0.0000 ( 32165 PWs)   bands (ev):

   -56.1965 -56.1315 -55.8134 -55.7568 -55.7183 -55.6630 -55.5680 -55.5128
   -33.0222 -32.3974 -32.2888 -32.2685 -32.2563 -32.2276 -32.1839 -32.1607
   -32.1577 -32.1407 -32.1083 -32.0646 -32.0598 -32.0296 -31.8390 -31.7886
   -31.7060 -31.6803 -31.6311 -31.6172 -31.5443 -31.4955 -31.4904 -31.2130
   -20.4277 -20.3048 -19.2778 -19.0105 -18.9327 -18.8374 -18.8036 -18.7323
   -18.6858 -18.6449 -18.6176 -18.5828 -18.1351 -18.0584 -18.0388 -17.9722
   -17.8999 -17.7472  -8.9095  -8.6097  -7.4947  -6.9717  -6.8188  -6.6265
    -6.4844  -6.4557  -6.3535  -6.1858  -6.1710  -6.1191  -6.1004  -5.8915
    -5.8459  -5.8337  -5.8226  -5.5606  -5.5334  -5.4027  -5.1000  -5.0864
    -5.0271  -4.9404  -4.8114  -4.6455  -4.4848  -4.3830  -4.3045  -4.2932
    -4.2623  -4.1825  -3.9921  -3.9720  -3.9474  -3.8962  -3.8469  -3.8392
    -3.5879  -3.5545  -3.5205  -3.4798  -3.3965  -3.3115  -3.1542  -3.1529
    -3.0531  -2.9826  -2.8630  -2.7441  -2.6599  -2.5632  -2.4956  -2.1905
    -0.5798   0.2667   0.3509   0.9974   1.0491   1.3534   1.6003   1.7317
     1.7544   1.8853   2.0651   2.1727   2.3037   2.3544   2.4296   2.4338
     2.6082   2.6812   2.7060   2.8412   2.8508   2.9285   2.9878   3.0380
     3.2686   3.3361   3.6434   4.2392   4.4916   4.5626   4.6854   4.8224
     4.9585   5.0474   5.0748   5.1829   5.3013   5.3736   5.4915   5.6217
     5.7629   5.8671   5.9387   6.0101   6.2283   6.2981   6.4056   6.4997
     6.5383   6.5720   6.6574   6.8097   6.9413   6.9971   7.2010   7.2480
     7.3458   7.5240   7.7242   7.8047   7.9279   7.9492   8.1462   8.1520
     8.2549   8.3251   8.4416   8.6571   8.7069   8.8573   9.0182   9.0729
     9.0795   9.2199   9.3231   9.4385   9.5604   9.5904   9.6509   9.7735
     9.8603   9.9674   9.9998  10.1690  10.2030  10.3781  10.4230  10.6120
    10.6992  10.7589  10.9306  10.9647  11.0236  11.0681  11.1615  11.2191
    11.2629  11.3886  11.4626  11.4628  11.5287  11.5565  11.7491  11.8697
    11.9183  12.0581  12.0961  12.1758  12.2328  12.3080  12.4508  12.4802
    12.6466  12.6693  12.7203  12.7762  12.8660  12.8736  12.9240  12.9566
    13.0418  13.0832  13.1852  13.2585  13.3077  13.4184  13.4900  13.4956
    13.6412  13.7056  13.7658  13.9008  13.9325  13.9471  13.9782  14.0749
    14.1117  14.2757  14.3212  14.4064  14.4861  14.6052  14.6319  14.8602
    14.8948  14.9106  15.0426  15.1391  15.1948  15.2465  15.2551  15.3688
    15.3954  15.4009  15.5007  15.5228  15.5951  15.7262  15.7747  15.8039
    15.8204  15.8970  16.0346  16.0366  16.0703  16.2617  16.2650  16.3957
    16.4480  16.5934  16.6054  16.6536  16.7401  16.7402  16.7823  16.8799
    16.9744  17.0004  17.0408  17.2329  17.2788  17.2839  17.3890  17.4322
    17.4799  17.5546  17.6333  17.6877  17.7273  17.8478  17.8723  17.9974
    18.0347  18.0538  18.0978  18.2503  18.3322  18.4315  18.5056  18.5993
    18.6263  18.7148  18.7366  18.7965  18.8705  18.9159  18.9351  19.0436
    19.1682  19.1866  19.2829  19.2991  19.3493  19.3755  19.4118  19.5339
    19.5462  19.6019  19.6449  19.7158

     the Fermi energy is     1.0210 ev

!    total energy              =   -1528.43408860 Ry
     Harris-Foulkes estimate   =   -1528.43408860 Ry
     estimated scf accuracy    <          3.0E-09 Ry

     The total energy is the sum of the following terms:

     one-electron contribution =  -18286.91357443 Ry
     hartree contribution      =    9170.05004261 Ry
     xc contribution           =    -279.68104216 Ry
     ewald contribution        =    7866.34587821 Ry
     Hubbard energy            =       1.76563631 Ry
     smearing contrib. (-TS)   =      -0.00102914 Ry

     convergence has been achieved in  10 iterations

     Forces acting on atoms (Ry/au):

     negative rho (up, down):  0.359E-02 0.000E+00
     atom    1 type  1   force =     0.00040566   -0.00033419    0.00004841
     atom    2 type  1   force =    -0.00084580    0.00053848    0.00071499
     atom    3 type  2   force =     0.00115682   -0.00034484    0.00053148
     atom    4 type  2   force =    -0.00378543    0.00024749   -0.00041979
     atom    5 type  1   force =     0.00044659   -0.02558453   -0.00001876
     atom    6 type  1   force =     0.00053669    0.02541386    0.00002288
     atom    7 type  1   force =     0.00006493    0.00008758   -0.00060904
     atom    8 type  1   force =     0.00164520   -0.00000692    0.00038731
     atom    9 type  2   force =    -0.00022764    0.00001257    0.00022650
     atom   10 type  2   force =     0.00009280   -0.00000425    0.00026069
     atom   11 type  1   force =     0.00000636   -0.04313121   -0.00018975
     atom   12 type  1   force =     0.00001189    0.04312048   -0.00018253
     atom   13 type  1   force =     0.00033798   -0.00000026    0.00024454
     atom   14 type  1   force =     0.00041525   -0.00032279    0.00003672
     atom   15 type  1   force =    -0.00085007    0.00052502   -0.00090518
     atom   16 type  2   force =     0.00130224   -0.00034748    0.00053174
     atom   17 type  2   force =    -0.00378405    0.00024548   -0.00039816
     atom   18 type  1   force =     0.00045304   -0.02558452   -0.00001938
     atom   19 type  1   force =     0.00051515    0.02541523    0.00002275
     atom   20 type  1   force =     0.00006623    0.00008051   -0.00067183
     atom   21 type  1   force =     0.00164479   -0.00000776    0.00032779
     atom   22 type  2   force =    -0.00024359    0.00001269    0.00022651
     atom   23 type  2   force =     0.00009246   -0.00000640    0.00029838
     atom   24 type  1   force =     0.00000733   -0.04313125   -0.00018987
     atom   25 type  1   force =     0.00000985    0.04312059   -0.00018266
     atom   26 type  1   force =     0.00033819   -0.00000017    0.00024602
     atom   27 type  3   force =    -0.00001183   -0.00020798   -0.00080194
     atom   28 type  3   force =    -0.00000745   -0.00022897    0.00064080
     atom   29 type  3   force =     0.00010631    0.00021280   -0.00009278
     atom   30 type  3   force =     0.00010012    0.00021075   -0.00008585

     Total force =     0.002261     Total SCF correction =     0.000150

     bfgs converged in  10 scf cycles and   9 bfgs steps
     (criteria: energy < 0.10E-03, force < 0.10E-02)

     End of BFGS Geometry Optimization

     Final energy   =   -1528.4340885982 Ry
Begin final coordinates

ATOMIC_POSITIONS (crystal)
O0       0.000000000   0.000000000   0.374783077    0   0   1
O0       0.000000000   0.500000000   0.385362373    0   0   1
Nb1      0.250000000   0.500000000   0.440141157    0   0   1
Nb1      0.000000000   0.000000000   0.447635976    0   0   1
O0       0.250000000   0.790000000   0.447673906    0   0   1
O0       0.250000000   0.210000000   0.447662173    0   0   1
O0       0.000000000   0.500000000   0.497753322    0   0   1
O0       0.000000000   0.000000000   0.526351057    0   0   1
Nb1      0.250000000   0.000000000   0.581190147    0   0   1
Nb1      0.000000000   0.500000000   0.567314883    0   0   1
O0       0.250000000   0.710000000   0.581229684    0   0   1
O0       0.250000000   0.290000000   0.581228505    0   0   1
O0       0.000000000   0.000000000   0.625506936    0   0   1
O0       0.500000000   0.000000000   0.374783044    0   0   1
O0       0.500000000   0.500000000   0.385378265    0   0   1
Nb1      0.750000000   0.500000000   0.440141134    0   0   1
Nb1      0.500000000   0.000000000   0.447635032    0   0   1
O0       0.750000000   0.790000000   0.447673745    0   0   1
O0       0.750000000   0.210000000   0.447662401    0   0   1
O0       0.500000000   0.500000000   0.497754705    0   0   1
O0       0.500000000   0.000000000   0.526355085    0   0   1
Nb1      0.750000000   0.000000000   0.581190152    0   0   1
Nb1      0.500000000   0.500000000   0.567314850    0   0   1
O0       0.750000000   0.710000000   0.581229664    0   0   1
O0       0.750000000   0.290000000   0.581228514    0   0   1
O0       0.500000000   0.000000000   0.625507058    0   0   1
H2      -0.000495357   0.502298681   0.349081400
H2       0.499504552   0.502071816   0.349068091
H2       0.151375200  -0.000458845   0.359327059
H2       0.651375580  -0.000467001   0.359326606
End final coordinates

     General routines

     Parallel routines
     Hubbard U routines

   This run was terminated on:   6:32:19   9May2014

   JOB DONE.