     Program PWSCF v.5.0.2 (svn rev. 9656) starts on  5May2014 at  1: 2: 4

     Current dimensions of program PWSCF are:
     Max number of different atomic species (ntypx) = 10
     Max number of k-points (npk) =  40000
     Max angular momentum in pseudopotentials (lmaxx) =  3
     Reading input from pwscf.in
Warning: card &CELL ignored
Warning: card / ignored

     Subspace diagonalization in iterative solution of the eigenvalue problem:
     a serial algorithm will be used

     bravais-lattice index     =            0
     lattice parameter (alat)  =      10.9604  a.u.
     unit-cell volume          =    6350.6732 (a.u.)^3
     number of atoms/cell      =           32
     number of atomic types    =            3
     number of electrons       =       231.00 (up: 123.00, down: 108.00)
     number of Kohn-Sham states=          334
     kinetic-energy cutoff     =      40.0000  Ry
     charge density cutoff     =     500.0000  Ry
     convergence threshold     =      1.0E-06
     mixing beta               =       0.7000
     number of iterations used =            8  plain     mixing
     Exchange-correlation      = SLA  PW   PBE  PBE ( 1 4 3 4 0)
     EXX-fraction              =        0.00
     nstep                     =           50

     celldm(1)=  10.960412  celldm(2)=   0.000000  celldm(3)=   0.000000
     celldm(4)=   0.000000  celldm(5)=   0.000000  celldm(6)=   0.000000

     crystal axes: (cart. coord. in units of alat)
               a(1) = (   1.000000   0.000000   0.000000 )
               a(2) = (   0.000000   1.067975   0.000000 )
               a(3) = (   0.000000   0.000000   4.516251 )

     reciprocal axes: (cart. coord. in units 2 pi/alat)
               b(1) = (  1.000000  0.000000  0.000000 )
               b(2) = (  0.000000  0.936351  0.000000 )
               b(3) = (  0.000000  0.000000  0.221423 )

     PseudoPot. # 1 for O  read from file:
     /home/camp/zhonxu/pseudo/o_pbe_v1.01.uspp.F.UPF
     MD5 check sum: 2bcb18d16ea4b960afae9ec6d52f22d2
     Pseudo is Ultrasoft + core correction, Zval =  6.0
     Generated by new atomic code, or converted to UPF format
     Using radial grid of  737 points,  5 beta functions with:
                l(1) =   0
                l(2) =   0
                l(3) =   1
                l(4) =   1
                l(5) =   2
     Q(r) pseudized with  8 coefficients,  rinner =    0.900   0.900   0.900
                                                       0.900   0.900

     PseudoPot. # 2 for Cr read from file:
     /home/camp/zhonxu/pseudo/cr_pbe_v1.uspp.F.UPF
     MD5 check sum: 68b6f918d1762dccfb11451fe85b0e0e
     Pseudo is Ultrasoft + core correction, Zval = 14.0
     Generated by new atomic code, or converted to UPF format
     Using radial grid of  857 points,  6 beta functions with:
                l(1) =   0
                l(2) =   0
                l(3) =   1
                l(4) =   1
                l(5) =   2
                l(6) =   2
     Q(r) pseudized with  6 coefficients,  rinner =    1.000   1.000   1.000
                                                       1.000   1.000

     PseudoPot. # 3 for H  read from file:
     /home/camp/zhonxu/pseudo/h_pbe_v1.uspp.F.UPF
     MD5 check sum: 3408e3ff4ec8b0a4e358431e7e038a48
     Pseudo is Ultrasoft, Zval =  1.0
     Generated by new atomic code, or converted to UPF format
     Using radial grid of  615 points,  2 beta functions with:
                l(1) =   0
                l(2) =   0
     Q(r) pseudized with  8 coefficients,  rinner =    0.700

     atomic species   valence    mass     pseudopotential
        O0             6.00    15.99940     O ( 1.00)
        Cr1           14.00    51.99600     Cr( 1.00)
        H2             1.00     1.00794     H ( 1.00)

     Starting magnetic structure
     atomic species   magnetization
        O0           0.000
        Cr1          0.600
        H2           0.000

     Simplified LDA+U calculation (l_max = 2) with parameters (eV):
     atomic species    L          U    alpha       J0     beta
        Cr1            2     1.5000   0.0000   0.0000   0.0000

     No symmetry found

   Cartesian axes

     site n.     atom                  positions (alat units)
         1           O0  tau(   1) = (   0.0000000   0.0000000   1.7072332  )
         2           O0  tau(   2) = (   0.0000000   0.5339875   1.8068165  )
         3           Cr1 tau(   3) = (   0.2500000   0.5339875   2.0386808  )
         4           Cr1 tau(   4) = (   0.0000000   0.0000000   2.0275709  )
         5           O0  tau(   5) = (   0.2500000   0.8543801   2.0319968  )
         6           O0  tau(   6) = (   0.2500000   0.2135950   2.0327194  )
         7           O0  tau(   7) = (   0.0000000   0.5339875   2.2464284  )
         8           O0  tau(   8) = (   0.0000000   0.0000000   2.3629476  )
         9           Cr1 tau(   9) = (   0.2500000   0.0000000   2.5576884  )
        10           Cr1 tau(  10) = (   0.0000000   0.5339875   2.5509140  )
        11           O0  tau(  11) = (   0.2500000   0.7475825   2.5906119  )
        12           O0  tau(  12) = (   0.2500000   0.3203925   2.5906119  )
        13           O0  tau(  13) = (   0.0000000   0.0000000   2.7911334  )
        14           O0  tau(  14) = (   0.5000000   0.0000000   1.7073235  )
        15           O0  tau(  15) = (   0.5000000   0.5339875   1.8079456  )
        16           Cr1 tau(  16) = (   0.7500000   0.5339875   2.0392228  )
        17           Cr1 tau(  17) = (   0.5000000   0.0000000   2.0278870  )
        18           O0  tau(  18) = (   0.7500000   0.8543801   2.0322226  )
        19           O0  tau(  19) = (   0.7500000   0.2135950   2.0329904  )
        20           O0  tau(  20) = (   0.5000000   0.5339875   2.2544673  )
        21           O0  tau(  21) = (   0.5000000   0.0000000   2.3630380  )
        22           Cr1 tau(  22) = (   0.7500000   0.0000000   2.6360002  )
        23           Cr1 tau(  23) = (   0.5000000   0.5339875   2.6018573  )
        24           O0  tau(  24) = (   0.7500000   0.7475825   2.5939087  )
        25           O0  tau(  25) = (   0.7500000   0.3203925   2.5936377  )
        26           O0  tau(  26) = (   0.5000000   0.0000000   2.7879720  )
        27           H2  tau(  27) = (  -0.0006000   0.6814001   1.7205110  )
        28           H2  tau(  28) = (   0.4996600   0.6814535   1.7215045  )
        29           H2  tau(  29) = (   0.1566500   0.0338121   1.6478896  )
        30           H2  tau(  30) = (   0.6567200   0.0335237   1.6481606  )
        31           O0  tau(  31) = (   0.5143900   0.5336458   2.9144271  )
        32           H2  tau(  32) = (   0.3645400   0.5319370   2.9931001  )

     number of k points=    20  Methfessel-Paxton smearing, width (Ry)=  0.0100
                       cart. coord. in units 2pi/alat
        k(    1) = (   0.0000000   0.0000000   0.0000000), wk =   0.0625000
        k(    2) = (   0.0000000   0.2340879   0.0000000), wk =   0.1250000
        k(    3) = (   0.0000000  -0.4681757   0.0000000), wk =   0.0625000
        k(    4) = (   0.2500000   0.0000000   0.0000000), wk =   0.1250000
        k(    5) = (   0.2500000   0.2340879   0.0000000), wk =   0.1250000
        k(    6) = (   0.2500000  -0.4681757   0.0000000), wk =   0.1250000
        k(    7) = (  -0.5000000   0.0000000   0.0000000), wk =   0.0625000
        k(    8) = (  -0.5000000   0.2340879   0.0000000), wk =   0.1250000
        k(    9) = (  -0.5000000  -0.4681757   0.0000000), wk =   0.0625000
        k(   10) = (  -0.2500000   0.2340879   0.0000000), wk =   0.1250000
        k(   11) = (   0.0000000   0.0000000   0.0000000), wk =   0.0625000
        k(   12) = (   0.0000000   0.2340879   0.0000000), wk =   0.1250000
        k(   13) = (   0.0000000  -0.4681757   0.0000000), wk =   0.0625000
        k(   14) = (   0.2500000   0.0000000   0.0000000), wk =   0.1250000
        k(   15) = (   0.2500000   0.2340879   0.0000000), wk =   0.1250000
        k(   16) = (   0.2500000  -0.4681757   0.0000000), wk =   0.1250000
        k(   17) = (  -0.5000000   0.0000000   0.0000000), wk =   0.0625000
        k(   18) = (  -0.5000000   0.2340879   0.0000000), wk =   0.1250000
        k(   19) = (  -0.5000000  -0.4681757   0.0000000), wk =   0.0625000
        k(   20) = (  -0.2500000   0.2340879   0.0000000), wk =   0.1250000

     Largest allocated arrays     est. size (Mb)     dimensions
     Largest temporary arrays     est. size (Mb)     dimensions

     Check: negative/imaginary core charge=   -0.000012    0.000000

     Initial potential from superposition of free atoms
     Check: negative starting charge=(component1):   -0.001476
     Check: negative starting charge=(component2):   -0.000504

     starting charge  222.99983, renormalised to  231.00000

     negative rho (up, down):  0.153E-02 0.522E-03
     Number of +U iterations with fixed ns =  0
     Starting occupations:
 --- enter write_ns ---
 LDA+U parameters:
U( 2)     =  1.50000000
alpha( 2) =  0.00000000
atom    3   Tr[ns(na)] (up, down, total) =   5.00000  0.00000  5.00000
   spin  1
    eigenvalues:
  1.000  1.000  1.000  1.000  1.000
    eigenvectors:
  1.000  0.000  0.000  0.000  0.000
  0.000  1.000  0.000  0.000  0.000
  0.000  0.000  1.000  0.000  0.000
  0.000  0.000  0.000  1.000  0.000
  0.000  0.000  0.000  0.000  1.000
    occupations:
  1.000  0.000  0.000  0.000  0.000
  0.000  1.000  0.000  0.000  0.000
  0.000  0.000  1.000  0.000  0.000
  0.000  0.000  0.000  1.000  0.000
  0.000  0.000  0.000  0.000  1.000
   spin  2
    eigenvalues:
  0.000  0.000  0.000  0.000  0.000
    eigenvectors:
  1.000  0.000  0.000  0.000  0.000
  0.000  1.000  0.000  0.000  0.000
  0.000  0.000  1.000  0.000  0.000
  0.000  0.000  0.000  1.000  0.000
  0.000  0.000  0.000  0.000  1.000
    occupations:
  0.000  0.000  0.000  0.000  0.000
  0.000  0.000  0.000  0.000  0.000
  0.000  0.000  0.000  0.000  0.000
  0.000  0.000  0.000  0.000  0.000
  0.000  0.000  0.000  0.000  0.000
atomic mag. moment =     5.000000
atom    4   Tr[ns(na)] (up, down, total) =   5.00000  0.00000  5.00000
   spin  1
    eigenvalues:
  1.000  1.000  1.000  1.000  1.000
    eigenvectors:
  1.000  0.000  0.000  0.000  0.000
  0.000  1.000  0.000  0.000  0.000
  0.000  0.000  1.000  0.000  0.000
  0.000  0.000  0.000  1.000  0.000
  0.000  0.000  0.000  0.000  1.000
    occupations:
  1.000  0.000  0.000  0.000  0.000
  0.000  1.000  0.000  0.000  0.000
  0.000  0.000  1.000  0.000  0.000
  0.000  0.000  0.000  1.000  0.000
  0.000  0.000  0.000  0.000  1.000
   spin  2
    eigenvalues:
  0.000  0.000  0.000  0.000  0.000
    eigenvectors:
  1.000  0.000  0.000  0.000  0.000
  0.000  1.000  0.000  0.000  0.000
  0.000  0.000  1.000  0.000  0.000
  0.000  0.000  0.000  1.000  0.000
  0.000  0.000  0.000  0.000  1.000
    occupations:
  0.000  0.000  0.000  0.000  0.000
  0.000  0.000  0.000  0.000  0.000
  0.000  0.000  0.000  0.000  0.000
  0.000  0.000  0.000  0.000  0.000
  0.000  0.000  0.000  0.000  0.000
atomic mag. moment =     5.000000
atom    9   Tr[ns(na)] (up, down, total) =   5.00000  0.00000  5.00000
   spin  1
    eigenvalues:
  1.000  1.000  1.000  1.000  1.000
[...]
  0.111  0.137  0.167  0.358  0.380
    eigenvectors:
  0.760  0.000  0.016  0.005  0.219
  0.000  0.003  0.000  0.975  0.023
  0.018  0.004  0.978  0.000  0.000
  0.222  0.000  0.002  0.018  0.758
  0.000  0.994  0.004  0.002  0.000
    occupations:
  0.172 -0.002 -0.004  0.111  0.000
 -0.002  0.358  0.000 -0.003  0.011
 -0.004  0.000  0.166  0.008 -0.002
  0.111 -0.003  0.008  0.320 -0.000
  0.000  0.011 -0.002 -0.000  0.137
atomic mag. moment =     2.364964
atom    4   Tr[ns(na)] (up, down, total) =   3.42798  1.25445  4.68243
   spin  1
    eigenvalues:
  0.483  0.528  0.581  0.854  0.982
    eigenvectors:
  0.002  0.993  0.000  0.001  0.004
  0.000  0.001  0.015  0.983  0.000
  0.000  0.000  0.985  0.015  0.000
  0.000  0.004  0.000  0.000  0.995
  0.998  0.002  0.000  0.000  0.000
    occupations:
  0.530 -0.012 -0.001  0.030  0.002
 -0.012  0.849  0.033  0.003 -0.000
 -0.001  0.033  0.585  0.002 -0.001
  0.030  0.003  0.002  0.980 -0.000
  0.002 -0.000 -0.001 -0.000  0.484
   spin  2
    eigenvalues:
  0.117  0.153  0.201  0.379  0.404
    eigenvectors:
  0.002  0.003  0.000  0.001  0.993
  0.002  0.955  0.040  0.000  0.003
  0.000  0.039  0.960  0.000  0.000
  0.996  0.002  0.000  0.000  0.002
  0.000  0.000  0.000  0.998  0.002
    occupations:
  0.402  0.015  0.003 -0.013  0.001
  0.015  0.156 -0.009  0.001 -0.000
  0.003 -0.009  0.199  0.000 -0.000
 -0.013  0.001  0.000  0.118  0.000
  0.001 -0.000 -0.000  0.000  0.380
atomic mag. moment =     2.173540
atom    9   Tr[ns(na)] (up, down, total) =   3.45218  1.26862  4.72080
   spin  1
    eigenvalues:
  0.496  0.507  0.633  0.839  0.977
    eigenvectors:
  0.017  0.155  0.000  0.000  0.827
  0.907  0.093  0.000  0.000  0.000
  0.000  0.000  0.981  0.019  0.000
  0.076  0.752  0.000  0.000  0.172
  0.000  0.000  0.019  0.981  0.000
    occupations:
  0.896  0.003 -0.001 -0.178 -0.001
  0.003  0.497  0.002  0.002 -0.000
 -0.001  0.002  0.637 -0.001 -0.028
 -0.178  0.002 -0.001  0.587  0.002
 -0.001 -0.000 -0.028  0.002  0.835
   spin  2
    eigenvalues:
  0.135  0.167  0.187  0.388  0.391
    eigenvectors:
  0.816  0.000  0.000  0.049  0.135
  0.000  0.000  0.000  0.736  0.264
  0.000  0.042  0.958  0.000  0.000
  0.184  0.000  0.000  0.215  0.600
  0.000  0.958  0.042  0.000  0.000
    occupations:
  0.182  0.001  0.000  0.099 -0.000
  0.001  0.389 -0.000  0.001  0.000
  0.000 -0.000  0.186  0.000  0.004
  0.099  0.001  0.000  0.343 -0.000
 -0.000  0.000  0.004 -0.000  0.168
atomic mag. moment =     2.183566
atom   10   Tr[ns(na)] (up, down, total) =   3.55922  1.10784  4.66706
   spin  1
    eigenvalues:
  0.474  0.501  0.733  0.871  0.980
    eigenvectors:
  0.000  0.996  0.000  0.000  0.004
  0.000  0.000  0.000  0.970  0.029
  0.001  0.000  0.999  0.000  0.000
  0.000  0.004  0.000  0.029  0.967
  0.999  0.000  0.001  0.000  0.000
    occupations:
  0.503 -0.009  0.001  0.029 -0.000
 -0.009  0.874 -0.001 -0.018  0.001
  0.001 -0.001  0.733  0.000  0.006
  0.029 -0.018  0.000  0.975  0.000
 -0.000  0.001  0.006  0.000  0.474
   spin  2
    eigenvalues:
  0.108  0.161  0.172  0.305  0.362
    eigenvectors:
  0.005  0.000  0.000  0.995  0.000
  0.001  0.999  0.000  0.000  0.000
  0.000  0.000  1.000  0.000  0.000
  0.993  0.001  0.000  0.005  0.000
  0.000  0.000  0.000  0.000  1.000
    occupations:
  0.304  0.000 -0.000 -0.014 -0.000
  0.000  0.161 -0.000  0.002 -0.000
 -0.000 -0.000  0.172  0.000  0.002
 -0.014  0.002  0.000  0.109  0.000
 -0.000 -0.000  0.002  0.000  0.362
atomic mag. moment =     2.451382
atom   16   Tr[ns(na)] (up, down, total) =   3.51606  1.15566  4.67172
   spin  1
    eigenvalues:
  0.463  0.506  0.673  0.896  0.979
    eigenvectors:
  0.003  0.221  0.002  0.000  0.774
  0.988  0.011  0.000  0.000  0.000
  0.000  0.000  0.997  0.000  0.003
  0.009  0.767  0.001  0.000  0.223
  0.000  0.000  0.000  0.999  0.000
    occupations:
  0.873  0.003  0.015 -0.197 -0.000
  0.003  0.463 -0.001  0.004 -0.008
  0.015 -0.001  0.674 -0.007  0.004
 -0.197  0.004 -0.007  0.611 -0.000
 -0.000 -0.008  0.004 -0.000  0.895
   spin  2
    eigenvalues:
  0.112  0.137  0.168  0.358  0.381
    eigenvectors:
  0.759  0.000  0.017  0.004  0.220
  0.000  0.002  0.000  0.977  0.021
  0.018  0.005  0.976  0.000  0.001
  0.222  0.000  0.002  0.017  0.759
  0.000  0.993  0.005  0.002  0.000
    occupations:
  0.173  0.002 -0.004  0.112 -0.000
  0.002  0.358 -0.000  0.003  0.011
 -0.004 -0.000  0.167  0.008  0.002
  0.112  0.003  0.008  0.320  0.000
 -0.000  0.011  0.002  0.000  0.138
atomic mag. moment =     2.360406
atom   17   Tr[ns(na)] (up, down, total) =   3.43988  1.23910  4.67898
   spin  1
    eigenvalues:
  0.481  0.527  0.599  0.850  0.982
    eigenvectors:
  0.001  0.994  0.000  0.001  0.004
  0.000  0.001  0.015  0.984  0.000
  0.000  0.000  0.984  0.015  0.000
  0.000  0.004  0.000  0.000  0.996
  0.998  0.001  0.000  0.000  0.000
    occupations:
  0.529 -0.010 -0.002  0.028  0.002
 -0.010  0.846  0.031  0.000 -0.000
 -0.002  0.031  0.603  0.000  0.002
  0.028  0.000  0.000  0.980 -0.000
  0.002 -0.000  0.002 -0.000  0.481
   spin  2
    eigenvalues:
  0.116  0.150  0.196  0.376  0.401
    eigenvectors:
  0.003  0.004  0.000  0.001  0.992
  0.002  0.951  0.043  0.000  0.004
  0.000  0.042  0.957  0.000  0.000
  0.995  0.003  0.000  0.000  0.002
  0.000  0.000  0.000  0.999  0.001
    occupations:
  0.399  0.016  0.003 -0.014  0.001
  0.016  0.153 -0.009  0.001 -0.000
  0.003 -0.009  0.194  0.000 -0.000
 -0.014  0.001  0.000  0.117  0.000
  0.001 -0.000 -0.000  0.000  0.376
atomic mag. moment =     2.200786
atom   22   Tr[ns(na)] (up, down, total) =   2.99412  1.84751  4.84163
   spin  1
    eigenvalues:
  0.516  0.540  0.554  0.637  0.746
    eigenvectors:
  0.990  0.004  0.006  0.000  0.000
  0.004  0.996  0.000  0.000  0.000
  0.000  0.000  0.000  0.024  0.976
  0.006  0.000  0.993  0.000  0.000
  0.000  0.000  0.000  0.976  0.024
    occupations:
  0.517  0.001 -0.002  0.003  0.001
  0.001  0.540  0.001  0.000  0.000
 -0.002  0.001  0.744  0.000 -0.017
  0.003  0.000  0.000  0.554 -0.001
  0.001  0.000 -0.017 -0.001  0.640
   spin  2
    eigenvalues:
  0.258  0.317  0.335  0.466  0.471
    eigenvectors:
  0.000  0.000  0.994  0.005  0.000
  0.000  0.000  0.000  0.058  0.942
  0.999  0.001  0.000  0.000  0.000
  0.000  0.000  0.006  0.936  0.058
  0.001  0.999  0.000  0.000  0.000
    occupations:
  0.336 -0.000  0.000  0.010 -0.000
 -0.000  0.471 -0.000 -0.001  0.000
  0.000 -0.000  0.258 -0.000 -0.001
  0.010 -0.001 -0.000  0.466  0.000
 -0.000  0.000 -0.001  0.000  0.317
atomic mag. moment =     1.146602
atom   23   Tr[ns(na)] (up, down, total) =   3.43773  1.23605  4.67378
   spin  1
    eigenvalues:
  0.474  0.519  0.570  0.905  0.970
    eigenvectors:
  0.000  0.994  0.001  0.000  0.005
  0.000  0.000  0.000  0.953  0.047
  0.006  0.001  0.993  0.000  0.000
  0.000  0.005  0.000  0.047  0.948
  0.994  0.000  0.006  0.000  0.000
    occupations:
  0.521  0.003 -0.001  0.032  0.000
  0.003  0.908  0.003  0.013 -0.000
 -0.001  0.003  0.569 -0.002 -0.007
  0.032  0.013 -0.002  0.965 -0.000
  0.000 -0.000 -0.007 -0.000  0.474
   spin  2
    eigenvalues:
  0.114  0.144  0.203  0.377  0.399
    eigenvectors:
  0.002  0.002  0.000  0.000  0.996
  0.004  0.993  0.000  0.000  0.002
  0.000  0.000  1.000  0.000  0.000
  0.994  0.004  0.000  0.000  0.002
  0.000  0.000  0.000  1.000  0.000
    occupations:
  0.398  0.012  0.000 -0.012  0.000
  0.012  0.144 -0.001 -0.002 -0.000
  0.000 -0.001  0.203  0.000 -0.003
 -0.012 -0.002  0.000  0.114 -0.000
  0.000 -0.000 -0.003 -0.000  0.377
atomic mag. moment =     2.201676
N of occupied +U levels =  37.6084275
 --- exit write_ns ---

 ------ SPIN UP ------------

[...]

 ------ SPIN DOWN ----------

[...]

          k = 0.2500-0.4682 0.0000 ( 27150 PWs)   bands (ev):

[...]

          k =-0.2500 0.2341 0.0000 ( 27132 PWs)   bands (ev):

   -74.3241 -72.6784 -72.6748 -72.6276 -72.6078 -72.5370 -72.4072 -72.3878
   -45.9916 -45.6101 -45.3896 -44.3181 -44.2842 -44.2395 -44.2090 -44.2044
   -44.1636 -44.0822 -44.0241 -44.0027 -43.9822 -43.9133 -43.8275 -43.8176
   -43.7883 -43.7774 -43.7744 -43.7605 -43.6464 -43.6341 -43.5545 -43.4233
   -21.1782 -20.7759 -20.6099 -20.5291 -20.4175 -20.2273 -20.0666 -19.9899
   -19.9351 -19.8846 -19.7633 -19.6915 -19.5904 -19.5611 -19.5446 -19.4669
   -19.3411 -19.3046 -19.2347  -8.6907  -8.4549  -8.1470  -8.0898  -7.9213
    -7.8983  -7.6408  -7.5615  -7.5043  -7.4126  -7.3312  -7.2449  -7.1241
    -7.0809  -6.9001  -6.8548  -6.7810  -6.7081  -6.5894  -6.4216  -6.3773
    -6.2819  -6.1844  -5.9898  -5.9164  -5.7476  -5.6708  -5.5837  -5.4292
    -5.3626  -5.3029  -5.2656  -5.2454  -5.1470  -5.0148  -4.9769  -4.9485
    -4.8064  -4.7358  -4.5397  -4.4090  -4.3577  -4.2354  -4.1691  -4.0924
    -4.0254  -3.9646  -3.8904  -3.8160  -3.7034  -3.5711  -3.5261  -3.5065
    -3.2537  -3.2309  -3.1057  -2.8760  -0.4559  -0.3751  -0.3668   0.1603
     0.1937   0.2895   0.3899   0.4623   0.5088   0.5519   0.6746   0.7256
     0.7688   0.8616   0.9156   0.9765   1.0285   1.1017   1.1652   1.1906
     1.2445   1.4093   1.4300   1.4793   1.5218   1.6599   1.9312   2.1203
     2.2193   2.5148   2.6708   2.7201   2.8126   2.9484   3.0396   3.1110
     3.1861   3.4128   3.6349   3.7028   3.9051   3.9634   4.3480   4.8058
     5.3320   5.7175   5.8815   5.8932   6.1694   6.2815   6.4312   6.5874
     6.7644   6.9086   7.0348   7.3316   7.4568   7.6790   7.8863   8.0039
     8.1167   8.3241   8.4026   8.5270   8.6738   8.8149   8.9959   9.1338
     9.2696   9.3293   9.4715   9.5620   9.6497   9.8086   9.8608  10.0279
    10.1421  10.2417  10.3302  10.4471  10.5280  10.6150  10.7164  10.8339
    10.9357  11.0207  11.1325  11.2375  11.2786  11.4220  11.4822  11.5939
    11.6712  11.7515  11.8886  11.9862  12.0824  12.1468  12.1786  12.2745
    12.3594  12.4152  12.5829  12.6752  12.7255  12.8353  12.9190  12.9782
    13.0051  13.0850  13.1542  13.1763  13.2202  13.3216  13.3568  13.4503
    13.5347  13.6376  13.7223  13.7915  13.8849  13.9044  14.0101  14.0809
    14.1345  14.2236  14.3627  14.4885  14.5470  14.6055  14.6731  14.7806
    14.8387  14.8744  14.9978  15.0743  15.1091  15.2700  15.3619  15.4197
    15.5231  15.5929  15.6340  15.7167  15.7527  15.7975  15.8961  15.9951
    16.0121  16.1229  16.2220  16.2607  16.3128  16.4219  16.4896  16.5225
    16.6146  16.7243  16.7646  16.8447  16.8887  16.9618  17.0149  17.1248
    17.2160  17.2410  17.3148  17.4209  17.4550  17.5279  17.5711  17.6174
    17.7194  17.7488  17.7657  17.8572  17.9469  18.0532  18.1093  18.1678
    18.2437  18.3054  18.3607  18.3972  18.4461  18.6253  18.7318  18.7861
    18.8282  18.9023  18.9469  19.0066  19.0938  19.1407  19.2489  19.3028
    19.4023  19.4398  19.5210  19.5920  19.6365  19.6688  19.7464  19.8503
    19.8809  20.0028  20.1052  20.1855  20.2390  20.3369  20.3871  20.5129
    20.5886  20.7129  20.7747  20.8299  20.9044  20.9571  21.0457  21.1336
    21.1981  21.2348  21.3375  21.3948  21.4128  21.5276

     the spin up/dw Fermi energies are    -1.6131   -2.6865 ev

!    total energy              =   -2026.29352358 Ry
     Harris-Foulkes estimate   =   -2026.29352358 Ry
     estimated scf accuracy    <          8.3E-09 Ry

     The total energy is the sum of the following terms:

     one-electron contribution =  -24214.13187607 Ry
     hartree contribution      =   12126.55552918 Ry
     xc contribution           =    -322.74800560 Ry
     ewald contribution        =   10383.24553842 Ry
     Hubbard energy            =       0.78492927 Ry
     smearing contrib. (-TS)   =       0.00036122 Ry

     total magnetization       =    15.00 Bohr mag/cell
     absolute magnetization    =    19.96 Bohr mag/cell

     convergence has been achieved in  15 iterations

     Forces acting on atoms (Ry/au):

     negative rho (up, down):  0.497E-02 0.176E-02
     atom    1 type  1   force =    -0.00322728   -0.01143963   -0.00018626
     atom    2 type  1   force =    -0.00022244    0.00711185    0.00014885
     atom    3 type  2   force =     0.03558035   -0.00285449   -0.00082073
     atom    4 type  2   force =    -0.00222787    0.00789866    0.00040533
     atom    5 type  1   force =     0.00048451    0.00667605    0.00009796
     atom    6 type  1   force =    -0.00065725   -0.00476465    0.00008881
     atom    7 type  1   force =     0.00246495   -0.00156148   -0.00025182
     atom    8 type  1   force =    -0.01200856   -0.00109138   -0.00011250
     atom    9 type  2   force =     0.00575251    0.00120811   -0.00035437
     atom   10 type  2   force =    -0.00252406    0.00007108   -0.00011482
     atom   11 type  1   force =    -0.02529115   -0.03265442    0.00034514
     atom   12 type  1   force =    -0.02523052    0.03178470    0.00039139
     atom   13 type  1   force =    -0.04525426    0.00004674    0.00038789
     atom   14 type  1   force =    -0.00583256   -0.01207749   -0.00022689
     atom   15 type  1   force =     0.00053563    0.00760976   -0.00006175
     atom   16 type  2   force =    -0.03751524   -0.00216812   -0.00073095
     atom   17 type  2   force =     0.00689629    0.00787177    0.00041482
     atom   18 type  1   force =     0.00308381    0.00676292    0.00010283
     atom   19 type  1   force =     0.00195923   -0.00515187    0.00005647
     atom   20 type  1   force =     0.00099773   -0.00194960   -0.00034578
     atom   21 type  1   force =     0.00846689   -0.00000742   -0.00041353
     atom   22 type  2   force =    -0.00158567    0.00011461    0.00060387
     atom   23 type  2   force =    -0.00838838    0.00028996   -0.00014056
     atom   24 type  1   force =     0.02796938   -0.01490675   -0.00007446
     atom   25 type  1   force =     0.02806039    0.01483804   -0.00009255
     atom   26 type  1   force =     0.04776790   -0.00008303    0.00014951
     atom   27 type  3   force =     0.00000604   -0.00047415   -0.00015902
     atom   28 type  3   force =    -0.00004001   -0.00035246   -0.00024852
     atom   29 type  3   force =     0.00020260   -0.00044951    0.00000405
     atom   30 type  3   force =     0.00003771   -0.00023583   -0.00017671
     atom   31 type  1   force =     0.00041302    0.00001510    0.00075966
     atom   32 type  3   force =    -0.00067370   -0.00007707    0.00055463

     Total force =     0.002307     Total SCF correction =     0.000477
     SCF correction compared to forces is large: reduce conv_thr to get better values

     bfgs converged in   8 scf cycles and   7 bfgs steps
     (criteria: energy < 0.10E-03, force < 0.10E-02)

     End of BFGS Geometry Optimization

     Final energy   =   -2026.2935235764 Ry
Begin final coordinates

ATOMIC_POSITIONS (crystal)
O0       0.000000000   0.000000000   0.377876454    0   0   1
O0       0.000000000   0.500000000   0.399381701    0   0   1
Cr1      0.250000000   0.500000000   0.451064729    0   0   1
Cr1      0.000000000   0.000000000   0.449096594    0   0   1
O0       0.250000000   0.800000000   0.449811875    0   0   1
O0       0.250000000   0.200000000   0.449952483    0   0   1
O0       0.000000000   0.500000000   0.497582719    0   0   1
O0       0.000000000   0.000000000   0.523026812    0   0   1
Cr1      0.250000000   0.000000000   0.567351701    0   0   1
Cr1      0.000000000   0.500000000   0.565212631    0   0   1
O0       0.250000000   0.700000000   0.573823899    0   0   1
O0       0.250000000   0.300000000   0.573829770    0   0   1
O0       0.000000000   0.000000000   0.617916714    0   0   1
O0       0.500000000   0.000000000   0.377794374    0   0   1
O0       0.500000000   0.500000000   0.399868422    0   0   1
Cr1      0.750000000   0.500000000   0.451097936    0   0   1
Cr1      0.500000000   0.000000000   0.449153489    0   0   1
O0       0.750000000   0.800000000   0.449858710    0   0   1
O0       0.750000000   0.200000000   0.449967923    0   0   1
O0       0.500000000   0.500000000   0.499721642    0   0   1
O0       0.500000000   0.000000000   0.523275360    0   0   1
Cr1      0.750000000   0.000000000   0.583292382    0   0   1
Cr1      0.500000000   0.500000000   0.576117945    0   0   1
O0       0.750000000   0.700000000   0.574674468    0   0   1
O0       0.750000000   0.300000000   0.574622169    0   0   1
O0       0.500000000   0.000000000   0.617450947    0   0   1
H2      -0.000584185   0.638978628   0.380690383
H2       0.499604778   0.638592350   0.380965055
H2       0.157167367   0.030909173   0.364871125
H2       0.657034282   0.030992487   0.364832212
O0       0.514865041   0.499695808   0.645754992
H2       0.364068237   0.497989015   0.662792384
End final coordinates

     General routines

     Parallel routines
     Hubbard U routines

   This run was terminated on:  14:54: 8   5May2014

   JOB DONE.