     Program PWSCF v.5.0.2 (svn rev. 9656) starts on 27Feb2014 at 20:37:58

     Current dimensions of program PWSCF are:
     Max number of different atomic species (ntypx) = 10
     Max number of k-points (npk) =  40000
     Max angular momentum in pseudopotentials (lmaxx) =  3
     Reading input from bare.in
Warning: card &CELL ignored
Warning: card / ignored

     Subspace diagonalization in iterative solution of the eigenvalue problem:
     a serial algorithm will be used

     Found symmetry operation: I + ( -0.5000  0.0000  0.0000)
     This is a supercell, fractional translations are disabled

     bravais-lattice index     =            0
     lattice parameter (alat)  =      10.9604  a.u.
     unit-cell volume          =    6350.6732 (a.u.)^3
     number of atoms/cell      =           30
     number of atomic types    =            3
     number of electrons       =       224.00
     number of Kohn-Sham states=          324
     kinetic-energy cutoff     =      40.0000  Ry
     charge density cutoff     =     500.0000  Ry
     convergence threshold     =      1.0E-06
     mixing beta               =       0.3000
     number of iterations used =            8  plain     mixing
     Exchange-correlation      = SLA  PW   PBE  PBE ( 1 4 3 4 0)
     EXX-fraction              =        0.00
     nstep                     =           50

     celldm(1)=  10.960412  celldm(2)=   0.000000  celldm(3)=   0.000000
     celldm(4)=   0.000000  celldm(5)=   0.000000  celldm(6)=   0.000000

     crystal axes: (cart. coord. in units of alat)
               a(1) = (   1.000000   0.000000   0.000000 )
               a(2) = (   0.000000   1.067975   0.000000 )
               a(3) = (   0.000000   0.000000   4.516251 )

     reciprocal axes: (cart. coord. in units 2 pi/alat)
               b(1) = (  1.000000  0.000000  0.000000 )
               b(2) = (  0.000000  0.936351  0.000000 )
               b(3) = (  0.000000  0.000000  0.221423 )

     PseudoPot. # 1 for O  read from file:
     /home/camp/zhonxu/pseudo/o_pbe_v1.01.uspp.F.UPF
     MD5 check sum: 2bcb18d16ea4b960afae9ec6d52f22d2
     Pseudo is Ultrasoft + core correction, Zval =  6.0
     Generated by new atomic code, or converted to UPF format
     Using radial grid of  737 points,  5 beta functions with:
                l(1) =   0
                l(2) =   0
                l(3) =   1
                l(4) =   1
                l(5) =   2
     Q(r) pseudized with  8 coefficients,  rinner =    0.900   0.900   0.900
                                                       0.900   0.900

     PseudoPot. # 2 for Cr read from file:
     /home/camp/zhonxu/pseudo/cr_pbe_v1.uspp.F.UPF
     MD5 check sum: 68b6f918d1762dccfb11451fe85b0e0e
     Pseudo is Ultrasoft + core correction, Zval = 14.0
     Generated by new atomic code, or converted to UPF format
     Using radial grid of  857 points,  6 beta functions with:
                l(1) =   0
                l(2) =   0
                l(3) =   1
                l(4) =   1
                l(5) =   2
                l(6) =   2
     Q(r) pseudized with  6 coefficients,  rinner =    1.000   1.000   1.000
                                                       1.000   1.000

     PseudoPot. # 3 for H  read from file:
     /home/camp/zhonxu/pseudo/h_pbe_v1.uspp.F.UPF
     MD5 check sum: 3408e3ff4ec8b0a4e358431e7e038a48
     Pseudo is Ultrasoft, Zval =  1.0
     Generated by new atomic code, or converted to UPF format
     Using radial grid of  615 points,  2 beta functions with:
                l(1) =   0
                l(2) =   0
     Q(r) pseudized with  8 coefficients,  rinner =    0.700

     atomic species   valence    mass     pseudopotential
        O0             6.00    15.99940     O ( 1.00)
        Cr1           14.00    51.99600     Cr( 1.00)
        H2             1.00     1.00794     H ( 1.00)

     Starting magnetic structure
     atomic species   magnetization
        O0           0.000
        Cr1          0.600
        H2           0.000

     No symmetry found

   Cartesian axes

     site n.     atom                  positions (alat units)
         1           O0  tau(   1) = (   0.0000000   0.0000000   1.7177109  )
         2           O0  tau(   2) = (   0.0000000   0.5339875   1.8014873  )
         3           Cr1 tau(   3) = (   0.2500000   0.5339875   2.0301000  )
         4           Cr1 tau(   4) = (   0.0000000   0.0000000   2.0408938  )
         5           O0  tau(   5) = (   0.2500000   0.8543801   2.0365582  )
         6           O0  tau(   6) = (   0.2500000   0.2135950   2.0375066  )
         7           O0  tau(   7) = (   0.0000000   0.5339875   2.2466994  )
         8           O0  tau(   8) = (   0.0000000   0.0000000   2.3700382  )
         9           Cr1 tau(   9) = (   0.2500000   0.0000000   2.6077736  )
        10           Cr1 tau(  10) = (   0.0000000   0.5339875   2.5531721  )
        11           O0  tau(  11) = (   0.2500000   0.7475825   2.5982443  )
        12           O0  tau(  12) = (   0.2500000   0.3203925   2.5981088  )
        13           O0  tau(  13) = (   0.0000000   0.0000000   2.7911786  )
        14           O0  tau(  14) = (   0.5000000   0.0000000   1.7177109  )
        15           O0  tau(  15) = (   0.5000000   0.5339875   1.8014873  )
        16           Cr1 tau(  16) = (   0.7500000   0.5339875   2.0301000  )
        17           Cr1 tau(  17) = (   0.5000000   0.0000000   2.0408938  )
        18           O0  tau(  18) = (   0.7500000   0.8543801   2.0365582  )
        19           O0  tau(  19) = (   0.7500000   0.2135950   2.0375066  )
        20           O0  tau(  20) = (   0.5000000   0.5339875   2.2466994  )
        21           O0  tau(  21) = (   0.5000000   0.0000000   2.3700382  )
        22           Cr1 tau(  22) = (   0.7500000   0.0000000   2.6077736  )
        23           Cr1 tau(  23) = (   0.5000000   0.5339875   2.5531721  )
        24           O0  tau(  24) = (   0.7500000   0.7475825   2.5982443  )
        25           O0  tau(  25) = (   0.7500000   0.3203925   2.5981088  )
        26           O0  tau(  26) = (   0.5000000   0.0000000   2.7911786  )
        27           H2  tau(  27) = (  -0.0009200   0.6850312   1.7205561  )
        28           H2  tau(  28) = (   0.4990800   0.6850312   1.7205561  )
        29           H2  tau(  29) = (   0.1579400   0.0311528   1.6606255  )
        30           H2  tau(  30) = (   0.6579400   0.0311528   1.6606255  )

     number of k points=    20  Methfessel-Paxton smearing, width (Ry)=  0.0100
                       cart. coord. in units 2pi/alat
        k(    1) = (   0.0000000   0.0000000   0.0000000), wk =   0.0625000
        k(    2) = (   0.0000000   0.2340879   0.0000000), wk =   0.1250000
        k(    3) = (   0.0000000  -0.4681757   0.0000000), wk =   0.0625000
        k(    4) = (   0.2500000   0.0000000   0.0000000), wk =   0.1250000
        k(    5) = (   0.2500000   0.2340879   0.0000000), wk =   0.1250000
        k(    6) = (   0.2500000  -0.4681757   0.0000000), wk =   0.1250000
        k(    7) = (  -0.5000000   0.0000000   0.0000000), wk =   0.0625000
        k(    8) = (  -0.5000000   0.2340879   0.0000000), wk =   0.1250000
        k(    9) = (  -0.5000000  -0.4681757   0.0000000), wk =   0.0625000
        k(   10) = (  -0.2500000   0.2340879   0.0000000), wk =   0.1250000
        k(   11) = (   0.0000000   0.0000000   0.0000000), wk =   0.0625000
        k(   12) = (   0.0000000   0.2340879   0.0000000), wk =   0.1250000
        k(   13) = (   0.0000000  -0.4681757   0.0000000), wk =   0.0625000
        k(   14) = (   0.2500000   0.0000000   0.0000000), wk =   0.1250000
        k(   15) = (   0.2500000   0.2340879   0.0000000), wk =   0.1250000
        k(   16) = (   0.2500000  -0.4681757   0.0000000), wk =   0.1250000
        k(   17) = (  -0.5000000   0.0000000   0.0000000), wk =   0.0625000
        k(   18) = (  -0.5000000   0.2340879   0.0000000), wk =   0.1250000
        k(   19) = (  -0.5000000  -0.4681757   0.0000000), wk =   0.0625000
        k(   20) = (  -0.2500000   0.2340879   0.0000000), wk =   0.1250000

     Largest allocated arrays     est. size (Mb)     dimensions
     Largest temporary arrays     est. size (Mb)     dimensions

     Check: negative/imaginary core charge=   -0.000012    0.000000

     Initial potential from superposition of free atoms
     Check: negative starting charge=(component1):   -0.001593
     Check: negative starting charge=(component2):   -0.000512

     starting charge  215.99984, renormalised to  224.00000

     negative rho (up, down):  0.165E-02 0.531E-03
     Starting wfc are  156 randomized atomic wfcs

     Self-consistent Calculation

     iteration #  1     ecut=    40.00 Ry     beta=0.30
     Davidson diagonalization with overlap
     ethr =  1.00E-02,  avg # of iterations =  5.3

     negative rho (up, down):  0.168E-02 0.712E-03

     total energy              =   -1963.00326281 Ry
     Harris-Foulkes estimate   =   -1991.51989493 Ry
     estimated scf accuracy    <      66.60122698 Ry

     total magnetization       =    24.00 Bohr mag/cell
     absolute magnetization    =    28.91 Bohr mag/cell

[...]

     End of self-consistent calculation

 ------ SPIN UP ------------

          k = 0.0000 0.0000 0.0000 ( 27003 PWs)   bands (ev):

   -75.2042 -75.1888 -75.1586 -75.1443 -75.0458 -75.0316 -74.9888 -74.9742
   -46.6303 -46.6163 -46.5940 -46.5522 -46.5332 -46.5046 -46.4867 -46.4568
   -46.4272 -46.4092 -46.4000 -46.3935 -46.3833 -46.3764 -46.3725 -46.3614
   -46.3356 -46.3334 -46.2888 -46.2747 -46.2727 -46.2636 -46.2508 -46.2100
   -21.5481 -20.9898 -20.8828 -20.5870 -20.3617 -20.2970 -19.9935 -19.8418
   -19.8179 -19.7208 -19.6897 -19.5715 -19.5474 -19.5436 -19.3557 -19.2689
   -19.0371 -18.8976  -9.3917  -9.0851  -8.9521  -8.8174  -8.6564  -8.2012
    -7.9538  -7.9335  -7.9125  -7.8042  -7.7671  -7.7442  -7.6128  -7.3976
    -7.2644  -7.0292  -7.0041  -6.9948  -6.9603  -6.9427  -6.8891  -6.8145
    -6.5945  -6.3026  -6.1958  -6.0328  -5.8330  -5.7764  -5.5918  -5.4777
    -5.4048  -5.3055  -5.2641  -5.1849  -5.1160  -4.9395  -4.8743  -4.8238
    -4.8076  -4.5779  -4.5014  -4.3787  -4.2813  -4.0847  -4.0259  -4.0190
    -3.9446  -3.7575  -3.7517  -3.5719  -3.4377  -3.2345  -3.2221  -3.0599
    -2.9984  -2.7773  -2.7343  -2.6736  -2.6129  -2.2407  -2.1887  -2.1530
    -2.1334  -2.1117  -2.0693  -2.0214  -1.7529  -1.7207  -1.6469  -1.5634
    -1.5385  -1.4651  -1.0858  -1.0767  -1.0236  -0.7418  -0.6479  -0.6330
    -0.4527  -0.2187   0.5655   0.7793   1.1698   1.2504   1.2787   1.4473
     1.4799   1.6208   1.6550   1.8120   2.2311   2.2373   2.3296   2.5602
     3.1674   3.2698   3.6775   4.1562   4.6585   5.4396   5.9995   6.3419
     6.7354   6.9631   7.0730   7.1266   7.1902   7.2019   7.2783   7.5089
     7.5927   7.5937   7.7517   8.0374   8.0468   8.1328   8.1389   8.3025
     8.4230   8.4788   8.5880   8.7311   8.7428   8.8868   9.1816   9.2151
     9.3354   9.3480   9.3488   9.4950   9.6447   9.8036   9.8285   9.9342
    10.1262  10.2417  10.2475  10.4481  10.6130  10.6239  11.0176  11.0266
    11.1025  11.1721  11.2596  11.2779  11.3290  11.3378  11.4874  11.4910
[...]
     atom    5 type  1   force =     0.00330129    0.00649630    0.00033277
     atom    6 type  1   force =    -0.00082333   -0.00610117    0.00026112
     atom    7 type  1   force =    -0.00013687   -0.00063682    0.00083331
     atom    8 type  1   force =     0.00071530   -0.00072167   -0.00011514
     atom    9 type  2   force =     0.00040872   -0.00018999    0.00058131
     atom   10 type  2   force =     0.00002767   -0.00051555    0.00031216
     atom   11 type  1   force =    -0.00001886   -0.05998877    0.00000611
     atom   12 type  1   force =     0.00016808    0.06040043    0.00007216
     atom   13 type  1   force =    -0.00059677    0.00016697   -0.00041167
     atom   14 type  1   force =    -0.00392363   -0.01506855    0.00122327
     atom   15 type  1   force =    -0.00016753    0.01233189   -0.00042525
     atom   16 type  2   force =    -0.00013137   -0.00598482   -0.00005024
     atom   17 type  2   force =     0.00044637    0.00812447    0.00043007
     atom   18 type  1   force =     0.00343434    0.00646270    0.00032855
     atom   19 type  1   force =    -0.00069139   -0.00606761    0.00025746
     atom   20 type  1   force =    -0.00007739   -0.00063752    0.00089969
     atom   21 type  1   force =     0.00069566   -0.00072185   -0.00002772
     atom   22 type  2   force =     0.00038748   -0.00018977    0.00057288
     atom   23 type  2   force =     0.00002812   -0.00051519    0.00034944
     atom   24 type  1   force =    -0.00008452   -0.06000720    0.00000175
     atom   25 type  1   force =     0.00010261    0.06041865    0.00006787
     atom   26 type  1   force =    -0.00063300    0.00016668   -0.00041699
     atom   27 type  3   force =     0.00023822    0.00097038   -0.00137802
     atom   28 type  3   force =     0.00023854    0.00097149   -0.00138026
     atom   29 type  3   force =     0.00049411    0.00071055   -0.00179952
     atom   30 type  3   force =     0.00049813    0.00071108   -0.00179872

     Total force =     0.004565     Total SCF correction =     0.002246
     SCF correction compared to forces is large: reduce conv_thr to get better values

     BFGS Geometry Optimization

     number of scf cycles    =   1
     number of bfgs steps    =   0

     energy   new            =   -1993.7144913898 Ry

     new trust radius        =       0.0019972836 bohr
     new conv_thr            =       0.0000010000 Ry

ATOMIC_POSITIONS (crystal)
O0       0.000000000   0.000000000   0.380366510    0   0   1
O0       0.000000000   0.500000000   0.398881622    0   0   1
Cr1      0.250000000   0.500000000   0.449508856    0   0   1
Cr1      0.000000000   0.000000000   0.451908741    0   0   1
O0       0.250000000   0.800000000   0.450946723    0   0   1
O0       0.250000000   0.200000000   0.451155275    0   0   1
O0       0.000000000   0.500000000   0.497486835    0   0   1
O0       0.000000000   0.000000000   0.524777674    0   0   1
Cr1      0.250000000   0.000000000   0.577431744    0   0   1
Cr1      0.000000000   0.500000000   0.565336306    0   0   1
O0       0.250000000   0.700000000   0.575310123    0   0   1
O0       0.250000000   0.300000000   0.575281458    0   0   1
O0       0.000000000   0.000000000   0.618021683    0   0   1
O0       0.500000000   0.000000000   0.380364713    0   0   1
O0       0.500000000   0.500000000   0.398881409    0   0   1
Cr1      0.750000000   0.500000000   0.449508985    0   0   1
Cr1      0.500000000   0.000000000   0.451908688    0   0   1
O0       0.750000000   0.800000000   0.450946637    0   0   1
O0       0.750000000   0.200000000   0.451155201    0   0   1
O0       0.500000000   0.500000000   0.497488176    0   0   1
O0       0.500000000   0.000000000   0.524779440    0   0   1
Cr1      0.750000000   0.000000000   0.577431573    0   0   1
Cr1      0.500000000   0.500000000   0.565337059    0   0   1
O0       0.750000000   0.700000000   0.575310035    0   0   1
O0       0.750000000   0.300000000   0.575281371    0   0   1
O0       0.500000000   0.000000000   0.618021576    0   0   1
H2      -0.000898266   0.641512900   0.380942161
H2       0.499101764   0.641512994   0.380942116
H2       0.157985081   0.029230702   0.367663646
H2       0.657985448   0.029230747   0.367663662

     Check: negative starting charge=(component1):   -0.002035
     NEW-OLD atomic charge density approx. for the potential

     Check: negative/imaginary core charge=   -0.000012    0.000000
     Check: negative starting charge=(component1):   -0.002035

[...]

     Threshold (ethr) on eigenvalues was too large:
     Diagonalizing with lowered threshold

     Davidson diagonalization with overlap
     ethr =  6.53E-08,  avg # of iterations =  1.0

[...]

     Total force =     0.003234     Total SCF correction =     0.001306
     SCF correction compared to forces is large: reduce conv_thr to get better values

[...]

     energy   old            =   -1993.7144913898 Ry
     energy   new            =   -1993.7145077344 Ry

     CASE: energy  _new < energy  _old

[...]

     Total force =     0.003409     Total SCF correction =     0.000320

[...]

     number of scf cycles    =   4
     number of bfgs steps    =   3

     energy   old            =   -1993.7145284981 Ry
     energy   new            =   -1993.7145424086 Ry

     CASE: energy  _new < energy  _old

     new trust radius        =       0.0051025449 bohr
     new conv_thr            =       0.0000000100 Ry

ATOMIC_POSITIONS (crystal)
O0       0.000000000   0.000000000   0.380443226    0   0   1
O0       0.000000000   0.500000000   0.398748148    0   0   1
Cr1      0.250000000   0.500000000   0.449488735    0   0   1
Cr1      0.000000000   0.000000000   0.451997225    0   0   1
O0       0.250000000   0.800000000   0.451021832    0   0   1
O0       0.250000000   0.200000000   0.451216530    0   0   1
O0       0.000000000   0.500000000   0.497560088    0   0   1
O0       0.000000000   0.000000000   0.524791060    0   0   1
Cr1      0.250000000   0.000000000   0.577461289    0   0   1
Cr1      0.000000000   0.500000000   0.565408023    0   0   1
O0       0.250000000   0.700000000   0.575335805    0   0   1
O0       0.250000000   0.300000000   0.575319313    0   0   1
O0       0.000000000   0.000000000   0.618010198    0   0   1
O0       0.500000000   0.000000000   0.380439480    0   0   1
O0       0.500000000   0.500000000   0.398747876    0   0   1
Cr1      0.750000000   0.500000000   0.449489201    0   0   1
Cr1      0.500000000   0.000000000   0.451995396    0   0   1
O0       0.750000000   0.800000000   0.451021740    0   0   1
O0       0.750000000   0.200000000   0.451216490    0   0   1
O0       0.500000000   0.500000000   0.497562789    0   0   1
O0       0.500000000   0.000000000   0.524794479    0   0   1
Cr1      0.750000000   0.000000000   0.577460896    0   0   1
Cr1      0.500000000   0.500000000   0.565410237    0   0   1
O0       0.750000000   0.700000000   0.575335386    0   0   1
O0       0.750000000   0.300000000   0.575318894    0   0   1
O0       0.500000000   0.000000000   0.618010803    0   0   1
H2      -0.000687097   0.641524181   0.380781071
H2       0.499313400   0.641524908   0.380780821
H2       0.157343223   0.029635661   0.367436845
H2       0.657349012   0.029636723   0.367436122

     Check: negative starting charge=(component1):   -0.002033
     NEW-OLD atomic charge density approx. for the potential

     Check: negative/imaginary core charge=   -0.000012    0.000000
     Check: negative starting charge=(component1):   -0.002032

[...]

     Self-consistent Calculation

[...]

     Threshold (ethr) on eigenvalues was too large:
     Diagonalizing with lowered threshold

     Davidson diagonalization with overlap
     ethr =  3.61E-08,  avg # of iterations =  1.4

[...]

     total energy              =   -1993.71455274 Ry
     Harris-Foulkes estimate   =   -1993.71455275 Ry
     estimated scf accuracy    <       0.00000001 Ry

[...]

     iteration # 14     ecut=    40.00 Ry     beta=0.30
     Davidson diagonalization with overlap
     ethr =  5.25E-12,  avg # of iterations =  1.0

     negative rho (up, down):  0.484E-02 0.180E-02

     End of self-consistent calculation

 ------ SPIN UP ------------

[...]

 ------ SPIN DOWN ----------

[...]

          k = 0.2500-0.4682 0.0000 ( 27150 PWs)   bands (ev):

[...]

          k =-0.2500 0.2341 0.0000 ( 27132 PWs)   bands (ev):

   -73.2450 -73.2331 -72.7786 -72.7674 -72.5880 -72.5768 -72.5164 -72.5055
   -44.6694 -44.6375 -44.6265 -44.5792 -44.5520 -44.5191 -44.3992 -44.3895
   -44.2375 -44.2257 -44.1014 -44.0791 -44.0522 -44.0475 -43.9631 -43.9291
   -43.9067 -43.8780 -43.8750 -43.8526 -43.8331 -43.7455 -43.7388 -43.6113
   -21.3360 -20.8722 -20.7942 -20.4668 -20.4551 -20.4038 -20.0744 -19.9426
   -19.9144 -19.7525 -19.7280 -19.6796 -19.5061 -19.4851 -19.4847 -19.4130
   -19.2077 -19.0838  -8.9500  -8.6507  -8.1744  -8.1660  -8.0532  -7.7608
    -7.6317  -7.5738  -7.5642  -7.4575  -7.4126  -7.3181  -7.1465  -7.0671
    -6.9633  -6.8607  -6.8031  -6.6743  -6.6285  -6.5592  -6.4609  -6.3011
    -6.2977  -6.0045  -5.9046  -5.8958  -5.5851  -5.4931  -5.3971  -5.3696
    -5.3160  -5.2595  -5.1781  -5.0995  -5.0021  -4.9807  -4.8551  -4.6570
    -4.5764  -4.5459  -4.4351  -4.3158  -4.2130  -4.1631  -4.0048  -3.9612
    -3.8854  -3.7215  -3.6448  -3.5016  -3.3579  -3.1060  -3.0947  -2.7749
    -0.6234  -0.5102  -0.3492  -0.3440  -0.2469  -0.1713  -0.1295  -0.0250
    -0.0051   0.0640   0.1222   0.2431   0.3064   0.3285   0.4326   0.4679
     0.5027   0.5822   0.6136   0.7045   0.7896   0.8893   0.9817   1.0439
     1.2261   1.3897   1.7127   1.8979   1.9833   2.2646   2.3855   2.4351
     2.5576   2.7835   2.8536   3.0145   3.0564   3.3636   3.4855   3.5505
     3.8248   3.9305   4.2638   4.7288   5.2525   5.6686   5.7789   5.8862
     5.9662   6.1242   6.3199   6.4335   6.6660   6.8034   6.8408   7.1890
     7.3676   7.5473   7.7182   7.9599   7.9940   8.2240   8.2724   8.4075
     8.5991   8.7034   8.9279   8.9921   9.2193   9.2529   9.2807   9.4263
     9.5328   9.6927   9.7821   9.8492  10.0293  10.0797  10.2658  10.2682
    10.4151  10.4743  10.6160  10.7206  10.7615  10.9508  11.0409  11.0914
    11.1613  11.3442  11.5014  11.5462  11.5853  11.6232  11.7971  11.8350
    11.8851  12.0209  12.0738  12.1618  12.2754  12.3126  12.4088  12.5791
    12.6641  12.6987  12.8118  12.9052  12.9238  12.9989  13.0730  13.1021
    13.1076  13.1916  13.2482  13.3233  13.5554  13.6446  13.7140  13.8047
    13.8551  13.9075  13.9811  14.0129  14.1182  14.2647  14.3593  14.4486
    14.5343  14.5635  14.6289  14.7031  14.7927  14.8662  14.9069  15.0542
    15.1811  15.2761  15.3880  15.4507  15.5015  15.5055  15.5950  15.6251
    15.7805  15.8130  15.9147  15.9170  16.0313  16.0889  16.1667  16.1713
    16.2504  16.2920  16.3965  16.5576  16.6206  16.6629  16.8105  16.8316
    16.8844  16.9516  17.0030  17.1115  17.1946  17.2242  17.3843  17.3911
    17.4396  17.4562  17.5409  17.6208  17.6345  17.7254  17.7558  17.8522
    17.9141  18.0059  18.0516  18.1452  18.2195  18.2859  18.3529  18.3658
    18.4314  18.6248  18.6296  18.7535  18.7885  18.8647  18.9256  19.0700
    19.1031  19.1678  19.2725  19.3458  19.3763  19.4143  19.4887  19.5658
    19.6204  19.6527  19.7351  19.7832  19.8258  19.9451  20.1089  20.1234
    20.2623  20.3366  20.4007  20.4680  20.5158  20.6554  20.7097  20.8226
    20.8514  20.9084  21.1050  21.1060

     the Fermi energy is    -1.4090 ev

!    total energy              =   -1993.71455270 Ry
     Harris-Foulkes estimate   =   -1993.71455274 Ry
     estimated scf accuracy    <          8.3E-09 Ry

     The total energy is the sum of the following terms:

     one-electron contribution =  -23569.17162709 Ry
     hartree contribution      =   11801.28299699 Ry
     xc contribution           =    -314.92149847 Ry
     ewald contribution        =   10089.09476643 Ry
     smearing contrib. (-TS)   =       0.00080943 Ry

     total magnetization       =    16.00 Bohr mag/cell
     absolute magnetization    =    18.32 Bohr mag/cell

     convergence has been achieved in  14 iterations

     Forces acting on atoms (Ry/au):

     negative rho (up, down):  0.484E-02 0.180E-02
     atom    1 type  1   force =    -0.00348377   -0.01479447   -0.00031067
     atom    2 type  1   force =    -0.00007772    0.01367800    0.00030274
     atom    3 type  2   force =    -0.00014549   -0.00573296   -0.00013470
     atom    4 type  2   force =     0.00074301    0.00802072   -0.00027925
     atom    5 type  1   force =     0.00344958    0.00631979    0.00015544
     atom    6 type  1   force =    -0.00075260   -0.00585130    0.00014109
     atom    7 type  1   force =    -0.00009352   -0.00065447   -0.00059480
     atom    8 type  1   force =     0.00070512   -0.00067628    0.00033301
     atom    9 type  2   force =     0.00044604   -0.00018364   -0.00015735
     atom   10 type  2   force =     0.00003163   -0.00051649   -0.00032327
     atom   11 type  1   force =    -0.00005453   -0.05985910    0.00032290
     atom   12 type  1   force =     0.00014193    0.06031357    0.00033379
     atom   13 type  1   force =    -0.00063468    0.00014445    0.00043570
     atom   14 type  1   force =    -0.00347333   -0.01479453   -0.00026737
     atom   15 type  1   force =    -0.00007349    0.01368393    0.00030908
     atom   16 type  2   force =    -0.00016744   -0.00573358   -0.00013986
     atom   17 type  2   force =     0.00074514    0.00802156   -0.00028016
     atom   18 type  1   force =     0.00343019    0.00631954    0.00015641
     atom   19 type  1   force =    -0.00077263   -0.00584954    0.00014185
     atom   20 type  1   force =    -0.00009101   -0.00065379   -0.00062690
     atom   21 type  1   force =     0.00070579   -0.00067632    0.00027977
     atom   22 type  2   force =     0.00040753   -0.00018363   -0.00015776
     atom   23 type  2   force =     0.00003154   -0.00051677   -0.00033909
     atom   24 type  1   force =    -0.00004807   -0.05985816    0.00032427
     atom   25 type  1   force =     0.00014847    0.06031242    0.00033508
     atom   26 type  1   force =    -0.00063337    0.00014431    0.00043903
     atom   27 type  3   force =     0.00009987   -0.00055906   -0.00009943
     atom   28 type  3   force =     0.00010035   -0.00056317   -0.00009753
     atom   29 type  3   force =    -0.00033794    0.00035055   -0.00010064
     atom   30 type  3   force =    -0.00034660    0.00034844   -0.00010138

     Total force =     0.001956     Total SCF correction =     0.000153

     bfgs converged in   5 scf cycles and   4 bfgs steps
     (criteria: energy < 0.10E-03, force < 0.10E-02)

     End of BFGS Geometry Optimization

     Final energy   =   -1993.7145526986 Ry
Begin final coordinates

ATOMIC_POSITIONS (crystal)
O0       0.000000000   0.000000000   0.380443226    0   0   1
O0       0.000000000   0.500000000   0.398748148    0   0   1
Cr1      0.250000000   0.500000000   0.449488735    0   0   1
Cr1      0.000000000   0.000000000   0.451997225    0   0   1
O0       0.250000000   0.800000000   0.451021832    0   0   1
O0       0.250000000   0.200000000   0.451216530    0   0   1
O0       0.000000000   0.500000000   0.497560088    0   0   1
O0       0.000000000   0.000000000   0.524791060    0   0   1
Cr1      0.250000000   0.000000000   0.577461289    0   0   1
Cr1      0.000000000   0.500000000   0.565408023    0   0   1
O0       0.250000000   0.700000000   0.575335805    0   0   1
O0       0.250000000   0.300000000   0.575319313    0   0   1
O0       0.000000000   0.000000000   0.618010198    0   0   1
O0       0.500000000   0.000000000   0.380439480    0   0   1
O0       0.500000000   0.500000000   0.398747876    0   0   1
Cr1      0.750000000   0.500000000   0.449489201    0   0   1
Cr1      0.500000000   0.000000000   0.451995396    0   0   1
O0       0.750000000   0.800000000   0.451021740    0   0   1
O0       0.750000000   0.200000000   0.451216490    0   0   1
O0       0.500000000   0.500000000   0.497562789    0   0   1
O0       0.500000000   0.000000000   0.524794479    0   0   1
Cr1      0.750000000   0.000000000   0.577460896    0   0   1
Cr1      0.500000000   0.500000000   0.565410237    0   0   1
O0       0.750000000   0.700000000   0.575335386    0   0   1
O0       0.750000000   0.300000000   0.575318894    0   0   1
O0       0.500000000   0.000000000   0.618010803    0   0   1
H2      -0.000687097   0.641524181   0.380781071
H2       0.499313400   0.641524908   0.380780821
H2       0.157343223   0.029635661   0.367436845
H2       0.657349012   0.029636723   0.367436122
End final coordinates

     General routines

     Parallel routines

   This run was terminated on:   3:54:43  28Feb2014

   JOB DONE.