     Program PWSCF v.5.0.2 (svn rev. 9656) starts on 26Apr2014 at 17:27:21

     Current dimensions of program PWSCF are:
     Max number of different atomic species (ntypx) = 10
     Max number of k-points (npk) =  40000
     Max angular momentum in pseudopotentials (lmaxx) =  3
     Reading input from pwscf.in
Warning: card &CELL ignored
Warning: card / ignored

     Subspace diagonalization in iterative solution of the eigenvalue problem:
     a serial algorithm will be used

     bravais-lattice index     =            0
     lattice parameter (alat)  =      11.7919  a.u.
     unit-cell volume          =    7123.6633 (a.u.)^3
     number of atoms/cell      =           31
     number of atomic types    =            3
     number of electrons       =       246.00
     number of Kohn-Sham states=          357
     kinetic-energy cutoff     =      40.0000  Ry
     charge density cutoff     =     500.0000  Ry
     convergence threshold     =      1.0E-06
     mixing beta               =       0.7000
     number of iterations used =            8  plain     mixing
     Exchange-correlation      = SLA  PW   PBE  PBE ( 1 4 3 4 0)
     EXX-fraction              =        0.00
     nstep                     =           50

     celldm(1)=  11.791891  celldm(2)=   0.000000  celldm(3)=   0.000000
     celldm(4)=   0.000000  celldm(5)=   0.000000  celldm(6)=   0.000000

     crystal axes: (cart. coord. in units of alat)
               a(1) = (   1.000000   0.000000   0.000000 )
               a(2) = (   0.000000   1.026665   0.000000 )
               a(3) = (   0.000000   0.000000   4.231793 )

     reciprocal axes: (cart. coord. in units 2 pi/alat)
               b(1) = (  1.000000  0.000000  0.000000 )
               b(2) = (  0.000000  0.974028  0.000000 )
               b(3) = (  0.000000  0.000000  0.236306 )

     PseudoPot. # 1 for O  read from file:
     /home/camp/zhonxu/pseudo/o_pbe_v1.01.uspp.F.UPF
     MD5 check sum: 2bcb18d16ea4b960afae9ec6d52f22d2
     Pseudo is Ultrasoft + core correction, Zval =  6.0
     Generated by new atomic code, or converted to UPF format
     Using radial grid of  737 points,  5 beta functions with:
                l(1) =   0
                l(2) =   0
                l(3) =   1
                l(4) =   1
                l(5) =   2
     Q(r) pseudized with  8 coefficients,  rinner =    0.900   0.900   0.900
                                                       0.900   0.900

     PseudoPot. # 2 for Ru read from file:
     /home/camp/zhonxu/pseudo/ru_pbe_v1.uspp.F.UPF
     MD5 check sum: df00be1c11b23341d9806d8f1dfa10cf
     Pseudo is Ultrasoft + core correction, Zval = 16.0
     Generated by new atomic code, or converted to UPF format
     Using radial grid of  967 points,  6 beta functions with:
                l(1) =   0
                l(2) =   0
                l(3) =   1
                l(4) =   1
                l(5) =   2
                l(6) =   2
     Q(r) pseudized with  8 coefficients,  rinner =    1.300   1.300   1.300
                                                       1.300   1.300

     PseudoPot. # 3 for H  read from file:
     /home/camp/zhonxu/pseudo/h_pbe_v1.uspp.F.UPF
     MD5 check sum: 3408e3ff4ec8b0a4e358431e7e038a48
     Pseudo is Ultrasoft, Zval =  1.0
     Generated by new atomic code, or converted to UPF format
     Using radial grid of  615 points,  2 beta functions with:
                l(1) =   0
                l(2) =   0
     Q(r) pseudized with  8 coefficients,  rinner =    0.700

     atomic species   valence    mass     pseudopotential
        O0             6.00    15.99940     O ( 1.00)
        Ru1           16.00   101.07000     Ru( 1.00)
        H2             1.00     1.00794     H ( 1.00)

     Simplified LDA+U calculation (l_max = 2) with parameters (eV):
     atomic species    L          U    alpha       J0     beta
        Ru1            2     2.5000   0.0000   0.0000   0.0000

     No symmetry found

   Cartesian axes

     site n.     atom                  positions (alat units)
         1           O0  tau(   1) = (   0.0000000   0.0000000   1.6006333  )
         2           O0  tau(   2) = (   0.0000000   0.5133323   1.7090519  )
         3           Ru1 tau(   3) = (   0.2500000   0.5133323   1.9249579  )
         4           Ru1 tau(   4) = (   0.0000000   0.0000000   1.9138706  )
         5           O0  tau(   5) = (   0.2500000   0.8315984   1.9151825  )
         6           O0  tau(   6) = (   0.2500000   0.1950663   1.9148016  )
         7           O0  tau(   7) = (   0.0000000   0.5133323   2.1086177  )
         8           O0  tau(   8) = (   0.0000000   0.0000000   2.2256691  )
         9           Ru1 tau(   9) = (   0.2500000   0.0000000   2.4381898  )
        10           Ru1 tau(  10) = (   0.0000000   0.5133323   2.4080594  )
        11           O0  tau(  11) = (   0.2500000   0.7083986   2.4344235  )
        12           O0  tau(  12) = (   0.2500000   0.3182660   2.4336618  )
        13           O0  tau(  13) = (   0.0000000   0.0000000   2.6157981  )
        14           O0  tau(  14) = (   0.5000000   0.0000000   1.6005064  )
        15           O0  tau(  15) = (   0.5000000   0.5133323   1.7116333  )
        16           Ru1 tau(  16) = (   0.7500000   0.5133323   1.9249156  )
        17           Ru1 tau(  17) = (   0.5000000   0.0000000   1.9130666  )
        18           O0  tau(  18) = (   0.7500000   0.8315984   1.9150979  )
        19           O0  tau(  19) = (   0.7500000   0.1950663   1.9148440  )
        20           O0  tau(  20) = (   0.5000000   0.5133323   2.1279570  )
        21           O0  tau(  21) = (   0.5000000   0.0000000   2.2254152  )
        22           Ru1 tau(  22) = (   0.7500000   0.0000000   2.4382321  )
        23           Ru1 tau(  23) = (   0.5000000   0.5133323   2.4678123  )
        24           O0  tau(  24) = (   0.7500000   0.7083986   2.4345927  )
        25           O0  tau(  25) = (   0.7500000   0.3182660   2.4334925  )
        26           O0  tau(  26) = (   0.5000000   0.0000000   2.6078847  )
        27           H2  tau(  27) = (  -0.0002600   0.6438727   1.6192532  )
        28           H2  tau(  28) = (   0.4995800   0.6393041   1.6156985  )
        29           H2  tau(  29) = (   0.1450800   0.0331921   1.5470588  )
        30           H2  tau(  30) = (   0.6459600   0.0301326   1.5471435  )
        31           O0  tau(  31) = (   0.5000500   0.5106527   2.7413977  )

     number of k points=    10  Methfessel-Paxton smearing, width (Ry)=  0.0100
                       cart. coord. in units 2pi/alat
        k(    1) = (   0.0000000   0.0000000   0.0000000), wk =   0.1250000
        k(    2) = (   0.0000000   0.2435070   0.0000000), wk =   0.2500000
        k(    3) = (   0.0000000  -0.4870139   0.0000000), wk =   0.1250000
        k(    4) = (   0.2500000   0.0000000   0.0000000), wk =   0.2500000
        k(    5) = (   0.2500000   0.2435070   0.0000000), wk =   0.2500000
        k(    6) = (   0.2500000  -0.4870139   0.0000000), wk =   0.2500000
        k(    7) = (  -0.5000000   0.0000000   0.0000000), wk =   0.1250000
        k(    8) = (  -0.5000000   0.2435070   0.0000000), wk =   0.2500000
        k(    9) = (  -0.5000000  -0.4870139   0.0000000), wk =   0.1250000
        k(   10) = (  -0.2500000   0.2435070   0.0000000), wk =   0.2500000

     Largest allocated arrays     est. size (Mb)     dimensions
     Largest temporary arrays     est. size (Mb)     dimensions

     Check: negative/imaginary core charge=   -0.000003    0.000000

     Initial potential from superposition of free atoms
     Check: negative starting charge=   -0.520948

     starting charge  237.99981, renormalised to  246.00000

     negative rho (up, down):  0.538E+00 0.000E+00
     Number of +U iterations with fixed ns =  0
     Starting occupations:
 --- enter write_ns ---
 LDA+U parameters:
U( 2)     =  2.50000000
alpha( 2) =  0.00000000
atom    3   Tr[ns(na)] =   6.00000
    eigenvalues:
  0.600  0.600  0.600  0.600  0.600
    eigenvectors:
  1.000  0.000  0.000  0.000  0.000
  0.000  1.000  0.000  0.000  0.000
  0.000  0.000  1.000  0.000  0.000
  0.000  0.000  0.000  1.000  0.000
  0.000  0.000  0.000  0.000  1.000
    occupations:
  0.600  0.000  0.000  0.000  0.000
  0.000  0.600  0.000  0.000  0.000
  0.000  0.000  0.600  0.000  0.000
  0.000  0.000  0.000  0.600  0.000
  0.000  0.000  0.000  0.000  0.600
atom    4   Tr[ns(na)] =   6.00000
    eigenvalues:
  0.600  0.600  0.600  0.600  0.600
    eigenvectors:
  1.000  0.000  0.000  0.000  0.000
  0.000  1.000  0.000  0.000  0.000
  0.000  0.000  1.000  0.000  0.000
  0.000  0.000  0.000  1.000  0.000
  0.000  0.000  0.000  0.000  1.000
    occupations:
  0.600  0.000  0.000  0.000  0.000
  0.000  0.600  0.000  0.000  0.000
  0.000  0.000  0.600  0.000  0.000
  0.000  0.000  0.000  0.600  0.000
  0.000  0.000  0.000  0.000  0.600
atom    9   Tr[ns(na)] =   6.00000
    eigenvalues:
  0.600  0.600  0.600  0.600  0.600
    eigenvectors:
  1.000  0.000  0.000  0.000  0.000
  0.000  1.000  0.000  0.000  0.000
  0.000  0.000  1.000  0.000  0.000
  0.000  0.000  0.000  1.000  0.000
  0.000  0.000  0.000  0.000  1.000
    occupations:
  0.600  0.000  0.000  0.000  0.000
  0.000  0.600  0.000  0.000  0.000
  0.000  0.000  0.600  0.000  0.000
  0.000  0.000  0.000  0.600  0.000
  0.000  0.000  0.000  0.000  0.600
atom   10   Tr[ns(na)] =   6.00000
    eigenvalues:
  0.600  0.600  0.600  0.600  0.600
    eigenvectors:
  1.000  0.000  0.000  0.000  0.000
  0.000  1.000  0.000  0.000  0.000
  0.000  0.000  1.000  0.000  0.000
  0.000  0.000  0.000  1.000  0.000
  0.000  0.000  0.000  0.000  1.000
    occupations:
  0.600  0.000  0.000  0.000  0.000
  0.000  0.600  0.000  0.000  0.000
  0.000  0.000  0.600  0.000  0.000
  0.000  0.000  0.000  0.600  0.000
  0.000  0.000  0.000  0.000  0.600
atom   16   Tr[ns(na)] =   6.00000
    eigenvalues:
  0.600  0.600  0.600  0.600  0.600
    eigenvectors:
  1.000  0.000  0.000  0.000  0.000
  0.000  1.000  0.000  0.000  0.000
  0.000  0.000  1.000  0.000  0.000
  0.000  0.000  0.000  1.000  0.000
  0.000  0.000  0.000  0.000  1.000
    occupations:
  0.600  0.000  0.000  0.000  0.000
  0.000  0.600  0.000  0.000  0.000
  0.000  0.000  0.600  0.000  0.000
  0.000  0.000  0.000  0.600  0.000
  0.000  0.000  0.000  0.000  0.600
atom   17   Tr[ns(na)] =   6.00000
    eigenvalues:
  0.600  0.600  0.600  0.600  0.600
    eigenvectors:
  1.000  0.000  0.000  0.000  0.000
  0.000  1.000  0.000  0.000  0.000
  0.000  0.000  1.000  0.000  0.000
  0.000  0.000  0.000  1.000  0.000
  0.000  0.000  0.000  0.000  1.000
    occupations:
  0.600  0.000  0.000  0.000  0.000
  0.000  0.600  0.000  0.000  0.000
  0.000  0.000  0.600  0.000  0.000
  0.000  0.000  0.000  0.600  0.000
  0.000  0.000  0.000  0.000  0.600
atom   22   Tr[ns(na)] =   6.00000
    eigenvalues:
  0.600  0.600  0.600  0.600  0.600
    eigenvectors:
  1.000  0.000  0.000  0.000  0.000
  0.000  1.000  0.000  0.000  0.000
  0.000  0.000  1.000  0.000  0.000
  0.000  0.000  0.000  1.000  0.000
  0.000  0.000  0.000  0.000  1.000
    occupations:
  0.600  0.000  0.000  0.000  0.000
  0.000  0.600  0.000  0.000  0.000
[...]
  0.000  0.000  0.983  0.006  0.011
  0.008  0.829  0.000  0.100  0.063
  0.000  0.000  0.017  0.379  0.604
    occupations:
  0.784 -0.002 -0.000 -0.082  0.002
 -0.002  0.578  0.001  0.003 -0.000
 -0.000  0.001  0.778  0.000 -0.006
 -0.082  0.003  0.000  0.633 -0.001
  0.002 -0.000 -0.006 -0.001  0.820
atom   10   Tr[ns(na)] =   7.21847
    eigenvalues:
  0.534  0.536  0.747  0.835  0.956
    eigenvectors:
  0.000  0.988  0.000  0.000  0.012
  0.000  0.000  0.000  1.000  0.000
  0.000  0.000  1.000  0.000  0.000
  0.000  0.012  0.000  0.000  0.988
  1.000  0.000  0.000  0.000  0.000
    occupations:
  0.541  0.000 -0.002  0.045  0.000
  0.000  0.835  0.001  0.000  0.001
 -0.002  0.001  0.747 -0.001  0.000
  0.045  0.000 -0.001  0.952  0.000
  0.000  0.001  0.000  0.000  0.534
atom   16   Tr[ns(na)] =   7.19616
    eigenvalues:
  0.522  0.565  0.689  0.855  0.967
    eigenvectors:
  0.000  0.181  0.006  0.001  0.812
  0.997  0.002  0.000  0.000  0.000
  0.000  0.002  0.984  0.002  0.012
  0.002  0.815  0.007  0.000  0.176
  0.000  0.000  0.003  0.997  0.001
    occupations:
  0.893 -0.002  0.029 -0.153  0.001
 -0.002  0.522 -0.001  0.003 -0.004
  0.029 -0.001  0.693 -0.008  0.009
 -0.153  0.003 -0.008  0.636 -0.002
  0.001 -0.004  0.009 -0.002  0.854
atom   17   Tr[ns(na)] =   7.19248
    eigenvalues:
  0.555  0.605  0.670  0.790  0.977
    eigenvectors:
  0.001  0.989  0.000  0.000  0.011
  0.000  0.000  0.016  0.984  0.000
  0.000  0.000  0.984  0.016  0.000
  0.000  0.011  0.000  0.000  0.989
  0.999  0.001  0.000  0.000  0.000
    occupations:
  0.609 -0.001 -0.000  0.038  0.001
 -0.001  0.788  0.015 -0.001 -0.001
 -0.000  0.015  0.672  0.001  0.000
  0.038 -0.001  0.001  0.973  0.000
  0.001 -0.001  0.000  0.000  0.555
atom   22   Tr[ns(na)] =   7.18468
    eigenvalues:
  0.578  0.596  0.776  0.819  0.823
    eigenvectors:
  0.000  0.163  0.003  0.449  0.385
  0.997  0.003  0.000  0.000  0.000
  0.000  0.000  0.980  0.002  0.018
  0.003  0.834  0.001  0.088  0.075
  0.000  0.000  0.017  0.461  0.522
    occupations:
  0.784  0.003  0.003 -0.083  0.001
  0.003  0.578  0.001 -0.002 -0.000
  0.003  0.001  0.777 -0.000  0.006
 -0.083 -0.002 -0.000  0.633 -0.001
  0.001 -0.000  0.006 -0.001  0.820
atom   23   Tr[ns(na)] =   7.19034
    eigenvalues:
  0.578  0.661  0.672  0.706  0.979
    eigenvectors:
  0.000  0.985  0.009  0.000  0.007
  0.000  0.000  0.000  1.000  0.000
  0.000  0.009  0.991  0.000  0.000
  0.000  0.007  0.000  0.000  0.993
  1.000  0.000  0.000  0.000  0.000
    occupations:
  0.663  0.000 -0.001  0.026 -0.000
  0.000  0.706  0.000  0.000  0.001
 -0.001  0.000  0.672  0.002 -0.000
  0.026  0.000  0.002  0.977 -0.000
 -0.000  0.001 -0.000 -0.000  0.578
N of occupied +U levels =  57.5628982
 --- exit write_ns ---

     Threshold (ethr) on eigenvalues was too large:
     Diagonalizing with lowered threshold

     Davidson diagonalization with overlap
     ethr =  3.30E-08,  avg # of iterations =  2.0

[...]

     total energy              =   -2162.11143991 Ry
     Harris-Foulkes estimate   =   -2162.11143992 Ry
     estimated scf accuracy    <       0.00000003 Ry

     iteration # 16     ecut=    40.00 Ry     beta=0.70
     Davidson diagonalization with overlap
     ethr =  1.32E-11,  avg # of iterations =  1.0

     negative rho (up, down):  0.577E+00 0.000E+00

     End of self-consistent calculation
 --- enter write_ns ---
 LDA+U parameters:
U( 2)     =  2.50000000
alpha( 2) =  0.00000000
atom    3   Tr[ns(na)] =   7.19446
    eigenvalues:
  0.522  0.565  0.690  0.854  0.967
    eigenvectors:
  0.000  0.181  0.006  0.001  0.812
  0.997  0.003  0.000  0.000  0.000
  0.000  0.002  0.986  0.001  0.011
  0.003  0.815  0.007  0.000  0.176
  0.000  0.000  0.001  0.998  0.001
    occupations:
  0.893  0.002  0.029 -0.153 -0.002
  0.002  0.522  0.001 -0.003 -0.004
  0.029  0.001  0.693 -0.008 -0.006
 -0.153 -0.003 -0.008  0.636  0.002
 -0.002 -0.004 -0.006  0.002  0.853
atom    4   Tr[ns(na)] =   7.19752
    eigenvalues:
  0.556  0.603  0.674  0.792  0.974
    eigenvectors:
  0.001  0.988  0.000  0.000  0.011
  0.000  0.000  0.025  0.975  0.000
  0.000  0.000  0.975  0.025  0.000
  0.000  0.011  0.000  0.000  0.989
  0.999  0.001  0.000  0.000  0.000
    occupations:
  0.607 -0.001 -0.000  0.039  0.001
 -0.001  0.789  0.018 -0.001 -0.001
 -0.000  0.018  0.677  0.002  0.000
  0.039 -0.001  0.002  0.970  0.000
  0.001 -0.001  0.000  0.000  0.556
atom    9   Tr[ns(na)] =   7.18573
    eigenvalues:
  0.578  0.597  0.777  0.818  0.823
    eigenvectors:
  0.001  0.162  0.000  0.511  0.327
  0.991  0.008  0.000  0.000  0.000
  0.000  0.000  0.983  0.006  0.010
  0.008  0.830  0.000  0.099  0.064
  0.000  0.000  0.017  0.384  0.599
    occupations:
  0.784 -0.002 -0.000 -0.082  0.002
 -0.002  0.578  0.001  0.003 -0.000
 -0.000  0.001  0.778  0.000 -0.006
 -0.082  0.003  0.000  0.633 -0.001
  0.002 -0.000 -0.006 -0.001  0.820
atom   10   Tr[ns(na)] =   7.22161
    eigenvalues:
  0.534  0.537  0.748  0.836  0.957
    eigenvectors:
  0.000  0.988  0.000  0.000  0.012
  0.000  0.000  0.000  1.000  0.000
  0.000  0.000  1.000  0.000  0.000
  0.000  0.012  0.000  0.000  0.988
  1.000  0.000  0.000  0.000  0.000
    occupations:
  0.542  0.000 -0.002  0.045  0.000
  0.000  0.836  0.001  0.000  0.001
 -0.002  0.001  0.748 -0.001  0.000
  0.045  0.000 -0.001  0.952  0.000
  0.000  0.001  0.000  0.000  0.534
atom   16   Tr[ns(na)] =   7.19457
    eigenvalues:
  0.522  0.565  0.689  0.854  0.967
    eigenvectors:
  0.000  0.181  0.006  0.001  0.812
  0.997  0.002  0.000  0.000  0.000
  0.000  0.002  0.984  0.002  0.012
  0.002  0.815  0.007  0.000  0.176
  0.000  0.000  0.002  0.997  0.001
    occupations:
  0.893 -0.002  0.029 -0.153  0.001
 -0.002  0.522 -0.001  0.003 -0.004
  0.029 -0.001  0.693 -0.008  0.009
 -0.153  0.003 -0.008  0.636 -0.002
  0.001 -0.004  0.009 -0.002  0.854
atom   17   Tr[ns(na)] =   7.19089
    eigenvalues:
  0.555  0.605  0.669  0.790  0.976
    eigenvectors:
  0.001  0.989  0.000  0.000  0.011
  0.000  0.000  0.016  0.984  0.000
  0.000  0.000  0.984  0.016  0.000
  0.000  0.011  0.000  0.000  0.989
  0.999  0.001  0.000  0.000  0.000
    occupations:
  0.609 -0.001 -0.000  0.038  0.001
 -0.001  0.788  0.015 -0.001 -0.001
 -0.000  0.015  0.671  0.001  0.000
  0.038 -0.001  0.001  0.972  0.000
  0.001 -0.001  0.000  0.000  0.555
atom   22   Tr[ns(na)] =   7.18585
    eigenvalues:
  0.578  0.596  0.776  0.819  0.823
    eigenvectors:
  0.000  0.163  0.003  0.440  0.394
  0.997  0.003  0.000  0.000  0.000
  0.000  0.000  0.980  0.002  0.017
  0.003  0.834  0.001  0.086  0.077
  0.000  0.000  0.016  0.472  0.512
    occupations:
  0.784  0.003  0.003 -0.083  0.001
  0.003  0.578  0.001 -0.002 -0.000
  0.003  0.001  0.777 -0.000  0.006
 -0.083 -0.002 -0.000  0.633 -0.001
  0.001 -0.000  0.006 -0.001  0.821
atom   23   Tr[ns(na)] =   7.19096
    eigenvalues:
  0.578  0.661  0.672  0.706  0.979
    eigenvectors:
  0.000  0.985  0.009  0.000  0.007
  0.000  0.000  0.000  1.000  0.000
  0.000  0.009  0.991  0.000  0.000
  0.000  0.007  0.000  0.000  0.993
  1.000  0.000  0.000  0.000  0.000
    occupations:
  0.663  0.000 -0.001  0.026 -0.000
  0.000  0.706  0.000  0.000  0.001
 -0.001  0.000  0.672  0.002 -0.000
  0.026  0.000  0.002  0.977 -0.000
 -0.000  0.001 -0.000 -0.000  0.578
N of occupied +U levels =  57.5615812
 --- exit write_ns ---

[...]

          k = 0.2500-0.4870 0.0000 ( 30468 PWs)   bands (ev):

[...]

          k =-0.2500 0.2435 0.0000 ( 30434 PWs)   bands (ev):

   -75.2484 -74.6070 -74.5987 -74.3474 -74.3248 -74.0557 -73.9510 -73.9435
   -45.7714 -45.0543 -44.8900 -44.7717 -44.6538 -44.6358 -44.6275 -44.5757
   -44.5673 -44.5064 -44.4861 -44.4118 -44.2782 -44.1980 -44.1696 -44.1656
   -44.1259 -44.0973 -44.0050 -43.9244 -43.8797 -43.8611 -43.8027 -43.7046
   -21.1030 -20.6028 -20.5820 -20.5225 -20.3452 -20.1351 -20.0495 -19.9429
   -19.8651 -19.8491 -19.6522 -19.5783 -19.5273 -19.5116 -19.4657 -19.4113
   -19.3457 -19.1547 -18.9249  -9.3238  -8.9997  -8.8589  -8.7589  -8.6113
    -8.5573  -8.3655  -8.2715  -8.0698  -7.9752  -7.9194  -7.8312  -7.7766
    -7.7204  -7.6780  -7.5764  -7.4824  -7.3107  -7.1362  -7.0217  -6.9404
    -6.7897  -6.5762  -6.4549  -6.2882  -6.2285  -6.1131  -5.9328  -5.8557
    -5.8276  -5.7410  -5.6961  -5.5367  -5.4762  -5.3751  -5.3127  -5.2577
    -5.1805  -5.0556  -4.9849  -4.9337  -4.7282  -4.6921  -4.6016  -4.4750
    -4.3353  -4.2671  -4.1935  -4.1230  -3.9972  -3.8972  -3.8066  -3.6961
    -3.4763  -3.3887  -3.2495  -3.0154  -2.7166  -2.3912  -2.3357  -2.2288
    -2.1629  -2.1196  -2.0702  -2.0232  -1.9110  -1.8414  -1.7989  -1.7375
    -1.6667  -1.3489  -1.3278  -1.1713  -1.0652  -0.7752  -0.6383  -0.5711
    -0.4367  -0.3942  -0.2642  -0.0438   0.7326   1.1396   1.4639   1.5156
     1.8056   2.1931   2.3989   2.6797   2.8641   2.9538   3.0592   3.1650
     3.2711   3.3181   3.5699   3.8154   3.9551   4.7051   4.7808   5.2733
     5.5695   5.6087   5.7731   6.3502   6.5665   6.6218   6.6971   6.7654
     6.8184   6.9644   7.1026   7.3205   7.5702   7.7866   7.8899   8.0005
     8.2343   8.3171   8.3737   8.4574   8.5372   8.5900   8.7043   8.7491
     8.9813   9.1682   9.2297   9.3341   9.5038   9.6293   9.7978   9.8542
     9.9823  10.0754  10.1322  10.1515  10.2917  10.3270  10.3630  10.5063
    10.5992  10.6481  10.7094  10.8980  10.9590  11.1040  11.1875  11.2775
    11.3967  11.5040  11.5161  11.5899  11.6827  11.7578  11.8021  11.8472
    11.9482  12.0029  12.1245  12.1706  12.2266  12.3135  12.4888  12.5173
    12.5759  12.6091  12.6659  12.7327  12.8096  12.8612  12.9284  13.0268
    13.0809  13.1729  13.2828  13.3635  13.4092  13.5086  13.5454  13.6279
    13.7686  13.8300  13.9448  14.0001  14.1270  14.1813  14.2155  14.2977
    14.4340  14.4750  14.5638  14.5948  14.6162  14.7650  14.8508  14.9086
    15.0162  15.0510  15.0924  15.1926  15.3198  15.4176  15.5560  15.5846
    15.6357  15.7082  15.7827  15.8368  15.8737  15.9335  15.9716  16.0724
    16.1095  16.1687  16.3072  16.3294  16.3679  16.4581  16.5553  16.6150
    16.6700  16.7373  16.7878  16.7979  16.8746  16.9230  16.9820  17.0532
    17.1360  17.2095  17.2709  17.3720  17.4310  17.4699  17.5023  17.5975
    17.7028  17.7404  17.8299  17.8347  17.9220  17.9602  18.0420  18.0870
    18.2306  18.2498  18.3011  18.3228  18.4300  18.4839  18.5990  18.6398
    18.6962  18.8170  18.8604  18.9400  19.0523  19.1121  19.1709  19.1810
    19.2770  19.3422  19.4534  19.4894  19.5226  19.5861  19.7068  19.7492
    19.8330  19.8817  19.9412  19.9999  20.1375  20.1930  20.2975  20.3597
    20.4712  20.5486  20.5884  20.6629  20.7832  20.8030  20.8837  20.8982
    20.9656  21.0285  21.0958  21.1536  21.2333  21.2963  21.3408  21.3947
    21.5060  21.5344  21.5774  21.6161  21.6720  21.7603  21.8345  21.9515
    21.9623  22.0444  22.0492  22.0960  22.1489

     the Fermi energy is    -1.2322 ev

!    total energy              =   -2162.11143991 Ry
     Harris-Foulkes estimate   =   -2162.11143991 Ry
     estimated scf accuracy    <          4.2E-09 Ry

     The total energy is the sum of the following terms:

     one-electron contribution =  -25130.58623284 Ry
     hartree contribution      =   12586.51256681 Ry
     xc contribution           =    -337.70250230 Ry
     ewald contribution        =   10718.34026734 Ry
     Hubbard energy            =       1.32487114 Ry
     smearing contrib. (-TS)   =      -0.00041006 Ry

     convergence has been achieved in  16 iterations

     Forces acting on atoms (Ry/au):

     negative rho (up, down):  0.577E+00 0.000E+00
     atom    1 type  1   force =    -0.00541995   -0.00889773   -0.00001670
     atom    2 type  1   force =     0.00004766    0.00517879    0.00023052
     atom    3 type  2   force =     0.03782426    0.00205323   -0.00022660
     atom    4 type  2   force =     0.00300689    0.00526913    0.00009654
     atom    5 type  1   force =     0.00271568   -0.03771885    0.00017424
     atom    6 type  1   force =     0.00241269    0.03901445    0.00019858
     atom    7 type  1   force =     0.00008612   -0.00321728   -0.00030816
     atom    8 type  1   force =     0.00011728   -0.00157834   -0.00087543
     atom    9 type  2   force =    -0.00164531    0.00291649    0.00026068
     atom   10 type  2   force =     0.00001462   -0.00171414   -0.00050398
     atom   11 type  1   force =    -0.00759728    0.00980703   -0.00014682
     atom   12 type  1   force =    -0.00927588   -0.01081709   -0.00027042
     atom   13 type  1   force =    -0.00135023   -0.00092302    0.00074114
     atom   14 type  1   force =    -0.00439971   -0.00850127   -0.00013200
     atom   15 type  1   force =    -0.00016985    0.00430761   -0.00003443
     atom   16 type  2   force =    -0.03845661    0.00296137   -0.00023279
     atom   17 type  2   force =     0.00230413    0.00535933    0.00011473
     atom   18 type  1   force =     0.00004769   -0.03827749    0.00022862
     atom   19 type  1   force =     0.00099665    0.03833598    0.00017290
     atom   20 type  1   force =    -0.00007450   -0.00284494   -0.00038368
     atom   21 type  1   force =     0.00017293   -0.00157794   -0.00056924
     atom   22 type  2   force =     0.00285314    0.00279233    0.00025171
     atom   23 type  2   force =     0.00002285    0.00156546    0.00034021
     atom   24 type  1   force =     0.00771585    0.00991148   -0.00019139
     atom   25 type  1   force =     0.00927510   -0.01095971   -0.00024726
     atom   26 type  1   force =    -0.00167992   -0.00107206    0.00073648
     atom   27 type  3   force =    -0.00002044   -0.00039766   -0.00015174
     atom   28 type  3   force =    -0.00001175   -0.00046955   -0.00029037
     atom   29 type  3   force =     0.00024756   -0.00030650    0.00039186
     atom   30 type  3   force =     0.00022288   -0.00019906    0.00026574
     atom   31 type  1   force =     0.00001743   -0.00000007    0.00037707

     Total force =     0.002137     Total SCF correction =     0.000223
     SCF correction compared to forces is large: reduce conv_thr to get better values

     bfgs converged in   9 scf cycles and   8 bfgs steps
     (criteria: energy < 0.10E-03, force < 0.10E-02)

     End of BFGS Geometry Optimization

     Final energy   =   -2162.1114399102 Ry
Begin final coordinates

ATOMIC_POSITIONS (crystal)
O0       0.000000000   0.000000000   0.378890151    0   0   1
O0       0.000000000   0.500000000   0.404128260    0   0   1
Ru1      0.250000000   0.500000000   0.454862395    0   0   1
Ru1      0.000000000   0.000000000   0.452555646    0   0   1
O0       0.250000000   0.810000000   0.452743010    0   0   1
O0       0.250000000   0.190000000   0.452618657    0   0   1
O0       0.000000000   0.500000000   0.499034601    0   0   1
O0       0.000000000   0.000000000   0.525455285    0   0   1
Ru1      0.250000000   0.000000000   0.575918709    0   0   1
Ru1      0.000000000   0.500000000   0.568968481    0   0   1
O0       0.250000000   0.690000000   0.574995907    0   0   1
O0       0.250000000   0.310000000   0.574909659    0   0   1
O0       0.000000000   0.000000000   0.617671094    0   0   1
O0       0.500000000   0.000000000   0.378736246    0   0   1
O0       0.500000000   0.500000000   0.404938834    0   0   1
Ru1      0.750000000   0.500000000   0.454855945    0   0   1
Ru1      0.500000000   0.000000000   0.452276652    0   0   1
O0       0.750000000   0.810000000   0.452701330    0   0   1
O0       0.750000000   0.190000000   0.452638318    0   0   1
O0       0.500000000   0.500000000   0.503286591    0   0   1
O0       0.500000000   0.000000000   0.525506321    0   0   1
Ru1      0.750000000   0.000000000   0.575907929    0   0   1
Ru1      0.500000000   0.500000000   0.582441863    0   0   1
O0       0.750000000   0.690000000   0.575044042    0   0   1
O0       0.750000000   0.310000000   0.574838089    0   0   1
O0       0.500000000   0.000000000   0.615953527    0   0   1
H2      -0.000374391   0.625216204   0.382360351
H2       0.499482931   0.620627673   0.381718687
H2       0.145136768   0.031440670   0.366070192
H2       0.645922729   0.028779499   0.366005087
O0       0.500046019   0.497263308   0.646938138
End final coordinates

     General routines

     Parallel routines
     Hubbard U routines

   This run was terminated on:   4:47:50  27Apr2014

   JOB DONE.
Running PBS batch system epilogue script
Job id: 340438.audhumbla.fysik.dtu.dk
Username: zhonxu
Groupname: campgst
Jobname: RuO2/Eads-2-layers/O-U-2.5
Sessionid: 22382
Queuename: verylong
Accounting:
This job has allocated the following 16 nodes:
c138 c138 c138 c138 c138 c138 c138 c138 c123 c123 c123 c123 c123 c123 c123 c123
Finished epilogue job 340438.audhumbla.fysik.dtu.dk for zhonxu