     Program PWSCF v.5.0.2 (svn rev. 9656) starts on 24Jan2014 at 14:39: 4

     Current dimensions of program PWSCF are:
     Max number of different atomic species (ntypx) = 10
     Max number of k-points (npk) =  40000
     Max angular momentum in pseudopotentials (lmaxx) =  3
     Reading input from NbO2-v-1.10.in

     Subspace diagonalization in iterative solution of the eigenvalue problem:
     a serial algorithm will be used

     bravais-lattice index     =            0
     lattice parameter (alat)  =       9.4084  a.u.
     unit-cell volume          =     536.7025 (a.u.)^3
     number of atoms/cell      =            6
     number of atomic types    =            2
     number of electrons       =        50.00
     number of Kohn-Sham states=           75
     kinetic-energy cutoff     =      40.0000  Ry
     charge density cutoff     =     500.0000  Ry
     convergence threshold     =      1.0E-06
     mixing beta               =       0.3000
     number of iterations used =            8  plain     mixing
     Exchange-correlation      = SLA  PW   PBE  PBE ( 1 4 3 4 0)
     EXX-fraction              =        0.00
     nstep                     =           50

     celldm(1)=   9.408406  celldm(2)=   0.000000  celldm(3)=   0.000000
     celldm(4)=   0.000000  celldm(5)=   0.000000  celldm(6)=   0.000000

     crystal axes: (cart. coord. in units of alat)
               a(1) = (   1.000000   0.000000   0.000000 )
               a(2) = (   0.000000   1.000000   0.000000 )
               a(3) = (   0.000000   0.000000   0.644444 )

     reciprocal axes: (cart. coord. in units 2 pi/alat)
               b(1) = (  1.000000  0.000000  0.000000 )
               b(2) = (  0.000000  1.000000  0.000000 )
               b(3) = (  0.000000  0.000000  1.551724 )

     PseudoPot. # 1 for Nb read from file:
     /home/camp/zhonxu/pseudo/nb_pbe_v1.uspp.F.UPF
     MD5 check sum: 573aab8a2fa660278ed4a62cd769473f
     Pseudo is Ultrasoft + core correction, Zval = 13.0
     Generated by new atomic code, or converted to UPF format
     Using radial grid of  887 points,  6 beta functions with:
                l(1) =   0
                l(2) =   0
                l(3) =   1
                l(4) =   1
                l(5) =   2
                l(6) =   2
     Q(r) pseudized with  6 coefficients,  rinner =    1.000   1.000   1.000
                                                       1.000   1.000

     PseudoPot. # 2 for O  read from file:
     /home/camp/zhonxu/pseudo/o_pbe_v1.01.uspp.F.UPF
     MD5 check sum: 2bcb18d16ea4b960afae9ec6d52f22d2
     Pseudo is Ultrasoft + core correction, Zval =  6.0
     Generated by new atomic code, or converted to UPF format
     Using radial grid of  737 points,  5 beta functions with:
                l(1) =   0
                l(2) =   0
                l(3) =   1
                l(4) =   1
                l(5) =   2
     Q(r) pseudized with  8 coefficients,  rinner =    0.900   0.900   0.900
                                                       0.900   0.900

     atomic species   valence    mass     pseudopotential
        Nb0           13.00    92.90640     Nb( 1.00)
        O1             6.00    15.99940     O ( 1.00)

     Starting magnetic structure
     atomic species   magnetization
        Nb0          0.000
        O1           0.000

      8 Sym. Ops., with inversion, found
          (note:  8 additional sym.ops. were found but ignored
           their fractional translations are incommensurate with FFT grid)

   Cartesian axes

     site n.     atom                  positions (alat units)
         1           Nb0 tau(   1) = (   0.0000000   0.0000000   0.0000000  )
         2           Nb0 tau(   2) = (   0.5000000   0.5000000   0.3222222  )
         3           O1  tau(   3) = (   0.3050000   0.3050000   0.0000000  )
         4           O1  tau(   4) = (  -0.3050000  -0.3050000   0.0000000  )
         5           O1  tau(   5) = (   0.8050000   0.1950000   0.3222222  )
         6           O1  tau(   6) = (   0.1950000   0.8050000   0.3222222  )

     number of k points=    54  Methfessel-Paxton smearing, width (Ry)=  0.0100
                       cart. coord. in units 2pi/alat
        k(    1) = (   0.0000000   0.0000000   0.0000000), wk =   0.0080000
        k(    2) = (   0.0000000   0.0000000   0.3103448), wk =   0.0160000
        k(    3) = (   0.0000000   0.0000000   0.6206897), wk =   0.0160000
        k(    4) = (   0.0000000   0.2000000   0.0000000), wk =   0.0320000
        k(    5) = (   0.0000000   0.2000000   0.3103448), wk =   0.0640000
        k(    6) = (   0.0000000   0.2000000   0.6206897), wk =   0.0640000
        k(    7) = (   0.0000000   0.4000000   0.0000000), wk =   0.0320000
        k(    8) = (   0.0000000   0.4000000   0.3103448), wk =   0.0640000
        k(    9) = (   0.0000000   0.4000000   0.6206897), wk =   0.0640000
        k(   10) = (   0.2000000   0.2000000   0.0000000), wk =   0.0160000
        k(   11) = (   0.2000000   0.2000000   0.3103448), wk =   0.0320000
        k(   12) = (   0.2000000   0.2000000   0.6206897), wk =   0.0320000
        k(   13) = (   0.2000000   0.4000000   0.0000000), wk =   0.0320000
        k(   14) = (   0.2000000   0.4000000   0.3103448), wk =   0.0640000
        k(   15) = (   0.2000000   0.4000000   0.6206897), wk =   0.0640000
        k(   16) = (   0.4000000   0.4000000   0.0000000), wk =   0.0160000
        k(   17) = (   0.4000000   0.4000000   0.3103448), wk =   0.0320000
        k(   18) = (   0.4000000   0.4000000   0.6206897), wk =   0.0320000
        k(   19) = (  -0.2000000   0.2000000   0.0000000), wk =   0.0160000
        k(   20) = (  -0.2000000   0.2000000  -0.3103448), wk =   0.0320000
        k(   21) = (  -0.2000000   0.2000000  -0.6206897), wk =   0.0320000
        k(   22) = (  -0.2000000   0.4000000   0.0000000), wk =   0.0320000
        k(   23) = (  -0.2000000   0.4000000  -0.3103448), wk =   0.0640000
        k(   24) = (  -0.2000000   0.4000000  -0.6206897), wk =   0.0640000
        k(   25) = (  -0.4000000   0.4000000   0.0000000), wk =   0.0160000
        k(   26) = (  -0.4000000   0.4000000  -0.3103448), wk =   0.0320000
        k(   27) = (  -0.4000000   0.4000000  -0.6206897), wk =   0.0320000
        k(   28) = (   0.0000000   0.0000000   0.0000000), wk =   0.0080000
        k(   29) = (   0.0000000   0.0000000   0.3103448), wk =   0.0160000
        k(   30) = (   0.0000000   0.0000000   0.6206897), wk =   0.0160000
        k(   31) = (   0.0000000   0.2000000   0.0000000), wk =   0.0320000
        k(   32) = (   0.0000000   0.2000000   0.3103448), wk =   0.0640000
        k(   33) = (   0.0000000   0.2000000   0.6206897), wk =   0.0640000
        k(   34) = (   0.0000000   0.4000000   0.0000000), wk =   0.0320000
        k(   35) = (   0.0000000   0.4000000   0.3103448), wk =   0.0640000
        k(   36) = (   0.0000000   0.4000000   0.6206897), wk =   0.0640000
        k(   37) = (   0.2000000   0.2000000   0.0000000), wk =   0.0160000
        k(   38) = (   0.2000000   0.2000000   0.3103448), wk =   0.0320000
        k(   39) = (   0.2000000   0.2000000   0.6206897), wk =   0.0320000
        k(   40) = (   0.2000000   0.4000000   0.0000000), wk =   0.0320000
        k(   41) = (   0.2000000   0.4000000   0.3103448), wk =   0.0640000
        k(   42) = (   0.2000000   0.4000000   0.6206897), wk =   0.0640000
        k(   43) = (   0.4000000   0.4000000   0.0000000), wk =   0.0160000
        k(   44) = (   0.4000000   0.4000000   0.3103448), wk =   0.0320000
        k(   45) = (   0.4000000   0.4000000   0.6206897), wk =   0.0320000
        k(   46) = (  -0.2000000   0.2000000   0.0000000), wk =   0.0160000
        k(   47) = (  -0.2000000   0.2000000  -0.3103448), wk =   0.0320000
        k(   48) = (  -0.2000000   0.2000000  -0.6206897), wk =   0.0320000
        k(   49) = (  -0.2000000   0.4000000   0.0000000), wk =   0.0320000
        k(   50) = (  -0.2000000   0.4000000  -0.3103448), wk =   0.0640000
        k(   51) = (  -0.2000000   0.4000000  -0.6206897), wk =   0.0640000
        k(   52) = (  -0.4000000   0.4000000   0.0000000), wk =   0.0160000
        k(   53) = (  -0.4000000   0.4000000  -0.3103448), wk =   0.0320000
        k(   54) = (  -0.4000000   0.4000000  -0.6206897), wk =   0.0320000

     Largest allocated arrays     est. size (Mb)     dimensions
     Largest temporary arrays     est. size (Mb)     dimensions

     Check: negative/imaginary core charge=   -0.000007    0.000000

     Initial potential from superposition of free atoms

     starting charge   49.99453, renormalised to   50.00000
     Starting wfc are   42 randomized atomic wfcs

     Self-consistent Calculation

     iteration #  1     ecut=    40.00 Ry     beta=0.30
     Davidson diagonalization with overlap
     ethr =  1.00E-02,  avg # of iterations =  5.4

     total energy              =    -364.67657206 Ry
     Harris-Foulkes estimate   =    -366.09668404 Ry
     estimated scf accuracy    <       3.16983029 Ry

     total magnetization       =    -0.00 Bohr mag/cell
     absolute magnetization    =     0.00 Bohr mag/cell

[...]

     End of self-consistent calculation

 ------ SPIN UP ------------

          k = 0.0000 0.0000 0.0000 (  2313 PWs)   bands (ev):

   -45.7913 -45.7797 -21.8618 -21.8618 -21.7892 -21.7564 -21.6979 -21.6979
    -8.8360  -8.2772  -7.4469  -7.4467   3.2950   3.3366   4.3965   4.8245
     4.8247   6.4239   6.4239   6.8052   7.5865   7.7667   7.7667   8.3226
    10.7449  10.8231  11.4061  11.5291  11.5291  13.5906  13.8102  14.4375
    16.2290  16.2291  17.2646  18.6147  18.6147  21.7782  23.1885  23.5643
    24.6063  25.3377  25.3378  25.4568  27.9175  27.9934  29.0778  29.0778
    29.7924  29.7925  31.0306  34.0734  34.0734  34.2747  34.6319  35.1548
    36.1731  37.0716  37.0716  37.2165  37.3092  37.3092  37.5341  37.6317
    38.4595  39.1284  39.1285  40.2794  40.8348  42.5096  42.5097  43.5580
    43.6057  44.2276  44.2276

[...]

          k =-0.2000 0.2000 0.0000 (  2293 PWs)   bands (ev):

[...]

 ------ SPIN DOWN ----------

[...]

     the Fermi energy is    11.2942 ev

!    total energy              =    -365.25056558 Ry
     Harris-Foulkes estimate   =    -365.25056241 Ry
     estimated scf accuracy    <       0.00000017 Ry

     The total energy is the sum of the following terms:

     one-electron contribution =    -110.48946937 Ry
     hartree contribution      =      79.32698867 Ry
     xc contribution           =     -65.23872774 Ry
     ewald contribution        =    -268.84895682 Ry
     smearing contrib. (-TS)   =      -0.00040032 Ry

[...]

     convergence has been achieved in   9 iterations

     Forces acting on atoms (Ry/au):

     atom    1 type  1   force =     0.00000000    0.00000000    0.00000000
     atom    2 type  1   force =     0.00000000    0.00000000    0.00000000
     atom    3 type  2   force =    -0.00578775   -0.00578775    0.00000000
     atom    4 type  2   force =     0.00578775    0.00578775   -0.00000000
     atom    5 type  2   force =    -0.00580194    0.00580194   -0.00000000
     atom    6 type  2   force =     0.00580194   -0.00580194   -0.00000000

[...]
        k(    7) = (  -0.0000002   0.3900756   0.0000000), wk =   0.0320000
        k(    8) = (  -0.0000002   0.3900756   0.3263375), wk =   0.0640000
        k(    9) = (  -0.0000002   0.3900756   0.6526750), wk =   0.0640000
        k(   10) = (   0.1950377   0.1950377   0.0000000), wk =   0.0160000
        k(   11) = (   0.1950377   0.1950377   0.3263375), wk =   0.0320000
        k(   12) = (   0.1950377   0.1950377   0.6526750), wk =   0.0320000
        k(   13) = (   0.1950375   0.3900754   0.0000000), wk =   0.0320000
        k(   14) = (   0.1950375   0.3900754   0.3263375), wk =   0.0640000
        k(   15) = (   0.1950375   0.3900754   0.6526750), wk =   0.0640000
        k(   16) = (   0.3900753   0.3900753   0.0000000), wk =   0.0160000
        k(   17) = (   0.3900753   0.3900753   0.3263375), wk =   0.0320000
        k(   18) = (   0.3900753   0.3900753   0.6526750), wk =   0.0320000
        k(   19) = (  -0.1950379   0.1950379   0.0000000), wk =   0.0160000
        k(   20) = (  -0.1950379   0.1950379  -0.3263375), wk =   0.0320000
        k(   21) = (  -0.1950379   0.1950379  -0.6526750), wk =   0.0320000
        k(   22) = (  -0.1950380   0.3900757   0.0000000), wk =   0.0320000
        k(   23) = (  -0.1950380   0.3900757  -0.3263375), wk =   0.0640000
        k(   24) = (  -0.1950380   0.3900757  -0.6526750), wk =   0.0640000
        k(   25) = (  -0.3900758   0.3900758   0.0000000), wk =   0.0160000
        k(   26) = (  -0.3900758   0.3900758  -0.3263375), wk =   0.0320000
        k(   27) = (  -0.3900758   0.3900758  -0.6526750), wk =   0.0320000
        k(   28) = (   0.0000000   0.0000000   0.0000000), wk =   0.0080000
        k(   29) = (   0.0000000   0.0000000   0.3263375), wk =   0.0160000
        k(   30) = (   0.0000000   0.0000000   0.6526750), wk =   0.0160000
        k(   31) = (  -0.0000001   0.1950378   0.0000000), wk =   0.0320000
        k(   32) = (  -0.0000001   0.1950378   0.3263375), wk =   0.0640000
        k(   33) = (  -0.0000001   0.1950378   0.6526750), wk =   0.0640000
        k(   34) = (  -0.0000002   0.3900756   0.0000000), wk =   0.0320000
        k(   35) = (  -0.0000002   0.3900756   0.3263375), wk =   0.0640000
        k(   36) = (  -0.0000002   0.3900756   0.6526750), wk =   0.0640000
        k(   37) = (   0.1950377   0.1950377   0.0000000), wk =   0.0160000
        k(   38) = (   0.1950377   0.1950377   0.3263375), wk =   0.0320000
        k(   39) = (   0.1950377   0.1950377   0.6526750), wk =   0.0320000
        k(   40) = (   0.1950375   0.3900754   0.0000000), wk =   0.0320000
        k(   41) = (   0.1950375   0.3900754   0.3263375), wk =   0.0640000
        k(   42) = (   0.1950375   0.3900754   0.6526750), wk =   0.0640000
        k(   43) = (   0.3900753   0.3900753   0.0000000), wk =   0.0160000
        k(   44) = (   0.3900753   0.3900753   0.3263375), wk =   0.0320000
        k(   45) = (   0.3900753   0.3900753   0.6526750), wk =   0.0320000
        k(   46) = (  -0.1950379   0.1950379   0.0000000), wk =   0.0160000
        k(   47) = (  -0.1950379   0.1950379  -0.3263375), wk =   0.0320000
        k(   48) = (  -0.1950379   0.1950379  -0.6526750), wk =   0.0320000
        k(   49) = (  -0.1950380   0.3900757   0.0000000), wk =   0.0320000
        k(   50) = (  -0.1950380   0.3900757  -0.3263375), wk =   0.0640000
        k(   51) = (  -0.1950380   0.3900757  -0.6526750), wk =   0.0640000
        k(   52) = (  -0.3900758   0.3900758   0.0000000), wk =   0.0160000
        k(   53) = (  -0.3900758   0.3900758  -0.3263375), wk =   0.0320000
        k(   54) = (  -0.3900758   0.3900758  -0.6526750), wk =   0.0320000

[...]

     Threshold (ethr) on eigenvalues was too large:
     Diagonalizing with lowered threshold

     Davidson diagonalization with overlap
     ethr =  7.81E-09,  avg # of iterations =  1.6

[...]

     Total force =     0.000049     Total SCF correction =     0.000026
     SCF correction compared to forces is large: reduce conv_thr to get better values

[...]

     Volume is kept fixed: isostatic pressure set to zero

     bfgs converged in   8 scf cycles and   7 bfgs steps
     (criteria: energy < 0.10E-03, force < 0.10E-02, cell < 0.50E+00)

     End of BFGS Geometry Optimization

     Final enthalpy =    -365.2622893589 Ry
Begin final coordinates
     new unit-cell volume =    536.70247 a.u.^3 (    79.53110 Ang^3 )

CELL_PARAMETERS (alat=  9.40840572)
   1.025442346   0.000000615   0.000000000
   0.000000615   1.025442346   0.000000000
   0.000000000   0.000000000   0.612862415

ATOMIC_POSITIONS (crystal)
Nb0      0.000000000   0.000000000   0.000000000    0   0   0
Nb0      0.500000000   0.500000000   0.500000000    0   0   0
O1       0.297979434   0.297979434   0.000000000    1   1   0
O1      -0.297979434  -0.297979434   0.000000000    1   1   0
O1       0.797982771   0.202017229   0.500000000    1   1   0
O1       0.202017229   0.797982771   0.500000000    1   1   0
End final coordinates

     A final scf calculation at the relaxed structure.
     The G-vectors are recalculated for the final unit cell
     Results may differ from those at the preceding step.

     bravais-lattice index     =            0
     lattice parameter (alat)  =       9.4084  a.u.
     unit-cell volume          =     536.7025 (a.u.)^3
     number of atoms/cell      =            6
     number of atomic types    =            2
     number of electrons       =        50.00
     number of Kohn-Sham states=           75
     kinetic-energy cutoff     =      40.0000  Ry
     charge density cutoff     =     500.0000  Ry
     convergence threshold     =      1.0E-08
     mixing beta               =       0.3000
     number of iterations used =            8  plain     mixing
     Exchange-correlation      = SLA  PW   PBE  PBE ( 1 4 3 4 0)
     EXX-fraction              =        0.00

     celldm(1)=   9.408406  celldm(2)=   0.000000  celldm(3)=   0.000000
     celldm(4)=   0.000000  celldm(5)=   0.000000  celldm(6)=   0.000000

     crystal axes: (cart. coord. in units of alat)
               a(1) = (   1.025442   0.000001   0.000000 )
               a(2) = (   0.000001   1.025442   0.000000 )
               a(3) = (   0.000000   0.000000   0.612862 )

     reciprocal axes: (cart. coord. in units 2 pi/alat)
               b(1) = (  0.975189 -0.000001  0.000000 )
               b(2) = ( -0.000001  0.975189  0.000000 )
               b(3) = (  0.000000  0.000000  1.631688 )

     PseudoPot. # 1 for Nb read from file:
     /home/camp/zhonxu/pseudo/nb_pbe_v1.uspp.F.UPF
     MD5 check sum: 573aab8a2fa660278ed4a62cd769473f
     Pseudo is Ultrasoft + core correction, Zval = 13.0
     Generated by new atomic code, or converted to UPF format
     Using radial grid of  887 points,  6 beta functions with:
                l(1) =   0
                l(2) =   0
                l(3) =   1
                l(4) =   1
                l(5) =   2
                l(6) =   2
     Q(r) pseudized with  6 coefficients,  rinner =    1.000   1.000   1.000
                                                       1.000   1.000

     PseudoPot. # 2 for O  read from file:
     /home/camp/zhonxu/pseudo/o_pbe_v1.01.uspp.F.UPF
     MD5 check sum: 2bcb18d16ea4b960afae9ec6d52f22d2
     Pseudo is Ultrasoft + core correction, Zval =  6.0
     Generated by new atomic code, or converted to UPF format
     Using radial grid of  737 points,  5 beta functions with:
                l(1) =   0
                l(2) =   0
                l(3) =   1
                l(4) =   1
                l(5) =   2
     Q(r) pseudized with  8 coefficients,  rinner =    0.900   0.900   0.900
                                                       0.900   0.900

     atomic species   valence    mass     pseudopotential
        Nb0           13.00    92.90640     Nb( 1.00)
        O1             6.00    15.99940     O ( 1.00)

     Starting magnetic structure
     atomic species   magnetization
        Nb0          0.000
        O1           0.000

      8 Sym. Ops., with inversion, found
          (note:  8 additional sym.ops. were found but ignored
           their fractional translations are incommensurate with FFT grid)

   Cartesian axes

     site n.     atom                  positions (alat units)
         1           Nb0 tau(   1) = (   0.0000000   0.0000000   0.0000000  )
         2           Nb0 tau(   2) = (   0.5127215   0.5127215   0.3064312  )
         3           O1  tau(   3) = (   0.3055609   0.3055609   0.0000000  )
         4           O1  tau(   4) = (  -0.3055609  -0.3055609   0.0000000  )
         5           O1  tau(   5) = (   0.8182854   0.2071575   0.3064312  )
         6           O1  tau(   6) = (   0.2071575   0.8182854   0.3064312  )

     number of k points=    54  Methfessel-Paxton smearing, width (Ry)=  0.0100
                       cart. coord. in units 2pi/alat
        k(    1) = (   0.0000000   0.0000000   0.0000000), wk =   0.0080000
        k(    2) = (   0.0000000   0.0000000   0.3263375), wk =   0.0160000
        k(    3) = (   0.0000000   0.0000000   0.6526750), wk =   0.0160000
        k(    4) = (  -0.0000001   0.1950378   0.0000000), wk =   0.0320000
        k(    5) = (  -0.0000001   0.1950378   0.3263375), wk =   0.0640000
        k(    6) = (  -0.0000001   0.1950378   0.6526750), wk =   0.0640000
        k(    7) = (  -0.0000002   0.3900756   0.0000000), wk =   0.0320000
        k(    8) = (  -0.0000002   0.3900756   0.3263375), wk =   0.0640000
        k(    9) = (  -0.0000002   0.3900756   0.6526750), wk =   0.0640000
        k(   10) = (   0.1950377   0.1950377   0.0000000), wk =   0.0160000
        k(   11) = (   0.1950377   0.1950377   0.3263375), wk =   0.0320000
        k(   12) = (   0.1950377   0.1950377   0.6526750), wk =   0.0320000
        k(   13) = (   0.1950375   0.3900754   0.0000000), wk =   0.0320000
        k(   14) = (   0.1950375   0.3900754   0.3263375), wk =   0.0640000
        k(   15) = (   0.1950375   0.3900754   0.6526750), wk =   0.0640000
        k(   16) = (   0.3900753   0.3900753   0.0000000), wk =   0.0160000
        k(   17) = (   0.3900753   0.3900753   0.3263375), wk =   0.0320000
        k(   18) = (   0.3900753   0.3900753   0.6526750), wk =   0.0320000
        k(   19) = (  -0.1950379   0.1950379   0.0000000), wk =   0.0160000
        k(   20) = (  -0.1950379   0.1950379  -0.3263375), wk =   0.0320000
        k(   21) = (  -0.1950379   0.1950379  -0.6526750), wk =   0.0320000
        k(   22) = (  -0.1950380   0.3900757   0.0000000), wk =   0.0320000
        k(   23) = (  -0.1950380   0.3900757  -0.3263375), wk =   0.0640000
        k(   24) = (  -0.1950380   0.3900757  -0.6526750), wk =   0.0640000
        k(   25) = (  -0.3900758   0.3900758   0.0000000), wk =   0.0160000
        k(   26) = (  -0.3900758   0.3900758  -0.3263375), wk =   0.0320000
        k(   27) = (  -0.3900758   0.3900758  -0.6526750), wk =   0.0320000
        k(   28) = (   0.0000000   0.0000000   0.0000000), wk =   0.0080000
        k(   29) = (   0.0000000   0.0000000   0.3263375), wk =   0.0160000
        k(   30) = (   0.0000000   0.0000000   0.6526750), wk =   0.0160000
        k(   31) = (  -0.0000001   0.1950378   0.0000000), wk =   0.0320000
        k(   32) = (  -0.0000001   0.1950378   0.3263375), wk =   0.0640000
        k(   33) = (  -0.0000001   0.1950378   0.6526750), wk =   0.0640000
        k(   34) = (  -0.0000002   0.3900756   0.0000000), wk =   0.0320000
        k(   35) = (  -0.0000002   0.3900756   0.3263375), wk =   0.0640000
        k(   36) = (  -0.0000002   0.3900756   0.6526750), wk =   0.0640000
        k(   37) = (   0.1950377   0.1950377   0.0000000), wk =   0.0160000
        k(   38) = (   0.1950377   0.1950377   0.3263375), wk =   0.0320000
        k(   39) = (   0.1950377   0.1950377   0.6526750), wk =   0.0320000
        k(   40) = (   0.1950375   0.3900754   0.0000000), wk =   0.0320000
        k(   41) = (   0.1950375   0.3900754   0.3263375), wk =   0.0640000
        k(   42) = (   0.1950375   0.3900754   0.6526750), wk =   0.0640000
        k(   43) = (   0.3900753   0.3900753   0.0000000), wk =   0.0160000
        k(   44) = (   0.3900753   0.3900753   0.3263375), wk =   0.0320000
        k(   45) = (   0.3900753   0.3900753   0.6526750), wk =   0.0320000
        k(   46) = (  -0.1950379   0.1950379   0.0000000), wk =   0.0160000
        k(   47) = (  -0.1950379   0.1950379  -0.3263375), wk =   0.0320000
        k(   48) = (  -0.1950379   0.1950379  -0.6526750), wk =   0.0320000
        k(   49) = (  -0.1950380   0.3900757   0.0000000), wk =   0.0320000
        k(   50) = (  -0.1950380   0.3900757  -0.3263375), wk =   0.0640000
        k(   51) = (  -0.1950380   0.3900757  -0.6526750), wk =   0.0640000
        k(   52) = (  -0.3900758   0.3900758   0.0000000), wk =   0.0160000
        k(   53) = (  -0.3900758   0.3900758  -0.3263375), wk =   0.0320000
        k(   54) = (  -0.3900758   0.3900758  -0.6526750), wk =   0.0320000

     Largest allocated arrays     est. size (Mb)     dimensions
     Largest temporary arrays     est. size (Mb)     dimensions

     Check: negative/imaginary core charge=   -0.000007    0.000000

     Initial potential from superposition of free atoms

     starting charge   49.99453, renormalised to   50.00000
     Starting wfc are   42 randomized atomic wfcs

     Self-consistent Calculation

[...]

     total energy              =    -365.26225659 Ry
     Harris-Foulkes estimate   =    -365.26225578 Ry
     estimated scf accuracy    <       0.00000002 Ry

[...]

     iteration # 11     ecut=    40.00 Ry     beta=0.30
     Davidson diagonalization with overlap
     ethr =  4.81E-11,  avg # of iterations =  1.7

     End of self-consistent calculation

 ------ SPIN UP ------------

[...]

 ------ SPIN DOWN ----------

[...]

          k = 0.3901 0.3901 0.6527 (  2299 PWs)   bands (ev):

[...]

          k =-0.3901 0.3901-0.6527 (  2299 PWs)   bands (ev):

   -45.8143 -45.8140 -22.2742 -22.2714 -21.9131 -21.9089 -21.7024 -21.7015
    -8.1940  -8.0897  -7.7756  -7.6609   4.2562   4.5233   4.5848   4.8274
     4.8951   5.3475   5.6642   6.0031   7.0077   7.1336   7.5293   7.6710
    11.1117  11.6184  11.6442  12.1777  12.7301  12.7989  14.7772  15.3832
    15.7163  16.2544  19.0261  19.4608  19.9808  20.3320  22.0277  22.2036
    23.6692  23.8264  26.0560  26.2789  26.4475  27.1208  27.7956  28.2585
    30.9155  31.0396  31.2035  31.7609  33.7401  33.9112  35.6515  36.1666
    36.3040  36.5196  36.8603  37.7124  38.0946  38.2925  38.5166  39.2435
    39.3424  39.7889  39.9291  39.9859  40.3577  40.6180  41.1440  42.0998
    43.0299  44.2519  44.7324

     the Fermi energy is    11.0699 ev

!    total energy              =    -365.26225736 Ry
     Harris-Foulkes estimate   =    -365.26225659 Ry
     estimated scf accuracy    <          1.4E-09 Ry

     The total energy is the sum of the following terms:

     one-electron contribution =    -112.71850923 Ry
     hartree contribution      =      80.34093032 Ry
     xc contribution           =     -65.24435215 Ry
     ewald contribution        =    -267.63998022 Ry
     smearing contrib. (-TS)   =      -0.00034607 Ry

     total magnetization       =     0.00 Bohr mag/cell
     absolute magnetization    =     0.00 Bohr mag/cell

     convergence has been achieved in  11 iterations

     Forces acting on atoms (Ry/au):

     atom    1 type  1   force =     0.00000000    0.00000000    0.00000000
     atom    2 type  1   force =     0.00000000    0.00000000    0.00000000
     atom    3 type  2   force =     0.00000349    0.00000349    0.00000000
     atom    4 type  2   force =    -0.00000349   -0.00000349    0.00000000
     atom    5 type  2   force =    -0.00000548    0.00000548    0.00000000
     atom    6 type  2   force =     0.00000548   -0.00000548    0.00000000

     Total force =     0.000013     Total SCF correction =     0.000019
     SCF correction compared to forces is large: reduce conv_thr to get better values

     entering subroutine stress ...

          total   stress  (Ry/bohr**3)                   (kbar)     P= -184.37
  -0.00125317  -0.00000007   0.00000000       -184.35     -0.01      0.00
  -0.00000007  -0.00125317   0.00000000         -0.01   -184.35      0.00
   0.00000000   0.00000000  -0.00125358          0.00      0.00   -184.41

     General routines

     Parallel routines

   This run was terminated on:  15:38: 8  24Jan2014

   JOB DONE.
Running PBS batch system epilogue script
Job id: 251988.audhumbla.fysik.dtu.dk
Username: zhonxu
Groupname: campgst
Jobname: NbO2/fine-EOS/non-mag/NbO2-v-1.10
Sessionid: 18877
Queuename: verylong
Accounting:
This job has allocated the following 4 nodes:
q024 q024 q024 q024
Finished epilogue job 251988.audhumbla.fysik.dtu.dk for zhonxu