     Program PWSCF v.5.0.2 (svn rev. 9656) starts on  5May2014 at  1:41:34

     Current dimensions of program PWSCF are:
     Max number of different atomic species (ntypx) = 10
     Max number of k-points (npk) =  40000
     Max angular momentum in pseudopotentials (lmaxx) =  3
     Reading input from pwscf.in
Warning: card &CELL ignored
Warning: card / ignored

     Subspace diagonalization in iterative solution of the eigenvalue problem:
     a serial algorithm will be used

     bravais-lattice index     =            0
     lattice parameter (alat)  =      10.9604  a.u.
     unit-cell volume          =    6350.6732 (a.u.)^3
     number of atoms/cell      =           32
     number of atomic types    =            3
     number of electrons       =       231.00 (up: 123.00, down: 108.00)
     number of Kohn-Sham states=          334
     kinetic-energy cutoff     =      40.0000  Ry
     charge density cutoff     =     500.0000  Ry
     convergence threshold     =      1.0E-06
     mixing beta               =       0.7000
     number of iterations used =            8  plain     mixing
     Exchange-correlation      = SLA  PW   PBE  PBE ( 1 4 3 4 0)
     EXX-fraction              =        0.00
     nstep                     =           50

     celldm(1)=  10.960412  celldm(2)=   0.000000  celldm(3)=   0.000000
     celldm(4)=   0.000000  celldm(5)=   0.000000  celldm(6)=   0.000000

     crystal axes: (cart. coord. in units of alat)
               a(1) = (   1.000000   0.000000   0.000000 )
               a(2) = (   0.000000   1.067975   0.000000 )
               a(3) = (   0.000000   0.000000   4.516251 )

     reciprocal axes: (cart. coord. in units 2 pi/alat)
               b(1) = (  1.000000  0.000000  0.000000 )
               b(2) = (  0.000000  0.936351  0.000000 )
               b(3) = (  0.000000  0.000000  0.221423 )

     PseudoPot. # 1 for O  read from file:
     /home/camp/zhonxu/pseudo/o_pbe_v1.01.uspp.F.UPF
     MD5 check sum: 2bcb18d16ea4b960afae9ec6d52f22d2
     Pseudo is Ultrasoft + core correction, Zval =  6.0
     Generated by new atomic code, or converted to UPF format
     Using radial grid of  737 points,  5 beta functions with:
                l(1) =   0
                l(2) =   0
                l(3) =   1
                l(4) =   1
                l(5) =   2
     Q(r) pseudized with  8 coefficients,  rinner =    0.900   0.900   0.900
                                                       0.900   0.900

     PseudoPot. # 2 for Cr read from file:
     /home/camp/zhonxu/pseudo/cr_pbe_v1.uspp.F.UPF
     MD5 check sum: 68b6f918d1762dccfb11451fe85b0e0e
     Pseudo is Ultrasoft + core correction, Zval = 14.0
     Generated by new atomic code, or converted to UPF format
     Using radial grid of  857 points,  6 beta functions with:
                l(1) =   0
                l(2) =   0
                l(3) =   1
                l(4) =   1
                l(5) =   2
                l(6) =   2
     Q(r) pseudized with  6 coefficients,  rinner =    1.000   1.000   1.000
                                                       1.000   1.000

     PseudoPot. # 3 for H  read from file:
     /home/camp/zhonxu/pseudo/h_pbe_v1.uspp.F.UPF
     MD5 check sum: 3408e3ff4ec8b0a4e358431e7e038a48
     Pseudo is Ultrasoft, Zval =  1.0
     Generated by new atomic code, or converted to UPF format
     Using radial grid of  615 points,  2 beta functions with:
                l(1) =   0
                l(2) =   0
     Q(r) pseudized with  8 coefficients,  rinner =    0.700

     atomic species   valence    mass     pseudopotential
        O0             6.00    15.99940     O ( 1.00)
        Cr1           14.00    51.99600     Cr( 1.00)
        H2             1.00     1.00794     H ( 1.00)

     Starting magnetic structure
     atomic species   magnetization
        O0           0.000
        Cr1          0.600
        H2           0.000

     Simplified LDA+U calculation (l_max = 2) with parameters (eV):
     atomic species    L          U    alpha       J0     beta
        Cr1            2     5.0000   0.0000   0.0000   0.0000

     No symmetry found

   Cartesian axes

     site n.     atom                  positions (alat units)
         1           O0  tau(   1) = (   0.0000000   0.0000000   1.7072332  )
         2           O0  tau(   2) = (   0.0000000   0.5339875   1.8068165  )
         3           Cr1 tau(   3) = (   0.2500000   0.5339875   2.0386808  )
         4           Cr1 tau(   4) = (   0.0000000   0.0000000   2.0275709  )
         5           O0  tau(   5) = (   0.2500000   0.8543801   2.0319968  )
         6           O0  tau(   6) = (   0.2500000   0.2135950   2.0327194  )
         7           O0  tau(   7) = (   0.0000000   0.5339875   2.2464284  )
         8           O0  tau(   8) = (   0.0000000   0.0000000   2.3629476  )
         9           Cr1 tau(   9) = (   0.2500000   0.0000000   2.5576884  )
        10           Cr1 tau(  10) = (   0.0000000   0.5339875   2.5509140  )
        11           O0  tau(  11) = (   0.2500000   0.7475825   2.5906119  )
        12           O0  tau(  12) = (   0.2500000   0.3203925   2.5906119  )
        13           O0  tau(  13) = (   0.0000000   0.0000000   2.7911334  )
        14           O0  tau(  14) = (   0.5000000   0.0000000   1.7073235  )
        15           O0  tau(  15) = (   0.5000000   0.5339875   1.8079456  )
        16           Cr1 tau(  16) = (   0.7500000   0.5339875   2.0392228  )
        17           Cr1 tau(  17) = (   0.5000000   0.0000000   2.0278870  )
        18           O0  tau(  18) = (   0.7500000   0.8543801   2.0322226  )
        19           O0  tau(  19) = (   0.7500000   0.2135950   2.0329904  )
        20           O0  tau(  20) = (   0.5000000   0.5339875   2.2544673  )
        21           O0  tau(  21) = (   0.5000000   0.0000000   2.3630380  )
        22           Cr1 tau(  22) = (   0.7500000   0.0000000   2.6360002  )
        23           Cr1 tau(  23) = (   0.5000000   0.5339875   2.6018573  )
        24           O0  tau(  24) = (   0.7500000   0.7475825   2.5939087  )
        25           O0  tau(  25) = (   0.7500000   0.3203925   2.5936377  )
        26           O0  tau(  26) = (   0.5000000   0.0000000   2.7879720  )
        27           H2  tau(  27) = (  -0.0006000   0.6814001   1.7205110  )
        28           H2  tau(  28) = (   0.4996600   0.6814535   1.7215045  )
        29           H2  tau(  29) = (   0.1566500   0.0338121   1.6478896  )
        30           H2  tau(  30) = (   0.6567200   0.0335237   1.6481606  )
        31           O0  tau(  31) = (   0.5143900   0.5336458   2.9144271  )
        32           H2  tau(  32) = (   0.3645400   0.5319370   2.9931001  )

     number of k points=    20  Methfessel-Paxton smearing, width (Ry)=  0.0100
                       cart. coord. in units 2pi/alat
        k(    1) = (   0.0000000   0.0000000   0.0000000), wk =   0.0625000
        k(    2) = (   0.0000000   0.2340879   0.0000000), wk =   0.1250000
        k(    3) = (   0.0000000  -0.4681757   0.0000000), wk =   0.0625000
        k(    4) = (   0.2500000   0.0000000   0.0000000), wk =   0.1250000
        k(    5) = (   0.2500000   0.2340879   0.0000000), wk =   0.1250000
        k(    6) = (   0.2500000  -0.4681757   0.0000000), wk =   0.1250000
        k(    7) = (  -0.5000000   0.0000000   0.0000000), wk =   0.0625000
        k(    8) = (  -0.5000000   0.2340879   0.0000000), wk =   0.1250000
        k(    9) = (  -0.5000000  -0.4681757   0.0000000), wk =   0.0625000
        k(   10) = (  -0.2500000   0.2340879   0.0000000), wk =   0.1250000
        k(   11) = (   0.0000000   0.0000000   0.0000000), wk =   0.0625000
        k(   12) = (   0.0000000   0.2340879   0.0000000), wk =   0.1250000
        k(   13) = (   0.0000000  -0.4681757   0.0000000), wk =   0.0625000
        k(   14) = (   0.2500000   0.0000000   0.0000000), wk =   0.1250000
        k(   15) = (   0.2500000   0.2340879   0.0000000), wk =   0.1250000
        k(   16) = (   0.2500000  -0.4681757   0.0000000), wk =   0.1250000
        k(   17) = (  -0.5000000   0.0000000   0.0000000), wk =   0.0625000
        k(   18) = (  -0.5000000   0.2340879   0.0000000), wk =   0.1250000
        k(   19) = (  -0.5000000  -0.4681757   0.0000000), wk =   0.0625000
        k(   20) = (  -0.2500000   0.2340879   0.0000000), wk =   0.1250000

     Largest allocated arrays     est. size (Mb)     dimensions
     Largest temporary arrays     est. size (Mb)     dimensions

     Check: negative/imaginary core charge=   -0.000012    0.000000

     Initial potential from superposition of free atoms
     Check: negative starting charge=(component1):   -0.001476
     Check: negative starting charge=(component2):   -0.000504

     starting charge  222.99983, renormalised to  231.00000

     negative rho (up, down):  0.153E-02 0.522E-03
     Number of +U iterations with fixed ns =  0
     Starting occupations:
 --- enter write_ns ---
 LDA+U parameters:
U( 2)     =  5.00000000
alpha( 2) =  0.00000000
atom    3   Tr[ns(na)] (up, down, total) =   5.00000  0.00000  5.00000
   spin  1
    eigenvalues:
  1.000  1.000  1.000  1.000  1.000
    eigenvectors:
  1.000  0.000  0.000  0.000  0.000
  0.000  1.000  0.000  0.000  0.000
  0.000  0.000  1.000  0.000  0.000
  0.000  0.000  0.000  1.000  0.000
  0.000  0.000  0.000  0.000  1.000
    occupations:
  1.000  0.000  0.000  0.000  0.000
  0.000  1.000  0.000  0.000  0.000
  0.000  0.000  1.000  0.000  0.000
  0.000  0.000  0.000  1.000  0.000
  0.000  0.000  0.000  0.000  1.000
   spin  2
    eigenvalues:
  0.000  0.000  0.000  0.000  0.000
    eigenvectors:
  1.000  0.000  0.000  0.000  0.000
  0.000  1.000  0.000  0.000  0.000
  0.000  0.000  1.000  0.000  0.000
  0.000  0.000  0.000  1.000  0.000
  0.000  0.000  0.000  0.000  1.000
    occupations:
  0.000  0.000  0.000  0.000  0.000
  0.000  0.000  0.000  0.000  0.000
  0.000  0.000  0.000  0.000  0.000
  0.000  0.000  0.000  0.000  0.000
  0.000  0.000  0.000  0.000  0.000
atomic mag. moment =     5.000000
atom    4   Tr[ns(na)] (up, down, total) =   5.00000  0.00000  5.00000
   spin  1
    eigenvalues:
  1.000  1.000  1.000  1.000  1.000
    eigenvectors:
  1.000  0.000  0.000  0.000  0.000
  0.000  1.000  0.000  0.000  0.000
  0.000  0.000  1.000  0.000  0.000
  0.000  0.000  0.000  1.000  0.000
  0.000  0.000  0.000  0.000  1.000
    occupations:
  1.000  0.000  0.000  0.000  0.000
  0.000  1.000  0.000  0.000  0.000
  0.000  0.000  1.000  0.000  0.000
  0.000  0.000  0.000  1.000  0.000
  0.000  0.000  0.000  0.000  1.000
   spin  2
    eigenvalues:
  0.000  0.000  0.000  0.000  0.000
    eigenvectors:
  1.000  0.000  0.000  0.000  0.000
  0.000  1.000  0.000  0.000  0.000
  0.000  0.000  1.000  0.000  0.000
  0.000  0.000  0.000  1.000  0.000
  0.000  0.000  0.000  0.000  1.000
    occupations:
  0.000  0.000  0.000  0.000  0.000
  0.000  0.000  0.000  0.000  0.000
  0.000  0.000  0.000  0.000  0.000
  0.000  0.000  0.000  0.000  0.000
  0.000  0.000  0.000  0.000  0.000
atomic mag. moment =     5.000000
atom    9   Tr[ns(na)] (up, down, total) =   5.00000  0.00000  5.00000
   spin  1
    eigenvalues:
  1.000  1.000  1.000  1.000  1.000
[...]
 -0.000  0.009  0.001  0.000  0.091
atomic mag. moment =     2.748014
atom    4   Tr[ns(na)] (up, down, total) =   3.62127  0.98412  4.60539
   spin  1
    eigenvalues:
  0.489  0.540  0.676  0.926  0.990
    eigenvectors:
  0.002  0.992  0.000  0.001  0.005
  0.000  0.001  0.013  0.986  0.000
  0.000  0.000  0.987  0.013  0.000
  0.000  0.005  0.000  0.000  0.995
  0.998  0.002  0.000  0.000  0.000
    occupations:
  0.543 -0.013 -0.001  0.031  0.002
 -0.013  0.923  0.028  0.002 -0.000
 -0.001  0.028  0.679  0.001  0.001
  0.031  0.002  0.001  0.988 -0.000
  0.002 -0.000  0.001 -0.000  0.489
   spin  2
    eigenvalues:
  0.083  0.097  0.111  0.340  0.352
    eigenvectors:
  0.004  0.001  0.000  0.006  0.988
  0.004  0.915  0.080  0.000  0.002
  0.000  0.079  0.920  0.000  0.000
  0.991  0.005  0.000  0.000  0.004
  0.000  0.000  0.000  0.994  0.006
    occupations:
  0.351  0.010  0.002 -0.017  0.001
  0.010  0.099 -0.004  0.000 -0.000
  0.002 -0.004  0.110  0.000  0.000
 -0.017  0.000  0.000  0.084  0.000
  0.001 -0.000  0.000  0.000  0.340
atomic mag. moment =     2.637151
atom    9   Tr[ns(na)] (up, down, total) =   3.63565  1.00358  4.63922
   spin  1
    eigenvalues:
  0.522  0.538  0.700  0.884  0.991
    eigenvectors:
  0.007  0.182  0.000  0.000  0.811
  0.971  0.029  0.000  0.000  0.000
  0.000  0.000  0.938  0.062  0.000
  0.022  0.789  0.000  0.000  0.189
  0.000  0.000  0.062  0.937  0.000
    occupations:
  0.905  0.005  0.000 -0.178 -0.001
  0.005  0.523  0.001  0.001 -0.000
  0.000  0.001  0.711 -0.001 -0.045
 -0.178  0.001 -0.001  0.623  0.001
 -0.001 -0.000 -0.045  0.001  0.873
   spin  2
    eigenvalues:
  0.095  0.103  0.108  0.338  0.359
    eigenvectors:
  0.815  0.000  0.000  0.003  0.183
  0.000  0.000  0.000  0.988  0.012
  0.000  0.230  0.770  0.000  0.000
  0.185  0.000  0.000  0.009  0.805
  0.000  0.770  0.230  0.000  0.000
    occupations:
  0.144 -0.000  0.000  0.102 -0.000
 -0.000  0.339 -0.000  0.002  0.000
  0.000 -0.000  0.107  0.000  0.002
  0.102  0.002  0.000  0.310 -0.000
 -0.000  0.000  0.002 -0.000  0.104
atomic mag. moment =     2.632068
atom   10   Tr[ns(na)] (up, down, total) =   3.73254  0.84872  4.58126
   spin  1
    eigenvalues:
  0.484  0.503  0.830  0.924  0.991
    eigenvectors:
  0.000  0.996  0.000  0.000  0.004
  0.000  0.000  0.000  1.000  0.000
  0.000  0.000  1.000  0.000  0.000
  0.000  0.004  0.000  0.000  0.996
  1.000  0.000  0.000  0.000  0.000
    occupations:
  0.506 -0.003 -0.002  0.032  0.000
 -0.003  0.924 -0.001  0.000  0.000
 -0.002 -0.001  0.830  0.000  0.005
  0.032  0.000  0.000  0.988 -0.000
  0.000  0.000  0.005 -0.000  0.485
   spin  2
    eigenvalues:
  0.076  0.102  0.104  0.246  0.321
    eigenvectors:
  0.010  0.000  0.000  0.990  0.000
  0.000  0.000  1.000  0.000  0.000
  0.000  1.000  0.000  0.000  0.000
  0.990  0.000  0.000  0.010  0.000
  0.000  0.000  0.000  0.000  1.000
    occupations:
  0.244  0.000 -0.000 -0.017 -0.000
  0.000  0.104 -0.000 -0.000  0.000
 -0.000 -0.000  0.102 -0.000 -0.002
 -0.017 -0.000 -0.000  0.078  0.000
 -0.000  0.000 -0.002  0.000  0.321
atomic mag. moment =     2.883826
atom   16   Tr[ns(na)] (up, down, total) =   3.67087  0.92265  4.59352
   spin  1
    eigenvalues:
  0.461  0.506  0.765  0.949  0.990
    eigenvectors:
  0.001  0.232  0.002  0.000  0.765
  0.995  0.005  0.000  0.000  0.000
  0.000  0.000  0.997  0.001  0.002
  0.004  0.763  0.000  0.000  0.233
  0.000  0.000  0.001  0.998  0.000
    occupations:
  0.877 -0.001  0.009 -0.205 -0.000
 -0.001  0.462 -0.000  0.004 -0.008
  0.009 -0.000  0.765 -0.005  0.007
 -0.205  0.004 -0.005  0.618  0.000
 -0.000 -0.008  0.007  0.000  0.949
   spin  2
    eigenvalues:
  0.074  0.091  0.103  0.310  0.345
    eigenvectors:
  0.745  0.001  0.028  0.001  0.224
  0.000  0.002  0.000  0.996  0.002
  0.034  0.011  0.955  0.000  0.000
  0.221  0.000  0.005  0.001  0.773
  0.000  0.986  0.012  0.002  0.000
    occupations:
  0.136  0.002 -0.002  0.113  0.000
  0.002  0.309  0.000 -0.003  0.009
 -0.002  0.000  0.102  0.007 -0.001
  0.113 -0.003  0.007  0.284 -0.000
  0.000  0.009 -0.001 -0.000  0.091
atomic mag. moment =     2.748215
atom   17   Tr[ns(na)] (up, down, total) =   3.63529  0.96830  4.60359
   spin  1
    eigenvalues:
  0.484  0.536  0.703  0.922  0.990
    eigenvectors:
  0.002  0.993  0.000  0.001  0.005
  0.000  0.001  0.013  0.986  0.000
  0.000  0.000  0.987  0.013  0.000
  0.000  0.005  0.000  0.000  0.995
  0.998  0.002  0.000  0.000  0.000
    occupations:
  0.538 -0.013 -0.002  0.031  0.002
 -0.013  0.919  0.024  0.001 -0.000
 -0.002  0.024  0.705  0.000  0.001
  0.031  0.001  0.000  0.988 -0.000
  0.002 -0.000  0.001 -0.000  0.485
   spin  2
    eigenvalues:
  0.082  0.095  0.107  0.337  0.346
    eigenvectors:
  0.005  0.001  0.000  0.009  0.985
  0.004  0.896  0.098  0.000  0.002
  0.001  0.097  0.902  0.000  0.000
  0.990  0.005  0.000  0.000  0.004
  0.000  0.000  0.000  0.991  0.009
    occupations:
  0.344  0.010  0.002 -0.017  0.001
  0.010  0.097 -0.003  0.000 -0.000
  0.002 -0.003  0.106  0.000  0.000
 -0.017  0.000  0.000  0.083  0.000
  0.001 -0.000  0.000  0.000  0.337
atomic mag. moment =     2.666995
atom   22   Tr[ns(na)] (up, down, total) =   3.63366  1.00449  4.63815
   spin  1
    eigenvalues:
  0.522  0.539  0.698  0.883  0.991
    eigenvectors:
  0.002  0.187  0.000  0.000  0.811
  0.992  0.008  0.000  0.000  0.000
  0.000  0.000  0.941  0.059  0.000
  0.006  0.805  0.000  0.000  0.189
  0.000  0.000  0.059  0.940  0.000
    occupations:
  0.906 -0.004 -0.001 -0.177 -0.001
 -0.004  0.523  0.001  0.000  0.000
 -0.001  0.001  0.709  0.000  0.044
 -0.177  0.000  0.000  0.624  0.001
 -0.001  0.000  0.044  0.001  0.872
   spin  2
    eigenvalues:
  0.096  0.104  0.108  0.338  0.358
    eigenvectors:
  0.815  0.000  0.000  0.003  0.182
  0.000  0.000  0.000  0.986  0.014
  0.000  0.185  0.815  0.000  0.000
  0.185  0.000  0.000  0.011  0.804
  0.000  0.815  0.185  0.000  0.000
    occupations:
  0.144 -0.000 -0.000  0.102 -0.000
 -0.000  0.339 -0.000 -0.003  0.000
 -0.000 -0.000  0.108 -0.000 -0.002
  0.102 -0.003 -0.000  0.309 -0.000
 -0.000  0.000 -0.002 -0.000  0.105
atomic mag. moment =     2.629173
atom   23   Tr[ns(na)] (up, down, total) =   3.64173  0.95168  4.59341
   spin  1
    eigenvalues:
  0.483  0.526  0.696  0.949  0.988
    eigenvectors:
  0.000  0.994  0.000  0.000  0.006
  0.000  0.000  0.000  0.999  0.000
  0.000  0.000  1.000  0.000  0.000
  0.000  0.005  0.000  0.000  0.994
  1.000  0.000  0.000  0.000  0.000
    occupations:
  0.529  0.002 -0.001  0.034  0.000
  0.002  0.949  0.002  0.001 -0.000
 -0.001  0.002  0.696  0.000 -0.004
  0.034  0.001  0.000  0.985 -0.000
  0.000 -0.000 -0.004 -0.000  0.483
   spin  2
    eigenvalues:
  0.081  0.093  0.107  0.335  0.336
    eigenvectors:
  0.004  0.000  0.000  0.995  0.000
  0.000  0.999  0.001  0.000  0.000
  0.000  0.001  0.999  0.000  0.000
  0.995  0.000  0.000  0.004  0.000
  0.000  0.000  0.000  0.000  1.000
    occupations:
  0.334  0.003  0.000 -0.017 -0.000
  0.003  0.093 -0.000 -0.000  0.000
  0.000 -0.000  0.107 -0.000  0.002
 -0.017 -0.000 -0.000  0.082  0.000
 -0.000  0.000  0.002  0.000  0.336
atomic mag. moment =     2.690051
N of occupied +U levels =  36.8482877
 --- exit write_ns ---

 ------ SPIN UP ------------

[...]

 ------ SPIN DOWN ----------

[...]

          k = 0.2500-0.4682 0.0000 ( 27150 PWs)   bands (ev):

[...]

          k =-0.2500 0.2341 0.0000 ( 27132 PWs)   bands (ev):

   -72.5096 -72.4259 -72.4230 -72.3367 -72.3306 -72.3180 -72.2533 -72.2424
   -44.0415 -44.0254 -44.0236 -43.9671 -43.9307 -43.9270 -43.9219 -43.8859
   -43.8657 -43.8142 -43.8074 -43.6808 -43.6711 -43.6649 -43.6592 -43.6486
   -43.6189 -43.6074 -43.5270 -43.5047 -43.4712 -43.4430 -43.3627 -43.3147
   -21.2657 -20.9163 -20.6635 -20.6426 -20.4890 -20.3474 -20.2674 -20.1916
   -20.1568 -20.0480 -19.9783 -19.9078 -19.8379 -19.8261 -19.6284 -19.5871
   -19.5023 -19.4167 -19.3278  -8.5932  -8.4329  -8.1533  -8.0278  -7.8750
    -7.8503  -7.5522  -7.4291  -7.3118  -7.2465  -7.1612  -6.9852  -6.9358
    -6.8821  -6.8262  -6.7831  -6.6118  -6.5621  -6.3625  -6.3192  -6.1724
    -6.0894  -5.9584  -5.8448  -5.7678  -5.7097  -5.6389  -5.5946  -5.4147
    -5.4035  -5.3597  -5.2851  -5.1899  -5.1599  -5.1027  -5.0180  -4.9632
    -4.8424  -4.5607  -4.5220  -4.3648  -4.3476  -4.2761  -4.2536  -4.1908
    -4.1467  -4.0771  -4.0347  -3.9785  -3.9351  -3.8400  -3.7771  -3.7625
    -3.5631  -3.4961  -3.4146  -3.2635   1.4700   1.5745   1.6503   1.7325
     1.7943   1.8197   1.8690   1.8879   1.9621   2.0124   2.0575   2.0883
     2.1473   2.1805   2.2783   2.3186   2.3481   2.4628   2.5017   2.5320
     2.5621   2.6043   2.7293   2.7526   2.7998   2.8676   2.9054   2.9545
     3.0280   3.1194   3.1635   3.3454   3.3936   3.5249   3.5968   3.6141
     3.7036   3.8718   3.9197   3.9664   4.0113   4.2412   4.3924   4.8469
     5.3656   5.6857   5.7948   5.9893   6.2397   6.3396   6.4897   6.6133
     6.7928   6.9097   7.0309   7.3118   7.4698   7.7036   7.8884   7.9639
     8.1229   8.3211   8.4251   8.5693   8.6663   8.8416   8.9461   9.0761
     9.2252   9.2587   9.3671   9.4949   9.5724   9.7321   9.8187  10.0219
    10.1489  10.2057  10.2666  10.3673  10.4547  10.6634  10.6908  10.8229
    10.8653  11.0118  11.0767  11.1749  11.2914  11.3655  11.4537  11.6102
    11.6196  11.7552  11.8118  11.9338  12.0208  12.0994  12.1714  12.2447
    12.3366  12.3870  12.5277  12.6138  12.7328  12.7924  12.8774  12.8984
    12.9426  12.9807  13.0539  13.1300  13.1847  13.2533  13.3272  13.3829
    13.5211  13.6168  13.6814  13.7056  13.8199  13.8753  13.8945  14.0185
    14.1554  14.1810  14.2821  14.3890  14.4509  14.5898  14.6215  14.6871
    14.7480  14.8239  14.8911  14.9683  15.0207  15.1741  15.2645  15.3314
    15.4142  15.4795  15.5636  15.6120  15.6908  15.7652  15.8673  15.9990
    16.0176  16.0929  16.1610  16.2311  16.2995  16.3377  16.4296  16.4672
    16.5289  16.6970  16.7089  16.8179  16.8601  16.9298  17.0230  17.0777
    17.1745  17.1862  17.2861  17.3588  17.4127  17.5038  17.5463  17.6179
    17.7144  17.7573  17.8001  17.8465  17.9177  18.0013  18.0854  18.1541
    18.2452  18.2847  18.3552  18.3982  18.4340  18.6164  18.7160  18.7533
    18.8307  18.8924  18.9527  18.9952  19.0553  19.1890  19.2218  19.3221
    19.3747  19.4195  19.5384  19.6235  19.6785  19.6918  19.7666  19.8837
    19.9140  19.9759  20.1248  20.1686  20.2556  20.3062  20.3984  20.5041
    20.5667  20.6597  20.6956  20.8396  20.8994  20.9443  21.0656  21.1032
    21.1595  21.2404  21.3155  21.3925  21.4240  21.5077

     the spin up/dw Fermi energies are    -2.1727   -2.2805 ev

!    total energy              =   -2024.60591629 Ry
     Harris-Foulkes estimate   =   -2024.60591628 Ry
     estimated scf accuracy    <          7.5E-09 Ry

     The total energy is the sum of the following terms:

     one-electron contribution =  -23960.72447723 Ry
     hartree contribution      =   12000.43828819 Ry
     xc contribution           =    -323.22496028 Ry
     ewald contribution        =   10256.73714184 Ry
     Hubbard energy            =       2.16722769 Ry
     smearing contrib. (-TS)   =       0.00086351 Ry

     total magnetization       =    15.00 Bohr mag/cell
     absolute magnetization    =    28.24 Bohr mag/cell

     convergence has been achieved in  14 iterations

     Forces acting on atoms (Ry/au):

     negative rho (up, down):  0.551E-02 0.184E-02
     atom    1 type  1   force =    -0.00382609   -0.01045583    0.00007275
     atom    2 type  1   force =     0.00004061    0.00429621    0.00019261
     atom    3 type  2   force =     0.02650353    0.00129908    0.00006073
     atom    4 type  2   force =     0.00424789    0.00555435   -0.00045046
     atom    5 type  1   force =     0.00011146    0.00692192   -0.00024149
     atom    6 type  1   force =     0.00137383   -0.00532587   -0.00016494
     atom    7 type  1   force =     0.00156225   -0.00236487    0.00016548
     atom    8 type  1   force =     0.00013358   -0.00001541    0.00079412
     atom    9 type  2   force =     0.00597472    0.00099661   -0.00001915
     atom   10 type  2   force =    -0.00317164   -0.00017069   -0.00016797
     atom   11 type  1   force =    -0.02398701   -0.03624085   -0.00022349
     atom   12 type  1   force =    -0.02347575    0.03602354   -0.00021968
     atom   13 type  1   force =    -0.00097089   -0.00008155    0.00030445
     atom   14 type  1   force =    -0.00567274   -0.01133004    0.00021039
     atom   15 type  1   force =     0.00018775    0.00495767   -0.00031505
     atom   16 type  2   force =    -0.02632938    0.00213095   -0.00000727
     atom   17 type  2   force =     0.00472323    0.00560300   -0.00047962
     atom   18 type  1   force =     0.00000919    0.00670522   -0.00017687
     atom   19 type  1   force =     0.00134027   -0.00557806   -0.00010345
     atom   20 type  1   force =    -0.00113986   -0.00326636    0.00049316
     atom   21 type  1   force =    -0.00279604   -0.00009591    0.00051402
     atom   22 type  2   force =    -0.00324506   -0.00066481    0.00099197
     atom   23 type  2   force =    -0.00021500    0.00060044    0.00094077
     atom   24 type  1   force =     0.02329968   -0.02952845   -0.00057913
     atom   25 type  1   force =     0.02396862    0.02982805   -0.00056600
     atom   26 type  1   force =     0.00007515    0.00006578   -0.00039336
     atom   27 type  3   force =     0.00000008   -0.00002031    0.00001447
     atom   28 type  3   force =     0.00000657    0.00027103   -0.00013471
     atom   29 type  3   force =    -0.00015029   -0.00003352   -0.00033737
     atom   30 type  3   force =    -0.00017365   -0.00003305   -0.00032219
     atom   31 type  1   force =     0.00069814    0.00001325    0.00021018
     atom   32 type  3   force =     0.00089688   -0.00006156   -0.00006288

     Total force =     0.002554     Total SCF correction =     0.000391
     SCF correction compared to forces is large: reduce conv_thr to get better values

     bfgs converged in  21 scf cycles and  20 bfgs steps
     (criteria: energy < 0.10E-03, force < 0.10E-02)

     End of BFGS Geometry Optimization

     Final energy   =   -2024.6059162865 Ry
Begin final coordinates

ATOMIC_POSITIONS (crystal)
O0       0.000000000   0.000000000   0.376476730    0   0   1
O0       0.000000000   0.500000000   0.396810891    0   0   1
Cr1      0.250000000   0.500000000   0.449107873    0   0   1
Cr1      0.000000000   0.000000000   0.449553308    0   0   1
O0       0.250000000   0.800000000   0.449298298    0   0   1
O0       0.250000000   0.200000000   0.449320405    0   0   1
O0       0.000000000   0.500000000   0.496652105    0   0   1
O0       0.000000000   0.000000000   0.523822364    0   0   1
Cr1      0.250000000   0.000000000   0.575558596    0   0   1
Cr1      0.000000000   0.500000000   0.565874331    0   0   1
O0       0.250000000   0.700000000   0.575319084    0   0   1
O0       0.250000000   0.300000000   0.575442781    0   0   1
O0       0.000000000   0.000000000   0.621870462    0   0   1
O0       0.500000000   0.000000000   0.376494591    0   0   1
O0       0.500000000   0.500000000   0.397188350    0   0   1
Cr1      0.750000000   0.500000000   0.449121326    0   0   1
Cr1      0.500000000   0.000000000   0.449896632    0   0   1
O0       0.750000000   0.800000000   0.449320637    0   0   1
O0       0.750000000   0.200000000   0.449297150    0   0   1
O0       0.500000000   0.500000000   0.499739113    0   0   1
O0       0.500000000   0.000000000   0.524392348    0   0   1
Cr1      0.750000000   0.000000000   0.575607803    0   0   1
Cr1      0.500000000   0.500000000   0.577468736    0   0   1
O0       0.750000000   0.700000000   0.574172306    0   0   1
O0       0.750000000   0.300000000   0.574133300    0   0   1
O0       0.500000000   0.000000000   0.622371893    0   0   1
H2      -0.000780354   0.637470931   0.377641964
H2       0.499435821   0.637747826   0.378094121
H2       0.158743918   0.028547868   0.364017399
H2       0.658198477   0.029540021   0.363948038
O0       0.518446986   0.499881624   0.648641503
H2       0.368257575   0.497708057   0.666075562
End final coordinates

     General routines

     Parallel routines
     Hubbard U routines

   This run was terminated on:  13:44:48   6May2014

   JOB DONE.
Running PBS batch system epilogue script
Job id: 340732.audhumbla.fysik.dtu.dk
Username: zhonxu
Groupname: campgst
Jobname: CrO2/Eads-2-layers/OH-U-5.0
Sessionid: 20996
Queuename: verylong
Accounting:
This job has allocated the following 16 nodes:
a059 a059 a059 a059 a059 a059 a059 a059 a051 a051 a051 a051 a051 a051 a051 a051
Finished epilogue job 340732.audhumbla.fysik.dtu.dk for zhonxu