     Program PWSCF v.5.0.2 (svn rev. 9656) starts on 30Apr2014 at  3: 6:42

     Current dimensions of program PWSCF are:
     Max number of different atomic species (ntypx) = 10
     Max number of k-points (npk) =  40000
     Max angular momentum in pseudopotentials (lmaxx) =  3
     Reading input from pwscf.in
Warning: card &CELL ignored
Warning: card / ignored

     Subspace diagonalization in iterative solution of the eigenvalue problem:
     a serial algorithm will be used

     bravais-lattice index     =            0
     lattice parameter (alat)  =      11.2250  a.u.
     unit-cell volume          =    7005.5484 (a.u.)^3
     number of atoms/cell      =           32
     number of atomic types    =            3
     number of electrons       =       215.00
     number of Kohn-Sham states=          310
     kinetic-energy cutoff     =      40.0000  Ry
     charge density cutoff     =     500.0000  Ry
     convergence threshold     =      1.0E-06
     mixing beta               =       0.7000
     number of iterations used =            8  plain     mixing
     Exchange-correlation      = SLA  PW   PBE  PBE ( 1 4 3 4 0)
     EXX-fraction              =        0.00
     nstep                     =           50

     celldm(1)=  11.224973  celldm(2)=   0.000000  celldm(3)=   0.000000
     celldm(4)=   0.000000  celldm(5)=   0.000000  celldm(6)=   0.000000

     crystal axes: (cart. coord. in units of alat)
               a(1) = (   1.000000   0.000000   0.000000 )
               a(2) = (   0.000000   1.107086   0.000000 )
               a(3) = (   0.000000   0.000000   4.474090 )

     reciprocal axes: (cart. coord. in units 2 pi/alat)
               b(1) = (  1.000000  0.000000  0.000000 )
               b(2) = (  0.000000  0.903272  0.000000 )
               b(3) = (  0.000000  0.000000  0.223509 )

     PseudoPot. # 1 for O  read from file:
     /home/camp/zhonxu/pseudo/o_pbe_v1.01.uspp.F.UPF
     MD5 check sum: 2bcb18d16ea4b960afae9ec6d52f22d2
     Pseudo is Ultrasoft + core correction, Zval =  6.0
     Generated by new atomic code, or converted to UPF format
     Using radial grid of  737 points,  5 beta functions with:
                l(1) =   0
                l(2) =   0
                l(3) =   1
                l(4) =   1
                l(5) =   2
     Q(r) pseudized with  8 coefficients,  rinner =    0.900   0.900   0.900
                                                       0.900   0.900

     PseudoPot. # 2 for Ti read from file:
     /home/camp/zhonxu/pseudo/ti_pbe_v1.uspp.F.UPF
     MD5 check sum: bcc8f6961b3b91f0cac3ca967d22d0fb
     Pseudo is Ultrasoft + core correction, Zval = 12.0
     Generated by new atomic code, or converted to UPF format
     Using radial grid of  851 points,  6 beta functions with:
                l(1) =   0
                l(2) =   0
                l(3) =   1
                l(4) =   1
                l(5) =   2
                l(6) =   2
     Q(r) pseudized with  6 coefficients,  rinner =    1.000   1.000   1.000
                                                       1.000   1.000

     PseudoPot. # 3 for H  read from file:
     /home/camp/zhonxu/pseudo/h_pbe_v1.uspp.F.UPF
     MD5 check sum: 3408e3ff4ec8b0a4e358431e7e038a48
     Pseudo is Ultrasoft, Zval =  1.0
     Generated by new atomic code, or converted to UPF format
     Using radial grid of  615 points,  2 beta functions with:
                l(1) =   0
                l(2) =   0
     Q(r) pseudized with  8 coefficients,  rinner =    0.700

     atomic species   valence    mass     pseudopotential
        O0             6.00    15.99940     O ( 1.00)
        Ti1           12.00    47.88000     Ti( 1.00)
        H2             1.00     1.00794     H ( 1.00)

     Simplified LDA+U calculation (l_max = 2) with parameters (eV):
     atomic species    L          U    alpha       J0     beta
        Ti1            2     4.0000   0.0000   0.0000   0.0000

     No symmetry found

   Cartesian axes

     site n.     atom                  positions (alat units)
         1           O0  tau(   1) = (   0.0000000   0.0000000   1.6864186  )
         2           O0  tau(   2) = (   0.0000000   0.5535432   1.7740213  )
         3           Ti1 tau(   3) = (   0.2500000   0.5535432   2.0074793  )
         4           Ti1 tau(   4) = (   0.0000000   0.0000000   2.0324447  )
         5           O0  tau(   5) = (   0.2500000   0.8967400   2.0044817  )
         6           O0  tau(   6) = (   0.2500000   0.2103464   2.0092242  )
         7           O0  tau(   7) = (   0.0000000   0.5535432   2.2196854  )
         8           O0  tau(   8) = (   0.0000000   0.0000000   2.3507315  )
         9           Ti1 tau(   9) = (   0.2500000   0.0000000   2.6021753  )
        10           Ti1 tau(  10) = (   0.0000000   0.5535432   2.5345718  )
        11           O0  tau(  11) = (   0.2500000   0.7638896   2.5931377  )
        12           O0  tau(  12) = (   0.2500000   0.3431968   2.5930482  )
        13           O0  tau(  13) = (   0.0000000   0.0000000   2.7844945  )
        14           O0  tau(  14) = (   0.5000000   0.0000000   1.6873582  )
        15           O0  tau(  15) = (   0.5000000   0.5535432   1.7709789  )
        16           Ti1 tau(  16) = (   0.7500000   0.5535432   2.0079715  )
        17           Ti1 tau(  17) = (   0.5000000   0.0000000   2.0352187  )
        18           O0  tau(  18) = (   0.7500000   0.8967400   2.0040790  )
        19           O0  tau(  19) = (   0.7500000   0.2103464   2.0094479  )
        20           O0  tau(  20) = (   0.5000000   0.5535432   2.1971360  )
        21           O0  tau(  21) = (   0.5000000   0.0000000   2.3514026  )
        22           Ti1 tau(  22) = (   0.7500000   0.0000000   2.6024885  )
        23           Ti1 tau(  23) = (   0.5000000   0.5535432   2.6568935  )
        24           O0  tau(  24) = (   0.7500000   0.7638896   2.5904532  )
        25           O0  tau(  25) = (   0.7500000   0.3431968   2.5901848  )
        26           O0  tau(  26) = (   0.5000000   0.0000000   2.7844945  )
        27           H2  tau(  27) = (  -0.0007700   0.6889399   1.6773810  )
        28           H2  tau(  28) = (   0.4993300   0.6850208   1.6695513  )
        29           H2  tau(  29) = (   0.1496500   0.0435638   1.6275396  )
        30           H2  tau(  30) = (   0.6495100   0.0435638   1.6281213  )
        31           O0  tau(  31) = (   0.5047900   0.5534214   2.9586261  )
        32           H2  tau(  32) = (   0.3766100   0.5530007   3.0621118  )

     number of k points=    10  Methfessel-Paxton smearing, width (Ry)=  0.0100
                       cart. coord. in units 2pi/alat
        k(    1) = (   0.0000000   0.0000000   0.0000000), wk =   0.1250000
        k(    2) = (   0.0000000   0.2258180   0.0000000), wk =   0.2500000
        k(    3) = (   0.0000000  -0.4516359   0.0000000), wk =   0.1250000
        k(    4) = (   0.2500000   0.0000000   0.0000000), wk =   0.2500000
        k(    5) = (   0.2500000   0.2258180   0.0000000), wk =   0.2500000
        k(    6) = (   0.2500000  -0.4516359   0.0000000), wk =   0.2500000
        k(    7) = (  -0.5000000   0.0000000   0.0000000), wk =   0.1250000
        k(    8) = (  -0.5000000   0.2258180   0.0000000), wk =   0.2500000
        k(    9) = (  -0.5000000  -0.4516359   0.0000000), wk =   0.1250000
        k(   10) = (  -0.2500000   0.2258180   0.0000000), wk =   0.2500000

     Largest allocated arrays     est. size (Mb)     dimensions
     Largest temporary arrays     est. size (Mb)     dimensions

     Check: negative/imaginary core charge=   -0.000006    0.000000

     Initial potential from superposition of free atoms
     Check: negative starting charge=   -0.102331

     starting charge  206.99957, renormalised to  215.00000

     negative rho (up, down):  0.106E+00 0.000E+00
     Number of +U iterations with fixed ns =  0
     Starting occupations:
 --- enter write_ns ---
 LDA+U parameters:
U( 2)     =  4.00000000
alpha( 2) =  0.00000000
atom    3   Tr[ns(na)] =   2.00000
    eigenvalues:
  0.200  0.200  0.200  0.200  0.200
    eigenvectors:
  1.000  0.000  0.000  0.000  0.000
  0.000  1.000  0.000  0.000  0.000
  0.000  0.000  1.000  0.000  0.000
  0.000  0.000  0.000  1.000  0.000
  0.000  0.000  0.000  0.000  1.000
    occupations:
  0.200  0.000  0.000  0.000  0.000
  0.000  0.200  0.000  0.000  0.000
  0.000  0.000  0.200  0.000  0.000
  0.000  0.000  0.000  0.200  0.000
  0.000  0.000  0.000  0.000  0.200
atom    4   Tr[ns(na)] =   2.00000
    eigenvalues:
  0.200  0.200  0.200  0.200  0.200
    eigenvectors:
  1.000  0.000  0.000  0.000  0.000
  0.000  1.000  0.000  0.000  0.000
  0.000  0.000  1.000  0.000  0.000
  0.000  0.000  0.000  1.000  0.000
  0.000  0.000  0.000  0.000  1.000
    occupations:
  0.200  0.000  0.000  0.000  0.000
  0.000  0.200  0.000  0.000  0.000
  0.000  0.000  0.200  0.000  0.000
  0.000  0.000  0.000  0.200  0.000
  0.000  0.000  0.000  0.000  0.200
atom    9   Tr[ns(na)] =   2.00000
    eigenvalues:
  0.200  0.200  0.200  0.200  0.200
    eigenvectors:
  1.000  0.000  0.000  0.000  0.000
  0.000  1.000  0.000  0.000  0.000
  0.000  0.000  1.000  0.000  0.000
  0.000  0.000  0.000  1.000  0.000
  0.000  0.000  0.000  0.000  1.000
    occupations:
  0.200  0.000  0.000  0.000  0.000
  0.000  0.200  0.000  0.000  0.000
  0.000  0.000  0.200  0.000  0.000
  0.000  0.000  0.000  0.200  0.000
  0.000  0.000  0.000  0.000  0.200
atom   10   Tr[ns(na)] =   2.00000
    eigenvalues:
  0.200  0.200  0.200  0.200  0.200
    eigenvectors:
  1.000  0.000  0.000  0.000  0.000
  0.000  1.000  0.000  0.000  0.000
  0.000  0.000  1.000  0.000  0.000
  0.000  0.000  0.000  1.000  0.000
  0.000  0.000  0.000  0.000  1.000
    occupations:
  0.200  0.000  0.000  0.000  0.000
  0.000  0.200  0.000  0.000  0.000
  0.000  0.000  0.200  0.000  0.000
  0.000  0.000  0.000  0.200  0.000
  0.000  0.000  0.000  0.000  0.200
atom   16   Tr[ns(na)] =   2.00000
    eigenvalues:
  0.200  0.200  0.200  0.200  0.200
    eigenvectors:
  1.000  0.000  0.000  0.000  0.000
  0.000  1.000  0.000  0.000  0.000
  0.000  0.000  1.000  0.000  0.000
  0.000  0.000  0.000  1.000  0.000
  0.000  0.000  0.000  0.000  1.000
    occupations:
  0.200  0.000  0.000  0.000  0.000
  0.000  0.200  0.000  0.000  0.000
  0.000  0.000  0.200  0.000  0.000
  0.000  0.000  0.000  0.200  0.000
  0.000  0.000  0.000  0.000  0.200
atom   17   Tr[ns(na)] =   2.00000
    eigenvalues:
  0.200  0.200  0.200  0.200  0.200
    eigenvectors:
  1.000  0.000  0.000  0.000  0.000
  0.000  1.000  0.000  0.000  0.000
  0.000  0.000  1.000  0.000  0.000
  0.000  0.000  0.000  1.000  0.000
  0.000  0.000  0.000  0.000  1.000
    occupations:
  0.200  0.000  0.000  0.000  0.000
  0.000  0.200  0.000  0.000  0.000
  0.000  0.000  0.200  0.000  0.000
  0.000  0.000  0.000  0.200  0.000
  0.000  0.000  0.000  0.000  0.200
atom   22   Tr[ns(na)] =   2.00000
    eigenvalues:
  0.200  0.200  0.200  0.200  0.200
    eigenvectors:
  1.000  0.000  0.000  0.000  0.000
  0.000  1.000  0.000  0.000  0.000
  0.000  0.000  1.000  0.000  0.000
  0.000  0.000  0.000  1.000  0.000
  0.000  0.000  0.000  0.000  1.000
[...]
  0.327  0.146  0.524  0.000  0.002
    occupations:
  0.212  0.011 -0.004  0.087  0.002
  0.011  0.429  0.003 -0.024  0.012
 -0.004  0.003  0.172  0.007 -0.017
  0.087 -0.024  0.007  0.363 -0.002
  0.002  0.012 -0.017 -0.002  0.178
atom    4   Tr[ns(na)] =   2.79578
    eigenvalues:
  0.151  0.186  0.200  0.426  0.435
    eigenvectors:
  0.007  0.002  0.000  0.000  0.991
  0.001  0.854  0.143  0.000  0.002
  0.000  0.142  0.857  0.000  0.000
  0.992  0.001  0.000  0.000  0.006
  0.000  0.000  0.000  0.999  0.000
    occupations:
  0.433  0.011  0.004 -0.022 -0.000
  0.011  0.189 -0.005 -0.000 -0.002
  0.004 -0.005  0.198  0.001 -0.000
 -0.022 -0.000  0.001  0.153 -0.000
 -0.000 -0.002 -0.000 -0.000  0.426
atom    9   Tr[ns(na)] =   2.78560
    eigenvalues:
  0.153  0.199  0.216  0.385  0.440
    eigenvectors:
  0.000  0.000  0.914  0.086  0.000
  0.000  0.000  0.000  0.000  1.000
  0.999  0.001  0.000  0.000  0.000
  0.000  0.000  0.086  0.914  0.000
  0.001  0.999  0.000  0.000  0.000
    occupations:
  0.230 -0.000 -0.000  0.047  0.000
 -0.000  0.440  0.000 -0.000 -0.000
 -0.000  0.000  0.153  0.000  0.002
  0.047 -0.000  0.000  0.370 -0.000
  0.000 -0.000  0.002 -0.000  0.199
atom   10   Tr[ns(na)] =   2.71304
    eigenvalues:
  0.153  0.211  0.219  0.330  0.443
    eigenvectors:
  0.020  0.000  0.000  0.980  0.000
  0.000  0.000  1.000  0.000  0.000
  0.000  1.000  0.000  0.000  0.000
  0.980  0.000  0.000  0.020  0.000
  0.000  0.000  0.000  0.000  1.000
    occupations:
  0.326  0.001 -0.000 -0.025 -0.000
  0.001  0.219 -0.000  0.000 -0.000
 -0.000 -0.000  0.211 -0.000 -0.001
 -0.025  0.000 -0.000  0.156  0.000
 -0.000 -0.000 -0.001  0.000  0.443
atom   16   Tr[ns(na)] =   2.70892
    eigenvalues:
  0.156  0.171  0.194  0.395  0.439
    eigenvectors:
  0.064  0.703  0.052  0.166  0.015
  0.003  0.003  0.003  0.189  0.802
  0.587  0.005  0.408  0.000  0.000
  0.018  0.148  0.009  0.644  0.181
  0.327  0.142  0.529  0.001  0.002
    occupations:
  0.212 -0.011 -0.004  0.087 -0.002
 -0.011  0.428 -0.003  0.024  0.012
 -0.004 -0.003  0.172  0.007  0.017
  0.087  0.024  0.007  0.363  0.001
 -0.002  0.012  0.017  0.001  0.179
atom   17   Tr[ns(na)] =   2.79178
    eigenvalues:
  0.149  0.187  0.201  0.422  0.436
    eigenvectors:
  0.006  0.002  0.000  0.000  0.991
  0.000  0.872  0.126  0.000  0.002
  0.000  0.125  0.874  0.000  0.000
  0.993  0.001  0.000  0.000  0.006
  0.000  0.000  0.000  1.000  0.000
    occupations:
  0.434  0.011  0.004 -0.023 -0.000
  0.011  0.190 -0.004 -0.000 -0.002
  0.004 -0.004  0.199  0.000 -0.000
 -0.023 -0.000  0.000  0.151 -0.000
 -0.000 -0.002 -0.000 -0.000  0.422
atom   22   Tr[ns(na)] =   2.78421
    eigenvalues:
  0.154  0.199  0.215  0.385  0.440
    eigenvectors:
  0.000  0.000  0.914  0.086  0.000
  0.000  0.000  0.000  0.000  1.000
  0.999  0.001  0.000  0.000  0.000
  0.000  0.000  0.086  0.914  0.000
  0.001  0.999  0.000  0.000  0.000
    occupations:
  0.230 -0.000 -0.000  0.048  0.000
 -0.000  0.440  0.000  0.000 -0.000
 -0.000  0.000  0.154 -0.000 -0.002
  0.048  0.000 -0.000  0.370 -0.000
  0.000 -0.000 -0.002 -0.000  0.199
atom   23   Tr[ns(na)] =   2.74402
    eigenvalues:
  0.133  0.206  0.242  0.381  0.410
    eigenvectors:
  0.012  0.026  0.000  0.962  0.000
  0.001  0.972  0.000  0.027  0.000
  0.000  0.000  1.000  0.000  0.000
  0.987  0.002  0.000  0.011  0.000
  0.000  0.000  0.000  0.000  1.000
    occupations:
  0.373  0.028  0.000 -0.026 -0.000
  0.028  0.211 -0.000 -0.001 -0.000
  0.000 -0.000  0.242  0.000 -0.000
 -0.026 -0.001  0.000  0.135 -0.000
 -0.000 -0.000 -0.000 -0.000  0.410
N of occupied +U levels =  22.0318375
 --- exit write_ns ---

[...]

     total energy              =   -1566.05944122 Ry
     Harris-Foulkes estimate   =   -1566.05944122 Ry
     estimated scf accuracy    <       0.00000002 Ry

     iteration # 11     ecut=    40.00 Ry     beta=0.70
     Davidson diagonalization with overlap
     ethr =  1.15E-11,  avg # of iterations =  1.0

     negative rho (up, down):  0.106E+00 0.000E+00

     End of self-consistent calculation
 --- enter write_ns ---
 LDA+U parameters:
U( 2)     =  4.00000000
alpha( 2) =  0.00000000
atom    3   Tr[ns(na)] =   2.70824
    eigenvalues:
  0.156  0.171  0.193  0.395  0.439
    eigenvectors:
  0.069  0.697  0.052  0.167  0.014
  0.003  0.003  0.003  0.187  0.805
  0.582  0.006  0.412  0.000  0.000
  0.019  0.148  0.008  0.645  0.179
  0.327  0.146  0.524  0.000  0.002
    occupations:
  0.212  0.011 -0.004  0.087  0.002
  0.011  0.429  0.003 -0.024  0.012
 -0.004  0.003  0.172  0.007 -0.017
  0.087 -0.024  0.007  0.363 -0.002
  0.002  0.012 -0.017 -0.002  0.178
atom    4   Tr[ns(na)] =   2.79678
    eigenvalues:
  0.151  0.186  0.200  0.426  0.435
    eigenvectors:
  0.007  0.002  0.000  0.000  0.991
  0.001  0.855  0.142  0.000  0.002
  0.000  0.141  0.858  0.000  0.000
  0.992  0.001  0.000  0.000  0.006
  0.000  0.000  0.000  0.999  0.000
    occupations:
  0.433  0.012  0.004 -0.022 -0.000
  0.012  0.189 -0.005 -0.000 -0.002
  0.004 -0.005  0.198  0.001 -0.000
 -0.022 -0.000  0.001  0.153 -0.000
 -0.000 -0.002 -0.000 -0.000  0.426
atom    9   Tr[ns(na)] =   2.78473
    eigenvalues:
  0.153  0.198  0.216  0.385  0.440
    eigenvectors:
  0.000  0.000  0.914  0.086  0.000
  0.000  0.000  0.000  0.000  1.000
  0.999  0.001  0.000  0.000  0.000
  0.000  0.000  0.086  0.914  0.000
  0.001  0.999  0.000  0.000  0.000
    occupations:
  0.230 -0.000 -0.000  0.047  0.000
 -0.000  0.440  0.000 -0.000 -0.000
 -0.000  0.000  0.153  0.000  0.002
  0.047 -0.000  0.000  0.370 -0.000
  0.000 -0.000  0.002 -0.000  0.198
atom   10   Tr[ns(na)] =   2.71294
    eigenvalues:
  0.153  0.212  0.219  0.330  0.443
    eigenvectors:
  0.020  0.000  0.000  0.980  0.000
  0.000  0.000  1.000  0.000  0.000
  0.000  1.000  0.000  0.000  0.000
  0.980  0.000  0.000  0.020  0.000
  0.000  0.000  0.000  0.000  1.000
    occupations:
  0.326  0.001 -0.000 -0.025 -0.000
  0.001  0.219 -0.000  0.000 -0.000
 -0.000 -0.000  0.212 -0.000 -0.001
 -0.025  0.000 -0.000  0.156  0.000
 -0.000 -0.000 -0.001  0.000  0.443
atom   16   Tr[ns(na)] =   2.70866
    eigenvalues:
  0.156  0.171  0.194  0.395  0.439
    eigenvectors:
  0.064  0.703  0.052  0.166  0.015
  0.003  0.003  0.003  0.189  0.802
  0.587  0.005  0.408  0.000  0.000
  0.018  0.148  0.009  0.644  0.181
  0.328  0.141  0.528  0.001  0.002
    occupations:
  0.212 -0.011 -0.004  0.087 -0.002
 -0.011  0.428 -0.003  0.024  0.012
 -0.004 -0.003  0.172  0.007  0.017
  0.087  0.024  0.007  0.363  0.001
 -0.002  0.012  0.017  0.001  0.179
atom   17   Tr[ns(na)] =   2.79263
    eigenvalues:
  0.149  0.187  0.201  0.422  0.437
    eigenvectors:
  0.006  0.002  0.000  0.000  0.991
  0.000  0.873  0.125  0.000  0.002
  0.000  0.124  0.875  0.000  0.000
  0.993  0.001  0.000  0.000  0.006
  0.000  0.000  0.000  1.000  0.000
    occupations:
  0.434  0.011  0.004 -0.023 -0.000
  0.011  0.190 -0.004 -0.000 -0.002
  0.004 -0.004  0.200  0.000 -0.000
 -0.023 -0.000  0.000  0.151 -0.000
 -0.000 -0.002 -0.000 -0.000  0.422
atom   22   Tr[ns(na)] =   2.78348
    eigenvalues:
  0.154  0.198  0.215  0.385  0.440
    eigenvectors:
  0.000  0.000  0.913  0.087  0.000
  0.000  0.000  0.000  0.000  1.000
  0.999  0.001  0.000  0.000  0.000
  0.000  0.000  0.087  0.913  0.000
  0.001  0.999  0.000  0.000  0.000
    occupations:
  0.230 -0.000 -0.000  0.048  0.000
 -0.000  0.440  0.000  0.000 -0.000
 -0.000  0.000  0.154 -0.000 -0.002
  0.048  0.000 -0.000  0.370 -0.000
  0.000 -0.000 -0.002 -0.000  0.198
atom   23   Tr[ns(na)] =   2.74553
    eigenvalues:
  0.133  0.207  0.243  0.381  0.410
    eigenvectors:
  0.012  0.026  0.000  0.962  0.000
  0.001  0.972  0.000  0.027  0.000
  0.000  0.000  1.000  0.000  0.000
  0.987  0.002  0.000  0.010  0.000
  0.000  0.000  0.000  0.000  1.000
    occupations:
  0.373  0.029  0.000 -0.025 -0.000
  0.029  0.211 -0.000 -0.001 -0.000
  0.000 -0.000  0.243  0.000 -0.000
 -0.025 -0.001  0.000  0.136 -0.000
 -0.000 -0.000 -0.000 -0.000  0.410
N of occupied +U levels =  22.0329964
 --- exit write_ns ---

[...]

          k = 0.2500-0.4516 0.0000 ( 29882 PWs)   bands (ev):

[...]

          k =-0.2500 0.2258 0.0000 ( 29912 PWs)   bands (ev):

   -60.9198 -60.8937 -60.6966 -60.2354 -59.9576 -59.9295 -59.5137 -59.4847
   -37.3360 -37.1331 -37.1004 -37.0620 -37.0399 -37.0204 -37.0060 -36.8912
   -36.8368 -36.5000 -36.4632 -36.4414 -36.4083 -36.2551 -36.1846 -36.1578
   -36.0358 -36.0118 -35.8633 -35.7979 -35.7721 -35.7314 -35.6636 -35.5528
   -21.4992 -21.2601 -20.5277 -20.3636 -20.1925 -19.8219 -19.6585 -19.6121
   -19.5376 -19.3961 -19.3463 -19.2844 -19.1954 -19.1688 -19.1243 -18.7069
   -18.4619 -18.1004 -18.0713  -9.2154  -8.9580  -8.2002  -7.7972  -7.6668
    -7.4892  -7.2281  -7.1938  -7.0624  -6.8899  -6.8361  -6.7491  -6.7054
    -6.6496  -6.5132  -6.4863  -6.3964  -6.3254  -6.1922  -6.1138  -5.9756
    -5.9259  -5.7463  -5.6376  -5.4031  -5.3053  -5.2711  -5.1828  -5.0958
    -5.0411  -4.9868  -4.9137  -4.8848  -4.8107  -4.7202  -4.6812  -4.6191
    -4.5680  -4.4682  -4.3286  -4.2757  -4.2190  -4.1597  -4.0014  -3.8543
    -3.7493  -3.6417  -3.5032  -3.4627  -3.4319  -3.3036  -3.1959  -3.1416
    -2.9978  -2.9494  -2.8583  -2.7156  -0.2961  -0.1614  -0.0986   0.0231
     0.1797   0.3422   0.3777   0.4847   0.5264   0.6264   0.7439   0.8400
     0.9662   1.0252   1.0669   1.1376   1.1564   1.2286   1.3672   1.4768
     1.6022   1.6695   1.7011   1.7338   1.8376   1.8835   2.0505   2.1009
     2.1732   2.3320   2.4251   2.8355   2.8957   3.1163   3.2852   3.3673
     3.5087   3.5857   3.6170   3.7492   4.0101   4.1329   4.1691   4.6075
     5.0377   5.2515   5.2907   5.5999   5.8409   5.9137   6.1296   6.2196
     6.2915   6.4990   6.5670   6.8856   6.9762   7.2899   7.3338   7.4772
     7.6804   7.7924   7.8992   7.9632   8.0255   8.1037   8.1947   8.4104
     8.4811   8.5890   8.7722   8.8153   8.9326   9.0015   9.2567   9.3473
     9.4185   9.4714   9.5617   9.6258   9.7302   9.8727  10.0072  10.0774
    10.1207  10.2502  10.3844  10.4460  10.5402  10.6371  10.7614  10.8043
    10.8875  10.9663  11.0258  11.1495  11.2301  11.2588  11.3910  11.4619
    11.4898  11.5422  11.5975  11.7162  11.8012  11.8689  11.9414  11.9759
    12.0830  12.1434  12.1921  12.3182  12.3799  12.4357  12.4773  12.5740
    12.6470  12.7646  12.8423  12.8768  12.9283  12.9920  13.0319  13.0904
    13.3039  13.3603  13.4295  13.5500  13.5913  13.6362  13.7628  13.8289
    13.8461  13.9250  14.0294  14.0860  14.1810  14.2293  14.3356  14.3955
    14.4727  14.5611  14.5904  14.6129  14.6857  14.7741  14.8764  14.9639
    14.9795  15.1485  15.2372  15.2486  15.3417  15.3913  15.4471  15.5143
    15.5509  15.6779  15.7698  15.8066  15.8362  15.9059  15.9648  16.0559
    16.1552  16.2354  16.3147  16.3376  16.4206  16.5305  16.6607  16.6819
    16.7507  16.7784  16.8133  16.8632  16.8936  17.0106  17.0765  17.1010
    17.2012  17.2580  17.3575  17.3853  17.4669  17.5353  17.5812  17.6081
    17.7414  17.8090  17.9075  17.9373  18.0557  18.1124  18.2120  18.2771
    18.3839  18.4663  18.4913  18.5493  18.6296  18.7125

     the Fermi energy is    -2.7317 ev

!    total energy              =   -1566.05944121 Ry
     Harris-Foulkes estimate   =   -1566.05944122 Ry
     estimated scf accuracy    <          5.8E-09 Ry

     The total energy is the sum of the following terms:

     one-electron contribution =  -18527.75664084 Ry
     hartree contribution      =    9281.16087194 Ry
     xc contribution           =    -277.41441450 Ry
     ewald contribution        =    7955.76045120 Ry
     Hubbard energy            =       2.18951122 Ry
     smearing contrib. (-TS)   =       0.00077977 Ry

     convergence has been achieved in  11 iterations

     Forces acting on atoms (Ry/au):

     negative rho (up, down):  0.106E+00 0.000E+00
     atom    1 type  1   force =    -0.00178955   -0.01204673    0.00013450
     atom    2 type  1   force =    -0.00002312    0.01570287    0.00009840
     atom    3 type  2   force =     0.06016656   -0.00830781    0.00042142
     atom    4 type  2   force =    -0.00108135    0.00665896   -0.00031367
     atom    5 type  1   force =    -0.00314938   -0.07231571    0.00021253
     atom    6 type  1   force =    -0.00502514    0.07240057   -0.00029811
     atom    7 type  1   force =     0.00151140    0.00056918   -0.00010857
     atom    8 type  1   force =     0.00195893   -0.00149622    0.00081967
     atom    9 type  2   force =    -0.00050266   -0.00004853   -0.00055073
     atom   10 type  2   force =    -0.00468668    0.00006463   -0.00060958
     atom   11 type  1   force =    -0.01651447   -0.02408388   -0.00023282
     atom   12 type  1   force =    -0.01670486    0.02400862   -0.00019868
     atom   13 type  1   force =     0.00080258    0.00009866   -0.00036555
     atom   14 type  1   force =    -0.00327587   -0.01196595   -0.00019066
     atom   15 type  1   force =     0.00019273    0.01396497    0.00011637
     atom   16 type  2   force =    -0.06010017   -0.00872291    0.00037681
     atom   17 type  2   force =    -0.00067435    0.00618300   -0.00015633
     atom   18 type  1   force =     0.00663697   -0.07189365    0.00026534
     atom   19 type  1   force =     0.00582550    0.07269056   -0.00031811
     atom   20 type  1   force =    -0.00082482    0.00015405   -0.00002560
     atom   21 type  1   force =     0.00056787   -0.00130872    0.00095739
     atom   22 type  2   force =     0.00019362    0.00008403   -0.00037884
     atom   23 type  2   force =    -0.00016473    0.00000170    0.00032474
     atom   24 type  1   force =     0.01856858   -0.02181789    0.00033001
     atom   25 type  1   force =     0.01815499    0.02177159    0.00032026
     atom   26 type  1   force =    -0.00045996    0.00003240   -0.00019756
     atom   27 type  3   force =    -0.00004095   -0.00008779   -0.00012884
     atom   28 type  3   force =    -0.00001953   -0.00013901   -0.00018860
     atom   29 type  3   force =    -0.00007280   -0.00004529   -0.00002680
     atom   30 type  3   force =     0.00008976   -0.00005136   -0.00009295
     atom   31 type  1   force =    -0.00007588   -0.00000002    0.00002104
     atom   32 type  3   force =     0.00051679   -0.00005433   -0.00001646

     Total force =     0.002053     Total SCF correction =     0.000219
     SCF correction compared to forces is large: reduce conv_thr to get better values

     bfgs converged in  19 scf cycles and  18 bfgs steps
     (criteria: energy < 0.10E-03, force < 0.10E-02)

     End of BFGS Geometry Optimization

     Final energy   =   -1566.0594412125 Ry
Begin final coordinates

ATOMIC_POSITIONS (crystal)
O0       0.000000000   0.000000000   0.376234956    0   0   1
O0       0.000000000   0.500000000   0.395712614    0   0   1
Ti1      0.250000000   0.500000000   0.448284184    0   0   1
Ti1      0.000000000   0.000000000   0.451271456    0   0   1
O0       0.250000000   0.810000000   0.447942523    0   0   1
O0       0.250000000   0.190000000   0.448941508    0   0   1
O0       0.000000000   0.500000000   0.496263534    0   0   1
O0       0.000000000   0.000000000   0.525510033    0   0   1
Ti1      0.250000000   0.000000000   0.580987745    0   0   1
Ti1      0.000000000   0.500000000   0.567387106    0   0   1
O0       0.250000000   0.690000000   0.580408012    0   0   1
O0       0.250000000   0.310000000   0.580415306    0   0   1
O0       0.000000000   0.000000000   0.623074239    0   0   1
O0       0.500000000   0.000000000   0.376724867    0   0   1
O0       0.500000000   0.500000000   0.395137185    0   0   1
Ti1      0.750000000   0.500000000   0.448370588    0   0   1
Ti1      0.500000000   0.000000000   0.452273671    0   0   1
O0       0.750000000   0.810000000   0.447886685    0   0   1
O0       0.750000000   0.190000000   0.448981015    0   0   1
O0       0.500000000   0.500000000   0.491867052    0   0   1
O0       0.500000000   0.000000000   0.525596096    0   0   1
Ti1      0.750000000   0.000000000   0.581017954    0   0   1
Ti1      0.500000000   0.500000000   0.594994659    0   0   1
O0       0.750000000   0.690000000   0.579573135    0   0   1
O0       0.750000000   0.310000000   0.579513919    0   0   1
O0       0.500000000   0.000000000   0.622989693    0   0   1
H2      -0.000471679   0.626106650   0.375367887
H2       0.499720250   0.626329994   0.374894724
H2       0.150292298   0.035991192   0.362935487
H2       0.649459186   0.037173137   0.363222897
O0       0.509569497   0.500021138   0.663319055
H2       0.376818845   0.499170550   0.685150218
End final coordinates

     General routines

     Parallel routines
     Hubbard U routines

   This run was terminated on:  15:22:17  30Apr2014

   JOB DONE.