     Program PWSCF v.5.0.2 (svn rev. 9656) starts on 30Apr2014 at  4:58:44

     Current dimensions of program PWSCF are:
     Max number of different atomic species (ntypx) = 10
     Max number of k-points (npk) =  40000
     Max angular momentum in pseudopotentials (lmaxx) =  3
     Reading input from pwscf.in
Warning: card &CELL ignored
Warning: card / ignored

     Subspace diagonalization in iterative solution of the eigenvalue problem:
     a serial algorithm will be used

     bravais-lattice index     =            0
     lattice parameter (alat)  =      11.7541  a.u.
     unit-cell volume          =    7139.8207 (a.u.)^3
     number of atoms/cell      =           31
     number of atomic types    =            3
     number of electrons       =       238.00
     number of Kohn-Sham states=          357
     kinetic-energy cutoff     =      40.0000  Ry
     charge density cutoff     =     500.0000  Ry
     convergence threshold     =      1.0E-06
     mixing beta               =       0.7000
     number of iterations used =            8  plain     mixing
     Exchange-correlation      = SLA  PW   PBE  PBE ( 1 4 3 4 0)
     EXX-fraction              =        0.00
     nstep                     =           50

     celldm(1)=  11.754097  celldm(2)=   0.000000  celldm(3)=   0.000000
     celldm(4)=   0.000000  celldm(5)=   0.000000  celldm(6)=   0.000000

     crystal axes: (cart. coord. in units of alat)
               a(1) = (   1.000000   0.000000   0.000000 )
               a(2) = (   0.000000   1.034513   0.000000 )
               a(3) = (   0.000000   0.000000   4.249947 )

     reciprocal axes: (cart. coord. in units 2 pi/alat)
               b(1) = (  1.000000  0.000000  0.000000 )
               b(2) = (  0.000000  0.966638  0.000000 )
               b(3) = (  0.000000  0.000000  0.235297 )

     PseudoPot. # 1 for O  read from file:
     /home/camp/zhonxu/pseudo/o_pbe_v1.01.uspp.F.UPF
     MD5 check sum: 2bcb18d16ea4b960afae9ec6d52f22d2
     Pseudo is Ultrasoft + core correction, Zval =  6.0
     Generated by new atomic code, or converted to UPF format
     Using radial grid of  737 points,  5 beta functions with:
                l(1) =   0
                l(2) =   0
                l(3) =   1
                l(4) =   1
                l(5) =   2
     Q(r) pseudized with  8 coefficients,  rinner =    0.900   0.900   0.900
                                                       0.900   0.900

     PseudoPot. # 2 for Rh read from file:
     /home/camp/zhonxu/pseudo/rh_pbe_v1.uspp.F.UPF
     MD5 check sum: 37b626987ad0dd8ec6bf4cc9ef289918
     Pseudo is Ultrasoft + core correction, Zval = 15.0
     Generated by new atomic code, or converted to UPF format
     Using radial grid of  969 points,  7 beta functions with:
                l(1) =   0
                l(2) =   0
                l(3) =   1
                l(4) =   1
                l(5) =   2
                l(6) =   2
                l(7) =   2
     Q(r) pseudized with  6 coefficients,  rinner =    1.050   1.050   1.050
                                                       1.050   1.050

     PseudoPot. # 3 for H  read from file:
     /home/camp/zhonxu/pseudo/h_pbe_v1.uspp.F.UPF
     MD5 check sum: 3408e3ff4ec8b0a4e358431e7e038a48
     Pseudo is Ultrasoft, Zval =  1.0
     Generated by new atomic code, or converted to UPF format
     Using radial grid of  615 points,  2 beta functions with:
                l(1) =   0
                l(2) =   0
     Q(r) pseudized with  8 coefficients,  rinner =    0.700

     atomic species   valence    mass     pseudopotential
        O0             6.00    15.99940     O ( 1.00)
        Rh1           15.00   102.90550     Rh( 1.00)
        H2             1.00     1.00794     H ( 1.00)

     Simplified LDA+U calculation (l_max = 2) with parameters (eV):
     atomic species    L          U    alpha       J0     beta
        Rh1            2     8.0000   0.0000   0.0000   0.0000

     No symmetry found

   Cartesian axes

     site n.     atom                  positions (alat units)
         1           O0  tau(   1) = (   0.0000000   0.0000000   1.6064375  )
         2           O0  tau(   2) = (   0.0000000   0.5172566   1.7091588  )
         3           Rh1 tau(   3) = (   0.2500000   0.5172566   1.9262886  )
         4           Rh1 tau(   4) = (   0.0000000   0.0000000   1.9228036  )
         5           O0  tau(   5) = (   0.2500000   0.8379556   1.9220386  )
         6           O0  tau(   6) = (   0.2500000   0.1965575   1.9215286  )
         7           O0  tau(   7) = (   0.0000000   0.5172566   2.1200437  )
         8           O0  tau(   8) = (   0.0000000   0.0000000   2.2432071  )
         9           Rh1 tau(   9) = (   0.2500000   0.0000000   2.4439746  )
        10           Rh1 tau(  10) = (   0.0000000   0.5172566   2.4253174  )
        11           O0  tau(  11) = (   0.2500000   0.7138141   2.4432947  )
        12           O0  tau(  12) = (   0.2500000   0.3206991   2.4432097  )
        13           O0  tau(  13) = (   0.0000000   0.0000000   2.6356898  )
        14           O0  tau(  14) = (   0.5000000   0.0000000   1.6064375  )
        15           O0  tau(  15) = (   0.5000000   0.5172566   1.7079263  )
        16           Rh1 tau(  16) = (   0.7500000   0.5172566   1.9262886  )
        17           Rh1 tau(  17) = (   0.5000000   0.0000000   1.9227611  )
        18           O0  tau(  18) = (   0.7500000   0.8379556   1.9219536  )
        19           O0  tau(  19) = (   0.7500000   0.1965575   1.9216136  )
        20           O0  tau(  20) = (   0.5000000   0.5172566   2.1284161  )
        21           O0  tau(  21) = (   0.5000000   0.0000000   2.2423572  )
        22           Rh1 tau(  22) = (   0.7500000   0.0000000   2.4439321  )
        23           Rh1 tau(  23) = (   0.5000000   0.5172566   2.4652244  )
        24           O0  tau(  24) = (   0.7500000   0.7138141   2.4431672  )
        25           O0  tau(  25) = (   0.7500000   0.3206991   2.4432097  )
        26           O0  tau(  26) = (   0.5000000   0.0000000   2.6354348  )
        27           H2  tau(  27) = (  -0.0000700   0.6590056   1.6354222  )
        28           H2  tau(  28) = (   0.4999300   0.6605366   1.6368247  )
        29           H2  tau(  29) = (   0.1480800   0.0354838   1.5606656  )
        30           H2  tau(  30) = (   0.6481100   0.0354321   1.5605806  )
        31           O0  tau(  31) = (   0.5000800   0.5160462   2.7479734  )

     number of k points=    10  Methfessel-Paxton smearing, width (Ry)=  0.0100
                       cart. coord. in units 2pi/alat
        k(    1) = (   0.0000000   0.0000000   0.0000000), wk =   0.1250000
        k(    2) = (   0.0000000   0.2416596   0.0000000), wk =   0.2500000
        k(    3) = (   0.0000000  -0.4833191   0.0000000), wk =   0.1250000
        k(    4) = (   0.2500000   0.0000000   0.0000000), wk =   0.2500000
        k(    5) = (   0.2500000   0.2416596   0.0000000), wk =   0.2500000
        k(    6) = (   0.2500000  -0.4833191   0.0000000), wk =   0.2500000
        k(    7) = (  -0.5000000   0.0000000   0.0000000), wk =   0.1250000
        k(    8) = (  -0.5000000   0.2416596   0.0000000), wk =   0.2500000
        k(    9) = (  -0.5000000  -0.4833191   0.0000000), wk =   0.1250000
        k(   10) = (  -0.2500000   0.2416596   0.0000000), wk =   0.2500000

     Largest allocated arrays     est. size (Mb)     dimensions
     Largest temporary arrays     est. size (Mb)     dimensions

     Check: negative/imaginary core charge=   -0.000003    0.000000

     Initial potential from superposition of free atoms
     Check: negative starting charge=   -0.645358

     starting charge  233.99915, renormalised to  238.00000

     negative rho (up, down):  0.656E+00 0.000E+00
     Number of +U iterations with fixed ns =  0
     Starting occupations:
 --- enter write_ns ---
 LDA+U parameters:
U( 2)     =  8.00000000
alpha( 2) =  0.00000000
atom    3   Tr[ns(na)] =   7.00000
    eigenvalues:
  0.700  0.700  0.700  0.700  0.700
    eigenvectors:
  1.000  0.000  0.000  0.000  0.000
  0.000  1.000  0.000  0.000  0.000
  0.000  0.000  1.000  0.000  0.000
  0.000  0.000  0.000  1.000  0.000
  0.000  0.000  0.000  0.000  1.000
    occupations:
  0.700  0.000  0.000  0.000  0.000
  0.000  0.700  0.000  0.000  0.000
  0.000  0.000  0.700  0.000  0.000
  0.000  0.000  0.000  0.700  0.000
  0.000  0.000  0.000  0.000  0.700
atom    4   Tr[ns(na)] =   7.00000
    eigenvalues:
  0.700  0.700  0.700  0.700  0.700
    eigenvectors:
  1.000  0.000  0.000  0.000  0.000
  0.000  1.000  0.000  0.000  0.000
  0.000  0.000  1.000  0.000  0.000
  0.000  0.000  0.000  1.000  0.000
  0.000  0.000  0.000  0.000  1.000
    occupations:
  0.700  0.000  0.000  0.000  0.000
  0.000  0.700  0.000  0.000  0.000
  0.000  0.000  0.700  0.000  0.000
  0.000  0.000  0.000  0.700  0.000
  0.000  0.000  0.000  0.000  0.700
atom    9   Tr[ns(na)] =   7.00000
    eigenvalues:
  0.700  0.700  0.700  0.700  0.700
    eigenvectors:
  1.000  0.000  0.000  0.000  0.000
  0.000  1.000  0.000  0.000  0.000
  0.000  0.000  1.000  0.000  0.000
  0.000  0.000  0.000  1.000  0.000
  0.000  0.000  0.000  0.000  1.000
    occupations:
  0.700  0.000  0.000  0.000  0.000
  0.000  0.700  0.000  0.000  0.000
  0.000  0.000  0.700  0.000  0.000
  0.000  0.000  0.000  0.700  0.000
  0.000  0.000  0.000  0.000  0.700
atom   10   Tr[ns(na)] =   7.00000
    eigenvalues:
  0.700  0.700  0.700  0.700  0.700
    eigenvectors:
  1.000  0.000  0.000  0.000  0.000
  0.000  1.000  0.000  0.000  0.000
  0.000  0.000  1.000  0.000  0.000
  0.000  0.000  0.000  1.000  0.000
  0.000  0.000  0.000  0.000  1.000
    occupations:
  0.700  0.000  0.000  0.000  0.000
  0.000  0.700  0.000  0.000  0.000
  0.000  0.000  0.700  0.000  0.000
  0.000  0.000  0.000  0.700  0.000
  0.000  0.000  0.000  0.000  0.700
atom   16   Tr[ns(na)] =   7.00000
    eigenvalues:
  0.700  0.700  0.700  0.700  0.700
    eigenvectors:
  1.000  0.000  0.000  0.000  0.000
  0.000  1.000  0.000  0.000  0.000
  0.000  0.000  1.000  0.000  0.000
  0.000  0.000  0.000  1.000  0.000
  0.000  0.000  0.000  0.000  1.000
    occupations:
  0.700  0.000  0.000  0.000  0.000
  0.000  0.700  0.000  0.000  0.000
  0.000  0.000  0.700  0.000  0.000
  0.000  0.000  0.000  0.700  0.000
  0.000  0.000  0.000  0.000  0.700
atom   17   Tr[ns(na)] =   7.00000
    eigenvalues:
  0.700  0.700  0.700  0.700  0.700
    eigenvectors:
  1.000  0.000  0.000  0.000  0.000
  0.000  1.000  0.000  0.000  0.000
  0.000  0.000  1.000  0.000  0.000
  0.000  0.000  0.000  1.000  0.000
  0.000  0.000  0.000  0.000  1.000
    occupations:
  0.700  0.000  0.000  0.000  0.000
  0.000  0.700  0.000  0.000  0.000
  0.000  0.000  0.700  0.000  0.000
  0.000  0.000  0.000  0.700  0.000
  0.000  0.000  0.000  0.000  0.700
atom   22   Tr[ns(na)] =   7.00000
    eigenvalues:
  0.700  0.700  0.700  0.700  0.700
    eigenvectors:
  1.000  0.000  0.000  0.000  0.000
  0.000  1.000  0.000  0.000  0.000
  0.000  0.000  1.000  0.000  0.000
  0.000  0.000  0.000  1.000  0.000
  0.000  0.000  0.000  0.000  1.000
    occupations:
  0.700  0.000  0.000  0.000  0.000
[...]
    eigenvectors:
  0.011  0.142  0.000  0.000  0.847
  0.934  0.066  0.000  0.000  0.000
  0.000  0.000  0.925  0.075  0.000
  0.056  0.791  0.000  0.000  0.153
  0.000  0.000  0.075  0.925  0.000
    occupations:
  0.930  0.002 -0.000 -0.124 -0.000
  0.002  0.633  0.001  0.001 -0.000
 -0.000  0.001  0.899  0.000 -0.007
 -0.124  0.001  0.000  0.690  0.001
 -0.000 -0.000 -0.007  0.001  0.922
atom   10   Tr[ns(na)] =   8.10060
    eigenvalues:
  0.576  0.590  0.949  0.953  0.982
    eigenvectors:
  0.991  0.000  0.000  0.000  0.009
  0.000  0.000  0.001  0.999  0.000
  0.000  0.000  0.999  0.001  0.000
  0.009  0.000  0.000  0.000  0.991
  0.000  1.000  0.000  0.000  0.000
    occupations:
  0.579  0.000  0.000  0.039 -0.000
  0.000  0.953 -0.000 -0.000 -0.000
  0.000 -0.000  0.949  0.000  0.000
  0.039 -0.000  0.000  0.978 -0.000
 -0.000 -0.000  0.000 -0.000  0.590
atom   16   Tr[ns(na)] =   8.11676
    eigenvalues:
  0.576  0.597  0.932  0.971  0.983
    eigenvectors:
  0.006  0.196  0.002  0.000  0.795
  0.973  0.027  0.000  0.000  0.000
  0.000  0.000  0.986  0.011  0.002
  0.021  0.777  0.000  0.000  0.202
  0.000  0.000  0.011  0.988  0.001
    occupations:
  0.904  0.003  0.001 -0.155  0.001
  0.003  0.577  0.000  0.002 -0.006
  0.001  0.000  0.932 -0.004 -0.004
 -0.155  0.002 -0.004  0.675  0.000
  0.001 -0.006 -0.004  0.000  0.970
atom   17   Tr[ns(na)] =   8.13923
    eigenvalues:
  0.595  0.650  0.901  0.941  0.982
    eigenvectors:
  0.001  0.991  0.000  0.000  0.008
  0.000  0.000  0.092  0.908  0.000
  0.000  0.000  0.908  0.092  0.000
  0.000  0.008  0.000  0.000  0.992
  0.999  0.001  0.000  0.000  0.000
    occupations:
  0.653 -0.004 -0.001  0.030  0.002
 -0.004  0.937  0.011  0.001 -0.001
 -0.001  0.011  0.905 -0.000  0.001
  0.030  0.001 -0.000  0.980  0.000
  0.002 -0.001  0.001  0.000  0.595
atom   22   Tr[ns(na)] =   8.14637
    eigenvalues:
  0.633  0.637  0.897  0.924  0.983
    eigenvectors:
  0.001  0.153  0.000  0.000  0.847
  0.997  0.003  0.000  0.000  0.000
  0.000  0.000  0.931  0.069  0.000
  0.002  0.844  0.000  0.000  0.153
  0.000  0.000  0.069  0.931  0.000
    occupations:
  0.930 -0.001  0.000 -0.124 -0.000
 -0.001  0.633  0.001  0.000 -0.000
  0.000  0.001  0.899 -0.000  0.007
 -0.124  0.000 -0.000  0.690  0.001
 -0.000 -0.000  0.007  0.001  0.922
atom   23   Tr[ns(na)] =   8.14154
    eigenvalues:
  0.642  0.708  0.844  0.893  0.984
    eigenvectors:
  0.000  0.992  0.000  0.000  0.007
  0.000  0.000  0.000  1.000  0.000
  0.000  0.000  1.000  0.000  0.000
  0.000  0.007  0.000  0.000  0.993
  1.000  0.000  0.000  0.000  0.000
    occupations:
  0.710  0.000 -0.001  0.024 -0.000
  0.000  0.893 -0.001 -0.000  0.000
 -0.001 -0.001  0.844  0.001  0.000
  0.024 -0.000  0.001  0.982  0.000
 -0.000  0.000  0.000  0.000  0.642
N of occupied +U levels =  65.0481407
 --- exit write_ns ---

     Threshold (ethr) on eigenvalues was too large:
     Diagonalizing with lowered threshold

     Davidson diagonalization with overlap
     ethr =  1.90E-08,  avg # of iterations =  1.7

[...]

     total energy              =   -1977.17213232 Ry
     Harris-Foulkes estimate   =   -1977.17213232 Ry
     estimated scf accuracy    <       0.00000002 Ry

     iteration # 17     ecut=    40.00 Ry     beta=0.70
     Davidson diagonalization with overlap
     ethr =  6.43E-12,  avg # of iterations =  1.0

     negative rho (up, down):  0.686E+00 0.000E+00

     End of self-consistent calculation
 --- enter write_ns ---
 LDA+U parameters:
U( 2)     =  8.00000000
alpha( 2) =  0.00000000
atom    3   Tr[ns(na)] =   8.11646
    eigenvalues:
  0.576  0.597  0.932  0.971  0.983
    eigenvectors:
  0.007  0.196  0.002  0.000  0.795
  0.970  0.030  0.000  0.000  0.000
  0.000  0.000  0.981  0.017  0.002
  0.023  0.775  0.000  0.000  0.202
  0.000  0.000  0.017  0.983  0.000
    occupations:
  0.904 -0.004  0.000 -0.155 -0.001
 -0.004  0.577 -0.001 -0.002 -0.005
  0.000 -0.001  0.932 -0.004  0.005
 -0.155 -0.002 -0.004  0.675 -0.000
 -0.001 -0.005  0.005 -0.000  0.970
atom    4   Tr[ns(na)] =   8.14003
    eigenvalues:
  0.595  0.650  0.900  0.942  0.982
    eigenvectors:
  0.001  0.991  0.000  0.000  0.008
  0.000  0.000  0.065  0.934  0.000
  0.000  0.000  0.935  0.065  0.000
  0.000  0.008  0.000  0.000  0.992
  0.999  0.001  0.000  0.000  0.000
    occupations:
  0.653 -0.004 -0.001  0.030  0.002
 -0.004  0.939  0.010  0.001 -0.001
 -0.001  0.010  0.903 -0.000  0.001
  0.030  0.001 -0.000  0.980  0.000
  0.002 -0.001  0.001  0.000  0.595
atom    9   Tr[ns(na)] =   8.14668
    eigenvalues:
  0.632  0.638  0.897  0.924  0.983
    eigenvectors:
  0.011  0.142  0.000  0.000  0.847
  0.933  0.067  0.000  0.000  0.000
  0.000  0.000  0.925  0.075  0.000
  0.056  0.791  0.000  0.000  0.153
  0.000  0.000  0.075  0.925  0.000
    occupations:
  0.930  0.002 -0.000 -0.124 -0.000
  0.002  0.633  0.001  0.001 -0.000
 -0.000  0.001  0.899  0.000 -0.007
 -0.124  0.001  0.000  0.690  0.001
 -0.000 -0.000 -0.007  0.001  0.922
atom   10   Tr[ns(na)] =   8.10078
    eigenvalues:
  0.576  0.590  0.949  0.953  0.982
    eigenvectors:
  0.991  0.000  0.000  0.000  0.009
  0.000  0.000  0.001  0.999  0.000
  0.000  0.000  0.999  0.001  0.000
  0.009  0.000  0.000  0.000  0.991
  0.000  1.000  0.000  0.000  0.000
    occupations:
  0.579  0.000  0.000  0.039 -0.000
  0.000  0.953 -0.000 -0.000 -0.000
  0.000 -0.000  0.949  0.000  0.000
  0.039 -0.000  0.000  0.978 -0.000
 -0.000 -0.000  0.000 -0.000  0.590
atom   16   Tr[ns(na)] =   8.11648
    eigenvalues:
  0.576  0.597  0.932  0.971  0.983
    eigenvectors:
  0.006  0.196  0.002  0.000  0.795
  0.972  0.027  0.000  0.000  0.000
  0.000  0.000  0.986  0.011  0.002
  0.021  0.777  0.000  0.000  0.202
  0.000  0.000  0.011  0.988  0.001
    occupations:
  0.904  0.004  0.001 -0.155  0.001
  0.004  0.577  0.000  0.002 -0.005
  0.001  0.000  0.932 -0.004 -0.004
 -0.155  0.002 -0.004  0.675  0.000
  0.001 -0.005 -0.004  0.000  0.970
atom   17   Tr[ns(na)] =   8.13916
    eigenvalues:
  0.595  0.650  0.901  0.941  0.982
    eigenvectors:
  0.001  0.991  0.000  0.000  0.008
  0.000  0.000  0.092  0.908  0.000
  0.000  0.000  0.908  0.092  0.000
  0.000  0.008  0.000  0.000  0.992
  0.999  0.001  0.000  0.000  0.000
    occupations:
  0.653 -0.004 -0.001  0.030  0.002
 -0.004  0.937  0.011  0.001 -0.001
 -0.001  0.011  0.905 -0.000  0.001
  0.030  0.001 -0.000  0.980  0.000
  0.002 -0.001  0.001  0.000  0.595
atom   22   Tr[ns(na)] =   8.14672
    eigenvalues:
  0.633  0.637  0.897  0.924  0.983
    eigenvectors:
  0.001  0.153  0.000  0.000  0.847
  0.997  0.003  0.000  0.000  0.000
  0.000  0.000  0.930  0.070  0.000
  0.002  0.844  0.000  0.000  0.153
  0.000  0.000  0.070  0.930  0.000
    occupations:
  0.930 -0.001  0.000 -0.124 -0.000
 -0.001  0.633  0.001  0.000 -0.000
  0.000  0.001  0.899 -0.000  0.007
 -0.124  0.000 -0.000  0.690  0.001
 -0.000 -0.000  0.007  0.001  0.922
atom   23   Tr[ns(na)] =   8.14196
    eigenvalues:
  0.642  0.708  0.844  0.893  0.984
    eigenvectors:
  0.000  0.992  0.000  0.000  0.007
  0.000  0.000  0.000  1.000  0.000
  0.000  0.000  1.000  0.000  0.000
  0.000  0.007  0.000  0.000  0.993
  1.000  0.000  0.000  0.000  0.000
    occupations:
  0.710  0.000 -0.001  0.024 -0.000
  0.000  0.893 -0.001 -0.000  0.000
 -0.001 -0.001  0.844  0.001  0.000
  0.024 -0.000  0.001  0.982  0.000
 -0.000  0.000  0.000  0.000  0.642
N of occupied +U levels =  65.0482723
 --- exit write_ns ---

[...]

          k = 0.2500-0.4833 0.0000 ( 30510 PWs)   bands (ev):

[...]

          k =-0.2500 0.2417 0.0000 ( 30481 PWs)   bands (ev):

   -49.6183 -49.3045 -49.2309 -48.5924 -48.5868 -48.5259 -48.4442 -48.4315
   -48.4250 -48.4162 -48.4084 -48.3875 -48.3157 -48.3040 -48.3035 -48.2749
   -48.1910 -48.1771 -48.1717 -48.1124 -48.0717 -48.0594 -48.0411 -48.0272
   -21.4682 -21.2373 -21.1805 -21.0980 -20.7973 -20.7271 -20.6863 -20.5955
   -20.5431 -20.4485 -20.3919 -20.3729 -20.2910 -20.1436 -20.1184 -20.0510
   -19.6099 -19.3919 -19.2539 -11.0544 -10.8515 -10.5437 -10.4964 -10.4009
   -10.2643 -10.2082 -10.1100  -9.8824  -9.3211  -9.2710  -9.1421  -9.0187
    -8.9130  -8.8390  -8.7454  -8.6308  -8.5824  -8.5376  -8.2678  -8.2069
    -8.0090  -7.8688  -7.8484  -7.7533  -7.6254  -7.5680  -7.5048  -7.3967
    -7.3172  -7.2328  -7.1634  -7.1187  -7.0264  -6.9737  -6.9371  -6.8737
    -6.7895  -6.5747  -6.5438  -6.3720  -6.1842  -5.7977  -5.6350  -5.5651
    -5.4691  -5.3032  -5.2221  -5.1399  -5.1198  -4.9780  -4.8678  -4.7895
    -4.7314  -4.5311  -4.4284  -4.3193  -4.2310  -4.0979  -4.0360  -3.9782
    -3.9173  -3.8526  -3.8259  -3.7072  -3.6548  -3.5885  -3.5175  -3.4093
    -3.3447  -3.0270  -2.8950  -2.8106  -2.7461  -2.5751  -2.4491  -2.3354
    -2.3200  -2.1742  -2.1071  -2.0031  -0.8826  -0.6171  -0.2850   0.0531
     0.2643   0.5701   0.7446   1.0332   1.2140   1.3619   1.4504   1.5919
     1.6588   1.7898   1.8501   2.2224   3.5046   4.4443   4.5537   5.0275
     5.3057   5.3262   5.4733   6.0537   6.3591   6.3928   6.4499   6.5088
     6.6205   6.7489   6.8917   7.1117   7.2884   7.4792   7.6188   7.7037
     7.9086   8.0105   8.0999   8.1986   8.2482   8.3186   8.4473   8.5229
     8.7548   8.8777   8.9176   9.0105   9.2204   9.3946   9.5264   9.5811
     9.6578   9.7808   9.8227   9.8822   9.9698  10.1022  10.1442  10.2669
    10.3378  10.4247  10.4396  10.6238  10.7427  10.8232  10.8488  10.9969
    11.0191  11.1370  11.2287  11.2887  11.3815  11.4776  11.5051  11.5709
    11.6007  11.7415  11.7718  11.8253  11.8824  12.0417  12.1843  12.2258
    12.2713  12.3311  12.3544  12.4732  12.5126  12.6241  12.6850  12.7375
    12.7997  12.8587  12.9919  13.0752  13.1336  13.1931  13.2400  13.2908
    13.4083  13.4603  13.5461  13.5971  13.7617  13.8283  13.8979  13.9399
    14.0042  14.1602  14.2236  14.2494  14.3098  14.3800  14.4296  14.5187
    14.6346  14.6927  14.7536  14.8255  15.0365  15.1715  15.3210  15.3335
    15.3820  15.4374  15.5123  15.5351  15.6011  15.6652  15.7243  15.7895
    15.8768  15.9193  16.0242  16.0663  16.1428  16.2242  16.2957  16.3674
    16.3909  16.4611  16.4850  16.5238  16.5881  16.6444  16.6680  16.7464
    16.8364  16.9095  16.9997  17.0640  17.1302  17.2097  17.2434  17.3347
    17.4006  17.4978  17.5240  17.5950  17.6443  17.7330  17.7936  17.8428
    17.9529  18.0115  18.0687  18.1406  18.1678  18.2880  18.3206  18.4132
    18.4490  18.5667  18.6425  18.7056  18.8388  18.8611  18.9086  18.9549
    19.0178  19.0802  19.1501  19.2235  19.2824  19.3194  19.3717  19.5035
    19.5517  19.6449  19.7199  19.7571  19.8099  19.9232  20.0307  20.0826
    20.2149  20.2905  20.3026  20.3623  20.5282  20.5733  20.6220  20.6762
    20.7272  20.8026  20.8848  20.9311  20.9529  21.0581  21.0999  21.1956
    21.3123  21.3394  21.3929  21.4153  21.4624  21.5501  21.6694  21.7522
    21.7599  21.8358  21.8640  21.9259  21.9527  22.0546  22.1154  22.1941
    22.2410  22.3319  22.4038  22.4552  22.5456

     the Fermi energy is    -2.4631 ev

!    total energy              =   -1977.17213231 Ry
     Harris-Foulkes estimate   =   -1977.17213232 Ry
     estimated scf accuracy    <          9.0E-09 Ry

     The total energy is the sum of the following terms:

     one-electron contribution =  -23314.24556184 Ry
     hartree contribution      =   11706.46065747 Ry
     xc contribution           =    -372.27463091 Ry
     ewald contribution        =    9999.94107791 Ry
     Hubbard energy            =       2.94663394 Ry
     smearing contrib. (-TS)   =      -0.00030889 Ry

     convergence has been achieved in  17 iterations

     Forces acting on atoms (Ry/au):

     negative rho (up, down):  0.686E+00 0.000E+00
     atom    1 type  1   force =    -0.00704555   -0.01144332    0.00017639
     atom    2 type  1   force =     0.00002971    0.00236497    0.00058108
     atom    3 type  2   force =     0.03318819    0.00886387   -0.00043099
     atom    4 type  2   force =     0.00831113    0.00867756    0.00016322
     atom    5 type  1   force =    -0.00363699   -0.02625620    0.00012738
     atom    6 type  1   force =     0.00431801    0.02295872    0.00022416
     atom    7 type  1   force =    -0.00033010   -0.00256659   -0.00048418
     atom    8 type  1   force =    -0.00309210   -0.00108854   -0.00041981
     atom    9 type  2   force =     0.00193610    0.00046865   -0.00027281
     atom   10 type  2   force =    -0.00004130   -0.00107535   -0.00073471
     atom   11 type  1   force =     0.00468252    0.01249093   -0.00045797
     atom   12 type  1   force =     0.00404712   -0.01333728   -0.00060521
     atom   13 type  1   force =    -0.00065040    0.00008932    0.00028971
     atom   14 type  1   force =    -0.00650541   -0.01146073    0.00024651
     atom   15 type  1   force =     0.00011079    0.00174972   -0.00019936
     atom   16 type  2   force =    -0.03339009    0.00723954   -0.00042059
     atom   17 type  2   force =     0.00805317    0.00881406   -0.00007479
     atom   18 type  1   force =    -0.00295870   -0.02583356    0.00014645
     atom   19 type  1   force =     0.00490476    0.02359390    0.00021272
     atom   20 type  1   force =    -0.00016892   -0.00510624    0.00099212
     atom   21 type  1   force =    -0.00293470   -0.00068269   -0.00037268
     atom   22 type  2   force =     0.00048734    0.00065719   -0.00026190
     atom   23 type  2   force =    -0.00010979    0.00163623    0.00051215
     atom   24 type  1   force =    -0.00525970    0.01257914   -0.00045094
     atom   25 type  1   force =    -0.00303139   -0.01337368   -0.00061250
     atom   26 type  1   force =    -0.00059507    0.00001389    0.00007706
     atom   27 type  3   force =    -0.00001445   -0.00024300    0.00079078
     atom   28 type  3   force =    -0.00000798    0.00013547    0.00054040
     atom   29 type  3   force =    -0.00008932    0.00014970    0.00012176
     atom   30 type  3   force =    -0.00019291    0.00031024    0.00007527
     atom   31 type  1   force =    -0.00001399   -0.00032591    0.00052132

     Total force =     0.002506     Total SCF correction =     0.000173

     bfgs converged in   9 scf cycles and   8 bfgs steps
     (criteria: energy < 0.10E-03, force < 0.10E-02)

     End of BFGS Geometry Optimization

     Final energy   =   -1977.1721323095 Ry
Begin final coordinates

ATOMIC_POSITIONS (crystal)
O0       0.000000000   0.000000000   0.378201846    0   0   1
O0       0.000000000   0.500000000   0.402555816    0   0   1
Rh1      0.250000000   0.500000000   0.453365049    0   0   1
Rh1      0.000000000   0.000000000   0.452389983    0   0   1
O0       0.250000000   0.810000000   0.452535475    0   0   1
O0       0.250000000   0.190000000   0.452230237    0   0   1
O0       0.000000000   0.500000000   0.499827536    0   0   1
O0       0.000000000   0.000000000   0.527510780    0   0   1
Rh1      0.250000000   0.000000000   0.574555777    0   0   1
Rh1      0.000000000   0.500000000   0.571154013    0   0   1
O0       0.250000000   0.690000000   0.574658215    0   0   1
O0       0.250000000   0.310000000   0.574581090    0   0   1
O0       0.000000000   0.000000000   0.619902171    0   0   1
O0       0.500000000   0.000000000   0.378106562    0   0   1
O0       0.500000000   0.500000000   0.402445990    0   0   1
Rh1      0.750000000   0.500000000   0.453368417    0   0   1
Rh1      0.500000000   0.000000000   0.452293959    0   0   1
O0       0.750000000   0.810000000   0.452500020    0   0   1
O0       0.750000000   0.190000000   0.452247238    0   0   1
O0       0.500000000   0.500000000   0.501997984    0   0   1
O0       0.500000000   0.000000000   0.527433496    0   0   1
Rh1      0.750000000   0.000000000   0.574553406    0   0   1
Rh1      0.500000000   0.500000000   0.578674270    0   0   1
O0       0.750000000   0.690000000   0.574621175    0   0   1
O0       0.750000000   0.310000000   0.574609672    0   0   1
O0       0.500000000   0.000000000   0.620052576    0   0   1
H2      -0.000246054   0.636191150   0.385033901
H2       0.499735076   0.637230729   0.385406412
H2       0.148002967   0.034683689   0.367393761
H2       0.648018196   0.034960900   0.367330138
O0       0.500062312   0.498131521   0.645283034
End final coordinates

     General routines

     Parallel routines
     Hubbard U routines

   This run was terminated on:  17:57: 6  30Apr2014

   JOB DONE.
Running PBS batch system epilogue script
Job id: 340551.audhumbla.fysik.dtu.dk
Username: zhonxu
Groupname: campgst
Jobname: RhO2/Eads-2-layers/O-U-8.0
Sessionid: 29629
Queuename: verylong
Accounting:
This job has allocated the following 16 nodes:
a027 a027 a027 a027 a027 a027 a027 a027 a017 a017 a017 a017 a017 a017 a017 a017
Finished epilogue job 340551.audhumbla.fysik.dtu.dk for zhonxu