     Program PWSCF v.5.0.2 (svn rev. 9656) starts on 24Jan2014 at 16: 9:59

     Current dimensions of program PWSCF are:
     Max number of different atomic species (ntypx) = 10
     Max number of k-points (npk) =  40000
     Max angular momentum in pseudopotentials (lmaxx) =  3
     Reading input from PtO2-v-0.90.in

     Subspace diagonalization in iterative solution of the eigenvalue problem:
     a serial algorithm will be used

     bravais-lattice index     =            0
     lattice parameter (alat)  =       8.6241  a.u.
     unit-cell volume          =     413.3564 (a.u.)^3
     number of atoms/cell      =            6
     number of atomic types    =            2
     number of electrons       =        56.00
     number of Kohn-Sham states=           84
     kinetic-energy cutoff     =      40.0000  Ry
     charge density cutoff     =     500.0000  Ry
     convergence threshold     =      1.0E-06
     mixing beta               =       0.3000
     number of iterations used =            8  plain     mixing
     Exchange-correlation      = SLA  PW   PBE  PBE ( 1 4 3 4 0)
     EXX-fraction              =        0.00
     nstep                     =           50

     celldm(1)=   8.624086  celldm(2)=   0.000000  celldm(3)=   0.000000
     celldm(4)=   0.000000  celldm(5)=   0.000000  celldm(6)=   0.000000

     crystal axes: (cart. coord. in units of alat)
               a(1) = (   1.000000   0.000000   0.000000 )
               a(2) = (   0.000000   1.000000   0.000000 )
               a(3) = (   0.000000   0.000000   0.644444 )

     reciprocal axes: (cart. coord. in units 2 pi/alat)
               b(1) = (  1.000000  0.000000  0.000000 )
               b(2) = (  0.000000  1.000000  0.000000 )
               b(3) = (  0.000000  0.000000  1.551724 )

     PseudoPot. # 1 for Pt read from file:
     /home/camp/zhonxu/pseudo/pt_pbe_v1.uspp.F.UPF
     MD5 check sum: 4c71d6ad5ef119f1eb26a4d0b7884226
     Pseudo is Ultrasoft + core correction, Zval = 16.0
     Generated by new atomic code, or converted to UPF format
     Using radial grid of  985 points,  6 beta functions with:
                l(1) =   0
                l(2) =   0
                l(3) =   1
                l(4) =   1
                l(5) =   2
                l(6) =   2
     Q(r) pseudized with  8 coefficients,  rinner =    1.300   1.300   1.300
                                                       1.300   1.300

     PseudoPot. # 2 for O  read from file:
     /home/camp/zhonxu/pseudo/o_pbe_v1.01.uspp.F.UPF
     MD5 check sum: 2bcb18d16ea4b960afae9ec6d52f22d2
     Pseudo is Ultrasoft + core correction, Zval =  6.0
     Generated by new atomic code, or converted to UPF format
     Using radial grid of  737 points,  5 beta functions with:
                l(1) =   0
                l(2) =   0
                l(3) =   1
                l(4) =   1
                l(5) =   2
     Q(r) pseudized with  8 coefficients,  rinner =    0.900   0.900   0.900
                                                       0.900   0.900

     atomic species   valence    mass     pseudopotential
        Pt0           16.00   195.08000     Pt( 1.00)
        O1             6.00    15.99940     O ( 1.00)

     Starting magnetic structure
     atomic species   magnetization
        Pt0          0.000
        O1           0.000

     16 Sym. Ops., with inversion, found ( 8 have fractional translation)

   Cartesian axes

     site n.     atom                  positions (alat units)
         1           Pt0 tau(   1) = (   0.0000000   0.0000000   0.0000000  )
         2           Pt0 tau(   2) = (   0.5000000   0.5000000   0.3222222  )
         3           O1  tau(   3) = (   0.3050000   0.3050000   0.0000000  )
         4           O1  tau(   4) = (  -0.3050000  -0.3050000   0.0000000  )
         5           O1  tau(   5) = (   0.8050000   0.1950000   0.3222222  )
         6           O1  tau(   6) = (   0.1950000   0.8050000   0.3222222  )

     number of k points=    36  Methfessel-Paxton smearing, width (Ry)=  0.0100
                       cart. coord. in units 2pi/alat
        k(    1) = (   0.0000000   0.0000000   0.0000000), wk =   0.0080000
        k(    2) = (   0.0000000   0.0000000   0.3103448), wk =   0.0160000
        k(    3) = (   0.0000000   0.0000000   0.6206897), wk =   0.0160000
        k(    4) = (   0.0000000   0.2000000   0.0000000), wk =   0.0320000
        k(    5) = (   0.0000000   0.2000000   0.3103448), wk =   0.0640000
        k(    6) = (   0.0000000   0.2000000   0.6206897), wk =   0.0640000
        k(    7) = (   0.0000000   0.4000000   0.0000000), wk =   0.0320000
        k(    8) = (   0.0000000   0.4000000   0.3103448), wk =   0.0640000
        k(    9) = (   0.0000000   0.4000000   0.6206897), wk =   0.0640000
        k(   10) = (   0.2000000   0.2000000   0.0000000), wk =   0.0320000
        k(   11) = (   0.2000000   0.2000000   0.3103448), wk =   0.0640000
        k(   12) = (   0.2000000   0.2000000   0.6206897), wk =   0.0640000
        k(   13) = (   0.2000000   0.4000000   0.0000000), wk =   0.0640000
        k(   14) = (   0.2000000   0.4000000   0.3103448), wk =   0.1280000
        k(   15) = (   0.2000000   0.4000000   0.6206897), wk =   0.1280000
        k(   16) = (   0.4000000   0.4000000   0.0000000), wk =   0.0320000
        k(   17) = (   0.4000000   0.4000000   0.3103448), wk =   0.0640000
        k(   18) = (   0.4000000   0.4000000   0.6206897), wk =   0.0640000
        k(   19) = (   0.0000000   0.0000000   0.0000000), wk =   0.0080000
        k(   20) = (   0.0000000   0.0000000   0.3103448), wk =   0.0160000
        k(   21) = (   0.0000000   0.0000000   0.6206897), wk =   0.0160000
        k(   22) = (   0.0000000   0.2000000   0.0000000), wk =   0.0320000
        k(   23) = (   0.0000000   0.2000000   0.3103448), wk =   0.0640000
        k(   24) = (   0.0000000   0.2000000   0.6206897), wk =   0.0640000
        k(   25) = (   0.0000000   0.4000000   0.0000000), wk =   0.0320000
        k(   26) = (   0.0000000   0.4000000   0.3103448), wk =   0.0640000
        k(   27) = (   0.0000000   0.4000000   0.6206897), wk =   0.0640000
        k(   28) = (   0.2000000   0.2000000   0.0000000), wk =   0.0320000
        k(   29) = (   0.2000000   0.2000000   0.3103448), wk =   0.0640000
        k(   30) = (   0.2000000   0.2000000   0.6206897), wk =   0.0640000
        k(   31) = (   0.2000000   0.4000000   0.0000000), wk =   0.0640000
        k(   32) = (   0.2000000   0.4000000   0.3103448), wk =   0.1280000
        k(   33) = (   0.2000000   0.4000000   0.6206897), wk =   0.1280000
        k(   34) = (   0.4000000   0.4000000   0.0000000), wk =   0.0320000
        k(   35) = (   0.4000000   0.4000000   0.3103448), wk =   0.0640000
        k(   36) = (   0.4000000   0.4000000   0.6206897), wk =   0.0640000

     Largest allocated arrays     est. size (Mb)     dimensions
     Largest temporary arrays     est. size (Mb)     dimensions

     Check: negative/imaginary core charge=   -0.000005    0.000000

     Initial potential from superposition of free atoms
     Check: negative starting charge=(component1):   -0.190178
     Check: negative starting charge=(component2):   -0.190178

     starting charge   54.99997, renormalised to   56.00000

     negative rho (up, down):  0.194E+00 0.194E+00
     Starting wfc are   40 randomized atomic wfcs

     Self-consistent Calculation

     iteration #  1     ecut=    40.00 Ry     beta=0.30
     Davidson diagonalization with overlap
     ethr =  1.00E-02,  avg # of iterations =  6.1

     negative rho (up, down):  0.191E+00 0.191E+00

     total energy              =    -544.08469670 Ry
     Harris-Foulkes estimate   =    -546.19668330 Ry
     estimated scf accuracy    <       4.60560797 Ry

     total magnetization       =    -0.00 Bohr mag/cell
     absolute magnetization    =     0.00 Bohr mag/cell

[...]

     End of self-consistent calculation

 ------ SPIN UP ------------

          k = 0.0000 0.0000 0.0000 (  1787 PWs)   bands (ev):

   -39.9482 -39.9379 -39.8291 -39.8291 -39.7464 -39.7464  -6.5709  -5.2806
    -4.1425  -4.1425   4.3209   4.4710   6.2140   6.2140   6.5160   9.6100
     9.6100  10.0738  10.5863  11.0329  11.0979  11.2762  11.2762  11.4436
    12.0799  12.0799  13.2317  14.4209  15.4683  18.4217  18.4217  19.1857
    19.9993  23.8856  23.8856  26.8916  27.4873  28.1509  30.3427  31.4584
    31.4584  32.0789  32.5460  32.5712  32.5765  35.4203  35.9260  35.9260
    37.3538  37.3538  38.9474  41.2802  41.5151  41.5919  41.5919  43.5179
    43.7818  43.8150  44.5044  46.1843  46.1843  46.1975  46.5900  46.5900
    47.4650  47.4650  47.4828  49.7723  51.5469  53.1184  53.3916  53.3916
    54.1437  54.3769  54.3769  55.6612  55.6612  55.7110  55.7439  56.2660
    56.7684  57.2979  57.4056  62.0378

[...]

 ------ SPIN DOWN ----------

[...]

     the Fermi energy is    15.1769 ev

!    total energy              =    -544.86671931 Ry
     Harris-Foulkes estimate   =    -544.86670921 Ry
     estimated scf accuracy    <       0.00000016 Ry

     The total energy is the sum of the following terms:

     one-electron contribution =    -122.29152289 Ry
     hartree contribution      =     102.01838606 Ry
     xc contribution           =    -137.81007169 Ry
     ewald contribution        =    -386.78365513 Ry
     smearing contrib. (-TS)   =       0.00014435 Ry

[...]

     convergence has been achieved in   8 iterations

     Forces acting on atoms (Ry/au):

     negative rho (up, down):  0.196E+00 0.196E+00
     atom    1 type  1   force =     0.00000000    0.00000000    0.00000000
     atom    2 type  1   force =     0.00000000    0.00000000    0.00000000
     atom    3 type  2   force =    -0.02747227   -0.02747227    0.00000000
     atom    4 type  2   force =     0.02747227    0.02747227    0.00000000
     atom    5 type  2   force =    -0.02747227    0.02747227    0.00000000
     atom    6 type  2   force =     0.02747227   -0.02747227   -0.00000000

     Total force =     0.077703     Total SCF correction =     0.000809

     entering subroutine stress ...

     negative rho (up, down):  0.196E+00 0.196E+00
          total   stress  (Ry/bohr**3)                   (kbar)     P=  317.49
   0.00135668   0.00000000   0.00000000        199.57      0.00      0.00
   0.00000000   0.00135668   0.00000000          0.00    199.57      0.00
   0.00000000   0.00000000   0.00376135          0.00      0.00    553.31

     Volume is kept fixed: isostatic pressure set to zero

     BFGS Geometry Optimization

     number of scf cycles    =   1
     number of bfgs steps    =   0

     enthalpy new            =    -544.8667193101 Ry

     new trust radius        =       0.1629659165 bohr
     new conv_thr            =       0.0000010000 Ry

     new unit-cell volume =    413.35641 a.u.^3 (    61.25310 Ang^3 )

CELL_PARAMETERS (alat=  8.62408573)
   0.980349636   0.000000000   0.000000000
   0.000000000   0.980349636   0.000000000
   0.000000000   0.000000000   0.670538163

ATOMIC_POSITIONS (crystal)
Pt0      0.000000000   0.000000000   0.000000000    0   0   0
Pt0      0.500000000   0.500000000   0.500000000    0   0   0
[...]
        k(   25) = (   0.0000000   0.4140643   0.0000000), wk =   0.0320000
        k(   26) = (   0.0000000   0.4140643   0.2896203), wk =   0.0640000
        k(   27) = (   0.0000000   0.4140643   0.5792406), wk =   0.0640000
        k(   28) = (   0.2070321   0.2070321   0.0000000), wk =   0.0320000
        k(   29) = (   0.2070321   0.2070321   0.2896203), wk =   0.0640000
        k(   30) = (   0.2070321   0.2070321   0.5792406), wk =   0.0640000
        k(   31) = (   0.2070321   0.4140643   0.0000000), wk =   0.0640000
        k(   32) = (   0.2070321   0.4140643   0.2896203), wk =   0.1280000
        k(   33) = (   0.2070321   0.4140643   0.5792406), wk =   0.1280000
        k(   34) = (   0.4140643   0.4140643   0.0000000), wk =   0.0320000
        k(   35) = (   0.4140643   0.4140643   0.2896203), wk =   0.0640000
        k(   36) = (   0.4140643   0.4140643   0.5792406), wk =   0.0640000

[...]

     Threshold (ethr) on eigenvalues was too large:
     Diagonalizing with lowered threshold

     Davidson diagonalization with overlap
     ethr =  3.97E-10,  avg # of iterations =  2.0

[...]

     Volume is kept fixed: isostatic pressure set to zero
Begin final coordinates
     new unit-cell volume =    413.35641 a.u.^3 (    61.25310 Ang^3 )

[...]

ATOMIC_POSITIONS (crystal)
Pt0      0.000000000   0.000000000   0.000000000    0   0   0
Pt0      0.500000000   0.500000000   0.500000000    0   0   0
O1       0.309829750   0.309829750   0.000000000    1   1   0
O1      -0.309829750  -0.309829750   0.000000000    1   1   0
O1       0.809829750   0.190170250   0.500000000    1   1   0
O1       0.190170250   0.809829750   0.500000000    1   1   0
End final coordinates

     lsda relaxation :  a final configuration with zero
                        absolute magnetization has been found

     the program is checking if it is really the minimum energy structure
     by performing a new scf iteration without any "electronic" history

[...]

     negative rho (up, down):  0.195E+00 0.195E+00
     Starting wfc are   40 randomized atomic wfcs
     Check: negative starting charge=(component1):   -0.383279
     NEW-OLD atomic charge density approx. for the potential
     NEW k-points:
        k(    1) = (   0.0000000   0.0000000   0.0000000), wk =   0.0080000
        k(    2) = (   0.0000000   0.0000000   0.2896203), wk =   0.0160000
        k(    3) = (   0.0000000   0.0000000   0.5792406), wk =   0.0160000
        k(    4) = (   0.0000000   0.2070321   0.0000000), wk =   0.0320000
        k(    5) = (   0.0000000   0.2070321   0.2896203), wk =   0.0640000
        k(    6) = (   0.0000000   0.2070321   0.5792406), wk =   0.0640000
        k(    7) = (   0.0000000   0.4140643   0.0000000), wk =   0.0320000
        k(    8) = (   0.0000000   0.4140643   0.2896203), wk =   0.0640000
        k(    9) = (   0.0000000   0.4140643   0.5792406), wk =   0.0640000
        k(   10) = (   0.2070321   0.2070321   0.0000000), wk =   0.0320000
        k(   11) = (   0.2070321   0.2070321   0.2896203), wk =   0.0640000
        k(   12) = (   0.2070321   0.2070321   0.5792406), wk =   0.0640000
        k(   13) = (   0.2070321   0.4140643   0.0000000), wk =   0.0640000
        k(   14) = (   0.2070321   0.4140643   0.2896203), wk =   0.1280000
        k(   15) = (   0.2070321   0.4140643   0.5792406), wk =   0.1280000
        k(   16) = (   0.4140643   0.4140643   0.0000000), wk =   0.0320000
        k(   17) = (   0.4140643   0.4140643   0.2896203), wk =   0.0640000
        k(   18) = (   0.4140643   0.4140643   0.5792406), wk =   0.0640000
        k(   19) = (   0.0000000   0.0000000   0.0000000), wk =   0.0080000
        k(   20) = (   0.0000000   0.0000000   0.2896203), wk =   0.0160000
        k(   21) = (   0.0000000   0.0000000   0.5792406), wk =   0.0160000
        k(   22) = (   0.0000000   0.2070321   0.0000000), wk =   0.0320000
        k(   23) = (   0.0000000   0.2070321   0.2896203), wk =   0.0640000
        k(   24) = (   0.0000000   0.2070321   0.5792406), wk =   0.0640000
        k(   25) = (   0.0000000   0.4140643   0.0000000), wk =   0.0320000
        k(   26) = (   0.0000000   0.4140643   0.2896203), wk =   0.0640000
        k(   27) = (   0.0000000   0.4140643   0.5792406), wk =   0.0640000
        k(   28) = (   0.2070321   0.2070321   0.0000000), wk =   0.0320000
        k(   29) = (   0.2070321   0.2070321   0.2896203), wk =   0.0640000
        k(   30) = (   0.2070321   0.2070321   0.5792406), wk =   0.0640000
        k(   31) = (   0.2070321   0.4140643   0.0000000), wk =   0.0640000
        k(   32) = (   0.2070321   0.4140643   0.2896203), wk =   0.1280000
        k(   33) = (   0.2070321   0.4140643   0.5792406), wk =   0.1280000
        k(   34) = (   0.4140643   0.4140643   0.0000000), wk =   0.0320000
        k(   35) = (   0.4140643   0.4140643   0.2896203), wk =   0.0640000
        k(   36) = (   0.4140643   0.4140643   0.5792406), wk =   0.0640000

     Check: negative/imaginary core charge=   -0.000005    0.000000
     Check: negative starting charge=(component1):   -0.383279

[...]

     Total force =     0.000043     Total SCF correction =     0.000008
     SCF correction compared to forces is large: reduce conv_thr to get better values

[...]

     Volume is kept fixed: isostatic pressure set to zero

     bfgs converged in   6 scf cycles and   5 bfgs steps
     (criteria: energy < 0.10E-03, force < 0.10E-02, cell < 0.50E+00)

     End of BFGS Geometry Optimization

     Final enthalpy =    -544.8975375316 Ry
Begin final coordinates
     new unit-cell volume =    413.35641 a.u.^3 (    61.25310 Ang^3 )

CELL_PARAMETERS (alat=  8.62408573)
   0.966033629   0.000000000   0.000000000
   0.000000000   0.966033629   0.000000000
   0.000000000   0.000000000   0.690559324

ATOMIC_POSITIONS (crystal)
Pt0      0.000000000   0.000000000   0.000000000    0   0   0
Pt0      0.500000000   0.500000000   0.500000000    0   0   0
O1       0.309829750   0.309829750   0.000000000    1   1   0
O1      -0.309829750  -0.309829750   0.000000000    1   1   0
O1       0.809829750   0.190170250   0.500000000    1   1   0
O1       0.190170250   0.809829750   0.500000000    1   1   0
End final coordinates

     A final scf calculation at the relaxed structure.
     The G-vectors are recalculated for the final unit cell
     Results may differ from those at the preceding step.

     bravais-lattice index     =            0
     lattice parameter (alat)  =       8.6241  a.u.
     unit-cell volume          =     413.3564 (a.u.)^3
     number of atoms/cell      =            6
     number of atomic types    =            2
     number of electrons       =        56.00
     number of Kohn-Sham states=           84
     kinetic-energy cutoff     =      40.0000  Ry
     charge density cutoff     =     500.0000  Ry
     convergence threshold     =      1.0E-08
     mixing beta               =       0.3000
     number of iterations used =            8  plain     mixing
     Exchange-correlation      = SLA  PW   PBE  PBE ( 1 4 3 4 0)
     EXX-fraction              =        0.00

     celldm(1)=   8.624086  celldm(2)=   0.000000  celldm(3)=   0.000000
     celldm(4)=   0.000000  celldm(5)=   0.000000  celldm(6)=   0.000000

     crystal axes: (cart. coord. in units of alat)
               a(1) = (   0.966034   0.000000   0.000000 )
               a(2) = (   0.000000   0.966034   0.000000 )
               a(3) = (   0.000000   0.000000   0.690559 )

     reciprocal axes: (cart. coord. in units 2 pi/alat)
               b(1) = (  1.035161  0.000000  0.000000 )
               b(2) = (  0.000000  1.035161  0.000000 )
               b(3) = (  0.000000  0.000000  1.448102 )

     PseudoPot. # 1 for Pt read from file:
     /home/camp/zhonxu/pseudo/pt_pbe_v1.uspp.F.UPF
     MD5 check sum: 4c71d6ad5ef119f1eb26a4d0b7884226
     Pseudo is Ultrasoft + core correction, Zval = 16.0
     Generated by new atomic code, or converted to UPF format
     Using radial grid of  985 points,  6 beta functions with:
                l(1) =   0
                l(2) =   0
                l(3) =   1
                l(4) =   1
                l(5) =   2
                l(6) =   2
     Q(r) pseudized with  8 coefficients,  rinner =    1.300   1.300   1.300
                                                       1.300   1.300

     PseudoPot. # 2 for O  read from file:
     /home/camp/zhonxu/pseudo/o_pbe_v1.01.uspp.F.UPF
     MD5 check sum: 2bcb18d16ea4b960afae9ec6d52f22d2
     Pseudo is Ultrasoft + core correction, Zval =  6.0
     Generated by new atomic code, or converted to UPF format
     Using radial grid of  737 points,  5 beta functions with:
                l(1) =   0
                l(2) =   0
                l(3) =   1
                l(4) =   1
                l(5) =   2
     Q(r) pseudized with  8 coefficients,  rinner =    0.900   0.900   0.900
                                                       0.900   0.900

     atomic species   valence    mass     pseudopotential
        Pt0           16.00   195.08000     Pt( 1.00)
        O1             6.00    15.99940     O ( 1.00)

     Starting magnetic structure
     atomic species   magnetization
        Pt0          0.000
        O1           0.000

     16 Sym. Ops., with inversion, found ( 8 have fractional translation)

   Cartesian axes

     site n.     atom                  positions (alat units)
         1           Pt0 tau(   1) = (   0.0000000   0.0000000   0.0000000  )
         2           Pt0 tau(   2) = (   0.4830168   0.4830168   0.3452797  )
         3           O1  tau(   3) = (   0.2993060   0.2993060   0.0000000  )
         4           O1  tau(   4) = (  -0.2993060  -0.2993060   0.0000000  )
         5           O1  tau(   5) = (   0.7823228   0.1837109   0.3452797  )
         6           O1  tau(   6) = (   0.1837109   0.7823228   0.3452797  )

     number of k points=    36  Methfessel-Paxton smearing, width (Ry)=  0.0100
                       cart. coord. in units 2pi/alat
        k(    1) = (   0.0000000   0.0000000   0.0000000), wk =   0.0080000
        k(    2) = (   0.0000000   0.0000000   0.2896203), wk =   0.0160000
        k(    3) = (   0.0000000   0.0000000   0.5792406), wk =   0.0160000
        k(    4) = (   0.0000000   0.2070321   0.0000000), wk =   0.0320000
        k(    5) = (   0.0000000   0.2070321   0.2896203), wk =   0.0640000
        k(    6) = (   0.0000000   0.2070321   0.5792406), wk =   0.0640000
        k(    7) = (   0.0000000   0.4140643   0.0000000), wk =   0.0320000
        k(    8) = (   0.0000000   0.4140643   0.2896203), wk =   0.0640000
        k(    9) = (   0.0000000   0.4140643   0.5792406), wk =   0.0640000
        k(   10) = (   0.2070321   0.2070321   0.0000000), wk =   0.0320000
        k(   11) = (   0.2070321   0.2070321   0.2896203), wk =   0.0640000
        k(   12) = (   0.2070321   0.2070321   0.5792406), wk =   0.0640000
        k(   13) = (   0.2070321   0.4140643   0.0000000), wk =   0.0640000
        k(   14) = (   0.2070321   0.4140643   0.2896203), wk =   0.1280000
        k(   15) = (   0.2070321   0.4140643   0.5792406), wk =   0.1280000
        k(   16) = (   0.4140643   0.4140643   0.0000000), wk =   0.0320000
        k(   17) = (   0.4140643   0.4140643   0.2896203), wk =   0.0640000
        k(   18) = (   0.4140643   0.4140643   0.5792406), wk =   0.0640000
        k(   19) = (   0.0000000   0.0000000   0.0000000), wk =   0.0080000
        k(   20) = (   0.0000000   0.0000000   0.2896203), wk =   0.0160000
        k(   21) = (   0.0000000   0.0000000   0.5792406), wk =   0.0160000
        k(   22) = (   0.0000000   0.2070321   0.0000000), wk =   0.0320000
        k(   23) = (   0.0000000   0.2070321   0.2896203), wk =   0.0640000
        k(   24) = (   0.0000000   0.2070321   0.5792406), wk =   0.0640000
        k(   25) = (   0.0000000   0.4140643   0.0000000), wk =   0.0320000
        k(   26) = (   0.0000000   0.4140643   0.2896203), wk =   0.0640000
        k(   27) = (   0.0000000   0.4140643   0.5792406), wk =   0.0640000
        k(   28) = (   0.2070321   0.2070321   0.0000000), wk =   0.0320000
        k(   29) = (   0.2070321   0.2070321   0.2896203), wk =   0.0640000
        k(   30) = (   0.2070321   0.2070321   0.5792406), wk =   0.0640000
        k(   31) = (   0.2070321   0.4140643   0.0000000), wk =   0.0640000
        k(   32) = (   0.2070321   0.4140643   0.2896203), wk =   0.1280000
        k(   33) = (   0.2070321   0.4140643   0.5792406), wk =   0.1280000
        k(   34) = (   0.4140643   0.4140643   0.0000000), wk =   0.0320000
        k(   35) = (   0.4140643   0.4140643   0.2896203), wk =   0.0640000
        k(   36) = (   0.4140643   0.4140643   0.5792406), wk =   0.0640000

     Largest allocated arrays     est. size (Mb)     dimensions
     Largest temporary arrays     est. size (Mb)     dimensions

     Check: negative/imaginary core charge=   -0.000005    0.000000

     Initial potential from superposition of free atoms
     Check: negative starting charge=(component1):   -0.191518
     Check: negative starting charge=(component2):   -0.191518

     starting charge   54.99997, renormalised to   56.00000

     negative rho (up, down):  0.195E+00 0.195E+00
     Starting wfc are   40 randomized atomic wfcs

     Self-consistent Calculation

[...]

     total energy              =    -544.89835839 Ry
     Harris-Foulkes estimate   =    -544.89835595 Ry
     estimated scf accuracy    <       0.00000001 Ry

[...]

     iteration # 10     ecut=    40.00 Ry     beta=0.30
     Davidson diagonalization with overlap
     ethr =  2.48E-11,  avg # of iterations =  2.0

     negative rho (up, down):  0.197E+00 0.197E+00

     End of self-consistent calculation

 ------ SPIN UP ------------

[...]

 ------ SPIN DOWN ----------

[...]

          k = 0.4141 0.4141 0.5792 (  1766 PWs)   bands (ev):

   -40.0094 -40.0089 -39.7287 -39.7284 -39.6296 -39.6296  -4.9853  -4.9321
    -4.6133  -4.6060   5.9303   5.9801   6.4545   6.5629   7.1293   7.5514
     8.9437   9.0183   9.8229  10.0537  11.0948  11.5945  11.6124  11.7705
    12.6616  13.5226  13.5962  14.2890  15.7013  16.3013  17.4352  17.9996
    24.2559  24.8564  24.8888  24.9935  26.6488  27.0745  28.4076  29.0286
    31.8799  31.9005  32.5706  32.5855  34.1365  34.6766  35.7820  36.5900
    37.1654  37.5284  37.6296  39.1424  41.4652  41.8443  42.3607  42.5270
    43.4125  44.1661  45.9392  46.9481  47.1710  47.4628  47.9822  48.4029
    49.0694  49.1077  50.2714  50.5544  51.0181  51.7604  52.3429  52.5471
    53.0717  53.6101  53.8238  54.8477  55.4707  55.9351  56.3372  56.4003
    58.1632  58.2258  59.1657  59.5566

     the Fermi energy is    14.9989 ev

!    total energy              =    -544.89836075 Ry
     Harris-Foulkes estimate   =    -544.89835839 Ry
     estimated scf accuracy    <          2.4E-09 Ry

     The total energy is the sum of the following terms:

     one-electron contribution =    -115.37191005 Ry
     hartree contribution      =      98.63077493 Ry
     xc contribution           =    -137.69349304 Ry
     ewald contribution        =    -390.46347383 Ry
     smearing contrib. (-TS)   =      -0.00025876 Ry

     total magnetization       =    -0.00 Bohr mag/cell
     absolute magnetization    =     0.00 Bohr mag/cell

     convergence has been achieved in  10 iterations

     Forces acting on atoms (Ry/au):

     negative rho (up, down):  0.197E+00 0.197E+00
     atom    1 type  1   force =     0.00000000    0.00000000    0.00000000
     atom    2 type  1   force =     0.00000000    0.00000000    0.00000000
     atom    3 type  2   force =    -0.00015550   -0.00015550    0.00000000
     atom    4 type  2   force =     0.00015550    0.00015550   -0.00000000
     atom    5 type  2   force =    -0.00015550    0.00015550    0.00000000
     atom    6 type  2   force =     0.00015550   -0.00015550    0.00000000

     Total force =     0.000440     Total SCF correction =     0.000010

     entering subroutine stress ...

     negative rho (up, down):  0.197E+00 0.197E+00
          total   stress  (Ry/bohr**3)                   (kbar)     P=  256.98
   0.00172911   0.00000000   0.00000000        254.36      0.00      0.00
   0.00000000   0.00172911   0.00000000          0.00    254.36      0.00
   0.00000000   0.00000000   0.00178257          0.00      0.00    262.22

     General routines

     Parallel routines

   This run was terminated on:  16:35:43  24Jan2014

   JOB DONE.
Running PBS batch system epilogue script
Job id: 251964.audhumbla.fysik.dtu.dk
Username: zhonxu
Groupname: campgst
Jobname: PtO2/fine-EOS/non-mag/PtO2-v-0.90
Sessionid: 26991
Queuename: verylong
Accounting:
This job has allocated the following 4 nodes:
q015 q015 q015 q015
Finished epilogue job 251964.audhumbla.fysik.dtu.dk for zhonxu