     Program PWSCF v.5.0.2 (svn rev. 9656) starts on 16Apr2014 at 22:56:49

     Current dimensions of program PWSCF are:
     Max number of different atomic species (ntypx) = 10
     Max number of k-points (npk) =  40000
     Max angular momentum in pseudopotentials (lmaxx) =  3
     Reading input from pwscf.in
Warning: card &CELL ignored
Warning: card / ignored

     Subspace diagonalization in iterative solution of the eigenvalue problem:
     a serial algorithm will be used

     bravais-lattice index     =            0
     lattice parameter (alat)  =      11.7919  a.u.
     unit-cell volume          =    9723.6088 (a.u.)^3
     number of atoms/cell      =           49
     number of atomic types    =            2
     number of electrons       =       454.00
     number of Kohn-Sham states=          657
     kinetic-energy cutoff     =      40.0000  Ry
     charge density cutoff     =     500.0000  Ry
     convergence threshold     =      1.0E-06
     mixing beta               =       0.3000
     number of iterations used =            8  plain     mixing
     Exchange-correlation      = SLA  PW   PBE  PBE ( 1 4 3 4 0)
     EXX-fraction              =        0.00
     nstep                     =           50

     celldm(1)=  11.791891  celldm(2)=   0.000000  celldm(3)=   0.000000
     celldm(4)=   0.000000  celldm(5)=   0.000000  celldm(6)=   0.000000

     crystal axes: (cart. coord. in units of alat)
               a(1) = (   1.000000   0.000000   0.000000 )
               a(2) = (   0.000000   1.026665   0.000000 )
               a(3) = (   0.000000   0.000000   5.776283 )

     reciprocal axes: (cart. coord. in units 2 pi/alat)
               b(1) = (  1.000000  0.000000  0.000000 )
               b(2) = (  0.000000  0.974028  0.000000 )
               b(3) = (  0.000000  0.000000  0.173122 )

     PseudoPot. # 1 for O  read from file:
     /home/camp/zhonxu/pseudo/o_pbe_v1.01.uspp.F.UPF
     MD5 check sum: 2bcb18d16ea4b960afae9ec6d52f22d2
     Pseudo is Ultrasoft + core correction, Zval =  6.0
     Generated by new atomic code, or converted to UPF format
     Using radial grid of  737 points,  5 beta functions with:
                l(1) =   0
                l(2) =   0
                l(3) =   1
                l(4) =   1
                l(5) =   2
     Q(r) pseudized with  8 coefficients,  rinner =    0.900   0.900   0.900
                                                       0.900   0.900

     PseudoPot. # 2 for Ru read from file:
     /home/camp/zhonxu/pseudo/ru_pbe_v1.uspp.F.UPF
     MD5 check sum: df00be1c11b23341d9806d8f1dfa10cf
     Pseudo is Ultrasoft + core correction, Zval = 16.0
     Generated by new atomic code, or converted to UPF format
     Using radial grid of  967 points,  6 beta functions with:
                l(1) =   0
                l(2) =   0
                l(3) =   1
                l(4) =   1
                l(5) =   2
                l(6) =   2
     Q(r) pseudized with  8 coefficients,  rinner =    1.300   1.300   1.300
                                                       1.300   1.300

     atomic species   valence    mass     pseudopotential
        O0             6.00    15.99940     O ( 1.00)
        Ru1           16.00   101.07000     Ru( 1.00)

      4 Sym. Ops. (no inversion) found

   Cartesian axes

     site n.     atom                  positions (alat units)
         1           O0  tau(   1) = (   0.0000000   0.5133323   1.9230980  )
         2           Ru1 tau(   2) = (   0.2500000   0.5133323   2.1181631  )
         3           Ru1 tau(   3) = (   0.0000000   0.0000000   2.1181631  )
         4           O0  tau(   4) = (   0.2500000   0.8315984   2.1181631  )
         5           O0  tau(   5) = (   0.2500000   0.1950663   2.1181631  )
         6           O0  tau(   6) = (   0.0000000   0.5133323   2.3132282  )
         7           O0  tau(   7) = (   0.0000000   0.0000000   2.4364363  )
         8           Ru1 tau(   8) = (   0.2500000   0.0000000   2.6315014  )
         9           Ru1 tau(   9) = (   0.0000000   0.5133323   2.6315014  )
        10           O0  tau(  10) = (   0.2500000   0.7083986   2.6315014  )
        11           O0  tau(  11) = (   0.2500000   0.3182660   2.6315014  )
        12           O0  tau(  12) = (   0.0000000   0.0000000   2.8265665  )
        13           O0  tau(  13) = (   0.0000000   0.5133323   2.9427276  )
        14           Ru1 tau(  14) = (   0.2500000   0.5133323   3.1406808  )
        15           Ru1 tau(  15) = (   0.0000000   0.0000000   3.1457639  )
        16           O0  tau(  16) = (   0.2500000   0.8279742   3.1435689  )
        17           O0  tau(  17) = (   0.2500000   0.1986904   3.1435689  )
        18           O0  tau(  18) = (   0.0000000   0.5133323   3.3386918  )
        19           O0  tau(  19) = (   0.0000000   0.0000000   3.4580876  )
        20           Ru1 tau(  20) = (   0.2500000   0.0000000   3.6718101  )
        21           Ru1 tau(  21) = (   0.0000000   0.5133323   3.6403293  )
        22           O0  tau(  22) = (   0.2500000   0.7080495   3.6659760  )
        23           O0  tau(  23) = (   0.2500000   0.3186151   3.6659760  )
        24           O0  tau(  24) = (   0.0000000   0.0000000   3.8466582  )
        25           O0  tau(  25) = (   0.5000000   0.5133323   1.9230980  )
        26           Ru1 tau(  26) = (   0.7500000   0.5133323   2.1181631  )
        27           Ru1 tau(  27) = (   0.5000000   0.0000000   2.1181631  )
        28           O0  tau(  28) = (   0.7500000   0.8315984   2.1181631  )
        29           O0  tau(  29) = (   0.7500000   0.1950663   2.1181631  )
        30           O0  tau(  30) = (   0.5000000   0.5133323   2.3132282  )
        31           O0  tau(  31) = (   0.5000000   0.0000000   2.4364363  )
        32           Ru1 tau(  32) = (   0.7500000   0.0000000   2.6315014  )
        33           Ru1 tau(  33) = (   0.5000000   0.5133323   2.6315014  )
        34           O0  tau(  34) = (   0.7500000   0.7083986   2.6315014  )
        35           O0  tau(  35) = (   0.7500000   0.3182660   2.6315014  )
        36           O0  tau(  36) = (   0.5000000   0.0000000   2.8265665  )
        37           O0  tau(  37) = (   0.5000000   0.5133323   2.9427276  )
        38           Ru1 tau(  38) = (   0.7500000   0.5133323   3.1406808  )
        39           Ru1 tau(  39) = (   0.5000000   0.0000000   3.1457639  )
        40           O0  tau(  40) = (   0.7500000   0.8279742   3.1435689  )
        41           O0  tau(  41) = (   0.7500000   0.1986904   3.1435689  )
        42           O0  tau(  42) = (   0.5000000   0.5133323   3.3386918  )
        43           O0  tau(  43) = (   0.5000000   0.0000000   3.4580876  )
        44           Ru1 tau(  44) = (   0.7500000   0.0000000   3.6718101  )
        45           Ru1 tau(  45) = (   0.5000000   0.5133323   3.6403293  )
        46           O0  tau(  46) = (   0.7500000   0.7080495   3.6659760  )
        47           O0  tau(  47) = (   0.7500000   0.3186151   3.6659760  )
        48           O0  tau(  48) = (   0.5000000   0.0000000   3.8466582  )
        49           O0  tau(  49) = (   0.5000000   0.5133323   3.9200747  )

     number of k points=     9  Methfessel-Paxton smearing, width (Ry)=  0.0100
                       cart. coord. in units 2pi/alat
        k(    1) = (   0.0000000   0.0000000   0.0000000), wk =   0.1250000
        k(    2) = (   0.0000000   0.2435070   0.0000000), wk =   0.2500000
        k(    3) = (   0.0000000  -0.4870139   0.0000000), wk =   0.1250000
        k(    4) = (   0.2500000   0.0000000   0.0000000), wk =   0.2500000
        k(    5) = (   0.2500000   0.2435070   0.0000000), wk =   0.5000000
        k(    6) = (   0.2500000  -0.4870139   0.0000000), wk =   0.2500000
        k(    7) = (  -0.5000000   0.0000000   0.0000000), wk =   0.1250000
        k(    8) = (  -0.5000000   0.2435070   0.0000000), wk =   0.2500000
        k(    9) = (  -0.5000000  -0.4870139   0.0000000), wk =   0.1250000

     Largest allocated arrays     est. size (Mb)     dimensions
     Largest temporary arrays     est. size (Mb)     dimensions

     Check: negative/imaginary core charge=   -0.000004    0.000000

     Initial potential from superposition of free atoms
     Check: negative starting charge=   -1.046703

     starting charge  437.99970, renormalised to  454.00000

     negative rho (up, down):  0.108E+01 0.000E+00
     Starting wfc are  340 randomized atomic wfcs

     Self-consistent Calculation

     iteration #  1     ecut=    40.00 Ry     beta=0.30
     Davidson diagonalization with overlap
     ethr =  1.00E-02,  avg # of iterations =  5.7

     negative rho (up, down):  0.115E+01 0.000E+00

     total energy              =   -4032.39783989 Ry
     Harris-Foulkes estimate   =   -4165.76306544 Ry
     estimated scf accuracy    <     265.40942568 Ry

[...]

     End of self-consistent calculation

          k = 0.0000 0.0000 0.0000 ( 41487 PWs)   bands (ev):

   -73.7674 -73.3548 -73.3442 -73.1309 -73.1207 -72.9692 -72.9587 -72.9434
   -72.9107 -72.9049 -72.8849 -72.8430 -72.8363 -72.8327 -72.6496 -72.6337
   -44.2215 -43.6176 -43.5068 -43.4261 -43.3228 -43.3134 -43.3064 -43.2184
   -43.1967 -43.1909 -43.1861 -43.1797 -43.1775 -43.1414 -43.1378 -43.1363
   -43.1230 -43.1165 -43.0910 -43.0376 -43.0219 -43.0147 -43.0045 -42.9794
   -42.9592 -42.9459 -42.8971 -42.8703 -42.8376 -42.8251 -42.8246 -42.7904
   -42.7835 -42.7774 -42.7712 -42.7641 -42.7284 -42.7245 -42.7112 -42.7035
   -42.6977 -42.6834 -42.6593 -42.6485 -42.5824 -42.5792 -42.4912 -42.4568
   -19.4866 -19.2729 -19.0301 -18.9652 -18.8728 -18.7309 -18.6682 -18.4703
   -18.4265 -18.3953 -18.3884 -18.2331 -18.1896 -18.1820 -18.1787 -18.1249
   -18.1116 -18.0806 -18.0601 -18.0546 -18.0288 -18.0047 -17.8889 -17.8626
   -17.6622 -17.6082 -17.6066 -17.5451 -17.4889 -17.3560 -16.8149 -16.7472
   -16.6525  -7.6910  -7.6655  -7.6469  -7.5996  -7.5044  -7.3701  -6.7867
    -6.6341  -6.4986  -6.4610  -6.4505  -6.3955  -6.3476  -6.2976  -6.2952
    -6.2707  -6.2570  -6.2541  -6.2429  -6.2398  -6.2222  -6.2153  -6.1092
    -6.1057  -6.0988  -6.0761  -6.0401  -5.9750  -5.9281  -5.8921  -5.8093
    -5.8069  -5.7388  -5.7024  -5.5829  -5.5420  -5.2498  -5.1563  -5.1124
    -5.0285  -4.9906  -4.6285  -4.3430  -4.3430  -4.1879  -4.1747  -4.1732
    -4.1662  -4.1350  -4.1288  -4.1083  -4.0465  -3.9944  -3.9087  -3.9022
    -3.8310  -3.7626  -3.6416  -3.6110  -3.5690  -3.5611  -3.5544  -3.4165
    -3.4059  -3.3312  -3.3245  -3.2799  -3.2761  -3.1317  -3.1109  -3.0087
    -3.0034  -2.9865  -2.9103  -2.8132  -2.7921  -2.7776  -2.7555  -2.7351
    -2.6232  -2.5913  -2.4980  -2.4668  -2.4317  -2.4121  -2.2856  -2.2195
    -2.2104  -2.1579  -2.1333  -2.0547  -1.8715  -1.8297  -1.7427  -1.6293
    -1.4860  -1.4269  -1.4262  -1.2118  -0.9954  -0.9662  -0.7809  -0.7569
    -0.7475  -0.7292  -0.6541  -0.6535  -0.6532  -0.4884  -0.4830  -0.4219
    -0.3088  -0.2421  -0.2352  -0.2331  -0.2307  -0.1239  -0.0766  -0.0634
    -0.0245   0.0029   0.0078   0.0306   0.0310   0.0479   0.1051   0.2519
     0.2585   0.4526   0.4698   0.4862   0.5514   0.5814   0.8721   0.8729
[...]

ATOMIC_POSITIONS (crystal)
O0       0.000000000   0.500000000   0.332930000    0   0   0
Ru1      0.250000000   0.500000000   0.366700000    0   0   0
Ru1      0.000000000   0.000000000   0.366700000    0   0   0
O0       0.250000000   0.810000000   0.366700000    0   0   0
O0       0.250000000   0.190000000   0.366700000    0   0   0
O0       0.000000000   0.500000000   0.400470000    0   0   0
O0       0.000000000   0.000000000   0.421800000    0   0   0
Ru1      0.250000000   0.000000000   0.455570000    0   0   0
Ru1      0.000000000   0.500000000   0.455570000    0   0   0
O0       0.250000000   0.690000000   0.455570000    0   0   0
O0       0.250000000   0.310000000   0.455570000    0   0   0
O0       0.000000000   0.000000000   0.489340000    0   0   0
O0       0.000000000   0.500000000   0.509495498
Ru1      0.254403253   0.500000000   0.543943927
Ru1      0.000000000   0.000000000   0.543920667
O0       0.250976721   0.806022762   0.543947085
O0       0.250976721   0.193977238   0.543947085
O0       0.000000000   0.500000000   0.576514801
O0       0.000000000   0.000000000   0.597860519
Ru1      0.245195183  -0.000000000   0.634625845
Ru1      0.000000000   0.500000000   0.628165259
O0       0.246024030   0.690464493   0.633097899
O0       0.246024030   0.309535507   0.633097899
O0       0.000000000   0.000000000   0.667452543
O0       0.500000000   0.500000000   0.332930000    0   0   0
Ru1      0.750000000   0.500000000   0.366700000    0   0   0
Ru1      0.500000000   0.000000000   0.366700000    0   0   0
O0       0.750000000   0.810000000   0.366700000    0   0   0
O0       0.750000000   0.190000000   0.366700000    0   0   0
O0       0.500000000   0.500000000   0.400470000    0   0   0
O0       0.500000000   0.000000000   0.421800000    0   0   0
Ru1      0.750000000   0.000000000   0.455570000    0   0   0
Ru1      0.500000000   0.500000000   0.455570000    0   0   0
O0       0.750000000   0.690000000   0.455570000    0   0   0
O0       0.750000000   0.310000000   0.455570000    0   0   0
O0       0.500000000   0.000000000   0.489340000    0   0   0
O0       0.500000000   0.500000000   0.509458168
Ru1      0.745596747   0.500000000   0.543943927
Ru1      0.500000000   0.000000000   0.544479889
O0       0.749023279   0.806022762   0.543947085
O0       0.749023279   0.193977238   0.543947085
O0       0.500000000   0.500000000   0.580126930
O0       0.500000000   0.000000000   0.598249407
Ru1      0.754804817   0.000000000   0.634625845
Ru1      0.500000000   0.500000000   0.638445398
O0       0.753975970   0.690464493   0.633097899
O0       0.753975970   0.309535507   0.633097899
O0       0.500000000   0.000000000   0.662708089
O0       0.500000000   0.500000000   0.685797644

     Check: negative starting charge=   -1.051376
     NEW-OLD atomic charge density approx. for the potential

     Check: negative/imaginary core charge=   -0.000004    0.000000
     Check: negative starting charge=   -1.051743

[...]

     Self-consistent Calculation

[...]

     total energy              =   -4156.45241501 Ry
     Harris-Foulkes estimate   =   -4156.45241501 Ry
     estimated scf accuracy    <       0.00000002 Ry

     iteration # 28     ecut=    40.00 Ry     beta=0.30
     Davidson diagonalization with overlap
     ethr =  5.32E-12,  avg # of iterations =  1.0

     negative rho (up, down):  0.116E+01 0.000E+00

     End of self-consistent calculation

[...]

          k = 0.2500-0.4870 0.0000 ( 41596 PWs)   bands (ev):

[...]

          k =-0.5000-0.4870 0.0000 ( 41560 PWs)   bands (ev):

   -73.7864 -73.3100 -73.3078 -73.0908 -73.0908 -72.9265 -72.9265 -72.8927
   -72.8896 -72.8674 -72.8453 -72.8432 -72.8274 -72.8265 -72.6121 -72.6019
   -44.2681 -43.5772 -43.4181 -43.3941 -43.3745 -43.2880 -43.2876 -43.1490
   -43.1470 -43.1434 -43.1434 -43.1259 -43.1221 -43.1054 -43.1045 -43.0926
   -43.0925 -43.0699 -43.0686 -43.0657 -43.0514 -43.0496 -42.9329 -42.9329
   -42.8797 -42.8794 -42.8286 -42.8165 -42.8103 -42.7900 -42.7869 -42.7734
   -42.7701 -42.7672 -42.7477 -42.7426 -42.7369 -42.6811 -42.6768 -42.6611
   -42.6541 -42.6529 -42.6421 -42.6373 -42.6151 -42.6140 -42.4465 -42.4334
   -19.0377 -18.7376 -18.7006 -18.6783 -18.5463 -18.4988 -18.4757 -18.3807
   -18.3118 -18.2938 -18.2898 -18.2886 -18.2462 -18.1979 -18.1713 -18.1690
   -18.1328 -18.0992 -18.0762 -18.0736 -18.0732 -18.0374 -18.0338 -18.0244
   -17.9782 -17.9695 -17.8914 -17.6870 -17.5748 -17.3023 -17.1811 -16.8414
   -16.8296  -6.9556  -6.9369  -6.7892  -6.7607  -6.3799  -6.3451  -6.2888
    -6.2798  -6.2446  -6.2241  -6.1938  -6.1529  -6.1527  -6.1511  -6.1484
    -6.1482  -6.1399  -6.0820  -6.0814  -6.0376  -5.9652  -5.8619  -5.8597
    -5.8497  -5.7895  -5.7796  -5.7615  -5.7000  -5.6373  -5.5916  -5.5052
    -5.4936  -5.4793  -5.4600  -5.4344  -5.4277  -5.4226  -5.3945  -5.3915
    -5.3321  -5.0233  -4.9862  -4.9375  -4.9252  -4.8281  -4.7094  -4.6865
    -4.6427  -4.4902  -4.3414  -4.3337  -4.3098  -4.2900  -4.2803  -4.2426
    -4.1124  -4.0675  -4.0442  -4.0261  -3.9991  -3.9944  -3.9857  -3.9839
    -3.9726  -3.9215  -3.8190  -3.7601  -3.7168  -3.7136  -3.7070  -3.6137
    -3.5146  -3.4780  -3.3783  -3.2915  -3.2454  -3.0772  -2.8460  -2.7871
    -2.6583  -2.6160  -2.5240  -2.5080  -2.4602  -2.4203  -2.4129  -2.3254
    -2.2297  -2.2248  -2.1082  -2.0595  -2.0181  -1.9855  -1.9712  -1.9207
    -1.7954  -1.7644  -1.7041  -1.5538  -0.7055  -0.6131  -0.5347  -0.5331
    -0.3767  -0.3254  -0.2482  -0.1871  -0.1051  -0.0596  -0.0112   0.0072
     0.0213   0.0664   0.1837   0.2110   0.2705   0.4020   0.5049   0.5227
     0.5668   0.6166   0.6256   0.6827   0.6853   0.6873   0.6945   0.7131
     0.7217   0.8116   0.8122   0.8137   0.8181   0.9000   0.9523   1.0420
     1.0822   1.1091   1.1200   1.1468   1.2245   1.2278   1.2464   1.2641
     1.3419   1.3477   1.3639   1.4196   2.0388   2.0486   2.5465   2.5887
     3.1132   3.1710   3.2123   3.2202   3.2208   3.2799   3.2852   3.3467
     3.4669   3.5432   3.5481   4.0092   4.0920   4.1028   4.1793   4.4095
     4.4209   4.5547   4.5709   4.9168   4.9322   4.9902   5.0436   5.1830
     5.2486   5.2817   5.2928   5.3787   6.7082   6.7128   7.4618   7.7697
     7.7712   8.0298   8.0417   8.0923   8.1333   8.1775   8.1824   8.2615
     8.4116   8.4522   8.4877   8.6115   8.8209   8.8766   8.8790   9.0396
     9.3103   9.3411   9.4030   9.4673   9.5040   9.5075   9.5162   9.5364
     9.9614  10.0262  10.0635  10.0752  10.0761  10.1428  10.1987  10.2435
    10.7584  10.8141  10.8225  10.8719  10.9294  10.9353  11.0299  11.0880
    11.5403  11.6215  11.6301  11.8912  12.0334  12.0562  12.0792  12.2647
    12.5349  12.5583  12.8072  12.9149  12.9468  12.9774  12.9914  13.1241
    13.2075  13.2573  13.4451  13.5034  13.6055  13.6323  13.6727  13.6807
    13.6881  13.7495  13.7540  13.8510  13.8816  13.9085  13.9401  14.0221
    14.0285  14.0336  14.1219  14.1490  14.1705  14.2767  14.3316  14.3925
    14.4081  14.5537  14.5622  14.6566  14.7278  14.7823  14.8086  14.8228
    14.8398  14.9738  15.0166  15.0211  15.0439  15.0836  15.2606  15.2846
    15.3471  15.3737  15.3880  15.4053  15.4426  15.4462  15.4767  15.5628
    15.6661  15.6694  15.6986  15.6998  15.7420  15.7427  15.7850  15.7858
    15.7887  15.8157  15.8260  15.8463  15.8864  15.9217  15.9410  15.9675
    15.9730  15.9784  16.0215  16.0394  16.1213  16.1987  16.2018  16.2304
    16.2376  16.2504  16.2789  16.3628  16.3983  16.4147  16.4465  16.4756
    16.5296  16.5581  16.5820  16.6069  16.6537  16.6804  16.7344  16.7865
    16.8121  16.8155  16.8342  16.8572  16.9940  17.0548  17.0943  17.1461
    17.2886  17.3297  17.3509  17.3726  17.4562  17.4689  17.4752  17.6561
    17.6748  17.7100  17.7124  17.7448  17.7736  17.7831  17.8133  17.8316
    18.0002  18.0372  18.1006  18.1124  18.1135  18.1680  18.1737  18.2069
    18.3155  18.3656  18.3766  18.4018  18.5372  18.5486  18.5538  18.5589
    18.7477  18.7571  18.7617  18.8240  18.8994  18.9270  18.9610  18.9829
    19.0196  19.1350  19.1628  19.3026  19.3263  19.3897  19.4039  19.4337
[...]
    23.1604  23.1708  23.2480  23.3867  23.3955  23.4353  23.4381  23.5249
    23.5300  23.5427  23.5460  23.5767  23.5835  23.6342  23.7015  23.7210
    23.7800  23.7888  23.8102  23.8592  23.9190  23.9274  24.0081  24.0156
    24.0487  24.0873  24.1042  24.1623  24.1896  24.1917  24.2353  24.2358
    24.2583  24.3622  24.4182  24.4265  24.4866  24.4972  24.5089  24.5344
    24.5351  24.6662  24.7605  24.7904  24.7978  24.8449  24.8899  24.8973
    24.9260  24.9762  25.0733  25.1238  25.1400  25.1521  25.2446  25.2540
    25.2606  25.3866  25.4279  25.4398  25.4934  25.4985  25.5138  25.5796
    25.7404  25.7523  25.7636  25.7992  25.8110  25.8331  25.8430  25.8586
    25.9680  25.9869  25.9876  26.0005  26.1508  26.1568  26.2296  26.2996
    26.3744  26.3840  26.4170  26.4893  26.5074  26.5755  26.5918  26.6345
    26.8429  26.9214  26.9368  26.9454  26.9723  26.9732  26.9805  26.9848
    27.0903  27.1127  27.1159  27.1366  27.2177  27.2606  27.3162  27.3244
    27.3468  27.3736  27.3842  27.4236  27.5440  27.5829  27.5889  27.6151
    27.6593

     the Fermi energy is     0.6787 ev

!    total energy              =   -4156.45241501 Ry
     Harris-Foulkes estimate   =   -4156.45241502 Ry
     estimated scf accuracy    <          9.5E-09 Ry

     The total energy is the sum of the following terms:

     one-electron contribution =  -87020.21752997 Ry
     hartree contribution      =   43565.00844144 Ry
     xc contribution           =    -633.77536374 Ry
     ewald contribution        =   39932.53345413 Ry
     smearing contrib. (-TS)   =      -0.00141687 Ry

     convergence has been achieved in  28 iterations

     Forces acting on atoms (Ry/au):

     negative rho (up, down):  0.116E+01 0.000E+00
     atom    1 type  1   force =     0.00000000    0.00000000    0.05621259
     atom    2 type  2   force =    -0.00039493    0.00000000   -0.08924154
     atom    3 type  2   force =     0.00000000    0.00000000    0.08278879
     atom    4 type  1   force =    -0.00002861   -0.00483455   -0.02574099
     atom    5 type  1   force =    -0.00002861    0.00483455   -0.02574099
     atom    6 type  1   force =     0.00000000    0.00000000    0.04122131
     atom    7 type  1   force =     0.00000000    0.00000000   -0.03074517
     atom    8 type  2   force =    -0.00012582    0.00000000   -0.02117876
     atom    9 type  2   force =     0.00000000    0.00000000   -0.00391174
     atom   10 type  1   force =     0.00002485    0.02345172   -0.00293388
     atom   11 type  1   force =     0.00002485   -0.02345172   -0.00293388
     atom   12 type  1   force =     0.00000000    0.00000000    0.02405522
     atom   13 type  1   force =     0.00000000    0.00000000    0.00077992
     atom   14 type  2   force =     0.00000800    0.00000000    0.00010084
     atom   15 type  2   force =     0.00000000    0.00000000    0.00019033
     atom   16 type  1   force =     0.00026738    0.00006995    0.00014133
     atom   17 type  1   force =     0.00026738   -0.00006995    0.00014133
     atom   18 type  1   force =     0.00000000    0.00000000   -0.00020086
     atom   19 type  1   force =     0.00000000    0.00000000    0.00066834
     atom   20 type  2   force =     0.00020595    0.00000000    0.00050924
     atom   21 type  2   force =     0.00000000    0.00000000   -0.00013509
     atom   22 type  1   force =     0.00014808    0.00063469    0.00047765
     atom   23 type  1   force =     0.00014808   -0.00063469    0.00047765
     atom   24 type  1   force =     0.00000000    0.00000000    0.00039432
     atom   25 type  1   force =     0.00000000    0.00000000    0.05626931
     atom   26 type  2   force =     0.00039493    0.00000000   -0.08924154
     atom   27 type  2   force =     0.00000000    0.00000000    0.08220021
     atom   28 type  1   force =     0.00002861   -0.00483455   -0.02574099
     atom   29 type  1   force =     0.00002861    0.00483455   -0.02574099
     atom   30 type  1   force =     0.00000000    0.00000000    0.03838818
     atom   31 type  1   force =     0.00000000    0.00000000   -0.03053205
     atom   32 type  2   force =     0.00012582    0.00000000   -0.02117876
     atom   33 type  2   force =     0.00000000    0.00000000   -0.01571900
     atom   34 type  1   force =    -0.00002485    0.02345172   -0.00293388
     atom   35 type  1   force =    -0.00002485   -0.02345172   -0.00293388
     atom   36 type  1   force =     0.00000000    0.00000000    0.02768838
     atom   37 type  1   force =     0.00000000    0.00000000    0.00071379
     atom   38 type  2   force =    -0.00000800    0.00000000    0.00010084
     atom   39 type  2   force =     0.00000000    0.00000000    0.00044617
     atom   40 type  1   force =    -0.00026738    0.00006995    0.00014133
     atom   41 type  1   force =    -0.00026738   -0.00006995    0.00014133
     atom   42 type  1   force =     0.00000000    0.00000000    0.00016544
     atom   43 type  1   force =     0.00000000    0.00000000    0.00028568
     atom   44 type  2   force =    -0.00020595   -0.00000000    0.00050924
     atom   45 type  2   force =     0.00000000    0.00000000    0.00034755
     atom   46 type  1   force =    -0.00014808    0.00063469    0.00047765
     atom   47 type  1   force =    -0.00014808   -0.00063469    0.00047765
     atom   48 type  1   force =     0.00000000    0.00000000    0.00033014
     atom   49 type  1   force =     0.00000000    0.00000000   -0.00005774

     Total force =     0.002445     Total SCF correction =     0.000332
     SCF correction compared to forces is large: reduce conv_thr to get better values

     bfgs converged in  15 scf cycles and  14 bfgs steps
     (criteria: energy < 0.10E-03, force < 0.10E-02)

     End of BFGS Geometry Optimization

     Final energy   =   -4156.4524150058 Ry
Begin final coordinates

ATOMIC_POSITIONS (crystal)
O0       0.000000000   0.500000000   0.332930000    0   0   0
Ru1      0.250000000   0.500000000   0.366700000    0   0   0
Ru1      0.000000000   0.000000000   0.366700000    0   0   0
O0       0.250000000   0.810000000   0.366700000    0   0   0
O0       0.250000000   0.190000000   0.366700000    0   0   0
O0       0.000000000   0.500000000   0.400470000    0   0   0
O0       0.000000000   0.000000000   0.421800000    0   0   0
Ru1      0.250000000   0.000000000   0.455570000    0   0   0
Ru1      0.000000000   0.500000000   0.455570000    0   0   0
O0       0.250000000   0.690000000   0.455570000    0   0   0
O0       0.250000000   0.310000000   0.455570000    0   0   0
O0       0.000000000   0.000000000   0.489340000    0   0   0
O0       0.000000000   0.500000000   0.509495498
Ru1      0.254403253   0.500000000   0.543943927
Ru1      0.000000000   0.000000000   0.543920667
O0       0.250976721   0.806022762   0.543947085
O0       0.250976721   0.193977238   0.543947085
O0       0.000000000   0.500000000   0.576514801
O0       0.000000000   0.000000000   0.597860519
Ru1      0.245195183  -0.000000000   0.634625845
Ru1      0.000000000   0.500000000   0.628165259
O0       0.246024030   0.690464493   0.633097899
O0       0.246024030   0.309535507   0.633097899
O0       0.000000000   0.000000000   0.667452543
O0       0.500000000   0.500000000   0.332930000    0   0   0
Ru1      0.750000000   0.500000000   0.366700000    0   0   0
Ru1      0.500000000   0.000000000   0.366700000    0   0   0
O0       0.750000000   0.810000000   0.366700000    0   0   0
O0       0.750000000   0.190000000   0.366700000    0   0   0
O0       0.500000000   0.500000000   0.400470000    0   0   0
O0       0.500000000   0.000000000   0.421800000    0   0   0
Ru1      0.750000000   0.000000000   0.455570000    0   0   0
Ru1      0.500000000   0.500000000   0.455570000    0   0   0
O0       0.750000000   0.690000000   0.455570000    0   0   0
O0       0.750000000   0.310000000   0.455570000    0   0   0
O0       0.500000000   0.000000000   0.489340000    0   0   0
O0       0.500000000   0.500000000   0.509458168
Ru1      0.745596747   0.500000000   0.543943927
Ru1      0.500000000   0.000000000   0.544479889
O0       0.749023279   0.806022762   0.543947085
O0       0.749023279   0.193977238   0.543947085
O0       0.500000000   0.500000000   0.580126930
O0       0.500000000   0.000000000   0.598249407
Ru1      0.754804817   0.000000000   0.634625845
Ru1      0.500000000   0.500000000   0.638445398
O0       0.753975970   0.690464493   0.633097899
O0       0.753975970   0.309535507   0.633097899
O0       0.500000000   0.000000000   0.662708089
O0       0.500000000   0.500000000   0.685797644
End final coordinates

     General routines

     Parallel routines

   This run was terminated on:  14:59:10  18Apr2014

   JOB DONE.