     Program PWSCF v.5.0.2 (svn rev. 9656) starts on 29Apr2014 at  5:13:11

     Current dimensions of program PWSCF are:
     Max number of different atomic species (ntypx) = 10
     Max number of k-points (npk) =  40000
     Max angular momentum in pseudopotentials (lmaxx) =  3
     Reading input from pwscf.in
Warning: card &CELL ignored
Warning: card / ignored

     Subspace diagonalization in iterative solution of the eigenvalue problem:
     a serial algorithm will be used

     bravais-lattice index     =            0
     lattice parameter (alat)  =      12.0187  a.u.
     unit-cell volume          =    7280.5819 (a.u.)^3
     number of atoms/cell      =           32
     number of atomic types    =            3
     number of electrons       =       239.00
     number of Kohn-Sham states=          358
     kinetic-energy cutoff     =      40.0000  Ry
     charge density cutoff     =     500.0000  Ry
     convergence threshold     =      1.0E-06
     mixing beta               =       0.7000
     number of iterations used =            8  plain     mixing
     Exchange-correlation      = SLA  PW   PBE  PBE ( 1 4 3 4 0)
     EXX-fraction              =        0.00
     nstep                     =           50

     celldm(1)=  12.018658  celldm(2)=   0.000000  celldm(3)=   0.000000
     celldm(4)=   0.000000  celldm(5)=   0.000000  celldm(6)=   0.000000

     crystal axes: (cart. coord. in units of alat)
               a(1) = (   1.000000   0.000000   0.000000 )
               a(2) = (   0.000000   1.009517   0.000000 )
               a(3) = (   0.000000   0.000000   4.154171 )

     reciprocal axes: (cart. coord. in units 2 pi/alat)
               b(1) = (  1.000000  0.000000  0.000000 )
               b(2) = (  0.000000  0.990572  0.000000 )
               b(3) = (  0.000000  0.000000  0.240722 )

     PseudoPot. # 1 for O  read from file:
     /home/camp/zhonxu/pseudo/o_pbe_v1.01.uspp.F.UPF
     MD5 check sum: 2bcb18d16ea4b960afae9ec6d52f22d2
     Pseudo is Ultrasoft + core correction, Zval =  6.0
     Generated by new atomic code, or converted to UPF format
     Using radial grid of  737 points,  5 beta functions with:
                l(1) =   0
                l(2) =   0
                l(3) =   1
                l(4) =   1
                l(5) =   2
     Q(r) pseudized with  8 coefficients,  rinner =    0.900   0.900   0.900
                                                       0.900   0.900

     PseudoPot. # 2 for Ir read from file:
     /home/camp/zhonxu/pseudo/ir_pbe_v1.uspp.F.UPF
     MD5 check sum: abf987a9674477536ede83817f8f8b70
     Pseudo is Ultrasoft + core correction, Zval = 15.0
     Generated by new atomic code, or converted to UPF format
     Using radial grid of  983 points,  7 beta functions with:
                l(1) =   0
                l(2) =   0
                l(3) =   1
                l(4) =   1
                l(5) =   1
                l(6) =   2
                l(7) =   2
     Q(r) pseudized with  8 coefficients,  rinner =    1.350   1.350   1.350
                                                       1.350   1.350

     PseudoPot. # 3 for H  read from file:
     /home/camp/zhonxu/pseudo/h_pbe_v1.uspp.F.UPF
     MD5 check sum: 3408e3ff4ec8b0a4e358431e7e038a48
     Pseudo is Ultrasoft, Zval =  1.0
     Generated by new atomic code, or converted to UPF format
     Using radial grid of  615 points,  2 beta functions with:
                l(1) =   0
                l(2) =   0
     Q(r) pseudized with  8 coefficients,  rinner =    0.700

     atomic species   valence    mass     pseudopotential
        O0             6.00    15.99940     O ( 1.00)
        Ir1           15.00   192.22000     Ir( 1.00)
        H2             1.00     1.00794     H ( 1.00)

     Simplified LDA+U calculation (l_max = 2) with parameters (eV):
     atomic species    L          U    alpha       J0     beta
        Ir1            2     1.5000   0.0000   0.0000   0.0000

     No symmetry found

   Cartesian axes

     site n.     atom                  positions (alat units)
         1           O0  tau(   1) = (   0.0000000   0.0000000   1.5715230  )
         2           O0  tau(   2) = (   0.0000000   0.5047586   1.6723863  )
         3           Ir1 tau(   3) = (   0.2500000   0.5047586   1.8804272  )
         4           Ir1 tau(   4) = (   0.0000000   0.0000000   1.8823796  )
         5           O0  tau(   5) = (   0.2500000   0.8177090   1.8809672  )
         6           O0  tau(   6) = (   0.2500000   0.1918083   1.8797625  )
         7           O0  tau(   7) = (   0.0000000   0.5047586   2.0697743  )
         8           O0  tau(   8) = (   0.0000000   0.0000000   2.1967673  )
         9           Ir1 tau(   9) = (   0.2500000   0.0000000   2.3926365  )
        10           Ir1 tau(  10) = (   0.0000000   0.5047586   2.3747736  )
        11           O0  tau(  11) = (   0.2500000   0.6965669   2.3923873  )
        12           O0  tau(  12) = (   0.2500000   0.3129503   2.3927196  )
        13           O0  tau(  13) = (   0.0000000   0.0000000   2.5779541  )
        14           O0  tau(  14) = (   0.5000000   0.0000000   1.5704845  )
        15           O0  tau(  15) = (   0.5000000   0.5047586   1.6698107  )
        16           Ir1 tau(  16) = (   0.7500000   0.5047586   1.8805103  )
        17           Ir1 tau(  17) = (   0.5000000   0.0000000   1.8817565  )
        18           O0  tau(  18) = (   0.7500000   0.8177090   1.8810503  )
        19           O0  tau(  19) = (   0.7500000   0.1918083   1.8797625  )
        20           O0  tau(  20) = (   0.5000000   0.5047586   2.0748424  )
        21           O0  tau(  21) = (   0.5000000   0.0000000   2.1964350  )
        22           Ir1 tau(  22) = (   0.7500000   0.0000000   2.3925119  )
        23           Ir1 tau(  23) = (   0.5000000   0.5047586   2.3910995  )
        24           O0  tau(  24) = (   0.7500000   0.6965669   2.3896040  )
        25           O0  tau(  25) = (   0.7500000   0.3129503   2.3900194  )
        26           O0  tau(  26) = (   0.5000000   0.0000000   2.5760847  )
        27           H2  tau(  27) = (  -0.0000400   0.6399431   1.5942048  )
        28           H2  tau(  28) = (   0.5000100   0.6429817   1.5968219  )
        29           H2  tau(  29) = (   0.1437000   0.0339904   1.5235839  )
        30           H2  tau(  30) = (   0.6431700   0.0357369   1.5224622  )
        31           O0  tau(  31) = (   0.5156900   0.5047586   2.6944786  )
        32           H2  tau(  32) = (   0.3744100   0.5050918   2.7575805  )

     number of k points=    10  Methfessel-Paxton smearing, width (Ry)=  0.0100
                       cart. coord. in units 2pi/alat
        k(    1) = (   0.0000000   0.0000000   0.0000000), wk =   0.1250000
        k(    2) = (   0.0000000   0.2476431   0.0000000), wk =   0.2500000
        k(    3) = (   0.0000000  -0.4952862   0.0000000), wk =   0.1250000
        k(    4) = (   0.2500000   0.0000000   0.0000000), wk =   0.2500000
        k(    5) = (   0.2500000   0.2476431   0.0000000), wk =   0.2500000
        k(    6) = (   0.2500000  -0.4952862   0.0000000), wk =   0.2500000
        k(    7) = (  -0.5000000   0.0000000   0.0000000), wk =   0.1250000
        k(    8) = (  -0.5000000   0.2476431   0.0000000), wk =   0.2500000
        k(    9) = (  -0.5000000  -0.4952862   0.0000000), wk =   0.1250000
        k(   10) = (  -0.2500000   0.2476431   0.0000000), wk =   0.2500000

     Largest allocated arrays     est. size (Mb)     dimensions
     Largest temporary arrays     est. size (Mb)     dimensions

     Check: negative/imaginary core charge=   -0.000003    0.000000

     Initial potential from superposition of free atoms
     Check: negative starting charge=   -3.334647

     starting charge  234.99967, renormalised to  239.00000

     negative rho (up, down):  0.339E+01 0.000E+00
     Number of +U iterations with fixed ns =  0
     Starting occupations:
 --- enter write_ns ---
 LDA+U parameters:
U( 2)     =  1.50000000
alpha( 2) =  0.00000000
atom    3   Tr[ns(na)] =   7.00000
    eigenvalues:
  0.700  0.700  0.700  0.700  0.700
    eigenvectors:
  1.000  0.000  0.000  0.000  0.000
  0.000  1.000  0.000  0.000  0.000
  0.000  0.000  1.000  0.000  0.000
  0.000  0.000  0.000  1.000  0.000
  0.000  0.000  0.000  0.000  1.000
    occupations:
  0.700  0.000  0.000  0.000  0.000
  0.000  0.700  0.000  0.000  0.000
  0.000  0.000  0.700  0.000  0.000
  0.000  0.000  0.000  0.700  0.000
  0.000  0.000  0.000  0.000  0.700
atom    4   Tr[ns(na)] =   7.00000
    eigenvalues:
  0.700  0.700  0.700  0.700  0.700
    eigenvectors:
  1.000  0.000  0.000  0.000  0.000
  0.000  1.000  0.000  0.000  0.000
  0.000  0.000  1.000  0.000  0.000
  0.000  0.000  0.000  1.000  0.000
  0.000  0.000  0.000  0.000  1.000
    occupations:
  0.700  0.000  0.000  0.000  0.000
  0.000  0.700  0.000  0.000  0.000
  0.000  0.000  0.700  0.000  0.000
  0.000  0.000  0.000  0.700  0.000
  0.000  0.000  0.000  0.000  0.700
atom    9   Tr[ns(na)] =   7.00000
    eigenvalues:
  0.700  0.700  0.700  0.700  0.700
    eigenvectors:
  1.000  0.000  0.000  0.000  0.000
  0.000  1.000  0.000  0.000  0.000
  0.000  0.000  1.000  0.000  0.000
  0.000  0.000  0.000  1.000  0.000
  0.000  0.000  0.000  0.000  1.000
    occupations:
  0.700  0.000  0.000  0.000  0.000
  0.000  0.700  0.000  0.000  0.000
  0.000  0.000  0.700  0.000  0.000
  0.000  0.000  0.000  0.700  0.000
  0.000  0.000  0.000  0.000  0.700
atom   10   Tr[ns(na)] =   7.00000
    eigenvalues:
  0.700  0.700  0.700  0.700  0.700
    eigenvectors:
  1.000  0.000  0.000  0.000  0.000
  0.000  1.000  0.000  0.000  0.000
  0.000  0.000  1.000  0.000  0.000
  0.000  0.000  0.000  1.000  0.000
  0.000  0.000  0.000  0.000  1.000
    occupations:
  0.700  0.000  0.000  0.000  0.000
  0.000  0.700  0.000  0.000  0.000
  0.000  0.000  0.700  0.000  0.000
  0.000  0.000  0.000  0.700  0.000
  0.000  0.000  0.000  0.000  0.700
atom   16   Tr[ns(na)] =   7.00000
    eigenvalues:
  0.700  0.700  0.700  0.700  0.700
    eigenvectors:
  1.000  0.000  0.000  0.000  0.000
  0.000  1.000  0.000  0.000  0.000
  0.000  0.000  1.000  0.000  0.000
  0.000  0.000  0.000  1.000  0.000
  0.000  0.000  0.000  0.000  1.000
    occupations:
  0.700  0.000  0.000  0.000  0.000
  0.000  0.700  0.000  0.000  0.000
  0.000  0.000  0.700  0.000  0.000
  0.000  0.000  0.000  0.700  0.000
  0.000  0.000  0.000  0.000  0.700
atom   17   Tr[ns(na)] =   7.00000
    eigenvalues:
  0.700  0.700  0.700  0.700  0.700
    eigenvectors:
  1.000  0.000  0.000  0.000  0.000
  0.000  1.000  0.000  0.000  0.000
  0.000  0.000  1.000  0.000  0.000
  0.000  0.000  0.000  1.000  0.000
  0.000  0.000  0.000  0.000  1.000
    occupations:
  0.700  0.000  0.000  0.000  0.000
  0.000  0.700  0.000  0.000  0.000
  0.000  0.000  0.700  0.000  0.000
  0.000  0.000  0.000  0.700  0.000
  0.000  0.000  0.000  0.000  0.700
atom   22   Tr[ns(na)] =   7.00000
    eigenvalues:
  0.700  0.700  0.700  0.700  0.700
    eigenvectors:
  1.000  0.000  0.000  0.000  0.000
  0.000  1.000  0.000  0.000  0.000
  0.000  0.000  1.000  0.000  0.000
  0.000  0.000  0.000  1.000  0.000
[...]
  0.668 -0.003 -0.000  0.032  0.001
 -0.003  0.911  0.010  0.000 -0.001
 -0.000  0.010  0.859 -0.000  0.000
  0.032  0.000 -0.000  0.977  0.000
  0.001 -0.001  0.000  0.000  0.619
atom    9   Tr[ns(na)] =   8.04602
    eigenvalues:
  0.651  0.665  0.842  0.887  0.978
    eigenvectors:
  0.000  0.142  0.000  0.000  0.858
  0.999  0.001  0.000  0.000  0.000
  0.000  0.000  0.999  0.001  0.000
  0.001  0.857  0.000  0.000  0.142
  0.000  0.000  0.001  0.999  0.000
    occupations:
  0.933 -0.000  0.000 -0.109 -0.001
 -0.000  0.651  0.000  0.000 -0.000
  0.000  0.000  0.842 -0.000 -0.001
 -0.109  0.000 -0.000  0.710  0.001
 -0.001 -0.000 -0.001  0.001  0.887
atom   10   Tr[ns(na)] =   8.05157
    eigenvalues:
  0.599  0.608  0.913  0.925  0.980
    eigenvectors:
  0.992  0.000  0.000  0.000  0.007
  0.000  0.000  1.000  0.000  0.000
  0.000  0.000  0.000  1.000  0.000
  0.007  0.000  0.000  0.000  0.993
  0.000  1.000  0.000  0.000  0.000
    occupations:
  0.602 -0.003  0.001  0.033 -0.000
 -0.003  0.913 -0.000 -0.000 -0.000
  0.001 -0.000  0.925 -0.000  0.002
  0.033 -0.000 -0.000  0.977 -0.000
 -0.000 -0.000  0.002 -0.000  0.608
atom   16   Tr[ns(na)] =   8.08905
    eigenvalues:
  0.605  0.631  0.877  0.957  0.975
    eigenvectors:
  0.003  0.184  0.003  0.001  0.810
  0.991  0.009  0.000  0.000  0.000
  0.000  0.000  0.979  0.019  0.003
  0.006  0.807  0.000  0.000  0.186
  0.000  0.000  0.018  0.980  0.002
    occupations:
  0.910  0.006  0.004 -0.134  0.002
  0.006  0.605  0.001  0.000 -0.005
  0.004  0.001  0.879 -0.004 -0.011
 -0.134  0.000 -0.004  0.695  0.000
  0.002 -0.005 -0.011  0.000  0.955
atom   17   Tr[ns(na)] =   8.06598
    eigenvalues:
  0.617  0.664  0.863  0.908  0.980
    eigenvectors:
  0.000  0.990  0.000  0.000  0.010
  0.000  0.000  0.066  0.934  0.000
  0.000  0.000  0.934  0.066  0.000
  0.000  0.010  0.000  0.000  0.990
  1.000  0.000  0.000  0.000  0.000
    occupations:
  0.667 -0.003 -0.001  0.031  0.001
 -0.003  0.905  0.011  0.000 -0.001
 -0.001  0.011  0.866 -0.000  0.000
  0.031  0.000 -0.000  0.977  0.000
  0.001 -0.001  0.000  0.000  0.617
atom   22   Tr[ns(na)] =   8.04094
    eigenvalues:
  0.651  0.666  0.837  0.889  0.978
    eigenvectors:
  0.000  0.141  0.000  0.000  0.859
  1.000  0.000  0.000  0.000  0.000
  0.000  0.000  1.000  0.000  0.000
  0.000  0.859  0.000  0.000  0.141
  0.000  0.000  0.000  1.000  0.000
    occupations:
  0.934  0.001 -0.000 -0.109 -0.000
  0.001  0.651  0.000 -0.000 -0.000
 -0.000  0.000  0.837 -0.000  0.001
 -0.109 -0.000 -0.000  0.710  0.000
 -0.000 -0.000  0.001  0.000  0.889
atom   23   Tr[ns(na)] =   8.04733
    eigenvalues:
  0.621  0.669  0.837  0.917  0.980
    eigenvectors:
  0.000  0.989  0.000  0.000  0.010
  0.000  0.000  0.000  0.999  0.000
  0.000  0.000  1.000  0.000  0.000
  0.000  0.010  0.000  0.000  0.990
  1.000  0.000  0.000  0.000  0.000
    occupations:
  0.672  0.005  0.000  0.031 -0.000
  0.005  0.917 -0.000 -0.000 -0.000
  0.000 -0.000  0.837  0.000 -0.001
  0.031 -0.000  0.000  0.977  0.000
 -0.000 -0.000 -0.001  0.000  0.621
N of occupied +U levels =  64.4965039
 --- exit write_ns ---

     Threshold (ethr) on eigenvalues was too large:
     Diagonalizing with lowered threshold

     Davidson diagonalization with overlap
     ethr =  1.01E-08,  avg # of iterations =  2.0

[...]

     total energy              =   -2106.85109464 Ry
     Harris-Foulkes estimate   =   -2106.85109464 Ry
     estimated scf accuracy    <       0.00000002 Ry

     iteration # 16     ecut=    40.00 Ry     beta=0.70
     Davidson diagonalization with overlap
     ethr =  6.54E-12,  avg # of iterations =  1.0

     negative rho (up, down):  0.313E+01 0.000E+00

     End of self-consistent calculation
 --- enter write_ns ---
 LDA+U parameters:
U( 2)     =  1.50000000
alpha( 2) =  0.00000000
atom    3   Tr[ns(na)] =   8.08969
    eigenvalues:
  0.604  0.631  0.878  0.957  0.975
    eigenvectors:
  0.002  0.184  0.003  0.000  0.810
  0.992  0.007  0.000  0.000  0.000
  0.000  0.000  0.975  0.022  0.003
  0.005  0.809  0.000  0.000  0.186
  0.000  0.000  0.022  0.977  0.001
    occupations:
  0.911 -0.005  0.004 -0.134 -0.002
 -0.005  0.604 -0.001  0.000 -0.005
  0.004 -0.001  0.880 -0.004  0.011
 -0.134  0.000 -0.004  0.695 -0.000
 -0.002 -0.005  0.011 -0.000  0.955
atom    4   Tr[ns(na)] =   8.06599
    eigenvalues:
  0.619  0.664  0.857  0.913  0.980
    eigenvectors:
  0.000  0.989  0.000  0.000  0.010
  0.000  0.000  0.035  0.965  0.000
  0.000  0.000  0.965  0.035  0.000
  0.000  0.010  0.000  0.000  0.990
  1.000  0.000  0.000  0.000  0.000
    occupations:
  0.668 -0.003 -0.000  0.032  0.001
 -0.003  0.911  0.010  0.000 -0.001
 -0.000  0.010  0.859 -0.000  0.000
  0.032  0.000 -0.000  0.977  0.000
  0.001 -0.001  0.000  0.000  0.619
atom    9   Tr[ns(na)] =   8.04541
    eigenvalues:
  0.651  0.665  0.842  0.887  0.978
    eigenvectors:
  0.000  0.142  0.000  0.000  0.858
  0.999  0.001  0.000  0.000  0.000
  0.000  0.000  0.999  0.001  0.000
  0.001  0.857  0.000  0.000  0.142
  0.000  0.000  0.001  0.999  0.000
    occupations:
  0.933 -0.000  0.000 -0.109 -0.001
 -0.000  0.651  0.000  0.000 -0.000
  0.000  0.000  0.842 -0.000 -0.001
 -0.109  0.000 -0.000  0.710  0.001
 -0.001 -0.000 -0.001  0.001  0.887
atom   10   Tr[ns(na)] =   8.05047
    eigenvalues:
  0.599  0.608  0.913  0.925  0.980
    eigenvectors:
  0.992  0.000  0.000  0.000  0.007
  0.000  0.000  1.000  0.000  0.000
  0.000  0.000  0.000  1.000  0.000
  0.007  0.000  0.000  0.000  0.993
  0.000  1.000  0.000  0.000  0.000
    occupations:
  0.602 -0.003  0.001  0.033 -0.000
 -0.003  0.913 -0.000 -0.000 -0.000
  0.001 -0.000  0.925 -0.000  0.002
  0.033 -0.000 -0.000  0.977 -0.000
 -0.000 -0.000  0.002 -0.000  0.608
atom   16   Tr[ns(na)] =   8.08921
    eigenvalues:
  0.605  0.631  0.877  0.957  0.975
    eigenvectors:
  0.003  0.184  0.003  0.001  0.810
  0.991  0.009  0.000  0.000  0.000
  0.000  0.000  0.979  0.018  0.003
  0.006  0.807  0.000  0.000  0.186
  0.000  0.000  0.018  0.980  0.002
    occupations:
  0.910  0.006  0.004 -0.134  0.002
  0.006  0.605  0.001  0.000 -0.005
  0.004  0.001  0.879 -0.004 -0.010
 -0.134  0.000 -0.004  0.695  0.000
  0.002 -0.005 -0.010  0.000  0.955
atom   17   Tr[ns(na)] =   8.06598
    eigenvalues:
  0.617  0.664  0.863  0.908  0.980
    eigenvectors:
  0.000  0.990  0.000  0.000  0.010
  0.000  0.000  0.066  0.934  0.000
  0.000  0.000  0.934  0.066  0.000
  0.000  0.010  0.000  0.000  0.990
  1.000  0.000  0.000  0.000  0.000
    occupations:
  0.667 -0.003 -0.001  0.031  0.001
 -0.003  0.905  0.011  0.000 -0.001
 -0.001  0.011  0.866 -0.000  0.000
  0.031  0.000 -0.000  0.977  0.000
  0.001 -0.001  0.000  0.000  0.617
atom   22   Tr[ns(na)] =   8.04036
    eigenvalues:
  0.651  0.666  0.836  0.889  0.978
    eigenvectors:
  0.000  0.141  0.000  0.000  0.859
  1.000  0.000  0.000  0.000  0.000
  0.000  0.000  1.000  0.000  0.000
  0.000  0.859  0.000  0.000  0.141
  0.000  0.000  0.000  1.000  0.000
    occupations:
  0.934  0.001 -0.000 -0.109 -0.000
  0.001  0.651  0.000 -0.000 -0.000
 -0.000  0.000  0.836 -0.000  0.001
 -0.109 -0.000 -0.000  0.710  0.000
 -0.000 -0.000  0.001  0.000  0.889
atom   23   Tr[ns(na)] =   8.04900
    eigenvalues:
  0.621  0.669  0.838  0.917  0.980
    eigenvectors:
  0.000  0.989  0.000  0.000  0.010
  0.000  0.000  0.000  0.999  0.000
  0.000  0.000  1.000  0.000  0.000
  0.000  0.010  0.000  0.000  0.990
  1.000  0.000  0.000  0.000  0.000
    occupations:
  0.672  0.005  0.000  0.031 -0.000
  0.005  0.917 -0.000 -0.000 -0.000
  0.000 -0.000  0.838  0.000 -0.001
  0.031 -0.000  0.000  0.977  0.000
 -0.000 -0.000 -0.001  0.000  0.621
N of occupied +U levels =  64.4961107
 --- exit write_ns ---

[...]

          k = 0.2500-0.4953 0.0000 ( 31088 PWs)   bands (ev):

[...]

          k =-0.2500 0.2476 0.0000 ( 31099 PWs)   bands (ev):

   -51.0429 -51.0243 -51.0074 -50.9698 -50.9030 -50.8709 -50.8669 -50.8521
   -50.8327 -50.8237 -50.7796 -50.7380 -50.7262 -50.7027 -50.6570 -50.6398
   -50.6341 -50.6151 -50.5507 -50.5350 -50.5154 -50.5061 -50.5000 -50.3672
   -21.4609 -21.0868 -21.0640 -20.9597 -20.6161 -20.4933 -20.4463 -20.3351
   -20.2303 -20.1698 -20.1049 -19.9827 -19.8949 -19.8723 -19.7881 -19.7092
   -19.5264 -18.7011 -18.5965  -9.8678  -9.7679  -9.6680  -9.3149  -8.9472
    -8.8500  -8.8156  -8.7182  -8.6747  -8.6011  -8.5659  -8.5240  -8.4505
    -8.3891  -8.0869  -8.0104  -7.9533  -7.7602  -7.5787  -7.4915  -7.3289
    -7.2171  -7.1118  -7.0907  -6.7184  -6.5709  -6.4929  -6.3620  -6.2592
    -6.1969  -6.1502  -6.0846  -5.9883  -5.9175  -5.8648  -5.7607  -5.6453
    -5.5572  -5.4820  -5.3085  -5.1140  -5.0139  -4.9009  -4.7628  -4.7051
    -4.5474  -4.5015  -4.3524  -4.2025  -4.1506  -3.9899  -3.8414  -3.6638
    -3.4811  -3.3516  -3.2906  -3.1150  -2.8790  -2.7679  -2.7068  -2.6885
    -2.6314  -2.5544  -2.4745  -2.4227  -2.3768  -2.3355  -2.2658  -2.1003
    -2.0728  -1.9610  -1.6602  -1.4926  -1.2494  -1.0874  -0.8938  -0.8758
    -0.8027  -0.6009  -0.4841  -0.2868  -0.0239   0.9621   0.9874   1.2642
     1.6379   1.7368   2.1595   2.2637   2.6549   2.7055   2.8332   2.9071
     3.1278   3.2869   3.3360   3.6850   3.8162   4.3001   4.8523   5.2742
     5.4569   5.6137   5.7086   6.0215   6.2848   6.5568   6.6529   6.6838
     6.7538   6.9402   7.1482   7.2260   7.3633   7.4371   7.5554   7.6841
     7.9172   8.0371   8.0838   8.1467   8.2591   8.4701   8.5000   8.5524
     8.7749   8.8410   8.9011   8.9083   8.9639   9.0462   9.0614   9.0667
     9.0770   9.0839   9.1669   9.1904   9.2082   9.2371   9.2456   9.4161
     9.5489   9.5922   9.6990   9.7522   9.8205   9.9400  10.0686  10.1428
    10.2220  10.3279  10.3779  10.4598  10.5046  10.5255  10.6057  10.8129
    10.8486  10.9844  11.0000  11.0890  11.1442  11.2334  11.3971  11.5239
    11.5633  11.6720  11.7068  11.7792  11.8205  11.9708  12.1767  12.1854
    12.2419  12.3243  12.3578  12.4199  12.5517  12.6348  12.6465  12.7221
    12.7792  12.8083  12.9216  12.9886  13.0564  13.1336  13.1935  13.2177
    13.3015  13.4069  13.4587  13.6317  13.6486  13.7851  13.8743  13.9192
    13.9894  14.0528  14.1345  14.2148  14.3054  14.3889  14.4596  14.5301
    14.6886  14.7411  14.7742  14.9154  15.0151  15.1657  15.2188  15.3029
    15.4162  15.4427  15.5119  15.5681  15.6128  15.7620  15.8024  15.8623
    15.9091  15.9530  15.9834  16.0859  16.1235  16.1731  16.2201  16.3003
    16.3661  16.4060  16.4196  16.5015  16.5370  16.6398  16.7075  16.7536
    16.8018  16.8902  17.0927  17.1330  17.1658  17.2990  17.3244  17.4131
    17.4685  17.5395  17.5506  17.6158  17.6832  17.7136  17.7510  17.8509
    17.9200  17.9599  18.0026  18.1264  18.2092  18.2566  18.3006  18.3720
    18.4758  18.5734  18.6349  18.6736  18.7658  18.8557  18.9148  18.9664
    19.0335  19.0996  19.1385  19.2196  19.2741  19.3273  19.3808  19.5410
    19.5670  19.6225  19.7016  19.7427  19.8553  19.9267  20.0072  20.0599
    20.1179  20.2216  20.3510  20.3815  20.4474  20.5666  20.6238  20.7089
    20.7497  20.7784  20.8724  20.8981  20.9363  20.9984  21.0661  21.1344
    21.1893  21.2923  21.3066  21.3729  21.4326  21.4606  21.5164  21.5773
    21.6940  21.7442  21.8127  21.8388  21.8915  21.9702

     the Fermi energy is    -0.8880 ev

!    total energy              =   -2106.85109464 Ry
     Harris-Foulkes estimate   =   -2106.85109464 Ry
     estimated scf accuracy    <          1.3E-09 Ry

     The total energy is the sum of the following terms:

     one-electron contribution =  -22739.41503368 Ry
     hartree contribution      =   11413.55053243 Ry
     xc contribution           =    -577.13643159 Ry
     ewald contribution        =    9795.55518936 Ry
     Hubbard energy            =       0.59509353 Ry
     smearing contrib. (-TS)   =      -0.00044469 Ry

     convergence has been achieved in  16 iterations

     Forces acting on atoms (Ry/au):

     negative rho (up, down):  0.313E+01 0.000E+00
     atom    1 type  1   force =    -0.00760129   -0.01359838   -0.00030225
     atom    2 type  1   force =     0.00047499    0.00491558    0.00087929
     atom    3 type  2   force =     0.03222745    0.00695634   -0.00039621
     atom    4 type  2   force =     0.00940673    0.00835983   -0.00020774
     atom    5 type  1   force =    -0.00284296   -0.01660422    0.00043871
     atom    6 type  1   force =     0.00418125    0.01420411    0.00045643
     atom    7 type  1   force =     0.00152170   -0.00182890   -0.00073846
     atom    8 type  1   force =    -0.00255362   -0.00069863    0.00005809
     atom    9 type  2   force =     0.00812172    0.00021651   -0.00019674
     atom   10 type  2   force =    -0.00748162   -0.00132014   -0.00067038
     atom   11 type  1   force =    -0.00607911    0.00970880    0.00012443
     atom   12 type  1   force =    -0.00594044   -0.00949475    0.00011363
     atom   13 type  1   force =    -0.00116360   -0.00011143    0.00009182
     atom   14 type  1   force =    -0.00828877   -0.01438569   -0.00023696
     atom   15 type  1   force =     0.00032693    0.00582877    0.00050654
     atom   16 type  2   force =    -0.03322087    0.00620742   -0.00030452
     atom   17 type  2   force =     0.00978763    0.00858470   -0.00014475
     atom   18 type  1   force =    -0.00250279   -0.01631851    0.00041986
     atom   19 type  1   force =     0.00350911    0.01495406    0.00043154
     atom   20 type  1   force =    -0.00105528   -0.00500939   -0.00065315
     atom   21 type  1   force =    -0.00413000   -0.00058908   -0.00018346
     atom   22 type  2   force =    -0.00531338    0.00048959   -0.00017524
     atom   23 type  2   force =     0.00228579   -0.00034040   -0.00020015
     atom   24 type  1   force =     0.00746491    0.01343805    0.00006469
     atom   25 type  1   force =     0.00809648   -0.01352669    0.00006436
     atom   26 type  1   force =    -0.00099655   -0.00020941   -0.00053652
     atom   27 type  3   force =    -0.00001757   -0.00020979    0.00046668
     atom   28 type  3   force =    -0.00000493    0.00000800    0.00043470
     atom   29 type  3   force =     0.00037703    0.00008120    0.00021671
     atom   30 type  3   force =     0.00017591    0.00029039    0.00016077
     atom   31 type  1   force =     0.00047406   -0.00003135    0.00054847
     atom   32 type  3   force =     0.00076110    0.00003339   -0.00053020

     Total force =     0.002516     Total SCF correction =     0.000066

     bfgs converged in   6 scf cycles and   5 bfgs steps
     (criteria: energy < 0.10E-03, force < 0.10E-02)

     End of BFGS Geometry Optimization

     Final energy   =   -2106.8510946391 Ry
Begin final coordinates

ATOMIC_POSITIONS (crystal)
O0       0.000000000   0.000000000   0.378476945    0   0   1
O0       0.000000000   0.500000000   0.402725191    0   0   1
Ir1      0.250000000   0.500000000   0.452768456    0   0   1
Ir1      0.000000000   0.000000000   0.453174238    0   0   1
O0       0.250000000   0.810000000   0.452853441    0   0   1
O0       0.250000000   0.190000000   0.452524122    0   0   1
O0       0.000000000   0.500000000   0.498655811    0   0   1
O0       0.000000000   0.000000000   0.528766256    0   0   1
Ir1      0.250000000   0.000000000   0.575828161    0   0   1
Ir1      0.000000000   0.500000000   0.571756325    0   0   1
O0       0.250000000   0.690000000   0.575737000    0   0   1
O0       0.250000000   0.310000000   0.575809752    0   0   1
O0       0.000000000   0.000000000   0.620417609    0   0   1
O0       0.500000000   0.000000000   0.378174058    0   0   1
O0       0.500000000   0.500000000   0.402102829    0   0   1
Ir1      0.750000000   0.500000000   0.452773877    0   0   1
Ir1      0.500000000   0.000000000   0.452976306    0   0   1
O0       0.750000000   0.810000000   0.452871518    0   0   1
O0       0.750000000   0.190000000   0.452517808    0   0   1
O0       0.500000000   0.500000000   0.499603459    0   0   1
O0       0.500000000   0.000000000   0.528729629    0   0   1
Ir1      0.750000000   0.000000000   0.575774534    0   0   1
Ir1      0.500000000   0.500000000   0.575349757    0   0   1
O0       0.750000000   0.690000000   0.574977108    0   0   1
O0       0.750000000   0.310000000   0.575074296    0   0   1
O0       0.500000000   0.000000000   0.620060902    0   0   1
H2      -0.000085219   0.633659532   0.383830336
H2       0.499990579   0.636687447   0.384489991
H2       0.143537260   0.033647879   0.366826120
H2       0.642979744   0.035647832   0.366543036
O0       0.515904282   0.499965596   0.648314905
H2       0.375110391   0.500364300   0.663796224
End final coordinates

     General routines

     Parallel routines
     Hubbard U routines

   This run was terminated on:  11:22:36  29Apr2014

   JOB DONE.