     Program PWSCF v.5.0.2 (svn rev. 9656) starts on 25May2014 at 21:37:36

     Current dimensions of program PWSCF are:
     Max number of different atomic species (ntypx) = 10
     Max number of k-points (npk) =  40000
     Max angular momentum in pseudopotentials (lmaxx) =  3
     Reading input from pwscf.in
Warning: card &CELL ignored
Warning: card / ignored

     Subspace diagonalization in iterative solution of the eigenvalue problem:
     a serial algorithm will be used

     bravais-lattice index     =            0
     lattice parameter (alat)  =      11.7919  a.u.
     unit-cell volume          =    7123.6633 (a.u.)^3
     number of atoms/cell      =           31
     number of atomic types    =            3
     number of electrons       =       246.00
     number of Kohn-Sham states=          357
     kinetic-energy cutoff     =      40.0000  Ry
     charge density cutoff     =     500.0000  Ry
     convergence threshold     =      1.0E-06
     mixing beta               =       0.2000
     number of iterations used =            8  plain     mixing
     Exchange-correlation      = SLA  PW   PBE  PBE ( 1 4 3 4 0)
     EXX-fraction              =        0.00
     nstep                     =           50

     celldm(1)=  11.791891  celldm(2)=   0.000000  celldm(3)=   0.000000
     celldm(4)=   0.000000  celldm(5)=   0.000000  celldm(6)=   0.000000

     crystal axes: (cart. coord. in units of alat)
               a(1) = (   1.000000   0.000000   0.000000 )
               a(2) = (   0.000000   1.026665   0.000000 )
               a(3) = (   0.000000   0.000000   4.231793 )

     reciprocal axes: (cart. coord. in units 2 pi/alat)
               b(1) = (  1.000000  0.000000  0.000000 )
               b(2) = (  0.000000  0.974028  0.000000 )
               b(3) = (  0.000000  0.000000  0.236306 )

     PseudoPot. # 1 for O  read from file:
     /home/camp/zhonxu/pseudo/o_pbe_v1.01.uspp.F.UPF
     MD5 check sum: 2bcb18d16ea4b960afae9ec6d52f22d2
     Pseudo is Ultrasoft + core correction, Zval =  6.0
     Generated by new atomic code, or converted to UPF format
     Using radial grid of  737 points,  5 beta functions with:
                l(1) =   0
                l(2) =   0
                l(3) =   1
                l(4) =   1
                l(5) =   2
     Q(r) pseudized with  8 coefficients,  rinner =    0.900   0.900   0.900
                                                       0.900   0.900

     PseudoPot. # 2 for Ru read from file:
     /home/camp/zhonxu/pseudo/ru_pbe_v1.uspp.F.UPF
     MD5 check sum: df00be1c11b23341d9806d8f1dfa10cf
     Pseudo is Ultrasoft + core correction, Zval = 16.0
     Generated by new atomic code, or converted to UPF format
     Using radial grid of  967 points,  6 beta functions with:
                l(1) =   0
                l(2) =   0
                l(3) =   1
                l(4) =   1
                l(5) =   2
                l(6) =   2
     Q(r) pseudized with  8 coefficients,  rinner =    1.300   1.300   1.300
                                                       1.300   1.300

     PseudoPot. # 3 for H  read from file:
     /home/camp/zhonxu/pseudo/h_pbe_v1.uspp.F.UPF
     MD5 check sum: 3408e3ff4ec8b0a4e358431e7e038a48
     Pseudo is Ultrasoft, Zval =  1.0
     Generated by new atomic code, or converted to UPF format
     Using radial grid of  615 points,  2 beta functions with:
                l(1) =   0
                l(2) =   0
     Q(r) pseudized with  8 coefficients,  rinner =    0.700

     atomic species   valence    mass     pseudopotential
        O0             6.00    15.99940     O ( 1.00)
        Ru1           16.00   101.07000     Ru( 1.00)
        H2             1.00     1.00794     H ( 1.00)

     Simplified LDA+U calculation (l_max = 2) with parameters (eV):
     atomic species    L          U    alpha       J0     beta
        Ru1            2     8.0000   0.0000   0.0000   0.0000

     No symmetry found

   Cartesian axes

     site n.     atom                  positions (alat units)
         1           O0  tau(   1) = (   0.0000000   0.0000000   1.6006333  )
         2           O0  tau(   2) = (   0.0000000   0.5133323   1.7090519  )
         3           Ru1 tau(   3) = (   0.2500000   0.5133323   1.9249579  )
         4           Ru1 tau(   4) = (   0.0000000   0.0000000   1.9138706  )
         5           O0  tau(   5) = (   0.2500000   0.8315984   1.9151825  )
         6           O0  tau(   6) = (   0.2500000   0.1950663   1.9148016  )
         7           O0  tau(   7) = (   0.0000000   0.5133323   2.1086177  )
         8           O0  tau(   8) = (   0.0000000   0.0000000   2.2256691  )
         9           Ru1 tau(   9) = (   0.2500000   0.0000000   2.4381898  )
        10           Ru1 tau(  10) = (   0.0000000   0.5133323   2.4080594  )
        11           O0  tau(  11) = (   0.2500000   0.7083986   2.4344235  )
        12           O0  tau(  12) = (   0.2500000   0.3182660   2.4336618  )
        13           O0  tau(  13) = (   0.0000000   0.0000000   2.6157981  )
        14           O0  tau(  14) = (   0.5000000   0.0000000   1.6005064  )
        15           O0  tau(  15) = (   0.5000000   0.5133323   1.7116333  )
        16           Ru1 tau(  16) = (   0.7500000   0.5133323   1.9249156  )
        17           Ru1 tau(  17) = (   0.5000000   0.0000000   1.9130666  )
        18           O0  tau(  18) = (   0.7500000   0.8315984   1.9150979  )
        19           O0  tau(  19) = (   0.7500000   0.1950663   1.9148440  )
        20           O0  tau(  20) = (   0.5000000   0.5133323   2.1279570  )
        21           O0  tau(  21) = (   0.5000000   0.0000000   2.2254152  )
        22           Ru1 tau(  22) = (   0.7500000   0.0000000   2.4382321  )
        23           Ru1 tau(  23) = (   0.5000000   0.5133323   2.4678123  )
        24           O0  tau(  24) = (   0.7500000   0.7083986   2.4345927  )
        25           O0  tau(  25) = (   0.7500000   0.3182660   2.4334925  )
        26           O0  tau(  26) = (   0.5000000   0.0000000   2.6078847  )
        27           H2  tau(  27) = (  -0.0002600   0.6438727   1.6192532  )
        28           H2  tau(  28) = (   0.4995800   0.6393041   1.6156985  )
        29           H2  tau(  29) = (   0.1450800   0.0331921   1.5470588  )
        30           H2  tau(  30) = (   0.6459600   0.0301326   1.5471435  )
        31           O0  tau(  31) = (   0.5000500   0.5106527   2.7413977  )

     number of k points=    10  Methfessel-Paxton smearing, width (Ry)=  0.0100
                       cart. coord. in units 2pi/alat
        k(    1) = (   0.0000000   0.0000000   0.0000000), wk =   0.1250000
        k(    2) = (   0.0000000   0.2435070   0.0000000), wk =   0.2500000
        k(    3) = (   0.0000000  -0.4870139   0.0000000), wk =   0.1250000
        k(    4) = (   0.2500000   0.0000000   0.0000000), wk =   0.2500000
        k(    5) = (   0.2500000   0.2435070   0.0000000), wk =   0.2500000
        k(    6) = (   0.2500000  -0.4870139   0.0000000), wk =   0.2500000
        k(    7) = (  -0.5000000   0.0000000   0.0000000), wk =   0.1250000
        k(    8) = (  -0.5000000   0.2435070   0.0000000), wk =   0.2500000
        k(    9) = (  -0.5000000  -0.4870139   0.0000000), wk =   0.1250000
        k(   10) = (  -0.2500000   0.2435070   0.0000000), wk =   0.2500000

     Largest allocated arrays     est. size (Mb)     dimensions
     Largest temporary arrays     est. size (Mb)     dimensions

     Check: negative/imaginary core charge=   -0.000003    0.000000

     Initial potential from superposition of free atoms
     Check: negative starting charge=   -0.520948

     starting charge  237.99981, renormalised to  246.00000

     negative rho (up, down):  0.538E+00 0.000E+00
     Number of +U iterations with fixed ns =  0
     Starting occupations:
 --- enter write_ns ---
 LDA+U parameters:
U( 2)     =  8.00000000
alpha( 2) =  0.00000000
atom    3   Tr[ns(na)] =   6.00000
    eigenvalues:
  0.600  0.600  0.600  0.600  0.600
    eigenvectors:
  1.000  0.000  0.000  0.000  0.000
  0.000  1.000  0.000  0.000  0.000
  0.000  0.000  1.000  0.000  0.000
  0.000  0.000  0.000  1.000  0.000
  0.000  0.000  0.000  0.000  1.000
    occupations:
  0.600  0.000  0.000  0.000  0.000
  0.000  0.600  0.000  0.000  0.000
  0.000  0.000  0.600  0.000  0.000
  0.000  0.000  0.000  0.600  0.000
  0.000  0.000  0.000  0.000  0.600
atom    4   Tr[ns(na)] =   6.00000
    eigenvalues:
  0.600  0.600  0.600  0.600  0.600
    eigenvectors:
  1.000  0.000  0.000  0.000  0.000
  0.000  1.000  0.000  0.000  0.000
  0.000  0.000  1.000  0.000  0.000
  0.000  0.000  0.000  1.000  0.000
  0.000  0.000  0.000  0.000  1.000
    occupations:
  0.600  0.000  0.000  0.000  0.000
  0.000  0.600  0.000  0.000  0.000
  0.000  0.000  0.600  0.000  0.000
  0.000  0.000  0.000  0.600  0.000
  0.000  0.000  0.000  0.000  0.600
atom    9   Tr[ns(na)] =   6.00000
    eigenvalues:
  0.600  0.600  0.600  0.600  0.600
    eigenvectors:
  1.000  0.000  0.000  0.000  0.000
  0.000  1.000  0.000  0.000  0.000
  0.000  0.000  1.000  0.000  0.000
  0.000  0.000  0.000  1.000  0.000
  0.000  0.000  0.000  0.000  1.000
    occupations:
  0.600  0.000  0.000  0.000  0.000
  0.000  0.600  0.000  0.000  0.000
  0.000  0.000  0.600  0.000  0.000
  0.000  0.000  0.000  0.600  0.000
  0.000  0.000  0.000  0.000  0.600
atom   10   Tr[ns(na)] =   6.00000
    eigenvalues:
  0.600  0.600  0.600  0.600  0.600
    eigenvectors:
  1.000  0.000  0.000  0.000  0.000
  0.000  1.000  0.000  0.000  0.000
  0.000  0.000  1.000  0.000  0.000
  0.000  0.000  0.000  1.000  0.000
  0.000  0.000  0.000  0.000  1.000
    occupations:
  0.600  0.000  0.000  0.000  0.000
  0.000  0.600  0.000  0.000  0.000
  0.000  0.000  0.600  0.000  0.000
  0.000  0.000  0.000  0.600  0.000
  0.000  0.000  0.000  0.000  0.600
atom   16   Tr[ns(na)] =   6.00000
    eigenvalues:
  0.600  0.600  0.600  0.600  0.600
    eigenvectors:
  1.000  0.000  0.000  0.000  0.000
  0.000  1.000  0.000  0.000  0.000
  0.000  0.000  1.000  0.000  0.000
  0.000  0.000  0.000  1.000  0.000
  0.000  0.000  0.000  0.000  1.000
    occupations:
  0.600  0.000  0.000  0.000  0.000
  0.000  0.600  0.000  0.000  0.000
  0.000  0.000  0.600  0.000  0.000
  0.000  0.000  0.000  0.600  0.000
  0.000  0.000  0.000  0.000  0.600
atom   17   Tr[ns(na)] =   6.00000
    eigenvalues:
  0.600  0.600  0.600  0.600  0.600
    eigenvectors:
  1.000  0.000  0.000  0.000  0.000
  0.000  1.000  0.000  0.000  0.000
  0.000  0.000  1.000  0.000  0.000
  0.000  0.000  0.000  1.000  0.000
  0.000  0.000  0.000  0.000  1.000
    occupations:
  0.600  0.000  0.000  0.000  0.000
  0.000  0.600  0.000  0.000  0.000
  0.000  0.000  0.600  0.000  0.000
  0.000  0.000  0.000  0.600  0.000
  0.000  0.000  0.000  0.000  0.600
atom   22   Tr[ns(na)] =   6.00000
    eigenvalues:
  0.600  0.600  0.600  0.600  0.600
    eigenvectors:
  1.000  0.000  0.000  0.000  0.000
  0.000  1.000  0.000  0.000  0.000
  0.000  0.000  1.000  0.000  0.000
  0.000  0.000  0.000  1.000  0.000
  0.000  0.000  0.000  0.000  1.000
    occupations:
  0.600  0.000  0.000  0.000  0.000
  0.000  0.600  0.000  0.000  0.000
[...]
atom   10   Tr[ns(na)] =   7.30365
    eigenvalues:
  0.480  0.513  0.750  0.926  0.982
    eigenvectors:
  0.982  0.000  0.000  0.001  0.017
  0.000  0.000  0.000  0.994  0.005
  0.000  0.001  0.999  0.000  0.000
  0.017  0.000  0.000  0.005  0.978
  0.000  0.999  0.001  0.000  0.000
    occupations:
  0.489  0.007  0.001  0.065  0.000
  0.007  0.927  0.003 -0.005  0.001
  0.001  0.003  0.749  0.000 -0.008
  0.065 -0.005  0.000  0.973  0.000
  0.000  0.001 -0.008  0.000  0.514
atom   16   Tr[ns(na)] =   7.22429
    eigenvalues:
  0.503  0.553  0.611  0.956  0.989
    eigenvectors:
  0.001  0.171  0.001  0.000  0.826
  0.997  0.002  0.000  0.001  0.000
  0.000  0.038  0.941  0.005  0.016
  0.001  0.789  0.053  0.000  0.157
  0.001  0.000  0.005  0.994  0.000
    occupations:
  0.914 -0.010  0.048 -0.158 -0.003
 -0.010  0.504 -0.003  0.002 -0.011
  0.048 -0.003  0.617 -0.009  0.024
 -0.158  0.002 -0.009  0.624 -0.001
 -0.003 -0.011  0.024 -0.001  0.954
atom   17   Tr[ns(na)] =   7.26844
    eigenvalues:
  0.546  0.579  0.610  0.912  0.988
    eigenvectors:
  0.003  0.000  0.978  0.000  0.019
  0.000  0.016  0.000  0.984  0.000
  0.003  0.981  0.000  0.016  0.000
  0.000  0.000  0.019  0.000  0.981
  0.993  0.003  0.003  0.000  0.000
    occupations:
  0.617 -0.002  0.000  0.052  0.004
 -0.002  0.906  0.041 -0.001 -0.002
  0.000  0.041  0.584  0.001  0.002
  0.052 -0.001  0.001  0.980 -0.000
  0.004 -0.002  0.002 -0.000  0.546
atom   22   Tr[ns(na)] =   7.22210
    eigenvalues:
  0.533  0.606  0.626  0.902  0.944
    eigenvectors:
  0.959  0.000  0.040  0.000  0.000
  0.001  0.973  0.026  0.000  0.000
  0.000  0.000  0.000  0.033  0.967
  0.039  0.027  0.934  0.000  0.000
  0.000  0.000  0.000  0.967  0.033
    occupations:
  0.537  0.003  0.005 -0.018  0.007
  0.003  0.606  0.002 -0.003 -0.000
  0.005  0.002  0.942 -0.000  0.007
 -0.018 -0.003 -0.000  0.622 -0.003
  0.007 -0.000  0.007 -0.003  0.904
atom   23   Tr[ns(na)] =   7.30739
    eigenvalues:
  0.587  0.667  0.678  0.733  0.989
    eigenvectors:
  0.000  0.006  0.985  0.002  0.008
  0.000  0.000  0.002  0.997  0.001
  0.006  0.988  0.006  0.000  0.000
  0.000  0.000  0.008  0.001  0.991
  0.994  0.006  0.000  0.000  0.000
    occupations:
  0.681 -0.003 -0.001  0.028 -0.000
 -0.003  0.733  0.000 -0.007 -0.000
 -0.001  0.000  0.666  0.000  0.006
  0.028 -0.007  0.000  0.986 -0.000
 -0.000 -0.000  0.006 -0.000  0.588
N of occupied +U levels =  58.1002804
 --- exit write_ns ---

     Threshold (ethr) on eigenvalues was too large:
     Diagonalizing with lowered threshold

     Davidson diagonalization with overlap
     ethr =  4.71E-09,  avg # of iterations =  3.0

[...]

     total energy              =   -2159.33376448 Ry
     Harris-Foulkes estimate   =   -2159.33376447 Ry
     estimated scf accuracy    <       0.00000001 Ry

     iteration # 12     ecut=    40.00 Ry     beta=0.20
     Davidson diagonalization with overlap
     ethr =  4.33E-12,  avg # of iterations =  1.0

     negative rho (up, down):  0.572E+00 0.000E+00

     End of self-consistent calculation
 --- enter write_ns ---
 LDA+U parameters:
U( 2)     =  8.00000000
alpha( 2) =  0.00000000
atom    3   Tr[ns(na)] =   7.22463
    eigenvalues:
  0.500  0.552  0.615  0.957  0.988
    eigenvectors:
  0.002  0.169  0.002  0.000  0.827
  0.996  0.002  0.000  0.001  0.000
  0.000  0.028  0.950  0.005  0.016
  0.002  0.800  0.042  0.000  0.156
  0.001  0.000  0.005  0.994  0.000
    occupations:
  0.912  0.010  0.047 -0.157  0.003
  0.010  0.501  0.003 -0.001 -0.011
  0.047  0.003  0.621 -0.009 -0.024
 -0.157 -0.001 -0.009  0.623 -0.000
  0.003 -0.011 -0.024 -0.000  0.955
atom    4   Tr[ns(na)] =   7.23881
    eigenvalues:
  0.536  0.555  0.614  0.927  0.988
    eigenvectors:
  0.000  0.010  0.968  0.000  0.021
  0.039  0.000  0.000  0.961  0.000
  0.950  0.010  0.000  0.039  0.000
  0.000  0.000  0.021  0.000  0.979
  0.011  0.979  0.010  0.000  0.000
    occupations:
  0.621 -0.005  0.001  0.054  0.006
 -0.005  0.911  0.076  0.001 -0.002
  0.001  0.076  0.551  0.003  0.002
  0.054  0.001  0.003  0.980  0.000
  0.006 -0.002  0.002  0.000  0.555
atom    9   Tr[ns(na)] =   7.30985
    eigenvalues:
  0.534  0.559  0.668  0.913  0.980
    eigenvectors:
  0.004  0.149  0.000  0.000  0.847
  0.982  0.018  0.000  0.000  0.000
  0.000  0.000  0.973  0.027  0.000
  0.014  0.833  0.000  0.000  0.153
  0.000  0.000  0.027  0.973  0.000
    occupations:
  0.916 -0.005 -0.004 -0.152  0.001
 -0.005  0.535  0.001 -0.001  0.000
 -0.004  0.001  0.675  0.001  0.040
 -0.152 -0.001  0.001  0.623 -0.001
  0.001  0.000  0.040 -0.001  0.906
atom   10   Tr[ns(na)] =   7.30418
    eigenvalues:
  0.480  0.513  0.750  0.927  0.982
    eigenvectors:
  0.982  0.000  0.000  0.001  0.017
  0.000  0.000  0.000  0.994  0.005
  0.000  0.001  0.999  0.000  0.000
  0.017  0.000  0.000  0.005  0.978
  0.000  0.999  0.001  0.000  0.000
    occupations:
  0.489  0.007  0.001  0.065  0.000
  0.007  0.927  0.003 -0.005  0.001
  0.001  0.003  0.750  0.000 -0.008
  0.065 -0.005  0.000  0.973  0.000
  0.000  0.001 -0.008  0.000  0.514
atom   16   Tr[ns(na)] =   7.22392
    eigenvalues:
  0.503  0.553  0.611  0.956  0.989
    eigenvectors:
  0.001  0.171  0.001  0.000  0.826
  0.997  0.002  0.000  0.001  0.000
  0.000  0.039  0.940  0.005  0.016
  0.001  0.789  0.054  0.000  0.157
  0.001  0.000  0.005  0.994  0.000
    occupations:
  0.914 -0.010  0.048 -0.158 -0.003
 -0.010  0.504 -0.003  0.002 -0.011
  0.048 -0.003  0.616 -0.009  0.024
 -0.158  0.002 -0.009  0.624 -0.001
 -0.003 -0.011  0.024 -0.001  0.954
atom   17   Tr[ns(na)] =   7.26824
    eigenvalues:
  0.546  0.579  0.610  0.912  0.988
    eigenvectors:
  0.003  0.000  0.978  0.000  0.019
  0.000  0.015  0.000  0.984  0.000
  0.003  0.981  0.000  0.016  0.000
  0.000  0.000  0.019  0.000  0.981
  0.994  0.003  0.003  0.000  0.000
    occupations:
  0.617 -0.002  0.000  0.052  0.004
 -0.002  0.906  0.041 -0.001 -0.002
  0.000  0.041  0.584  0.001  0.002
  0.052 -0.001  0.001  0.980 -0.000
  0.004 -0.002  0.002 -0.000  0.546
atom   22   Tr[ns(na)] =   7.22225
    eigenvalues:
  0.533  0.606  0.626  0.903  0.944
    eigenvectors:
  0.960  0.000  0.040  0.000  0.000
  0.001  0.973  0.026  0.000  0.000
  0.000  0.000  0.000  0.033  0.967
  0.039  0.027  0.934  0.000  0.000
  0.000  0.000  0.000  0.967  0.033
    occupations:
  0.537  0.003  0.005 -0.018  0.007
  0.003  0.606  0.002 -0.003 -0.000
  0.005  0.002  0.942 -0.000  0.007
 -0.018 -0.003 -0.000  0.622 -0.003
  0.007 -0.000  0.007 -0.003  0.904
atom   23   Tr[ns(na)] =   7.30771
    eigenvalues:
  0.587  0.667  0.678  0.733  0.989
    eigenvectors:
  0.000  0.006  0.985  0.002  0.008
  0.000  0.000  0.002  0.997  0.001
  0.006  0.988  0.006  0.000  0.000
  0.000  0.000  0.008  0.001  0.991
  0.994  0.006  0.000  0.000  0.000
    occupations:
  0.680 -0.003 -0.001  0.028 -0.000
 -0.003  0.733  0.000 -0.007 -0.000
 -0.001  0.000  0.666  0.000  0.006
  0.028 -0.007  0.000  0.986 -0.000
 -0.000 -0.000  0.006 -0.000  0.588
N of occupied +U levels =  58.0995919
 --- exit write_ns ---

[...]

          k = 0.2500-0.4870 0.0000 ( 30468 PWs)   bands (ev):

[...]

          k =-0.2500 0.2435 0.0000 ( 30434 PWs)   bands (ev):

   -74.6553 -74.2889 -73.8023 -73.6417 -73.4179 -73.4148 -73.4029 -73.1868
   -45.2660 -44.6338 -44.5291 -44.4444 -44.3337 -44.1392 -43.9697 -43.9298
   -43.7482 -43.7220 -43.6759 -43.6741 -43.6560 -43.5975 -43.5255 -43.5048
   -43.4437 -43.4336 -43.2930 -43.2237 -43.1189 -43.0962 -43.0804 -43.0034
   -20.7861 -20.4899 -20.3741 -20.3310 -20.1640 -20.1327 -20.0495 -19.9802
   -19.8639 -19.7890 -19.7673 -19.5310 -19.4289 -19.4171 -19.3873 -19.2352
   -19.1855 -19.1304 -18.8551  -9.9384  -9.7601  -9.5313  -9.4960  -9.4485
    -9.3077  -8.9895  -8.9612  -8.3063  -8.2085  -8.0857  -8.0508  -7.9768
    -7.9127  -7.8008  -7.6889  -7.6353  -7.5603  -7.4576  -7.1608  -6.9771
    -6.8952  -6.7640  -6.5805  -6.5020  -6.4093  -6.3584  -6.2629  -6.1645
    -6.0318  -6.0030  -5.9354  -5.8293  -5.7086  -5.5248  -5.4857  -5.4370
    -5.2963  -5.2566  -5.1265  -5.0807  -4.8846  -4.7383  -4.6325  -4.5481
    -4.4248  -4.3446  -4.2480  -4.1654  -4.0715  -4.0002  -3.8743  -3.7289
    -3.6454  -3.5373  -3.4495  -3.3391  -3.2970  -3.2424  -3.0481  -3.0009
    -2.9066  -2.7986  -2.7483  -2.6596  -2.5971  -2.5264  -2.4649  -2.3471
    -2.0691  -1.7716  -1.6250  -1.3601  -0.9684  -0.8589  -0.7912  -0.7398
    -0.5524  -0.4724  -0.3399   0.0277   1.2549   1.3405   1.6005   1.7498
     2.0195   2.5069   2.7184   2.8457   3.1290   3.2500   3.3564   3.4241
     3.5631   3.6630   3.8239   3.8473   4.2414   4.6491   4.7618   5.2333
     5.5352   5.5873   5.7647   6.3449   6.4903   6.5569   6.6358   6.7194
     6.8706   6.9235   7.0354   7.2587   7.5503   7.7616   7.8899   7.9834
     8.2216   8.3048   8.3597   8.4831   8.5703   8.6117   8.7051   8.8103
     8.9552   9.1916   9.2681   9.4025   9.5425   9.5990   9.8069   9.8784
    10.0317  10.0689  10.1275  10.1586  10.2690  10.3312  10.4161  10.4865
    10.5878  10.6496  10.7295  10.9047  10.9647  11.1213  11.2121  11.3083
    11.4153  11.5175  11.5870  11.6178  11.6632  11.8218  11.8749  11.9102
    11.9570  12.0185  12.1022  12.2067  12.2439  12.3522  12.4732  12.5482
    12.6034  12.6601  12.7446  12.7786  12.8554  12.8810  12.9964  13.0069
    13.1003  13.2071  13.3045  13.3934  13.4480  13.5245  13.6469  13.7066
    13.7723  13.8932  14.0044  14.0329  14.1376  14.2470  14.3051  14.3767
    14.4603  14.5106  14.5763  14.6626  14.7499  14.8502  14.9343  15.0076
    15.0930  15.1392  15.2352  15.3168  15.3604  15.4689  15.5361  15.5874
    15.6776  15.7298  15.7919  15.8438  15.9282  15.9687  16.0061  16.0866
    16.1281  16.2213  16.2901  16.3246  16.3538  16.4487  16.5321  16.6191
    16.6702  16.7574  16.7785  16.8354  16.9024  16.9556  17.0019  17.0912
    17.2091  17.2309  17.3484  17.4145  17.4377  17.5045  17.5353  17.6350
    17.6826  17.7402  17.8374  17.9114  17.9401  17.9699  18.0338  18.1028
    18.2055  18.2251  18.2959  18.3361  18.4408  18.5695  18.6091  18.6770
    18.6942  18.8183  18.8690  18.9128  19.0427  19.0827  19.1615  19.2110
    19.3053  19.4052  19.4428  19.5179  19.5633  19.6709  19.7533  19.8184
    19.8758  19.9198  20.0106  20.0334  20.1921  20.2315  20.3375  20.4218
    20.5547  20.5836  20.6609  20.7072  20.7975  20.8283  20.9056  20.9443
    20.9860  21.0695  21.1193  21.1778  21.2666  21.3211  21.3751  21.4197
    21.4963  21.5612  21.6020  21.7085  21.7467  21.7615  21.8184  21.9321
    21.9767  22.0253  22.0718  22.1073  22.1646

     the Fermi energy is    -1.4158 ev

!    total energy              =   -2159.33376449 Ry
     Harris-Foulkes estimate   =   -2159.33376449 Ry
     estimated scf accuracy    <          6.3E-09 Ry

     The total energy is the sum of the following terms:

     one-electron contribution =  -25104.77444245 Ry
     hartree contribution      =   12577.04626858 Ry
     xc contribution           =    -337.95487272 Ry
     ewald contribution        =   10702.49795898 Ry
     Hubbard energy            =       3.85154636 Ry
     smearing contrib. (-TS)   =      -0.00022325 Ry

     convergence has been achieved in  12 iterations

     Forces acting on atoms (Ry/au):

     negative rho (up, down):  0.572E+00 0.000E+00
     atom    1 type  1   force =    -0.00487972   -0.00679372    0.00026979
     atom    2 type  1   force =    -0.00052426   -0.00049364   -0.00026451
     atom    3 type  2   force =     0.02282995    0.00077107    0.00040532
     atom    4 type  2   force =     0.00601653    0.00597303    0.00012203
     atom    5 type  1   force =    -0.00529518   -0.06003338    0.00031656
     atom    6 type  1   force =     0.01027890    0.06639452    0.00023682
     atom    7 type  1   force =    -0.00426766   -0.00163857   -0.00018666
     atom    8 type  1   force =    -0.03864024   -0.00057982   -0.00058524
     atom    9 type  2   force =     0.02452991   -0.00004005   -0.00016335
     atom   10 type  2   force =    -0.00288661   -0.00231267    0.00014503
     atom   11 type  1   force =    -0.00272113    0.04483461   -0.00017166
     atom   12 type  1   force =    -0.00474807   -0.04497956   -0.00016347
     atom   13 type  1   force =    -0.04929273    0.00015384    0.00017422
     atom   14 type  1   force =    -0.00642970   -0.00603241    0.00045319
     atom   15 type  1   force =    -0.00026241    0.00133087   -0.00006015
     atom   16 type  2   force =    -0.02155830    0.01042967    0.00034950
     atom   17 type  2   force =     0.00743176    0.00467516    0.00002342
     atom   18 type  1   force =    -0.00765288   -0.06817459    0.00023462
     atom   19 type  1   force =     0.00780746    0.06044061    0.00026986
     atom   20 type  1   force =     0.00298685   -0.00372862   -0.00013112
     atom   21 type  1   force =     0.03867237   -0.00005441   -0.00018055
     atom   22 type  2   force =     0.01089413    0.00066199   -0.00032318
     atom   23 type  2   force =     0.01579191    0.00087241   -0.00015294
     atom   24 type  1   force =    -0.00581363   -0.01107337   -0.00004060
     atom   25 type  1   force =    -0.00658806    0.01012910   -0.00006452
     atom   26 type  1   force =     0.01447809    0.00037897    0.00041538
     atom   27 type  3   force =     0.00001552    0.00012828   -0.00022008
     atom   28 type  3   force =    -0.00003899   -0.00047619   -0.00062564
     atom   29 type  3   force =    -0.00017830   -0.00047549   -0.00011786
     atom   30 type  3   force =    -0.00023462   -0.00044876   -0.00003336
     atom   31 type  1   force =     0.00027911    0.00016111    0.00006915

     Total force =     0.001769     Total SCF correction =     0.000128

     entering subroutine stress ...

     negative rho (up, down):  0.572E+00 0.000E+00
          total   stress  (Ry/bohr**3)                   (kbar)     P=   -5.27
  -0.00001779   0.00001456  -0.00000933         -2.62      2.14     -1.37
   0.00001456  -0.00005307   0.00000388          2.14     -7.81      0.57
  -0.00000933   0.00000388  -0.00003659         -1.37      0.57     -5.38

     bfgs converged in  18 scf cycles and  17 bfgs steps
     (criteria: energy < 0.10E-03, force < 0.10E-02)

     End of BFGS Geometry Optimization

     Final energy   =   -2159.3337644925 Ry
Begin final coordinates

ATOMIC_POSITIONS (crystal)
O0       0.000000000   0.000000000   0.379404585    0   0   1
O0       0.000000000   0.500000000   0.402874353    0   0   1
Ru1      0.250000000   0.500000000   0.454030595    0   0   1
Ru1      0.000000000   0.000000000   0.452172874    0   0   1
O0       0.250000000   0.810000000   0.452699877    0   0   1
O0       0.250000000   0.190000000   0.452484674    0   0   1
O0       0.000000000   0.500000000   0.499963054    0   0   1
O0       0.000000000   0.000000000   0.525267209    0   0   1
Ru1      0.250000000   0.000000000   0.571946243    0   0   1
Ru1      0.000000000   0.500000000   0.569709112    0   0   1
O0       0.250000000   0.690000000   0.572144138    0   0   1
O0       0.250000000   0.310000000   0.572325958    0   0   1
O0       0.000000000   0.000000000   0.617902235    0   0   1
O0       0.500000000   0.000000000   0.379421491    0   0   1
O0       0.500000000   0.500000000   0.404307467    0   0   1
Ru1      0.750000000   0.500000000   0.454030074    0   0   1
Ru1      0.500000000   0.000000000   0.452528798    0   0   1
O0       0.750000000   0.810000000   0.452729640    0   0   1
O0       0.750000000   0.190000000   0.452653576    0   0   1
O0       0.500000000   0.500000000   0.504847554    0   0   1
O0       0.500000000   0.000000000   0.524762648    0   0   1
Ru1      0.750000000   0.000000000   0.580758024    0   0   1
Ru1      0.500000000   0.500000000   0.581428016    0   0   1
O0       0.750000000   0.690000000   0.578396162    0   0   1
O0       0.750000000   0.310000000   0.578306479    0   0   1
O0       0.500000000   0.000000000   0.616628215    0   0   1
H2      -0.000952519   0.626178172   0.381567310
H2       0.499324394   0.617860554   0.380377946
H2       0.146195976   0.031691593   0.367069148
H2       0.647149401   0.025211699   0.366954886
O0       0.476160554   0.498654480   0.645277661
End final coordinates

     General routines

     Parallel routines
     Hubbard U routines

   This run was terminated on:   3:33:20  27May2014

   JOB DONE.
Running PBS batch system epilogue script
Job id: 369798.audhumbla.fysik.dtu.dk
Username: zhonxu
Groupname: campgst
Jobname: RuO2/Eads-2-layers/O-U-8.0
Sessionid: 1926
Queuename: verylong
Accounting:
This job has allocated the following 16 nodes:
c037 c037 c037 c037 c037 c037 c037 c037 c005 c005 c005 c005 c005 c005 c005 c005
Finished epilogue job 369798.audhumbla.fysik.dtu.dk for zhonxu