     Program PWSCF v.5.0.2 (svn rev. 9656) starts on 26Apr2014 at 20:45:51

     Current dimensions of program PWSCF are:
     Max number of different atomic species (ntypx) = 10
     Max number of k-points (npk) =  40000
     Max angular momentum in pseudopotentials (lmaxx) =  3
     Reading input from pwscf.in
Warning: card &CELL ignored
Warning: card / ignored

     Subspace diagonalization in iterative solution of the eigenvalue problem:
     a serial algorithm will be used

     bravais-lattice index     =            0
     lattice parameter (alat)  =      11.1872  a.u.
     unit-cell volume          =   10442.1272 (a.u.)^3
     number of atoms/cell      =           50
     number of atomic types    =            3
     number of electrons       =       407.00
     number of Kohn-Sham states=          610
     kinetic-energy cutoff     =      40.0000  Ry
     charge density cutoff     =     500.0000  Ry
     convergence threshold     =      1.0E-06
     mixing beta               =       0.3000
     number of iterations used =            8  plain     mixing
     Exchange-correlation      = SLA  PW   PBE  PBE ( 1 4 3 4 0)
     EXX-fraction              =        0.00
     nstep                     =           50

     celldm(1)=  11.187179  celldm(2)=   0.000000  celldm(3)=   0.000000
     celldm(4)=   0.000000  celldm(5)=   0.000000  celldm(6)=   0.000000

     crystal axes: (cart. coord. in units of alat)
               a(1) = (   1.000000   0.000000   0.000000 )
               a(2) = (   0.000000   1.180104   0.000000 )
               a(3) = (   0.000000   0.000000   6.319854 )

     reciprocal axes: (cart. coord. in units 2 pi/alat)
               b(1) = (  1.000000  0.000000  0.000000 )
               b(2) = (  0.000000  0.847383  0.000000 )
               b(3) = (  0.000000  0.000000  0.158232 )

     PseudoPot. # 1 for O  read from file:
     /home/camp/zhonxu/pseudo/o_pbe_v1.01.uspp.F.UPF
     MD5 check sum: 2bcb18d16ea4b960afae9ec6d52f22d2
     Pseudo is Ultrasoft + core correction, Zval =  6.0
     Generated by new atomic code, or converted to UPF format
     Using radial grid of  737 points,  5 beta functions with:
                l(1) =   0
                l(2) =   0
                l(3) =   1
                l(4) =   1
                l(5) =   2
     Q(r) pseudized with  8 coefficients,  rinner =    0.900   0.900   0.900
                                                       0.900   0.900

     PseudoPot. # 2 for Nb read from file:
     /home/camp/zhonxu/pseudo/nb_pbe_v1.uspp.F.UPF
     MD5 check sum: 573aab8a2fa660278ed4a62cd769473f
     Pseudo is Ultrasoft + core correction, Zval = 13.0
     Generated by new atomic code, or converted to UPF format
     Using radial grid of  887 points,  6 beta functions with:
                l(1) =   0
                l(2) =   0
                l(3) =   1
                l(4) =   1
                l(5) =   2
                l(6) =   2
     Q(r) pseudized with  6 coefficients,  rinner =    1.000   1.000   1.000
                                                       1.000   1.000

     PseudoPot. # 3 for H  read from file:
     /home/camp/zhonxu/pseudo/h_pbe_v1.uspp.F.UPF
     MD5 check sum: 3408e3ff4ec8b0a4e358431e7e038a48
     Pseudo is Ultrasoft, Zval =  1.0
     Generated by new atomic code, or converted to UPF format
     Using radial grid of  615 points,  2 beta functions with:
                l(1) =   0
                l(2) =   0
     Q(r) pseudized with  8 coefficients,  rinner =    0.700

     atomic species   valence    mass     pseudopotential
        O0             6.00    15.99940     O ( 1.00)
        Nb1           13.00    92.90640     Nb( 1.00)
        H2             1.00     1.00794     H ( 1.00)

      2 Sym. Ops. (no inversion) found

   Cartesian axes

     site n.     atom                  positions (alat units)
         1           O0  tau(   1) = (   0.0000000   0.5900519   2.0270298  )
         2           Nb1 tau(   2) = (   0.2500000   0.5900519   2.2748313  )
         3           Nb1 tau(   3) = (   0.0000000   0.0000000   2.2748313  )
         4           O0  tau(   4) = (   0.2500000   0.9322821   2.2748313  )
         5           O0  tau(   5) = (   0.2500000   0.2478218   2.2748313  )
         6           O0  tau(   6) = (   0.0000000   0.5900519   2.5226959  )
         7           O0  tau(   7) = (   0.0000000   0.0000000   2.6170513  )
         8           Nb1 tau(   8) = (   0.2500000   0.0000000   2.8649160  )
         9           Nb1 tau(   9) = (   0.0000000   0.5900519   2.8649160  )
        10           O0  tau(  10) = (   0.2500000   0.8378738   2.8649160  )
        11           O0  tau(  11) = (   0.2500000   0.3422301   2.8649160  )
        12           O0  tau(  12) = (   0.0000000   0.0000000   3.1127175  )
        13           O0  tau(  13) = (  -0.0006600   0.5900519   3.2070729  )
        14           Nb1 tau(  14) = (   0.2764400   0.5900519   3.4510824  )
        15           Nb1 tau(  15) = (  -0.0006300   0.0000000   3.4539895  )
        16           O0  tau(  16) = (   0.2451700   0.9334976   3.4586662  )
        17           O0  tau(  17) = (   0.2451700   0.2466063   3.4586662  )
        18           O0  tau(  18) = (   0.0017500   0.5900519   3.6878241  )
        19           O0  tau(  19) = (  -0.0011900   0.0000000   3.8089125  )
        20           Nb1 tau(  20) = (   0.2306300   0.0000000   4.0553868  )
        21           Nb1 tau(  21) = (   0.0027600   0.5900519   4.0007833  )
        22           O0  tau(  22) = (   0.2526100   0.8309820   4.0551972  )
        23           O0  tau(  23) = (   0.2526100   0.3491219   4.0551972  )
        24           O0  tau(  24) = (  -0.0082600   0.0000000   4.2617300  )
        25           O0  tau(  25) = (   0.5000000   0.5900519   2.0270298  )
        26           Nb1 tau(  26) = (   0.7500000   0.5900519   2.2748313  )
        27           Nb1 tau(  27) = (   0.5000000   0.0000000   2.2748313  )
        28           O0  tau(  28) = (   0.7500000   0.9322821   2.2748313  )
        29           O0  tau(  29) = (   0.7500000   0.2478218   2.2748313  )
        30           O0  tau(  30) = (   0.5000000   0.5900519   2.5226959  )
        31           O0  tau(  31) = (   0.5000000   0.0000000   2.6170513  )
        32           Nb1 tau(  32) = (   0.7500000   0.0000000   2.8649160  )
        33           Nb1 tau(  33) = (   0.5000000   0.5900519   2.8649160  )
        34           O0  tau(  34) = (   0.7500000   0.8378738   2.8649160  )
        35           O0  tau(  35) = (   0.7500000   0.3422301   2.8649160  )
        36           O0  tau(  36) = (   0.5000000   0.0000000   3.1127175  )
        37           O0  tau(  37) = (   0.5027100   0.5900519   3.1938644  )
        38           Nb1 tau(  38) = (   0.7258700   0.5900519   3.4527256  )
        39           Nb1 tau(  39) = (   0.4995600   0.0000000   3.4568967  )
        40           O0  tau(  40) = (   0.7543100   0.9332026   3.4589190  )
        41           O0  tau(  41) = (   0.7543100   0.2469013   3.4589190  )
        42           O0  tau(  42) = (   0.4959600   0.5900519   3.7198026  )
        43           O0  tau(  43) = (   0.4983900   0.0000000   3.8079645  )
        44           Nb1 tau(  44) = (   0.7316100   0.0000000   4.0612011  )
        45           Nb1 tau(  45) = (   0.5090000   0.5900519   4.0672049  )
        46           O0  tau(  46) = (   0.7693000   0.8351713   4.0514685  )
        47           O0  tau(  47) = (   0.7693000   0.3449326   4.0514685  )
        48           O0  tau(  48) = (   0.4880700   0.0000000   4.2607820  )
        49           O0  tau(  49) = (   0.5083400   0.5900519   4.3902126  )
        50           H2  tau(  50) = (   0.4216100   0.5900519   4.5301342  )

     number of k points=     9  Methfessel-Paxton smearing, width (Ry)=  0.0100
                       cart. coord. in units 2pi/alat
        k(    1) = (   0.0000000   0.0000000   0.0000000), wk =   0.1250000
        k(    2) = (   0.0000000   0.2118458   0.0000000), wk =   0.2500000
        k(    3) = (   0.0000000  -0.4236915   0.0000000), wk =   0.1250000
        k(    4) = (   0.2500000   0.0000000   0.0000000), wk =   0.2500000
        k(    5) = (   0.2500000   0.2118458   0.0000000), wk =   0.5000000
        k(    6) = (   0.2500000  -0.4236915   0.0000000), wk =   0.2500000
        k(    7) = (  -0.5000000   0.0000000   0.0000000), wk =   0.1250000
        k(    8) = (  -0.5000000   0.2118458   0.0000000), wk =   0.2500000
        k(    9) = (  -0.5000000  -0.4236915   0.0000000), wk =   0.1250000

     Largest allocated arrays     est. size (Mb)     dimensions
     Largest temporary arrays     est. size (Mb)     dimensions

     Check: negative/imaginary core charge=   -0.000004    0.000000

     Initial potential from superposition of free atoms
     Check: negative starting charge=   -0.005342

     starting charge  406.95621, renormalised to  407.00000

     negative rho (up, down):  0.534E-02 0.000E+00
     Starting wfc are  341 randomized atomic wfcs

     Self-consistent Calculation

     iteration #  1     ecut=    40.00 Ry     beta=0.30
     Davidson diagonalization with overlap
     ethr =  1.00E-02,  avg # of iterations =  6.0

     negative rho (up, down):  0.479E-02 0.000E+00

     total energy              =   -2950.62265745 Ry
     Harris-Foulkes estimate   =   -2962.31270782 Ry
     estimated scf accuracy    <      26.24105019 Ry

[...]

     End of self-consistent calculation

          k = 0.0000 0.0000 0.0000 ( 44615 PWs)   bands (ev):

   -55.1235 -55.0059 -54.8018 -54.7627 -54.7182 -54.7150 -54.6820 -54.6392
   -54.6369 -54.6311 -54.5736 -54.5567 -54.5327 -54.4950 -54.2493 -54.1159
   -32.0412 -31.3653 -31.3594 -31.3328 -31.3262 -31.3085 -31.2351 -31.2096
   -31.1951 -31.1361 -31.0990 -31.0904 -31.0628 -31.0133 -30.9910 -30.9870
   -30.9738 -30.9510 -30.9109 -30.9015 -30.8977 -30.8883 -30.8476 -30.8132
   -30.8081 -30.8036 -30.7962 -30.6994 -30.6909 -30.6309 -30.6153 -30.6066
   -30.5762 -30.5668 -30.5242 -30.5234 -30.5080 -30.5068 -30.5039 -30.4891
   -30.4507 -30.4123 -30.3724 -30.3488 -30.3472 -30.2738 -30.0990 -29.7128
   -18.2842 -18.1786 -18.0823 -18.0279 -17.9452 -17.9122 -17.7898 -17.7572
   -17.6763 -17.6100 -17.4828 -17.4470 -17.4318 -17.3958 -17.3912 -17.2752
   -17.1254 -17.0831 -17.0686 -17.0414 -17.0278 -17.0129 -16.9549 -16.8915
   -16.7676 -16.7139 -16.7003 -16.6577 -16.5974 -16.4804 -16.3351 -15.4980
   -15.3741  -6.6513  -6.1867  -6.1769  -6.1620  -6.1433  -5.9546  -5.8378
    -5.5126  -5.4737  -5.4352  -5.3854  -5.2145  -5.1834  -5.1752  -5.1267
    -5.0504  -4.9761  -4.9672  -4.8711  -4.8546  -4.7948  -4.7302  -4.7056
    -4.6378  -4.6348  -4.4974  -4.3872  -4.3852  -4.3606  -4.3135  -4.3005
    -4.2069  -4.1216  -4.0425  -4.0086  -4.0070  -3.9820  -3.9656  -3.9299
    -3.9032  -3.8557  -3.8269  -3.7974  -3.7836  -3.7718  -3.6142  -3.6082
    -3.5891  -3.5111  -3.2229  -3.1623  -3.1191  -3.0567  -3.0373  -2.9944
    -2.9892  -2.8516  -2.8490  -2.7737  -2.7154  -2.6876  -2.6777  -2.6044
    -2.5742  -2.4549  -2.4315  -2.3694  -2.3441  -2.3383  -2.3118  -2.2806
    -2.2063  -2.1943  -2.1496  -2.0657  -2.0468  -2.0389  -1.9539  -1.9508
[...]
O0      -0.000757149   0.500000000   0.507525803
Nb1      0.276172686   0.500000000   0.546088137
Nb1     -0.000514208   0.000000000   0.546504682
O0       0.244870309   0.790935114   0.547242502
O0       0.244870309   0.209064886   0.547242502
O0       0.001373672   0.500000000   0.583539812
O0      -0.000729452   0.000000000   0.602700086
Nb1      0.230956448   0.000000000   0.641711696
Nb1      0.002783240   0.500000000   0.633079498
O0       0.252368778   0.704311938   0.641681886
O0       0.252368778   0.295688062   0.641681886
O0      -0.008366450   0.000000000   0.674285359
O0       0.500000000   0.500000000   0.320740000    0   0   0
Nb1      0.750000000   0.500000000   0.359950000    0   0   0
Nb1      0.500000000   0.000000000   0.359950000    0   0   0
O0       0.750000000   0.790000000   0.359950000    0   0   0
O0       0.750000000   0.210000000   0.359950000    0   0   0
O0       0.500000000   0.500000000   0.399170000    0   0   0
O0       0.500000000   0.000000000   0.414100000    0   0   0
Nb1      0.750000000   0.000000000   0.453320000    0   0   0
Nb1      0.500000000   0.500000000   0.453320000    0   0   0
O0       0.750000000   0.710000000   0.453320000    0   0   0
O0       0.750000000   0.290000000   0.453320000    0   0   0
O0       0.500000000   0.000000000   0.492530000    0   0   0
O0       0.502478173   0.500000000   0.505353667
Nb1      0.725995719   0.500000000   0.546301621
Nb1      0.499374184   0.000000000   0.547013335
O0       0.754356150   0.790970402   0.547405252
O0       0.754356150   0.209029598   0.547405252
O0       0.496390733   0.500000000   0.588630951
O0       0.498498280   0.000000000   0.602448173
Nb1      0.731801874   0.000000000   0.642581527
Nb1      0.508797730   0.500000000   0.643515094
O0       0.769240589   0.707675227   0.641016474
O0       0.769240589   0.292324773   0.641016474
O0       0.488664049   0.000000000   0.674255064
O0       0.508391841   0.500000000   0.694647912
H2       0.422319158   0.500000000   0.716837101

     Check: negative starting charge=   -0.005342
     NEW-OLD atomic charge density approx. for the potential

     Check: negative/imaginary core charge=   -0.000004    0.000000
     Check: negative starting charge=   -0.005342

[...]

     Self-consistent Calculation

[...]

     Threshold (ethr) on eigenvalues was too large:
     Diagonalizing with lowered threshold

     Davidson diagonalization with overlap
     ethr =  5.03E-09,  avg # of iterations =  2.3

[...]

     total energy              =   -2955.50153477 Ry
     Harris-Foulkes estimate   =   -2955.50153477 Ry
     estimated scf accuracy    <       0.00000002 Ry

     iteration # 11     ecut=    40.00 Ry     beta=0.30
     Davidson diagonalization with overlap
     ethr =  4.16E-12,  avg # of iterations =  1.0

     negative rho (up, down):  0.474E-02 0.000E+00

     End of self-consistent calculation

[...]

          k = 0.2500-0.4237 0.0000 ( 44580 PWs)   bands (ev):

[...]

          k =-0.5000-0.4237 0.0000 ( 44696 PWs)   bands (ev):

   -55.1054 -55.0265 -54.7792 -54.7363 -54.7316 -54.7160 -54.6774 -54.6766
   -54.6185 -54.5974 -54.5973 -54.5523 -54.5357 -54.5352 -54.2393 -54.1321
   -31.5874 -31.5418 -31.3278 -31.2541 -31.1689 -31.1539 -31.1175 -31.0936
   -30.9789 -30.9724 -30.9669 -30.9624 -30.9503 -30.9503 -30.9258 -30.9120
   -30.9113 -30.9076 -30.9012 -30.8930 -30.8754 -30.8722 -30.8709 -30.8541
   -30.7860 -30.7849 -30.7843 -30.7665 -30.7359 -30.7215 -30.7160 -30.6986
   -30.6982 -30.6943 -30.6579 -30.6167 -30.6150 -30.6138 -30.6039 -30.6021
   -30.6009 -30.5297 -30.5294 -30.5251 -30.5209 -30.3073 -30.1503 -29.9206
   -18.1833 -17.7719 -17.6804 -17.6069 -17.5469 -17.5464 -17.5224 -17.5146
   -17.4944 -17.4797 -17.4470 -17.4145 -17.4023 -17.3660 -17.3347 -17.3341
   -17.1915 -17.1683 -17.1248 -17.1113 -17.0915 -17.0757 -17.0468 -17.0464
   -17.0433 -17.0369 -16.9927 -16.9637 -16.9388 -16.9330 -16.4450 -15.5310
   -15.5290  -6.6420  -5.6996  -5.4819  -5.4604  -5.4456  -5.3914  -5.2876
    -5.2857  -5.2327  -5.2266  -5.2119  -5.1433  -5.0670  -5.0558  -5.0316
    -4.9290  -4.9010  -4.8531  -4.7508  -4.7440  -4.7022  -4.6116  -4.5686
    -4.5088  -4.4930  -4.4594  -4.4069  -4.3679  -4.3595  -4.3258  -4.2988
    -4.2648  -4.1261  -4.0863  -4.0459  -4.0191  -4.0090  -4.0064  -3.9673
    -3.9480  -3.9211  -3.9203  -3.8961  -3.8846  -3.8634  -3.7959  -3.6452
    -3.5089  -3.4913  -3.4824  -3.4397  -3.3806  -3.3737  -3.3561  -3.3386
    -3.0851  -3.0721  -3.0275  -2.9995  -2.9508  -2.8480  -2.8409  -2.8388
    -2.8006  -2.7872  -2.7519  -2.7065  -2.6677  -2.6443  -2.5971  -2.5804
    -2.5533  -2.4887  -2.4093  -2.3173  -2.2192  -2.1732  -2.1350  -2.1270
    -2.0464  -1.9880  -1.9538  -1.9175  -1.8166  -1.7413  -1.6863  -1.6800
    -1.6469  -1.5538  -1.4857  -1.4772  -1.3542  -1.3307  -1.2413  -1.0862
    -0.8270  -0.8228  -0.7112  -0.7097   1.6225   2.0483   2.0703   2.0743
     2.2163   2.2315   2.2702   2.3307   2.3361   2.3533   2.4147   2.4776
     2.5002   2.5340   2.5866   2.6268   2.7835   2.7929   2.8837   2.9240
     3.0599   3.0814   3.1837   3.2357   3.2453   3.2720   3.2760   3.3152
     3.3291   3.3820   3.3852   3.5095   3.5782   3.6141   3.6590   3.6755
     3.8295   3.8330   3.8822   3.9179   3.9523   4.0090   4.0614   4.1592
     4.1686   4.1700   4.2686   4.3451   4.5192   4.5503   5.1334   5.4824
     5.5058   5.6718   5.8137   5.8595   5.8810   5.8828   5.8849   6.0397
     6.1959   6.3288   6.3429   6.4912   6.8376   6.9794   7.0077   7.0923
     7.1110   7.1403   7.1726   7.3201   7.3477   7.3615   7.3815   7.5664
     7.5930   7.6292   7.6848   7.7417   7.7839   7.8117   7.8266   7.9101
     7.9263   7.9637   7.9855   8.0230   8.0766   8.1278   8.1571   8.1859
     8.2659   8.2959   8.3239   8.3829   8.4905   8.5525   8.6067   8.7193
     8.9554   8.9890   9.0311   9.2124   9.3146   9.3244   9.3477   9.4353
     9.7178   9.7418   9.7489   9.8499   9.8946   9.9006   9.9095   9.9531
    10.4941  10.5236  10.5284  10.5690  10.5745  10.6361  10.6651  10.7057
    11.1623  11.2487  11.2916  11.3957  11.6230  11.6801  11.7711  11.8498
    11.9275  12.4712  12.5356  12.5900  12.6310  12.6796  12.7362  12.8349
    12.8618  12.9218  12.9737  13.0693  13.1332  13.1936  13.2332  13.2443
    13.3355  13.4027  13.4243  13.5431  13.6055  13.6477  13.6670  13.7198
    13.7377  13.7377  13.7885  13.8424  13.8571  13.8988  13.9396  13.9641
    13.9894  14.0512  14.0906  14.0995  14.1081  14.1467  14.1833  14.2038
    14.2285  14.2703  14.2724  14.2927  14.3604  14.3690  14.4122  14.4601
    14.4949  14.5070  14.5590  14.6127  14.6420  14.6737  14.7267  14.7556
    14.7759  14.8042  14.8391  14.8582  14.9177  14.9201  15.0068  15.0111
    15.1511  15.1565  15.2484  15.2845  15.2885  15.3010  15.3399  15.3888
    15.3916  15.4989  15.5246  15.5548  15.6062  15.6154  15.6156  15.6239
    15.6802  15.7174  15.7880  15.8742  16.0212  16.0493  16.0719  16.0719
    16.2024  16.2040  16.2596  16.3115  16.3291  16.3733  16.3911  16.4313
    16.4757  16.5135  16.5535  16.5624  16.5978  16.6332  16.6484  16.6833
    16.8018  16.8288  16.8560  16.8893  16.9746  16.9807  17.0596  17.0791
    17.1916  17.2222  17.2552  17.2726  17.3500  17.3709  17.3983  17.4098
    17.4556  17.4803  17.5413  17.5721  17.6136  17.6506  17.6610  17.6776
    17.9277  18.0025  18.0188  18.0693  18.0900  18.1189  18.1261  18.2674
    18.3029  18.3753  18.4167  18.5037  18.5552  18.5863  18.6368  18.6655
    18.8743  18.9114  18.9329  19.0142  19.0451  19.0860  19.1262  19.1596
[...]
    19.9421  20.0069  20.0194  20.0247  20.0869  20.1206  20.1421  20.1433
    20.2100  20.3264  20.3474  20.4483  20.6588  20.8034  20.8224  20.8259
    20.8768  20.9251  20.9727  20.9874  21.0730  21.0787  21.1102  21.2554
    21.2568  21.3228  21.3243  21.3681  21.4193  21.4971  21.5438  21.6558
    21.7414  21.7588  21.8094  21.8849  21.9173  21.9441  22.0640  22.0741
    22.0834  22.1102  22.1965  22.2340  22.2695  22.2939  22.3278  22.4039
    22.4286  22.4362  22.4782  22.4935  22.5562  22.5842  22.6059  22.6441
    22.6457  22.6891  22.7274  22.7389  22.7595  22.7723  22.7878  22.8152
    22.8156  22.8476  22.8522  22.9202  22.9447  22.9893  23.0284  23.0602
    23.0651  23.0810  23.1176  23.1523  23.1994  23.2032  23.2450  23.2583
    23.2779  23.3278  23.3468  23.4259  23.4562  23.4640  23.5095  23.5525
    23.5647  23.5827  23.6245  23.6773  23.7279  23.7390  23.7911  23.8531
    23.8920  23.9121  23.9157  23.9475  24.1589  24.1589  24.2216  24.2292
    24.2435  24.3345  24.3448  24.3517  24.4482  24.5061  24.5227  24.5981
    24.6296  24.6408

     the Fermi energy is     2.0797 ev

!    total energy              =   -2955.50153477 Ry
     Harris-Foulkes estimate   =   -2955.50153477 Ry
     estimated scf accuracy    <          7.4E-09 Ry

     The total energy is the sum of the following terms:

     one-electron contribution =  -65391.12744275 Ry
     hartree contribution      =   32758.44609830 Ry
     xc contribution           =    -532.56547326 Ry
     ewald contribution        =   30209.74772060 Ry
     smearing contrib. (-TS)   =      -0.00243766 Ry

     convergence has been achieved in  11 iterations

     Forces acting on atoms (Ry/au):

     negative rho (up, down):  0.474E-02 0.000E+00
     atom    1 type  1   force =     0.00013884    0.00000000    0.14368776
     atom    2 type  2   force =     0.00282412    0.00000000   -0.14931659
     atom    3 type  2   force =    -0.00012477    0.00000000    0.07838343
     atom    4 type  1   force =     0.00022233    0.01601897   -0.01262382
     atom    5 type  1   force =     0.00022233   -0.01601897   -0.01262382
     atom    6 type  1   force =    -0.00053565    0.00000000   -0.02296783
     atom    7 type  1   force =    -0.00016454    0.00000000   -0.03228419
     atom    8 type  2   force =     0.00159914    0.00000000   -0.00797862
     atom    9 type  2   force =     0.00052140    0.00000000    0.04990557
     atom   10 type  1   force =    -0.00054093   -0.00008889   -0.00324543
     atom   11 type  1   force =    -0.00054093    0.00008889   -0.00324543
     atom   12 type  1   force =    -0.00084264    0.00000000    0.01149212
     atom   13 type  1   force =    -0.00021855    0.00000000   -0.00024156
     atom   14 type  2   force =     0.00074931    0.00000000    0.00057043
     atom   15 type  2   force =    -0.00004901    0.00000000    0.00046606
     atom   16 type  1   force =    -0.00010626   -0.00006984   -0.00026723
     atom   17 type  1   force =    -0.00010626    0.00006984   -0.00026723
     atom   18 type  1   force =     0.00009837    0.00000000    0.00027911
     atom   19 type  1   force =     0.00069278    0.00000000    0.00002843
     atom   20 type  2   force =    -0.00012836    0.00000000    0.00032177
     atom   21 type  2   force =    -0.00028166    0.00000000   -0.00026957
     atom   22 type  1   force =     0.00013486   -0.00003938    0.00012328
     atom   23 type  1   force =     0.00013486    0.00003938    0.00012328
     atom   24 type  1   force =     0.00049352    0.00000000    0.00025748
     atom   25 type  1   force =    -0.00000782    0.00000000    0.14340946
     atom   26 type  2   force =    -0.00293700    0.00000000   -0.14941938
     atom   27 type  2   force =    -0.00011718    0.00000000    0.07671706
     atom   28 type  1   force =    -0.00003170    0.01609915   -0.01266223
     atom   29 type  1   force =    -0.00003170   -0.01609915   -0.01266223
     atom   30 type  1   force =     0.00072314    0.00000000   -0.02866082
     atom   31 type  1   force =    -0.00023264    0.00000000   -0.03238787
     atom   32 type  2   force =    -0.00033948    0.00000000   -0.00842818
     atom   33 type  2   force =    -0.00085632    0.00000000   -0.02859222
     atom   34 type  1   force =     0.00034338    0.00017457   -0.00361950
     atom   35 type  1   force =     0.00034338   -0.00017457   -0.00361950
     atom   36 type  1   force =    -0.00048672    0.00000000    0.02008074
     atom   37 type  1   force =    -0.00029166    0.00000000    0.00039781
     atom   38 type  2   force =    -0.00059969    0.00000000    0.00010269
     atom   39 type  2   force =    -0.00008915    0.00000000   -0.00019771
     atom   40 type  1   force =    -0.00018918   -0.00019696    0.00043338
     atom   41 type  1   force =    -0.00018918    0.00019696    0.00043338
     atom   42 type  1   force =    -0.00014851    0.00000000   -0.00072453
     atom   43 type  1   force =    -0.00009197    0.00000000    0.00072905
     atom   44 type  2   force =     0.00054966    0.00000000   -0.00056069
     atom   45 type  2   force =    -0.00007985    0.00000000    0.00048794
     atom   46 type  1   force =    -0.00023224    0.00009323   -0.00030895
     atom   47 type  1   force =    -0.00023224   -0.00009323   -0.00030895
     atom   48 type  1   force =    -0.00000977    0.00000000   -0.00079540
     atom   49 type  1   force =     0.00014901    0.00000000   -0.00064916
     atom   50 type  3   force =     0.00089306    0.00000000    0.00049838

     Total force =     0.002860     Total SCF correction =     0.000169

     bfgs converged in   4 scf cycles and   3 bfgs steps
     (criteria: energy < 0.10E-03, force < 0.10E-02)

     End of BFGS Geometry Optimization

     Final energy   =   -2955.5015347651 Ry
Begin final coordinates

ATOMIC_POSITIONS (crystal)
O0       0.000000000   0.500000000   0.320740000    0   0   0
Nb1      0.250000000   0.500000000   0.359950000    0   0   0
Nb1      0.000000000   0.000000000   0.359950000    0   0   0
O0       0.250000000   0.790000000   0.359950000    0   0   0
O0       0.250000000   0.210000000   0.359950000    0   0   0
O0       0.000000000   0.500000000   0.399170000    0   0   0
O0       0.000000000   0.000000000   0.414100000    0   0   0
Nb1      0.250000000   0.000000000   0.453320000    0   0   0
Nb1      0.000000000   0.500000000   0.453320000    0   0   0
O0       0.250000000   0.710000000   0.453320000    0   0   0
O0       0.250000000   0.290000000   0.453320000    0   0   0
O0       0.000000000   0.000000000   0.492530000    0   0   0
O0      -0.000757149   0.500000000   0.507525803
Nb1      0.276172686   0.500000000   0.546088137
Nb1     -0.000514208   0.000000000   0.546504682
O0       0.244870309   0.790935114   0.547242502
O0       0.244870309   0.209064886   0.547242502
O0       0.001373672   0.500000000   0.583539812
O0      -0.000729452   0.000000000   0.602700086
Nb1      0.230956448   0.000000000   0.641711696
Nb1      0.002783240   0.500000000   0.633079498
O0       0.252368778   0.704311938   0.641681886
O0       0.252368778   0.295688062   0.641681886
O0      -0.008366450   0.000000000   0.674285359
O0       0.500000000   0.500000000   0.320740000    0   0   0
Nb1      0.750000000   0.500000000   0.359950000    0   0   0
Nb1      0.500000000   0.000000000   0.359950000    0   0   0
O0       0.750000000   0.790000000   0.359950000    0   0   0
O0       0.750000000   0.210000000   0.359950000    0   0   0
O0       0.500000000   0.500000000   0.399170000    0   0   0
O0       0.500000000   0.000000000   0.414100000    0   0   0
Nb1      0.750000000   0.000000000   0.453320000    0   0   0
Nb1      0.500000000   0.500000000   0.453320000    0   0   0
O0       0.750000000   0.710000000   0.453320000    0   0   0
O0       0.750000000   0.290000000   0.453320000    0   0   0
O0       0.500000000   0.000000000   0.492530000    0   0   0
O0       0.502478173   0.500000000   0.505353667
Nb1      0.725995719   0.500000000   0.546301621
Nb1      0.499374184   0.000000000   0.547013335
O0       0.754356150   0.790970402   0.547405252
O0       0.754356150   0.209029598   0.547405252
O0       0.496390733   0.500000000   0.588630951
O0       0.498498280   0.000000000   0.602448173
Nb1      0.731801874   0.000000000   0.642581527
Nb1      0.508797730   0.500000000   0.643515094
O0       0.769240589   0.707675227   0.641016474
O0       0.769240589   0.292324773   0.641016474
O0       0.488664049   0.000000000   0.674255064
O0       0.508391841   0.500000000   0.694647912
H2       0.422319158   0.500000000   0.716837101
End final coordinates

     General routines

     Parallel routines

   This run was terminated on:   1:57:12  27Apr2014

   JOB DONE.
Running PBS batch system epilogue script
Job id: 339878.audhumbla.fysik.dtu.dk
Username: zhonxu
Groupname: campgst
Jobname: NbO2/Eads-4-layers/OH-relax
Sessionid: 22095
Queuename: verylong
Accounting:
This job has allocated the following 32 nodes:
g056 g056 g056 g056 g056 g056 g056 g056 g056 g056 g056 g056 g056 g056 g056 g056 g041 g041 g041 g041 g041 g041 g041 g041 g041 g041 g041 g041 g041 g041 g041 g041
Finished epilogue job 339878.audhumbla.fysik.dtu.dk for zhonxu