     Program PWSCF v.5.0.2 (svn rev. 9656) starts on 28May2014 at  8:24: 9

     Current dimensions of program PWSCF are:
     Max number of different atomic species (ntypx) = 10
     Max number of k-points (npk) =  40000
     Max angular momentum in pseudopotentials (lmaxx) =  3
     Reading input from pwscf.in
Warning: card &CELL ignored
Warning: card / ignored

     Subspace diagonalization in iterative solution of the eigenvalue problem:
     a serial algorithm will be used

     bravais-lattice index     =            0
     lattice parameter (alat)  =      12.0187  a.u.
     unit-cell volume          =    7280.5819 (a.u.)^3
     number of atoms/cell      =           33
     number of atomic types    =            3
     number of electrons       =       245.00
     number of Kohn-Sham states=          367
     kinetic-energy cutoff     =      40.0000  Ry
     charge density cutoff     =     500.0000  Ry
     convergence threshold     =      1.0E-06
     mixing beta               =       0.7000
     number of iterations used =            8  plain     mixing
     Exchange-correlation      = SLA  PW   PBE  PBE ( 1 4 3 4 0)
     EXX-fraction              =        0.00
     nstep                     =           50

     celldm(1)=  12.018658  celldm(2)=   0.000000  celldm(3)=   0.000000
     celldm(4)=   0.000000  celldm(5)=   0.000000  celldm(6)=   0.000000

     crystal axes: (cart. coord. in units of alat)
               a(1) = (   1.000000   0.000000   0.000000 )
               a(2) = (   0.000000   1.009517   0.000000 )
               a(3) = (   0.000000   0.000000   4.154171 )

     reciprocal axes: (cart. coord. in units 2 pi/alat)
               b(1) = (  1.000000  0.000000  0.000000 )
               b(2) = (  0.000000  0.990572  0.000000 )
               b(3) = (  0.000000  0.000000  0.240722 )

     PseudoPot. # 1 for O  read from file:
     /home/camp/zhonxu/pseudo/o_pbe_v1.01.uspp.F.UPF
     MD5 check sum: 2bcb18d16ea4b960afae9ec6d52f22d2
     Pseudo is Ultrasoft + core correction, Zval =  6.0
     Generated by new atomic code, or converted to UPF format
     Using radial grid of  737 points,  5 beta functions with:
                l(1) =   0
                l(2) =   0
                l(3) =   1
                l(4) =   1
                l(5) =   2
     Q(r) pseudized with  8 coefficients,  rinner =    0.900   0.900   0.900
                                                       0.900   0.900

     PseudoPot. # 2 for Ir read from file:
     /home/camp/zhonxu/pseudo/ir_pbe_v1.uspp.F.UPF
     MD5 check sum: abf987a9674477536ede83817f8f8b70
     Pseudo is Ultrasoft + core correction, Zval = 15.0
     Generated by new atomic code, or converted to UPF format
     Using radial grid of  983 points,  7 beta functions with:
                l(1) =   0
                l(2) =   0
                l(3) =   1
                l(4) =   1
                l(5) =   1
                l(6) =   2
                l(7) =   2
     Q(r) pseudized with  8 coefficients,  rinner =    1.350   1.350   1.350
                                                       1.350   1.350

     PseudoPot. # 3 for H  read from file:
     /home/camp/zhonxu/pseudo/h_pbe_v1.uspp.F.UPF
     MD5 check sum: 3408e3ff4ec8b0a4e358431e7e038a48
     Pseudo is Ultrasoft, Zval =  1.0
     Generated by new atomic code, or converted to UPF format
     Using radial grid of  615 points,  2 beta functions with:
                l(1) =   0
                l(2) =   0
     Q(r) pseudized with  8 coefficients,  rinner =    0.700

     atomic species   valence    mass     pseudopotential
        O0             6.00    15.99940     O ( 1.00)
        Ir1           15.00   192.22000     Ir( 1.00)
        H2             1.00     1.00794     H ( 1.00)

     Simplified LDA+U calculation (l_max = 2) with parameters (eV):
     atomic species    L          U    alpha       J0     beta
        Ir1            2     2.0000   0.0000   0.0000   0.0000

     No symmetry found

   Cartesian axes

     site n.     atom                  positions (alat units)
         1           O0  tau(   1) = (   0.0000000   0.0000000   1.5694875  )
         2           O0  tau(   2) = (   0.0000000   0.5047586   1.6702677  )
         3           Ir1 tau(   3) = (   0.2500000   0.5047586   1.8805934  )
         4           Ir1 tau(   4) = (   0.0000000   0.0000000   1.8807595  )
         5           O0  tau(   5) = (   0.2500000   0.8177090   1.8801779  )
         6           O0  tau(   6) = (   0.2500000   0.1918083   1.8787655  )
         7           O0  tau(   7) = (   0.0000000   0.5047586   2.0695666  )
         8           O0  tau(   8) = (   0.0000000   0.0000000   2.1948564  )
         9           Ir1 tau(   9) = (   0.2500000   0.0000000   2.3901025  )
        10           Ir1 tau(  10) = (   0.0000000   0.5047586   2.3742751  )
        11           O0  tau(  11) = (   0.2500000   0.6965669   2.3856575  )
        12           O0  tau(  12) = (   0.2500000   0.3129503   2.3949628  )
        13           O0  tau(  13) = (   0.0000000   0.0000000   2.5754200  )
        14           O0  tau(  14) = (   0.5000000   0.0000000   1.5694875  )
        15           O0  tau(  15) = (   0.5000000   0.5047586   1.6704338  )
        16           Ir1 tau(  16) = (   0.7500000   0.5047586   1.8805934  )
        17           Ir1 tau(  17) = (   0.5000000   0.0000000   1.8805518  )
        18           O0  tau(  18) = (   0.7500000   0.8177090   1.8801364  )
        19           O0  tau(  19) = (   0.7500000   0.1918083   1.8788486  )
        20           O0  tau(  20) = (   0.5000000   0.5047586   2.0759640  )
        21           O0  tau(  21) = (   0.5000000   0.0000000   2.1945241  )
        22           Ir1 tau(  22) = (   0.7500000   0.0000000   2.3900609  )
        23           Ir1 tau(  23) = (   0.5000000   0.5047586   2.3998648  )
        24           O0  tau(  24) = (   0.7500000   0.6965669   2.3856575  )
        25           O0  tau(  25) = (   0.7500000   0.3129503   2.3949628  )
        26           O0  tau(  26) = (   0.5000000   0.0000000   2.5728445  )
        27           H2  tau(  27) = (   0.0000400   0.6420328   1.5957418  )
        28           H2  tau(  28) = (   0.4999400   0.6424971   1.5965311  )
        29           H2  tau(  29) = (   0.1432100   0.0360095   1.5217560  )
        30           H2  tau(  30) = (   0.6436700   0.0339703   1.5215899  )
        31           O0  tau(  31) = (   0.4997900   0.5432313   2.6993805  )
        32           O0  tau(  32) = (   0.5001800   0.3480815   2.8224271  )
        33           H2  tau(  33) = (   0.4999800   0.4114489   2.9642920  )

     number of k points=    10  Methfessel-Paxton smearing, width (Ry)=  0.0100
                       cart. coord. in units 2pi/alat
        k(    1) = (   0.0000000   0.0000000   0.0000000), wk =   0.1250000
        k(    2) = (   0.0000000   0.2476431   0.0000000), wk =   0.2500000
        k(    3) = (   0.0000000  -0.4952862   0.0000000), wk =   0.1250000
        k(    4) = (   0.2500000   0.0000000   0.0000000), wk =   0.2500000
        k(    5) = (   0.2500000   0.2476431   0.0000000), wk =   0.2500000
        k(    6) = (   0.2500000  -0.4952862   0.0000000), wk =   0.2500000
        k(    7) = (  -0.5000000   0.0000000   0.0000000), wk =   0.1250000
        k(    8) = (  -0.5000000   0.2476431   0.0000000), wk =   0.2500000
        k(    9) = (  -0.5000000  -0.4952862   0.0000000), wk =   0.1250000
        k(   10) = (  -0.2500000   0.2476431   0.0000000), wk =   0.2500000

     Largest allocated arrays     est. size (Mb)     dimensions
     Largest temporary arrays     est. size (Mb)     dimensions

     Check: negative/imaginary core charge=   -0.000003    0.000000

     Initial potential from superposition of free atoms
     Check: negative starting charge=   -3.336869

     starting charge  240.99967, renormalised to  245.00000

     negative rho (up, down):  0.339E+01 0.000E+00
     Number of +U iterations with fixed ns =  0
     Starting occupations:
 --- enter write_ns ---
 LDA+U parameters:
U( 2)     =  2.00000000
alpha( 2) =  0.00000000
atom    3   Tr[ns(na)] =   7.00000
    eigenvalues:
  0.700  0.700  0.700  0.700  0.700
    eigenvectors:
  1.000  0.000  0.000  0.000  0.000
  0.000  1.000  0.000  0.000  0.000
  0.000  0.000  1.000  0.000  0.000
  0.000  0.000  0.000  1.000  0.000
  0.000  0.000  0.000  0.000  1.000
    occupations:
  0.700  0.000  0.000  0.000  0.000
  0.000  0.700  0.000  0.000  0.000
  0.000  0.000  0.700  0.000  0.000
  0.000  0.000  0.000  0.700  0.000
  0.000  0.000  0.000  0.000  0.700
atom    4   Tr[ns(na)] =   7.00000
    eigenvalues:
  0.700  0.700  0.700  0.700  0.700
    eigenvectors:
  1.000  0.000  0.000  0.000  0.000
  0.000  1.000  0.000  0.000  0.000
  0.000  0.000  1.000  0.000  0.000
  0.000  0.000  0.000  1.000  0.000
  0.000  0.000  0.000  0.000  1.000
    occupations:
  0.700  0.000  0.000  0.000  0.000
  0.000  0.700  0.000  0.000  0.000
  0.000  0.000  0.700  0.000  0.000
  0.000  0.000  0.000  0.700  0.000
  0.000  0.000  0.000  0.000  0.700
atom    9   Tr[ns(na)] =   7.00000
    eigenvalues:
  0.700  0.700  0.700  0.700  0.700
    eigenvectors:
  1.000  0.000  0.000  0.000  0.000
  0.000  1.000  0.000  0.000  0.000
  0.000  0.000  1.000  0.000  0.000
  0.000  0.000  0.000  1.000  0.000
  0.000  0.000  0.000  0.000  1.000
    occupations:
  0.700  0.000  0.000  0.000  0.000
  0.000  0.700  0.000  0.000  0.000
  0.000  0.000  0.700  0.000  0.000
  0.000  0.000  0.000  0.700  0.000
  0.000  0.000  0.000  0.000  0.700
atom   10   Tr[ns(na)] =   7.00000
    eigenvalues:
  0.700  0.700  0.700  0.700  0.700
    eigenvectors:
  1.000  0.000  0.000  0.000  0.000
  0.000  1.000  0.000  0.000  0.000
  0.000  0.000  1.000  0.000  0.000
  0.000  0.000  0.000  1.000  0.000
  0.000  0.000  0.000  0.000  1.000
    occupations:
  0.700  0.000  0.000  0.000  0.000
  0.000  0.700  0.000  0.000  0.000
  0.000  0.000  0.700  0.000  0.000
  0.000  0.000  0.000  0.700  0.000
  0.000  0.000  0.000  0.000  0.700
atom   16   Tr[ns(na)] =   7.00000
    eigenvalues:
  0.700  0.700  0.700  0.700  0.700
    eigenvectors:
  1.000  0.000  0.000  0.000  0.000
  0.000  1.000  0.000  0.000  0.000
  0.000  0.000  1.000  0.000  0.000
  0.000  0.000  0.000  1.000  0.000
  0.000  0.000  0.000  0.000  1.000
    occupations:
  0.700  0.000  0.000  0.000  0.000
  0.000  0.700  0.000  0.000  0.000
  0.000  0.000  0.700  0.000  0.000
  0.000  0.000  0.000  0.700  0.000
  0.000  0.000  0.000  0.000  0.700
atom   17   Tr[ns(na)] =   7.00000
    eigenvalues:
  0.700  0.700  0.700  0.700  0.700
    eigenvectors:
  1.000  0.000  0.000  0.000  0.000
  0.000  1.000  0.000  0.000  0.000
  0.000  0.000  1.000  0.000  0.000
  0.000  0.000  0.000  1.000  0.000
  0.000  0.000  0.000  0.000  1.000
    occupations:
  0.700  0.000  0.000  0.000  0.000
  0.000  0.700  0.000  0.000  0.000
  0.000  0.000  0.700  0.000  0.000
  0.000  0.000  0.000  0.700  0.000
  0.000  0.000  0.000  0.000  0.700
atom   22   Tr[ns(na)] =   7.00000
    eigenvalues:
  0.700  0.700  0.700  0.700  0.700
    eigenvectors:
  1.000  0.000  0.000  0.000  0.000
  0.000  1.000  0.000  0.000  0.000
[...]
  0.035  0.000  0.000  0.977  0.000
 -0.000 -0.008 -0.000  0.000  0.609
atom   16   Tr[ns(na)] =   8.09699
    eigenvalues:
  0.606  0.631  0.875  0.961  0.975
    eigenvectors:
  0.006  0.180  0.003  0.002  0.809
  0.975  0.024  0.000  0.000  0.000
  0.000  0.000  0.993  0.004  0.003
  0.018  0.796  0.000  0.000  0.185
  0.000  0.000  0.003  0.994  0.003
    occupations:
  0.911  0.005  0.005 -0.134  0.001
  0.005  0.606 -0.000  0.002 -0.006
  0.005 -0.000  0.876 -0.004 -0.005
 -0.134  0.002 -0.004  0.695 -0.000
  0.001 -0.006 -0.005 -0.000  0.961
atom   17   Tr[ns(na)] =   8.08124
    eigenvalues:
  0.618  0.665  0.864  0.913  0.981
    eigenvectors:
  0.000  0.990  0.000  0.000  0.010
  0.000  0.000  0.044  0.956  0.000
  0.000  0.000  0.956  0.044  0.000
  0.000  0.010  0.000  0.000  0.990
  1.000  0.000  0.000  0.000  0.000
    occupations:
  0.668 -0.003 -0.001  0.031  0.001
 -0.003  0.911  0.010  0.000 -0.001
 -0.001  0.010  0.866 -0.000  0.001
  0.031  0.000 -0.000  0.978  0.000
  0.001 -0.001  0.001  0.000  0.618
atom   22   Tr[ns(na)] =   8.06105
    eigenvalues:
  0.652  0.667  0.844  0.889  0.979
    eigenvectors:
  0.000  0.141  0.001  0.000  0.859
  1.000  0.000  0.000  0.000  0.000
  0.000  0.000  0.993  0.006  0.000
  0.000  0.859  0.000  0.000  0.141
  0.000  0.000  0.006  0.994  0.000
    occupations:
  0.935  0.002  0.001 -0.109  0.000
  0.002  0.652  0.001 -0.001 -0.000
  0.001  0.001  0.844 -0.004  0.004
 -0.109 -0.001 -0.004  0.711  0.000
  0.000 -0.000  0.004  0.000  0.889
atom   23   Tr[ns(na)] =   8.09521
    eigenvalues:
  0.617  0.658  0.852  0.942  0.979
    eigenvectors:
  0.000  0.993  0.000  0.003  0.004
  0.002  0.000  0.998  0.000  0.000
  0.000  0.003  0.000  0.996  0.001
  0.000  0.004  0.000  0.001  0.995
  0.998  0.000  0.002  0.000  0.000
    occupations:
  0.660 -0.000  0.014  0.021 -0.000
 -0.000  0.852 -0.001 -0.000 -0.009
  0.014 -0.001  0.941 -0.002  0.000
  0.021 -0.000 -0.002  0.978 -0.000
 -0.000 -0.009  0.000 -0.000  0.618
N of occupied +U levels =  64.6373672
 --- exit write_ns ---

     Threshold (ethr) on eigenvalues was too large:
     Diagonalizing with lowered threshold

     Davidson diagonalization with overlap
     ethr =  1.76E-09,  avg # of iterations =  2.5

[...]

     total energy              =   -2138.67644665 Ry
     Harris-Foulkes estimate   =   -2138.67644665 Ry
     estimated scf accuracy    <       0.00000001 Ry

     iteration # 13     ecut=    40.00 Ry     beta=0.70
     Davidson diagonalization with overlap
     ethr =  4.52E-12,  avg # of iterations =  1.0

     negative rho (up, down):  0.313E+01 0.000E+00

     End of self-consistent calculation
 --- enter write_ns ---
 LDA+U parameters:
U( 2)     =  2.00000000
alpha( 2) =  0.00000000
atom    3   Tr[ns(na)] =   8.09703
    eigenvalues:
  0.605  0.631  0.875  0.961  0.975
    eigenvectors:
  0.006  0.179  0.003  0.001  0.810
  0.974  0.025  0.000  0.000  0.000
  0.000  0.000  0.991  0.006  0.003
  0.019  0.795  0.000  0.000  0.185
  0.000  0.000  0.006  0.992  0.002
    occupations:
  0.911 -0.005  0.004 -0.134 -0.001
 -0.005  0.606 -0.001 -0.002 -0.006
  0.004 -0.001  0.876 -0.004  0.006
 -0.134 -0.002 -0.004  0.695 -0.000
 -0.001 -0.006  0.006 -0.000  0.961
atom    4   Tr[ns(na)] =   8.08306
    eigenvalues:
  0.618  0.664  0.864  0.914  0.981
    eigenvectors:
  0.000  0.990  0.000  0.000  0.010
  0.000  0.000  0.056  0.944  0.000
  0.000  0.000  0.944  0.056  0.000
  0.000  0.010  0.000  0.000  0.990
  1.000  0.000  0.000  0.000  0.000
    occupations:
  0.668 -0.003 -0.001  0.031  0.001
 -0.003  0.911  0.011  0.000 -0.001
 -0.001  0.011  0.867 -0.000  0.000
  0.031  0.000 -0.000  0.978  0.000
  0.001 -0.001  0.000  0.000  0.618
atom    9   Tr[ns(na)] =   8.06131
    eigenvalues:
  0.652  0.667  0.844  0.889  0.979
    eigenvectors:
  0.000  0.141  0.001  0.000  0.858
  0.999  0.001  0.000  0.000  0.000
  0.000  0.000  0.992  0.007  0.000
  0.001  0.857  0.000  0.000  0.141
  0.000  0.000  0.007  0.993  0.000
    occupations:
  0.935 -0.001  0.001 -0.108 -0.001
 -0.001  0.652 -0.000  0.001 -0.001
  0.001 -0.000  0.844 -0.004 -0.004
 -0.108  0.001 -0.004  0.711  0.001
 -0.001 -0.001 -0.004  0.001  0.889
atom   10   Tr[ns(na)] =   8.06173
    eigenvalues:
  0.590  0.609  0.925  0.926  0.980
    eigenvectors:
  0.992  0.000  0.000  0.000  0.008
  0.000  0.001  0.041  0.958  0.000
  0.000  0.000  0.958  0.041  0.000
  0.008  0.000  0.000  0.000  0.992
  0.000  0.999  0.000  0.001  0.000
    occupations:
  0.594  0.000  0.007  0.035 -0.000
  0.000  0.926 -0.000  0.000 -0.008
  0.007 -0.000  0.925  0.000 -0.000
  0.035  0.000  0.000  0.977  0.000
 -0.000 -0.008 -0.000  0.000  0.609
atom   16   Tr[ns(na)] =   8.09695
    eigenvalues:
  0.606  0.631  0.875  0.961  0.975
    eigenvectors:
  0.006  0.180  0.003  0.002  0.809
  0.975  0.024  0.000  0.000  0.000
  0.000  0.000  0.993  0.004  0.003
  0.019  0.796  0.000  0.000  0.185
  0.000  0.000  0.003  0.994  0.003
    occupations:
  0.911  0.005  0.005 -0.134  0.001
  0.005  0.606 -0.000  0.002 -0.006
  0.005 -0.000  0.876 -0.004 -0.005
 -0.134  0.002 -0.004  0.695 -0.000
  0.001 -0.006 -0.005 -0.000  0.961
atom   17   Tr[ns(na)] =   8.08108
    eigenvalues:
  0.618  0.665  0.864  0.913  0.981
    eigenvectors:
  0.000  0.990  0.000  0.000  0.010
  0.000  0.000  0.044  0.956  0.000
  0.000  0.000  0.956  0.044  0.000
  0.000  0.010  0.000  0.000  0.990
  1.000  0.000  0.000  0.000  0.000
    occupations:
  0.668 -0.003 -0.001  0.031  0.001
 -0.003  0.911  0.010  0.000 -0.001
 -0.001  0.010  0.866 -0.000  0.001
  0.031  0.000 -0.000  0.978  0.000
  0.001 -0.001  0.001  0.000  0.618
atom   22   Tr[ns(na)] =   8.06138
    eigenvalues:
  0.652  0.667  0.844  0.889  0.979
    eigenvectors:
  0.000  0.141  0.001  0.000  0.859
  1.000  0.000  0.000  0.000  0.000
  0.000  0.000  0.993  0.006  0.000
  0.000  0.859  0.000  0.000  0.141
  0.000  0.000  0.006  0.994  0.000
    occupations:
  0.935  0.002  0.001 -0.109  0.000
  0.002  0.652  0.001 -0.001 -0.000
  0.001  0.001  0.844 -0.004  0.003
 -0.109 -0.001 -0.004  0.711  0.000
  0.000 -0.000  0.003  0.000  0.889
atom   23   Tr[ns(na)] =   8.09513
    eigenvalues:
  0.617  0.658  0.852  0.942  0.979
    eigenvectors:
  0.000  0.993  0.000  0.003  0.004
  0.002  0.000  0.998  0.000  0.000
  0.000  0.003  0.000  0.996  0.001
  0.000  0.004  0.000  0.001  0.995
  0.998  0.000  0.002  0.000  0.000
    occupations:
  0.660 -0.000  0.014  0.021 -0.000
 -0.000  0.852 -0.001 -0.000 -0.009
  0.014 -0.001  0.941 -0.002  0.000
  0.021 -0.000 -0.002  0.978 -0.000
 -0.000 -0.009  0.000 -0.000  0.618
N of occupied +U levels =  64.6376734
 --- exit write_ns ---

[...]

          k = 0.2500-0.4953 0.0000 ( 31088 PWs)   bands (ev):

[...]

          k =-0.2500 0.2476 0.0000 ( 31099 PWs)   bands (ev):

   -50.5427 -50.5159 -50.5094 -50.4091 -50.4084 -50.3696 -50.3553 -50.3435
   -50.3331 -50.2943 -50.2356 -50.2101 -50.1847 -50.1719 -50.1192 -50.1170
   -50.0742 -50.0266 -50.0247 -50.0160 -50.0119 -50.0020 -49.9860 -49.8678
   -23.1629 -20.9854 -20.6134 -20.5842 -20.5327 -20.1787 -20.0470 -20.0406
   -19.9059 -19.7583 -19.6432 -19.5819 -19.4846 -19.4132 -19.2987 -19.2126
   -19.1194 -18.3266 -18.1852 -17.1644  -9.4528  -9.3709  -9.2468  -8.9155
    -8.6181  -8.5036  -8.4906  -8.4186  -8.3027  -8.2298  -8.1809  -8.1041
    -8.0561  -7.9149  -7.8228  -7.6846  -7.5731  -7.4935  -7.3695  -7.0754
    -7.0416  -6.8536  -6.7592  -6.7044  -6.6306  -6.4147  -6.1789  -6.0831
    -5.9454  -5.8320  -5.7921  -5.7151  -5.6363  -5.5760  -5.4994  -5.4836
    -5.3741  -5.2393  -5.1381  -5.0138  -4.9101  -4.8616  -4.7098  -4.5557
    -4.3571  -4.3182  -4.1793  -4.0532  -3.9743  -3.9328  -3.7673  -3.6653
    -3.4829  -3.3402  -3.2562  -2.9690  -2.8743  -2.7870  -2.7090  -2.5567
    -2.3726  -2.3539  -2.3333  -2.2483  -2.1607  -2.0769  -2.0189  -1.9687
    -1.8808  -1.8124  -1.7448  -1.6117  -1.3879  -1.1618  -0.9296  -0.8638
    -0.7087  -0.6751  -0.4464  -0.3042  -0.1573  -0.0710   0.1104   0.4436
     1.4150   1.4694   1.6972   2.0823   2.1913   2.6346   2.7127   2.9726
     3.1121   3.2958   3.3315   3.5753   3.6062   3.7822   3.8405   4.0840
     4.2224   4.4458   4.8299   5.3300   5.4002   5.8705   6.0110   6.0908
     6.3175   6.4607   6.6009   6.7066   6.8019   7.0690   7.2134   7.3140
     7.5300   7.6801   7.8365   7.9144   8.0003   8.1507   8.2687   8.3501
     8.3739   8.5201   8.7286   8.7998   8.8683   9.0539   9.1100   9.1685
     9.2046   9.3806   9.5300   9.5516   9.5592   9.5649   9.5707   9.5729
     9.5959   9.6351   9.6957   9.7585   9.7604   9.7684   9.8359   9.9382
    10.0172  10.1403  10.2338  10.2948  10.3581  10.4066  10.5180  10.5603
    10.6416  10.7105  10.8256  10.9045  10.9544  11.0395  11.1542  11.2028
    11.3240  11.3915  11.4624  11.5916  11.6716  11.7591  11.7998  11.9146
    11.9671  12.0605  12.1743  12.2493  12.3491  12.4655  12.5067  12.5593
    12.5785  12.6964  12.7940  12.8909  12.9250  13.0198  13.0949  13.1396
    13.2113  13.3056  13.3740  13.4777  13.5861  13.6814  13.7144  13.8069
    13.9003  13.9515  14.0471  14.0954  14.1313  14.1989  14.3065  14.4038
    14.4651  14.5208  14.6365  14.7147  14.8325  14.8825  15.0379  15.0849
    15.1360  15.2340  15.3869  15.4330  15.4980  15.6155  15.6773  15.6829
    15.7344  15.7737  15.8526  15.9116  15.9625  16.0232  16.0685  16.0858
    16.2242  16.2638  16.3456  16.3873  16.4772  16.5203  16.5511  16.5931
    16.7034  16.7532  16.7816  16.8306  16.9072  16.9669  17.1565  17.2364
    17.3030  17.3385  17.4096  17.4855  17.5422  17.5872  17.6281  17.6822
    17.7413  17.8292  17.8632  17.8978  17.9174  18.0165  18.0616  18.1423
    18.2355  18.3319  18.3802  18.5110  18.6088  18.7038  18.7548  18.7919
    18.8344  18.8713  19.0271  19.0360  19.0880  19.1824  19.2397  19.3579
    19.3831  19.4171  19.5428  19.6291  19.6821  19.7610  19.8021  19.8394
    19.9336  19.9900  20.1289  20.1746  20.2665  20.3364  20.4575  20.5183
    20.5696  20.6450  20.7334  20.7649  20.8031  20.8713  20.9006  21.0383
    21.1003  21.1441  21.1879  21.2575  21.2669  21.3097  21.3409  21.4130
    21.5173  21.5393  21.6440  21.6763  21.7427  21.8136  21.8548  21.9000
    21.9734  21.9926  22.0667  22.1290  22.1997  22.2747  22.3854

     the Fermi energy is    -0.5110 ev

!    total energy              =   -2138.67644665 Ry
     Harris-Foulkes estimate   =   -2138.67644665 Ry
     estimated scf accuracy    <          4.4E-09 Ry

     The total energy is the sum of the following terms:

     one-electron contribution =  -23114.27573286 Ry
     hartree contribution      =   11607.32827823 Ry
     xc contribution           =    -584.15006576 Ry
     ewald contribution        =    9951.63701496 Ry
     Hubbard energy            =       0.78394536 Ry
     smearing contrib. (-TS)   =       0.00011343 Ry

     convergence has been achieved in  13 iterations

     Forces acting on atoms (Ry/au):

     negative rho (up, down):  0.313E+01 0.000E+00
     atom    1 type  1   force =    -0.00799156   -0.01351940   -0.00044950
     atom    2 type  1   force =     0.00017546    0.00532863    0.00014274
     atom    3 type  2   force =     0.03097533    0.00470889   -0.00004816
     atom    4 type  2   force =     0.00916260    0.00765990   -0.00010750
     atom    5 type  1   force =    -0.00327627   -0.02132400    0.00030848
     atom    6 type  1   force =     0.00379021    0.02029351    0.00034570
     atom    7 type  1   force =    -0.00035294   -0.00353884   -0.00024123
     atom    8 type  1   force =    -0.00315087    0.00053722   -0.00002583
     atom    9 type  2   force =     0.00732652    0.00134637   -0.00015393
     atom   10 type  2   force =    -0.00011493   -0.00063651   -0.00071170
     atom   11 type  1   force =    -0.00517926    0.01553630    0.00019749
     atom   12 type  1   force =     0.00081269   -0.01021550    0.00024810
     atom   13 type  1   force =    -0.00086063   -0.00295023    0.00019028
     atom   14 type  1   force =    -0.00712019   -0.01357774   -0.00015196
     atom   15 type  1   force =     0.00011882    0.00548367    0.00015833
     atom   16 type  2   force =    -0.03088847    0.00458687   -0.00005298
     atom   17 type  2   force =     0.00894808    0.00824030   -0.00001494
     atom   18 type  1   force =    -0.00227415   -0.02181254    0.00028552
     atom   19 type  1   force =     0.00447732    0.01991022    0.00035044
     atom   20 type  1   force =    -0.00028290   -0.00648188   -0.00005698
     atom   21 type  1   force =    -0.00326924    0.00130961   -0.00013652
     atom   22 type  2   force =    -0.00487560    0.00103670   -0.00013920
     atom   23 type  2   force =    -0.00029195    0.00267475   -0.00003808
     atom   24 type  1   force =     0.00496528    0.01541427    0.00021874
     atom   25 type  1   force =    -0.00015052   -0.01032400    0.00028351
     atom   26 type  1   force =    -0.00102203   -0.01016453   -0.00043089
     atom   27 type  3   force =    -0.00001127   -0.00004021    0.00028737
     atom   28 type  3   force =    -0.00000109    0.00002786    0.00041384
     atom   29 type  3   force =     0.00024185    0.00009696    0.00026597
     atom   30 type  3   force =     0.00004230    0.00012827    0.00009651
     atom   31 type  1   force =    -0.00012979   -0.00020561    0.00011037
     atom   32 type  1   force =     0.00020196    0.00051283   -0.00032228
     atom   33 type  3   force =     0.00000525   -0.00004215   -0.00082171

     Total force =     0.001835     Total SCF correction =     0.000210
     SCF correction compared to forces is large: reduce conv_thr to get better values

     entering subroutine stress ...

     negative rho (up, down):  0.313E+01 0.000E+00
          total   stress  (Ry/bohr**3)                   (kbar)     P=  -13.94
  -0.00010736   0.00000589   0.00000393        -15.79      0.87      0.58
   0.00000589  -0.00012707   0.00000507          0.87    -18.69      0.75
   0.00000393   0.00000507  -0.00004989          0.58      0.75     -7.34

     bfgs converged in   7 scf cycles and   6 bfgs steps
     (criteria: energy < 0.10E-03, force < 0.10E-02)

     End of BFGS Geometry Optimization

     Final energy   =   -2138.6764466493 Ry
Begin final coordinates

ATOMIC_POSITIONS (crystal)
O0       0.000000000   0.000000000   0.378036755    0   0   1
O0       0.000000000   0.500000000   0.402415317    0   0   1
Ir1      0.250000000   0.500000000   0.452825147    0   0   1
Ir1      0.000000000   0.000000000   0.452808305    0   0   1
O0       0.250000000   0.810000000   0.452676888    0   0   1
O0       0.250000000   0.190000000   0.452294323    0   0   1
O0       0.000000000   0.500000000   0.498630682    0   0   1
O0       0.000000000   0.000000000   0.528355426    0   0   1
Ir1      0.250000000   0.000000000   0.575163784    0   0   1
Ir1      0.000000000   0.500000000   0.571591920    0   0   1
O0       0.250000000   0.690000000   0.573993508    0   0   1
O0       0.250000000   0.310000000   0.576277103    0   0   1
O0       0.000000000   0.000000000   0.619776651    0   0   1
O0       0.500000000   0.000000000   0.377895824    0   0   1
O0       0.500000000   0.500000000   0.402348508    0   0   1
Ir1      0.750000000   0.500000000   0.452821400    0   0   1
Ir1      0.500000000   0.000000000   0.452636056    0   0   1
O0       0.750000000   0.810000000   0.452672019    0   0   1
O0       0.750000000   0.190000000   0.452311323    0   0   1
O0       0.500000000   0.500000000   0.499806572    0   0   1
O0       0.500000000   0.000000000   0.528253387    0   0   1
Ir1      0.750000000   0.000000000   0.575162600    0   0   1
Ir1      0.500000000   0.500000000   0.577458957    0   0   1
O0       0.750000000   0.690000000   0.573995411    0   0   1
O0       0.750000000   0.310000000   0.576283627    0   0   1
O0       0.500000000   0.000000000   0.619295171    0   0   1
H2      -0.000008512   0.635210448   0.384233547
H2       0.499897739   0.636016563   0.384463880
H2       0.143002988   0.035704757   0.366419144
H2       0.643636016   0.033853673   0.366360104
O0       0.499593616   0.537267710   0.649671778
O0       0.500396214   0.345255119   0.679223529
H2       0.499990612   0.407825504   0.713411354
End final coordinates

     General routines

     Parallel routines
     Hubbard U routines

   This run was terminated on:  17:21:17  28May2014

   JOB DONE.
Running PBS batch system epilogue script
Job id: 373277.audhumbla.fysik.dtu.dk
Username: zhonxu
Groupname: campgst
Jobname: IrO2/Eads-2-layers/OOH-U-2.0
Sessionid: 9000
Queuename: verylong
Accounting:
This job has allocated the following 16 nodes:
d009 d009 d009 d009 d009 d009 d009 d009 d007 d007 d007 d007 d007 d007 d007 d007
Finished epilogue job 373277.audhumbla.fysik.dtu.dk for zhonxu