     Program PWSCF v.5.0.2 (svn rev. 9656) starts on  1Jun2014 at  0:16:46

     Current dimensions of program PWSCF are:
     Max number of different atomic species (ntypx) = 10
     Max number of k-points (npk) =  40000
     Max angular momentum in pseudopotentials (lmaxx) =  3
     Reading input from pwscf.in
Warning: card &CELL ignored
Warning: card / ignored

     Subspace diagonalization in iterative solution of the eigenvalue problem:
     a serial algorithm will be used

     bravais-lattice index     =            0
     lattice parameter (alat)  =      11.7541  a.u.
     unit-cell volume          =    7139.8207 (a.u.)^3
     number of atoms/cell      =           33
     number of atomic types    =            3
     number of electrons       =       245.00
     number of Kohn-Sham states=          367
     kinetic-energy cutoff     =      40.0000  Ry
     charge density cutoff     =     500.0000  Ry
     convergence threshold     =      1.0E-06
     mixing beta               =       0.7000
     number of iterations used =            8  plain     mixing
     Exchange-correlation      = SLA  PW   PBE  PBE ( 1 4 3 4 0)
     EXX-fraction              =        0.00
     nstep                     =           50

     celldm(1)=  11.754097  celldm(2)=   0.000000  celldm(3)=   0.000000
     celldm(4)=   0.000000  celldm(5)=   0.000000  celldm(6)=   0.000000

     crystal axes: (cart. coord. in units of alat)
               a(1) = (   1.000000   0.000000   0.000000 )
               a(2) = (   0.000000   1.034513   0.000000 )
               a(3) = (   0.000000   0.000000   4.249947 )

     reciprocal axes: (cart. coord. in units 2 pi/alat)
               b(1) = (  1.000000  0.000000  0.000000 )
               b(2) = (  0.000000  0.966638  0.000000 )
               b(3) = (  0.000000  0.000000  0.235297 )

     PseudoPot. # 1 for O  read from file:
     /home/camp/zhonxu/pseudo/o_pbe_v1.01.uspp.F.UPF
     MD5 check sum: 2bcb18d16ea4b960afae9ec6d52f22d2
     Pseudo is Ultrasoft + core correction, Zval =  6.0
     Generated by new atomic code, or converted to UPF format
     Using radial grid of  737 points,  5 beta functions with:
                l(1) =   0
                l(2) =   0
                l(3) =   1
                l(4) =   1
                l(5) =   2
     Q(r) pseudized with  8 coefficients,  rinner =    0.900   0.900   0.900
                                                       0.900   0.900

     PseudoPot. # 2 for Rh read from file:
     /home/camp/zhonxu/pseudo/rh_pbe_v1.uspp.F.UPF
     MD5 check sum: 37b626987ad0dd8ec6bf4cc9ef289918
     Pseudo is Ultrasoft + core correction, Zval = 15.0
     Generated by new atomic code, or converted to UPF format
     Using radial grid of  969 points,  7 beta functions with:
                l(1) =   0
                l(2) =   0
                l(3) =   1
                l(4) =   1
                l(5) =   2
                l(6) =   2
                l(7) =   2
     Q(r) pseudized with  6 coefficients,  rinner =    1.050   1.050   1.050
                                                       1.050   1.050

     PseudoPot. # 3 for H  read from file:
     /home/camp/zhonxu/pseudo/h_pbe_v1.uspp.F.UPF
     MD5 check sum: 3408e3ff4ec8b0a4e358431e7e038a48
     Pseudo is Ultrasoft, Zval =  1.0
     Generated by new atomic code, or converted to UPF format
     Using radial grid of  615 points,  2 beta functions with:
                l(1) =   0
                l(2) =   0
     Q(r) pseudized with  8 coefficients,  rinner =    0.700

     atomic species   valence    mass     pseudopotential
        O0             6.00    15.99940     O ( 1.00)
        Rh1           15.00   102.90550     Rh( 1.00)
        H2             1.00     1.00794     H ( 1.00)

     Simplified LDA+U calculation (l_max = 2) with parameters (eV):
     atomic species    L          U    alpha       J0     beta
        Rh1            2     2.0000   0.0000   0.0000   0.0000

     No symmetry found

   Cartesian axes

     site n.     atom                  positions (alat units)
         1           O0  tau(   1) = (   0.0000000   0.0000000   1.6055876  )
         2           O0  tau(   2) = (   0.0000000   0.5172566   1.7058013  )
         3           Rh1 tau(   3) = (   0.2500000   0.5172566   1.9245886  )
         4           Rh1 tau(   4) = (   0.0000000   0.0000000   1.9225486  )
         5           O0  tau(   5) = (   0.2500000   0.8379556   1.9216561  )
         6           O0  tau(   6) = (   0.2500000   0.1965575   1.9210611  )
         7           O0  tau(   7) = (   0.0000000   0.5172566   2.1183012  )
         8           O0  tau(   8) = (   0.0000000   0.0000000   2.2433346  )
         9           Rh1 tau(   9) = (   0.2500000   0.0000000   2.4442296  )
        10           Rh1 tau(  10) = (   0.0000000   0.5172566   2.4248924  )
        11           O0  tau(  11) = (   0.2500000   0.7138141   2.4423597  )
        12           O0  tau(  12) = (   0.2500000   0.3206991   2.4526445  )
        13           O0  tau(  13) = (   0.0000000   0.0000000   2.6373472  )
        14           O0  tau(  14) = (   0.5000000   0.0000000   1.6058426  )
        15           O0  tau(  15) = (   0.5000000   0.5172566   1.7065663  )
        16           Rh1 tau(  16) = (   0.7500000   0.5172566   1.9245461  )
        17           Rh1 tau(  17) = (   0.5000000   0.0000000   1.9225486  )
        18           O0  tau(  18) = (   0.7500000   0.8379556   1.9215286  )
        19           O0  tau(  19) = (   0.7500000   0.1965575   1.9212311  )
        20           O0  tau(  20) = (   0.5000000   0.5172566   2.1254411  )
        21           O0  tau(  21) = (   0.5000000   0.0000000   2.2428246  )
        22           Rh1 tau(  22) = (   0.7500000   0.0000000   2.4442296  )
        23           Rh1 tau(  23) = (   0.5000000   0.5172566   2.4566820  )
        24           O0  tau(  24) = (   0.7500000   0.7138141   2.4423172  )
        25           O0  tau(  25) = (   0.7500000   0.3206991   2.4526445  )
        26           O0  tau(  26) = (   0.5000000   0.0000000   2.6350523  )
        27           H2  tau(  27) = (   0.0000500   0.6607849   1.6355072  )
        28           H2  tau(  28) = (   0.4999200   0.6608884   1.6361872  )
        29           H2  tau(  29) = (   0.1477700   0.0372011   1.5603681  )
        30           H2  tau(  30) = (   0.6484400   0.0346148   1.5604531  )
        31           O0  tau(  31) = (   0.4997300   0.5556577   2.7651007  )
        32           O0  tau(  32) = (   0.5003300   0.3573415   2.8834192  )
        33           H2  tau(  33) = (   0.4999300   0.4160398   3.0312324  )

     number of k points=    10  Methfessel-Paxton smearing, width (Ry)=  0.0100
                       cart. coord. in units 2pi/alat
        k(    1) = (   0.0000000   0.0000000   0.0000000), wk =   0.1250000
        k(    2) = (   0.0000000   0.2416596   0.0000000), wk =   0.2500000
        k(    3) = (   0.0000000  -0.4833191   0.0000000), wk =   0.1250000
        k(    4) = (   0.2500000   0.0000000   0.0000000), wk =   0.2500000
        k(    5) = (   0.2500000   0.2416596   0.0000000), wk =   0.2500000
        k(    6) = (   0.2500000  -0.4833191   0.0000000), wk =   0.2500000
        k(    7) = (  -0.5000000   0.0000000   0.0000000), wk =   0.1250000
        k(    8) = (  -0.5000000   0.2416596   0.0000000), wk =   0.2500000
        k(    9) = (  -0.5000000  -0.4833191   0.0000000), wk =   0.1250000
        k(   10) = (  -0.2500000   0.2416596   0.0000000), wk =   0.2500000

     Largest allocated arrays     est. size (Mb)     dimensions
     Largest temporary arrays     est. size (Mb)     dimensions

     Check: negative/imaginary core charge=   -0.000003    0.000000

     Initial potential from superposition of free atoms
     Check: negative starting charge=   -0.646062

     starting charge  240.99914, renormalised to  245.00000

     negative rho (up, down):  0.657E+00 0.000E+00
     Number of +U iterations with fixed ns =  0
     Starting occupations:
 --- enter write_ns ---
 LDA+U parameters:
U( 2)     =  2.00000000
alpha( 2) =  0.00000000
atom    3   Tr[ns(na)] =   7.00000
    eigenvalues:
  0.700  0.700  0.700  0.700  0.700
    eigenvectors:
  1.000  0.000  0.000  0.000  0.000
  0.000  1.000  0.000  0.000  0.000
  0.000  0.000  1.000  0.000  0.000
  0.000  0.000  0.000  1.000  0.000
  0.000  0.000  0.000  0.000  1.000
    occupations:
  0.700  0.000  0.000  0.000  0.000
  0.000  0.700  0.000  0.000  0.000
  0.000  0.000  0.700  0.000  0.000
  0.000  0.000  0.000  0.700  0.000
  0.000  0.000  0.000  0.000  0.700
atom    4   Tr[ns(na)] =   7.00000
    eigenvalues:
  0.700  0.700  0.700  0.700  0.700
    eigenvectors:
  1.000  0.000  0.000  0.000  0.000
  0.000  1.000  0.000  0.000  0.000
  0.000  0.000  1.000  0.000  0.000
  0.000  0.000  0.000  1.000  0.000
  0.000  0.000  0.000  0.000  1.000
    occupations:
  0.700  0.000  0.000  0.000  0.000
  0.000  0.700  0.000  0.000  0.000
  0.000  0.000  0.700  0.000  0.000
  0.000  0.000  0.000  0.700  0.000
  0.000  0.000  0.000  0.000  0.700
atom    9   Tr[ns(na)] =   7.00000
    eigenvalues:
  0.700  0.700  0.700  0.700  0.700
    eigenvectors:
  1.000  0.000  0.000  0.000  0.000
  0.000  1.000  0.000  0.000  0.000
  0.000  0.000  1.000  0.000  0.000
  0.000  0.000  0.000  1.000  0.000
  0.000  0.000  0.000  0.000  1.000
    occupations:
  0.700  0.000  0.000  0.000  0.000
  0.000  0.700  0.000  0.000  0.000
  0.000  0.000  0.700  0.000  0.000
  0.000  0.000  0.000  0.700  0.000
  0.000  0.000  0.000  0.000  0.700
atom   10   Tr[ns(na)] =   7.00000
    eigenvalues:
  0.700  0.700  0.700  0.700  0.700
    eigenvectors:
  1.000  0.000  0.000  0.000  0.000
  0.000  1.000  0.000  0.000  0.000
  0.000  0.000  1.000  0.000  0.000
  0.000  0.000  0.000  1.000  0.000
  0.000  0.000  0.000  0.000  1.000
    occupations:
  0.700  0.000  0.000  0.000  0.000
  0.000  0.700  0.000  0.000  0.000
  0.000  0.000  0.700  0.000  0.000
  0.000  0.000  0.000  0.700  0.000
  0.000  0.000  0.000  0.000  0.700
atom   16   Tr[ns(na)] =   7.00000
    eigenvalues:
  0.700  0.700  0.700  0.700  0.700
    eigenvectors:
  1.000  0.000  0.000  0.000  0.000
  0.000  1.000  0.000  0.000  0.000
  0.000  0.000  1.000  0.000  0.000
  0.000  0.000  0.000  1.000  0.000
  0.000  0.000  0.000  0.000  1.000
    occupations:
  0.700  0.000  0.000  0.000  0.000
  0.000  0.700  0.000  0.000  0.000
  0.000  0.000  0.700  0.000  0.000
  0.000  0.000  0.000  0.700  0.000
  0.000  0.000  0.000  0.000  0.700
atom   17   Tr[ns(na)] =   7.00000
    eigenvalues:
  0.700  0.700  0.700  0.700  0.700
    eigenvectors:
  1.000  0.000  0.000  0.000  0.000
  0.000  1.000  0.000  0.000  0.000
  0.000  0.000  1.000  0.000  0.000
  0.000  0.000  0.000  1.000  0.000
  0.000  0.000  0.000  0.000  1.000
    occupations:
  0.700  0.000  0.000  0.000  0.000
  0.000  0.700  0.000  0.000  0.000
  0.000  0.000  0.700  0.000  0.000
  0.000  0.000  0.000  0.700  0.000
  0.000  0.000  0.000  0.000  0.700
atom   22   Tr[ns(na)] =   7.00000
    eigenvalues:
  0.700  0.700  0.700  0.700  0.700
    eigenvectors:
  1.000  0.000  0.000  0.000  0.000
  0.000  1.000  0.000  0.000  0.000
[...]
  0.034  0.000  0.000  0.971  0.000
 -0.000 -0.009  0.000  0.000  0.596
atom   16   Tr[ns(na)] =   8.00524
    eigenvalues:
  0.588  0.609  0.883  0.952  0.970
    eigenvectors:
  0.014  0.188  0.003  0.000  0.794
  0.939  0.061  0.000  0.000  0.000
  0.000  0.000  0.991  0.006  0.003
  0.047  0.751  0.000  0.000  0.202
  0.000  0.000  0.006  0.993  0.001
    occupations:
  0.896  0.005  0.003 -0.145  0.001
  0.005  0.589  0.000  0.003 -0.006
  0.003  0.000  0.884 -0.005 -0.005
 -0.145  0.003 -0.005  0.681 -0.000
  0.001 -0.006 -0.005 -0.000  0.952
atom   17   Tr[ns(na)] =   7.99815
    eigenvalues:
  0.602  0.650  0.861  0.911  0.975
    eigenvectors:
  0.001  0.992  0.000  0.000  0.007
  0.000  0.000  0.045  0.954  0.000
  0.000  0.000  0.955  0.045  0.000
  0.000  0.007  0.000  0.000  0.993
  0.999  0.001  0.000  0.000  0.000
    occupations:
  0.652 -0.004 -0.001  0.028  0.001
 -0.004  0.909  0.010  0.001 -0.001
 -0.001  0.010  0.863 -0.001  0.001
  0.028  0.001 -0.001  0.972  0.000
  0.001 -0.001  0.001  0.000  0.602
atom   22   Tr[ns(na)] =   7.99182
    eigenvalues:
  0.639  0.649  0.847  0.885  0.976
    eigenvectors:
  0.000  0.152  0.001  0.000  0.848
  0.999  0.001  0.000  0.000  0.000
  0.000  0.000  0.984  0.015  0.000
  0.001  0.847  0.000  0.000  0.152
  0.000  0.000  0.015  0.985  0.000
    occupations:
  0.927  0.002  0.001 -0.117 -0.000
  0.002  0.639  0.001 -0.001 -0.000
  0.001  0.001  0.847 -0.005  0.005
 -0.117 -0.001 -0.005  0.699  0.000
 -0.000 -0.000  0.005  0.000  0.885
atom   23   Tr[ns(na)] =   8.01251
    eigenvalues:
  0.602  0.635  0.854  0.944  0.972
    eigenvectors:
  0.000  0.994  0.000  0.003  0.002
  0.001  0.000  0.999  0.000  0.000
  0.000  0.003  0.000  0.996  0.001
  0.000  0.003  0.000  0.000  0.997
  0.999  0.000  0.001  0.000  0.000
    occupations:
  0.637 -0.000  0.017  0.017 -0.000
 -0.000  0.854 -0.001 -0.000 -0.009
  0.017 -0.001  0.943 -0.002  0.000
  0.017 -0.000 -0.002  0.971  0.000
 -0.000 -0.009  0.000  0.000  0.602
N of occupied +U levels =  64.0053831
 --- exit write_ns ---

     Threshold (ethr) on eigenvalues was too large:
     Diagonalizing with lowered threshold

     Davidson diagonalization with overlap
     ethr =  1.48E-08,  avg # of iterations =  2.0

[...]

     total energy              =   -2012.84210267 Ry
     Harris-Foulkes estimate   =   -2012.84210267 Ry
     estimated scf accuracy    <       0.00000001 Ry

     iteration # 17     ecut=    40.00 Ry     beta=0.70
     Davidson diagonalization with overlap
     ethr =  4.55E-12,  avg # of iterations =  1.0

     negative rho (up, down):  0.693E+00 0.000E+00

     End of self-consistent calculation
 --- enter write_ns ---
 LDA+U parameters:
U( 2)     =  2.00000000
alpha( 2) =  0.00000000
atom    3   Tr[ns(na)] =   8.00596
    eigenvalues:
  0.588  0.609  0.883  0.952  0.970
    eigenvectors:
  0.015  0.188  0.003  0.000  0.794
  0.935  0.065  0.000  0.000  0.000
  0.000  0.000  0.987  0.010  0.003
  0.050  0.748  0.000  0.000  0.202
  0.000  0.000  0.010  0.989  0.001
    occupations:
  0.896 -0.006  0.003 -0.145 -0.001
 -0.006  0.590 -0.001 -0.003 -0.006
  0.003 -0.001  0.884 -0.005  0.007
 -0.145 -0.003 -0.005  0.681 -0.000
 -0.001 -0.006  0.007 -0.000  0.951
atom    4   Tr[ns(na)] =   7.99997
    eigenvalues:
  0.602  0.649  0.865  0.910  0.974
    eigenvectors:
  0.001  0.992  0.000  0.000  0.007
  0.000  0.000  0.072  0.927  0.000
  0.000  0.000  0.927  0.072  0.000
  0.000  0.007  0.000  0.000  0.993
  0.999  0.001  0.000  0.000  0.000
    occupations:
  0.652 -0.004 -0.002  0.027  0.001
 -0.004  0.907  0.012  0.001 -0.001
 -0.002  0.012  0.868 -0.001  0.001
  0.027  0.001 -0.001  0.972  0.000
  0.001 -0.001  0.001  0.000  0.602
atom    9   Tr[ns(na)] =   7.99155
    eigenvalues:
  0.639  0.649  0.847  0.885  0.976
    eigenvectors:
  0.001  0.150  0.000  0.000  0.848
  0.989  0.011  0.000  0.000  0.000
  0.000  0.000  0.982  0.017  0.000
  0.010  0.838  0.000  0.000  0.152
  0.000  0.000  0.017  0.983  0.000
    occupations:
  0.926 -0.001  0.001 -0.117 -0.001
 -0.001  0.639  0.000  0.001 -0.000
  0.001  0.000  0.847 -0.005 -0.005
 -0.117  0.001 -0.005  0.699  0.001
 -0.001 -0.000 -0.005  0.001  0.885
atom   10   Tr[ns(na)] =   7.99959
    eigenvalues:
  0.596  0.605  0.906  0.918  0.974
    eigenvectors:
  0.000  0.991  0.001  0.000  0.009
  0.001  0.000  0.000  0.999  0.000
  0.000  0.001  0.999  0.000  0.000
  0.000  0.009  0.000  0.000  0.991
  0.999  0.000  0.000  0.001  0.000
    occupations:
  0.608  0.000  0.007  0.034 -0.000
  0.000  0.918 -0.000  0.000 -0.009
  0.007 -0.000  0.906  0.000  0.000
  0.034  0.000  0.000  0.971  0.000
 -0.000 -0.009  0.000  0.000  0.596
atom   16   Tr[ns(na)] =   8.00589
    eigenvalues:
  0.588  0.609  0.884  0.952  0.970
    eigenvectors:
  0.014  0.188  0.003  0.000  0.794
  0.939  0.061  0.000  0.000  0.000
  0.000  0.000  0.992  0.006  0.003
  0.047  0.751  0.000  0.000  0.202
  0.000  0.000  0.005  0.993  0.001
    occupations:
  0.896  0.005  0.003 -0.145  0.001
  0.005  0.590  0.000  0.003 -0.006
  0.003  0.000  0.884 -0.005 -0.005
 -0.145  0.003 -0.005  0.681 -0.000
  0.001 -0.006 -0.005 -0.000  0.952
atom   17   Tr[ns(na)] =   7.99844
    eigenvalues:
  0.602  0.650  0.861  0.911  0.975
    eigenvectors:
  0.001  0.992  0.000  0.000  0.007
  0.000  0.000  0.045  0.954  0.000
  0.000  0.000  0.955  0.045  0.000
  0.000  0.007  0.000  0.000  0.993
  0.999  0.001  0.000  0.000  0.000
    occupations:
  0.652 -0.004 -0.001  0.028  0.001
 -0.004  0.909  0.010  0.001 -0.001
 -0.001  0.010  0.863 -0.001  0.001
  0.028  0.001 -0.001  0.972  0.000
  0.001 -0.001  0.001  0.000  0.602
atom   22   Tr[ns(na)] =   7.99167
    eigenvalues:
  0.639  0.649  0.847  0.885  0.976
    eigenvectors:
  0.000  0.152  0.001  0.000  0.848
  0.999  0.001  0.000  0.000  0.000
  0.000  0.000  0.984  0.015  0.000
  0.001  0.847  0.000  0.000  0.152
  0.000  0.000  0.015  0.985  0.000
    occupations:
  0.927  0.002  0.001 -0.117 -0.000
  0.002  0.639  0.001 -0.001 -0.000
  0.001  0.001  0.847 -0.005  0.005
 -0.117 -0.001 -0.005  0.699  0.000
 -0.000 -0.000  0.005  0.000  0.885
atom   23   Tr[ns(na)] =   8.01266
    eigenvalues:
  0.602  0.635  0.854  0.944  0.972
    eigenvectors:
  0.000  0.994  0.000  0.003  0.002
  0.001  0.000  0.999  0.000  0.000
  0.000  0.003  0.000  0.996  0.001
  0.000  0.003  0.000  0.000  0.997
  0.999  0.000  0.001  0.000  0.000
    occupations:
  0.637 -0.000  0.017  0.017 -0.000
 -0.000  0.853 -0.001 -0.000 -0.009
  0.017 -0.001  0.943 -0.002  0.000
  0.017 -0.000 -0.002  0.971  0.000
 -0.000 -0.009  0.000  0.000  0.602
N of occupied +U levels =  64.0057279
 --- exit write_ns ---

[...]

          k = 0.2500-0.4833 0.0000 ( 30510 PWs)   bands (ev):

[...]

          k =-0.2500 0.2417 0.0000 ( 30481 PWs)   bands (ev):

   -48.6813 -48.6055 -48.5991 -48.5690 -48.5515 -48.5349 -48.5093 -48.4969
   -48.4854 -48.4643 -48.4491 -48.3964 -48.3834 -48.3687 -48.2605 -48.2560
   -48.2115 -48.2096 -48.1828 -48.1740 -48.1612 -48.1586 -48.1573 -48.1215
   -24.1308 -20.8078 -20.5083 -20.3475 -20.2515 -20.0578 -19.8405 -19.7920
   -19.6876 -19.6104 -19.5017 -19.4635 -19.4340 -19.3257 -19.2356 -19.1972
   -19.1001 -18.4394 -18.2914 -17.5078  -9.2026  -9.0661  -8.9603  -8.8726
    -8.6340  -8.2989  -8.2556  -8.1584  -8.0864  -8.0491  -7.9614  -7.9324
    -7.8809  -7.8371  -7.7843  -7.5800  -7.4115  -7.3451  -7.2901  -7.0892
    -6.8586  -6.7533  -6.7145  -6.6002  -6.4920  -6.4219  -6.1879  -6.0803
    -5.9541  -5.8609  -5.7580  -5.6911  -5.6409  -5.5358  -5.5056  -5.4556
    -5.4094  -5.3104  -5.2269  -5.1256  -5.0655  -4.9739  -4.8326  -4.7152
    -4.5386  -4.4363  -4.3298  -4.2473  -4.1498  -4.0928  -3.9620  -3.8689
    -3.7734  -3.7144  -3.4968  -3.4130  -3.2311  -3.1837  -3.0856  -3.0237
    -2.9674  -2.8289  -2.7807  -2.6733  -2.6672  -2.5902  -2.5558  -2.4723
    -2.3936  -2.3399  -2.3272  -2.1957  -1.9535  -1.7485  -1.5482  -1.5194
    -1.4191  -1.3764  -1.2252  -1.1116  -0.9913  -0.9066  -0.8283  -0.3163
     0.2225   0.2985   0.5115   0.9219   1.0991   1.4180   1.5386   1.7936
     1.9151   2.0859   2.1354   2.2799   2.3759   2.4532   2.7426   3.3422
     3.9115   4.1524   4.5123   5.0364   5.2618   5.5591   5.9276   5.9813
     6.0006   6.2521   6.3825   6.5395   6.6094   6.9153   6.9584   7.2303
     7.4188   7.5402   7.7226   7.8402   7.8870   8.2170   8.2449   8.3024
     8.3872   8.4684   8.6810   8.7790   8.8993   9.0039   9.1191   9.1978
     9.2886   9.3887   9.4957   9.6264   9.7864   9.8519   9.9294   9.9754
    10.0697  10.1908  10.2837  10.3498  10.4543  10.5430  10.6084  10.6908
    10.7678  10.9037  11.0069  11.1195  11.1679  11.2384  11.2948  11.3593
    11.4891  11.5363  11.6773  11.7166  11.7638  11.7939  11.8589  11.9564
    11.9904  12.1668  12.2097  12.3189  12.3703  12.4712  12.5424  12.5638
    12.6272  12.7105  12.7881  12.8693  12.9318  12.9856  13.0709  13.1696
    13.2670  13.3691  13.4318  13.5478  13.6218  13.6698  13.7930  13.8416
    13.8819  13.9768  14.0214  14.1260  14.2169  14.3205  14.3597  14.4041
    14.4987  14.5261  14.5646  14.7013  14.7511  14.8037  14.9588  15.0074
    15.0735  15.1523  15.2533  15.3267  15.4452  15.5134  15.5424  15.6144
    15.7035  15.7459  15.7942  15.8410  15.9359  15.9843  16.0449  16.0573
    16.1412  16.1790  16.3426  16.3749  16.4237  16.4711  16.5361  16.5997
    16.6180  16.7033  16.7652  16.8411  16.8987  17.0213  17.0728  17.1654
    17.2299  17.2332  17.2949  17.3840  17.4502  17.4901  17.5586  17.6125
    17.7101  17.7287  17.7788  17.8968  17.9387  17.9875  18.0894  18.1110
    18.2143  18.2281  18.3427  18.4089  18.5101  18.6224  18.6586  18.7036
    18.8670  18.9204  18.9807  19.0181  19.0558  19.1710  19.2491  19.2766
    19.3413  19.4121  19.4802  19.5645  19.6143  19.6848  19.7520  19.8907
    19.9388  19.9798  20.1046  20.1528  20.2029  20.3265  20.3796  20.4755
    20.5727  20.6465  20.7153  20.7374  20.7782  20.8519  20.9170  20.9961
    21.0831  21.1205  21.1675  21.2181  21.2565  21.3552  21.4059  21.4682
    21.5250  21.5765  21.6652  21.6853  21.7492  21.8142  21.8316  21.9442
    22.0382  22.0730  22.1100  22.1854  22.2939  22.3413  22.4224  22.4404
    22.5163  22.5870  22.6632  22.7061  22.7944  22.8552  22.9168

     the Fermi energy is    -1.2810 ev

!    total energy              =   -2012.84210267 Ry
     Harris-Foulkes estimate   =   -2012.84210268 Ry
     estimated scf accuracy    <          6.9E-09 Ry

     The total energy is the sum of the following terms:

     one-electron contribution =  -23711.80025610 Ry
     hartree contribution      =   11911.32283817 Ry
     xc contribution           =    -379.89920909 Ry
     ewald contribution        =   10166.73159090 Ry
     Hubbard energy            =       0.80369465 Ry
     smearing contrib. (-TS)   =      -0.00076120 Ry

     convergence has been achieved in  17 iterations

     Forces acting on atoms (Ry/au):

     negative rho (up, down):  0.693E+00 0.000E+00
     atom    1 type  1   force =    -0.00745038   -0.01307486   -0.00008421
     atom    2 type  1   force =     0.00020444    0.00563883    0.00068885
     atom    3 type  2   force =     0.03054520    0.00400097   -0.00007900
     atom    4 type  2   force =     0.00822634    0.00840665   -0.00006382
     atom    5 type  1   force =    -0.00256745   -0.03269244    0.00029695
     atom    6 type  1   force =     0.00154642    0.03065767    0.00028333
     atom    7 type  1   force =    -0.00024020   -0.00379987   -0.00059551
     atom    8 type  1   force =    -0.00276515    0.00102251    0.00009000
     atom    9 type  2   force =     0.00531891    0.00113090   -0.00020085
     atom   10 type  2   force =    -0.00016342   -0.00021925   -0.00044608
     atom   11 type  1   force =    -0.01136851    0.01711212    0.00007233
     atom   12 type  1   force =    -0.00533160   -0.01131307    0.00011897
     atom   13 type  1   force =    -0.00073984   -0.00294694    0.00002203
     atom   14 type  1   force =    -0.00638035   -0.01294403   -0.00015794
     atom   15 type  1   force =     0.00012699    0.00543327    0.00045097
     atom   16 type  2   force =    -0.03075667    0.00414261   -0.00010962
     atom   17 type  2   force =     0.00796458    0.00920716    0.00022193
     atom   18 type  1   force =    -0.00034784   -0.03332114    0.00028534
     atom   19 type  1   force =     0.00360943    0.03019658    0.00028155
     atom   20 type  1   force =    -0.00017415   -0.00536922   -0.00019612
     atom   21 type  1   force =    -0.00298416    0.00115413    0.00016730
     atom   22 type  2   force =    -0.00268129    0.00115958   -0.00014295
     atom   23 type  2   force =    -0.00033288    0.00160638   -0.00019269
     atom   24 type  1   force =     0.01109693    0.01699975    0.00007072
     atom   25 type  1   force =     0.00623087   -0.01142976    0.00014286
     atom   26 type  1   force =    -0.00093719   -0.01064225   -0.00078709
     atom   27 type  3   force =    -0.00002285   -0.00027040    0.00036006
     atom   28 type  3   force =    -0.00001597   -0.00008689    0.00033460
     atom   29 type  3   force =     0.00016504    0.00004728    0.00024764
     atom   30 type  3   force =     0.00015494    0.00007631    0.00009015
     atom   31 type  1   force =    -0.00014940   -0.00000972   -0.00038704
     atom   32 type  1   force =     0.00022937    0.00006819   -0.00027442
     atom   33 type  3   force =    -0.00001013    0.00005897   -0.00050824

     Total force =     0.001876     Total SCF correction =     0.000253
     SCF correction compared to forces is large: reduce conv_thr to get better values

     entering subroutine stress ...

     negative rho (up, down):  0.693E+00 0.000E+00
          total   stress  (Ry/bohr**3)                   (kbar)     P=  -16.66
  -0.00011328   0.00000414   0.00000421        -16.66      0.61      0.62
   0.00000414  -0.00014014   0.00000448          0.61    -20.61      0.66
   0.00000421   0.00000448  -0.00008624          0.62      0.66    -12.69

     bfgs converged in   6 scf cycles and   5 bfgs steps
     (criteria: energy < 0.10E-03, force < 0.10E-02)

     End of BFGS Geometry Optimization

     Final energy   =   -2012.8421026689 Ry
Begin final coordinates

ATOMIC_POSITIONS (crystal)
O0       0.000000000   0.000000000   0.377934229    0   0   1
O0       0.000000000   0.500000000   0.401511845    0   0   1
Rh1      0.250000000   0.500000000   0.452912642    0   0   1
Rh1      0.000000000   0.000000000   0.452399321    0   0   1
O0       0.250000000   0.810000000   0.452211865    0   0   1
O0       0.250000000   0.190000000   0.452020458    0   0   1
O0       0.000000000   0.500000000   0.498876318    0   0   1
O0       0.000000000   0.000000000   0.527850306    0   0   1
Rh1      0.250000000   0.000000000   0.575023229    0   0   1
Rh1      0.000000000   0.500000000   0.570655623    0   0   1
O0       0.250000000   0.690000000   0.574452766    0   0   1
O0       0.250000000   0.310000000   0.576851763    0   0   1
O0       0.000000000   0.000000000   0.620504828    0   0   1
O0       0.500000000   0.000000000   0.377905983    0   0   1
O0       0.500000000   0.500000000   0.401712345    0   0   1
Rh1      0.750000000   0.500000000   0.452906867    0   0   1
Rh1      0.500000000   0.000000000   0.452275750    0   0   1
O0       0.750000000   0.810000000   0.452180981    0   0   1
O0       0.750000000   0.190000000   0.452055396    0   0   1
O0       0.500000000   0.500000000   0.500242729    0   0   1
O0       0.500000000   0.000000000   0.527705792    0   0   1
Rh1      0.750000000   0.000000000   0.575014118    0   0   1
Rh1      0.500000000   0.500000000   0.577911578    0   0   1
O0       0.750000000   0.690000000   0.574446733    0   0   1
O0       0.750000000   0.310000000   0.576846831    0   0   1
O0       0.500000000   0.000000000   0.620090870    0   0   1
H2       0.000002549   0.638392206   0.384864733
H2       0.499878178   0.638487639   0.385058917
H2       0.147687758   0.035941375   0.367219983
H2       0.648464702   0.033512237   0.367249494
O0       0.499578711   0.536649038   0.650581732
O0       0.500516679   0.345899750   0.678307711
H2       0.499927366   0.402209102   0.713146265
End final coordinates

     General routines

     Parallel routines
     Hubbard U routines

   This run was terminated on:   9:58:28   1Jun2014

   JOB DONE.
Running PBS batch system epilogue script
Job id: 373345.audhumbla.fysik.dtu.dk
Username: zhonxu
Groupname: campgst
Jobname: RhO2/Eads-2-layers/OOH-U-2.0
Sessionid: 30366
Queuename: verylong
Accounting:
This job has allocated the following 16 nodes:
b041 b041 b041 b041 b041 b041 b041 b041 b016 b016 b016 b016 b016 b016 b016 b016
Finished epilogue job 373345.audhumbla.fysik.dtu.dk for zhonxu