     Program PWSCF v.5.0.2 (svn rev. 9656) starts on 24Jan2014 at 15: 2:51

     Current dimensions of program PWSCF are:
     Max number of different atomic species (ntypx) = 10
     Max number of k-points (npk) =  40000
     Max angular momentum in pseudopotentials (lmaxx) =  3
     Reading input from ReO2-v-1.00.in

     Subspace diagonalization in iterative solution of the eigenvalue problem:
     a serial algorithm will be used

     bravais-lattice index     =            0
     lattice parameter (alat)  =       8.7792  a.u.
     unit-cell volume          =     436.0571 (a.u.)^3
     number of atoms/cell      =            6
     number of atomic types    =            2
     number of electrons       =        54.00
     number of Kohn-Sham states=           81
     kinetic-energy cutoff     =      40.0000  Ry
     charge density cutoff     =     500.0000  Ry
     convergence threshold     =      1.0E-06
     mixing beta               =       0.3000
     number of iterations used =            8  plain     mixing
     Exchange-correlation      = SLA  PW   PBE  PBE ( 1 4 3 4 0)
     EXX-fraction              =        0.00
     nstep                     =           50

     celldm(1)=   8.779153  celldm(2)=   0.000000  celldm(3)=   0.000000
     celldm(4)=   0.000000  celldm(5)=   0.000000  celldm(6)=   0.000000

     crystal axes: (cart. coord. in units of alat)
               a(1) = (   1.000000   0.000000   0.000000 )
               a(2) = (   0.000000   1.000000   0.000000 )
               a(3) = (   0.000000   0.000000   0.644444 )

     reciprocal axes: (cart. coord. in units 2 pi/alat)
               b(1) = (  1.000000  0.000000  0.000000 )
               b(2) = (  0.000000  1.000000  0.000000 )
               b(3) = (  0.000000  0.000000  1.551724 )

     PseudoPot. # 1 for Re read from file:
     /home/camp/zhonxu/pseudo/re_pbe_v1.uspp.F.UPF
     MD5 check sum: 6f5a5dcaf9c96c20d0ffdde0de57afc6
     Pseudo is Ultrasoft + core correction, Zval = 15.0
     Generated by new atomic code, or converted to UPF format
     Using radial grid of  981 points,  8 beta functions with:
                l(1) =   0
                l(2) =   0
                l(3) =   1
                l(4) =   1
                l(5) =   2
                l(6) =   2
                l(7) =   3
                l(8) =   3
     Q(r) pseudized with  8 coefficients,  rinner =    1.000   1.000   1.000
                                                       1.000   1.000   1.000
                                                       1.000

     PseudoPot. # 2 for O  read from file:
     /home/camp/zhonxu/pseudo/o_pbe_v1.01.uspp.F.UPF
     MD5 check sum: 2bcb18d16ea4b960afae9ec6d52f22d2
     Pseudo is Ultrasoft + core correction, Zval =  6.0
     Generated by new atomic code, or converted to UPF format
     Using radial grid of  737 points,  5 beta functions with:
                l(1) =   0
                l(2) =   0
                l(3) =   1
                l(4) =   1
                l(5) =   2
     Q(r) pseudized with  8 coefficients,  rinner =    0.900   0.900   0.900
                                                       0.900   0.900

     atomic species   valence    mass     pseudopotential
        Re0           15.00   186.20700     Re( 1.00)
        O1             6.00    15.99940     O ( 1.00)

     Starting magnetic structure
     atomic species   magnetization
        Re0          0.600
        O1           0.000

      8 Sym. Ops., with inversion, found
          (note:  8 additional sym.ops. were found but ignored
           their fractional translations are incommensurate with FFT grid)

   Cartesian axes

     site n.     atom                  positions (alat units)
         1           Re0 tau(   1) = (   0.0000000   0.0000000   0.0000000  )
         2           Re0 tau(   2) = (   0.5000000   0.5000000   0.3222222  )
         3           O1  tau(   3) = (   0.3050000   0.3050000   0.0000000  )
         4           O1  tau(   4) = (  -0.3050000  -0.3050000   0.0000000  )
         5           O1  tau(   5) = (   0.8050000   0.1950000   0.3222222  )
         6           O1  tau(   6) = (   0.1950000   0.8050000   0.3222222  )

     number of k points=    54  Methfessel-Paxton smearing, width (Ry)=  0.0100
                       cart. coord. in units 2pi/alat
        k(    1) = (   0.0000000   0.0000000   0.0000000), wk =   0.0080000
        k(    2) = (   0.0000000   0.0000000   0.3103448), wk =   0.0160000
        k(    3) = (   0.0000000   0.0000000   0.6206897), wk =   0.0160000
        k(    4) = (   0.0000000   0.2000000   0.0000000), wk =   0.0320000
        k(    5) = (   0.0000000   0.2000000   0.3103448), wk =   0.0640000
        k(    6) = (   0.0000000   0.2000000   0.6206897), wk =   0.0640000
        k(    7) = (   0.0000000   0.4000000   0.0000000), wk =   0.0320000
        k(    8) = (   0.0000000   0.4000000   0.3103448), wk =   0.0640000
        k(    9) = (   0.0000000   0.4000000   0.6206897), wk =   0.0640000
        k(   10) = (   0.2000000   0.2000000   0.0000000), wk =   0.0160000
        k(   11) = (   0.2000000   0.2000000   0.3103448), wk =   0.0320000
        k(   12) = (   0.2000000   0.2000000   0.6206897), wk =   0.0320000
        k(   13) = (   0.2000000   0.4000000   0.0000000), wk =   0.0320000
        k(   14) = (   0.2000000   0.4000000   0.3103448), wk =   0.0640000
        k(   15) = (   0.2000000   0.4000000   0.6206897), wk =   0.0640000
        k(   16) = (   0.4000000   0.4000000   0.0000000), wk =   0.0160000
        k(   17) = (   0.4000000   0.4000000   0.3103448), wk =   0.0320000
        k(   18) = (   0.4000000   0.4000000   0.6206897), wk =   0.0320000
        k(   19) = (  -0.2000000   0.2000000   0.0000000), wk =   0.0160000
        k(   20) = (  -0.2000000   0.2000000  -0.3103448), wk =   0.0320000
        k(   21) = (  -0.2000000   0.2000000  -0.6206897), wk =   0.0320000
        k(   22) = (  -0.2000000   0.4000000   0.0000000), wk =   0.0320000
        k(   23) = (  -0.2000000   0.4000000  -0.3103448), wk =   0.0640000
        k(   24) = (  -0.2000000   0.4000000  -0.6206897), wk =   0.0640000
        k(   25) = (  -0.4000000   0.4000000   0.0000000), wk =   0.0160000
        k(   26) = (  -0.4000000   0.4000000  -0.3103448), wk =   0.0320000
        k(   27) = (  -0.4000000   0.4000000  -0.6206897), wk =   0.0320000
        k(   28) = (   0.0000000   0.0000000   0.0000000), wk =   0.0080000
        k(   29) = (   0.0000000   0.0000000   0.3103448), wk =   0.0160000
        k(   30) = (   0.0000000   0.0000000   0.6206897), wk =   0.0160000
        k(   31) = (   0.0000000   0.2000000   0.0000000), wk =   0.0320000
        k(   32) = (   0.0000000   0.2000000   0.3103448), wk =   0.0640000
        k(   33) = (   0.0000000   0.2000000   0.6206897), wk =   0.0640000
        k(   34) = (   0.0000000   0.4000000   0.0000000), wk =   0.0320000
        k(   35) = (   0.0000000   0.4000000   0.3103448), wk =   0.0640000
        k(   36) = (   0.0000000   0.4000000   0.6206897), wk =   0.0640000
        k(   37) = (   0.2000000   0.2000000   0.0000000), wk =   0.0160000
        k(   38) = (   0.2000000   0.2000000   0.3103448), wk =   0.0320000
        k(   39) = (   0.2000000   0.2000000   0.6206897), wk =   0.0320000
        k(   40) = (   0.2000000   0.4000000   0.0000000), wk =   0.0320000
        k(   41) = (   0.2000000   0.4000000   0.3103448), wk =   0.0640000
        k(   42) = (   0.2000000   0.4000000   0.6206897), wk =   0.0640000
        k(   43) = (   0.4000000   0.4000000   0.0000000), wk =   0.0160000
        k(   44) = (   0.4000000   0.4000000   0.3103448), wk =   0.0320000
        k(   45) = (   0.4000000   0.4000000   0.6206897), wk =   0.0320000
        k(   46) = (  -0.2000000   0.2000000   0.0000000), wk =   0.0160000
        k(   47) = (  -0.2000000   0.2000000  -0.3103448), wk =   0.0320000
        k(   48) = (  -0.2000000   0.2000000  -0.6206897), wk =   0.0320000
        k(   49) = (  -0.2000000   0.4000000   0.0000000), wk =   0.0320000
        k(   50) = (  -0.2000000   0.4000000  -0.3103448), wk =   0.0640000
        k(   51) = (  -0.2000000   0.4000000  -0.6206897), wk =   0.0640000
        k(   52) = (  -0.4000000   0.4000000   0.0000000), wk =   0.0160000
        k(   53) = (  -0.4000000   0.4000000  -0.3103448), wk =   0.0320000
        k(   54) = (  -0.4000000   0.4000000  -0.6206897), wk =   0.0320000

     Largest allocated arrays     est. size (Mb)     dimensions
     Largest temporary arrays     est. size (Mb)     dimensions

     Check: negative/imaginary core charge=   -0.000004    0.000000

     Initial potential from superposition of free atoms
     Check: negative starting charge=(component1):   -0.047154
     Check: negative starting charge=(component2):   -0.011482

     starting charge   52.99990, renormalised to   54.00000

     negative rho (up, down):  0.480E-01 0.117E-01
     Starting wfc are   42 randomized atomic wfcs

     Self-consistent Calculation

     iteration #  1     ecut=    40.00 Ry     beta=0.30
     Davidson diagonalization with overlap
     ethr =  1.00E-02,  avg # of iterations =  5.1

     negative rho (up, down):  0.347E-01 0.281E-01

     total energy              =    -517.67689721 Ry
     Harris-Foulkes estimate   =    -517.83731355 Ry
     estimated scf accuracy    <       2.26273655 Ry

     total magnetization       =     5.99 Bohr mag/cell
     absolute magnetization    =     6.32 Bohr mag/cell

[...]

     End of self-consistent calculation

 ------ SPIN UP ------------

          k = 0.0000 0.0000 0.0000 (  1875 PWs)   bands (ev):

   -66.1975 -66.1909 -28.1255 -28.1248 -28.1240 -28.0949 -28.0228 -28.0204
    -6.7676  -5.6849  -4.5016  -4.5014   4.8447   5.2429   6.5875   7.0959
     7.0966   9.3189   9.3194   9.8438  10.9470  11.1928  11.1931  11.7934
    13.4799  13.5012  14.3578  14.4343  14.4458  17.6874  17.8268  18.7273
    20.9504  20.9525  22.4392  23.1681  23.1684  27.0706  27.4774  27.6122
    30.2588  30.5968  30.9026  30.9045  33.1228  34.0798  34.8154  34.8163
    35.9045  35.9062  37.0847  40.7009  41.0897  41.0917  41.5494  42.2930
    43.4372  44.4609  44.4612  44.5029  44.7540  45.1982  45.1988  45.8726
    46.2143  46.8773  46.8785  47.6254  49.9925  52.0235  52.0235  52.4957
    52.9066  53.0187  53.0193  53.7301  54.3639  54.3672  54.3679  54.4443
    55.3571

[...]

          k =-0.2000 0.2000 0.0000 (  1865 PWs)   bands (ev):

[...]

 ------ SPIN DOWN ----------

[...]

     the Fermi energy is    15.2853 ev

!    total energy              =    -518.45887242 Ry
     Harris-Foulkes estimate   =    -518.45887219 Ry
     estimated scf accuracy    <       0.00000057 Ry

     The total energy is the sum of the following terms:

     one-electron contribution =    -118.93524749 Ry
     hartree contribution      =      90.67815935 Ry
     xc contribution           =    -142.75178252 Ry
     ewald contribution        =    -347.44991926 Ry
     smearing contrib. (-TS)   =      -0.00008251 Ry

[...]

     convergence has been achieved in  45 iterations

     Forces acting on atoms (Ry/au):

     negative rho (up, down):  0.269E-01 0.319E-01
[...]
        k(    9) = (   0.0000001   0.3774023   0.6972448), wk =   0.0640000
        k(   10) = (   0.1887012   0.1887012   0.0000000), wk =   0.0160000
        k(   11) = (   0.1887012   0.1887012   0.3486224), wk =   0.0320000
        k(   12) = (   0.1887012   0.1887012   0.6972448), wk =   0.0320000
        k(   13) = (   0.1887013   0.3774024   0.0000000), wk =   0.0320000
        k(   14) = (   0.1887013   0.3774024   0.3486224), wk =   0.0640000
        k(   15) = (   0.1887013   0.3774024   0.6972448), wk =   0.0640000
        k(   16) = (   0.3774024   0.3774024   0.0000000), wk =   0.0160000
        k(   17) = (   0.3774024   0.3774024   0.3486224), wk =   0.0320000
        k(   18) = (   0.3774024   0.3774024   0.6972448), wk =   0.0320000
        k(   19) = (  -0.1887011   0.1887011   0.0000000), wk =   0.0160000
        k(   20) = (  -0.1887011   0.1887011  -0.3486224), wk =   0.0320000
        k(   21) = (  -0.1887011   0.1887011  -0.6972448), wk =   0.0320000
        k(   22) = (  -0.1887011   0.3774023   0.0000000), wk =   0.0320000
        k(   23) = (  -0.1887011   0.3774023  -0.3486224), wk =   0.0640000
        k(   24) = (  -0.1887011   0.3774023  -0.6972448), wk =   0.0640000
        k(   25) = (  -0.3774023   0.3774023   0.0000000), wk =   0.0160000
        k(   26) = (  -0.3774023   0.3774023  -0.3486224), wk =   0.0320000
        k(   27) = (  -0.3774023   0.3774023  -0.6972448), wk =   0.0320000
        k(   28) = (   0.0000000   0.0000000   0.0000000), wk =   0.0080000
        k(   29) = (   0.0000000   0.0000000   0.3486224), wk =   0.0160000
        k(   30) = (   0.0000000   0.0000000   0.6972448), wk =   0.0160000
        k(   31) = (   0.0000000   0.1887012   0.0000000), wk =   0.0320000
        k(   32) = (   0.0000000   0.1887012   0.3486224), wk =   0.0640000
        k(   33) = (   0.0000000   0.1887012   0.6972448), wk =   0.0640000
        k(   34) = (   0.0000001   0.3774023   0.0000000), wk =   0.0320000
        k(   35) = (   0.0000001   0.3774023   0.3486224), wk =   0.0640000
        k(   36) = (   0.0000001   0.3774023   0.6972448), wk =   0.0640000
        k(   37) = (   0.1887012   0.1887012   0.0000000), wk =   0.0160000
        k(   38) = (   0.1887012   0.1887012   0.3486224), wk =   0.0320000
        k(   39) = (   0.1887012   0.1887012   0.6972448), wk =   0.0320000
        k(   40) = (   0.1887013   0.3774024   0.0000000), wk =   0.0320000
        k(   41) = (   0.1887013   0.3774024   0.3486224), wk =   0.0640000
        k(   42) = (   0.1887013   0.3774024   0.6972448), wk =   0.0640000
        k(   43) = (   0.3774024   0.3774024   0.0000000), wk =   0.0160000
        k(   44) = (   0.3774024   0.3774024   0.3486224), wk =   0.0320000
        k(   45) = (   0.3774024   0.3774024   0.6972448), wk =   0.0320000
        k(   46) = (  -0.1887011   0.1887011   0.0000000), wk =   0.0160000
        k(   47) = (  -0.1887011   0.1887011  -0.3486224), wk =   0.0320000
        k(   48) = (  -0.1887011   0.1887011  -0.6972448), wk =   0.0320000
        k(   49) = (  -0.1887011   0.3774023   0.0000000), wk =   0.0320000
        k(   50) = (  -0.1887011   0.3774023  -0.3486224), wk =   0.0640000
        k(   51) = (  -0.1887011   0.3774023  -0.6972448), wk =   0.0640000
        k(   52) = (  -0.3774023   0.3774023   0.0000000), wk =   0.0160000
        k(   53) = (  -0.3774023   0.3774023  -0.3486224), wk =   0.0320000
        k(   54) = (  -0.3774023   0.3774023  -0.6972448), wk =   0.0320000

     Check: negative/imaginary core charge=   -0.000003    0.000000
     Check: negative starting charge=(component1):   -0.057254

[...]

     Threshold (ethr) on eigenvalues was too large:
     Diagonalizing with lowered threshold

     Davidson diagonalization with overlap
     ethr =  1.51E-09,  avg # of iterations =  1.9

[...]

     Volume is kept fixed: isostatic pressure set to zero

     bfgs converged in   9 scf cycles and   8 bfgs steps
     (criteria: energy < 0.10E-03, force < 0.10E-02, cell < 0.50E+00)

     End of BFGS Geometry Optimization

     Final enthalpy =    -518.5483027647 Ry
Begin final coordinates
     new unit-cell volume =    436.05714 a.u.^3 (    64.61700 Ang^3 )

CELL_PARAMETERS (alat=  8.77915341)
   1.059876832  -0.000000239   0.000000000
  -0.000000239   1.059876832   0.000000000
   0.000000000   0.000000000   0.573686574

ATOMIC_POSITIONS (crystal)
Re0      0.000000000   0.000000000   0.000000000    0   0   0
Re0      0.500000000   0.500000000   0.500000000    0   0   0
O1       0.280951727   0.280951727   0.000000000    1   1   0
O1      -0.280951727  -0.280951727   0.000000000    1   1   0
O1       0.780951530   0.219048470   0.500000000    1   1   0
O1       0.219048470   0.780951530   0.500000000    1   1   0
End final coordinates

     A final scf calculation at the relaxed structure.
     The G-vectors are recalculated for the final unit cell
     Results may differ from those at the preceding step.

     bravais-lattice index     =            0
     lattice parameter (alat)  =       8.7792  a.u.
     unit-cell volume          =     436.0571 (a.u.)^3
     number of atoms/cell      =            6
     number of atomic types    =            2
     number of electrons       =        54.00
     number of Kohn-Sham states=           81
     kinetic-energy cutoff     =      40.0000  Ry
     charge density cutoff     =     500.0000  Ry
     convergence threshold     =      1.0E-08
     mixing beta               =       0.3000
     number of iterations used =            8  plain     mixing
     Exchange-correlation      = SLA  PW   PBE  PBE ( 1 4 3 4 0)
     EXX-fraction              =        0.00

     celldm(1)=   8.779153  celldm(2)=   0.000000  celldm(3)=   0.000000
     celldm(4)=   0.000000  celldm(5)=   0.000000  celldm(6)=   0.000000

     crystal axes: (cart. coord. in units of alat)
               a(1) = (   1.059877  -0.000000   0.000000 )
               a(2) = (  -0.000000   1.059877   0.000000 )
               a(3) = (   0.000000   0.000000   0.573687 )

     reciprocal axes: (cart. coord. in units 2 pi/alat)
               b(1) = (  0.943506  0.000000 -0.000000 )
               b(2) = (  0.000000  0.943506 -0.000000 )
               b(3) = ( -0.000000 -0.000000  1.743112 )

     PseudoPot. # 1 for Re read from file:
     /home/camp/zhonxu/pseudo/re_pbe_v1.uspp.F.UPF
     MD5 check sum: 6f5a5dcaf9c96c20d0ffdde0de57afc6
     Pseudo is Ultrasoft + core correction, Zval = 15.0
     Generated by new atomic code, or converted to UPF format
     Using radial grid of  981 points,  8 beta functions with:
                l(1) =   0
                l(2) =   0
                l(3) =   1
                l(4) =   1
                l(5) =   2
                l(6) =   2
                l(7) =   3
                l(8) =   3
     Q(r) pseudized with  8 coefficients,  rinner =    1.000   1.000   1.000
                                                       1.000   1.000   1.000
                                                       1.000

     PseudoPot. # 2 for O  read from file:
     /home/camp/zhonxu/pseudo/o_pbe_v1.01.uspp.F.UPF
     MD5 check sum: 2bcb18d16ea4b960afae9ec6d52f22d2
     Pseudo is Ultrasoft + core correction, Zval =  6.0
     Generated by new atomic code, or converted to UPF format
     Using radial grid of  737 points,  5 beta functions with:
                l(1) =   0
                l(2) =   0
                l(3) =   1
                l(4) =   1
                l(5) =   2
     Q(r) pseudized with  8 coefficients,  rinner =    0.900   0.900   0.900
                                                       0.900   0.900

     atomic species   valence    mass     pseudopotential
        Re0           15.00   186.20700     Re( 1.00)
        O1             6.00    15.99940     O ( 1.00)

     Starting magnetic structure
     atomic species   magnetization
        Re0          0.600
        O1           0.000

      8 Sym. Ops., with inversion, found
          (note:  8 additional sym.ops. were found but ignored
           their fractional translations are incommensurate with FFT grid)

   Cartesian axes

     site n.     atom                  positions (alat units)
         1           Re0 tau(   1) = (   0.0000000   0.0000000   0.0000000  )
         2           Re0 tau(   2) = (   0.5299383   0.5299383   0.2868433  )
         3           O1  tau(   3) = (   0.2977742   0.2977742   0.0000000  )
         4           O1  tau(   4) = (  -0.2977742  -0.2977742   0.0000000  )
         5           O1  tau(   5) = (   0.8277124   0.2321642   0.2868433  )
         6           O1  tau(   6) = (   0.2321642   0.8277124   0.2868433  )

     number of k points=    54  Methfessel-Paxton smearing, width (Ry)=  0.0100
                       cart. coord. in units 2pi/alat
        k(    1) = (   0.0000000   0.0000000   0.0000000), wk =   0.0080000
        k(    2) = (   0.0000000   0.0000000   0.3486224), wk =   0.0160000
        k(    3) = (   0.0000000   0.0000000   0.6972448), wk =   0.0160000
        k(    4) = (   0.0000000   0.1887012   0.0000000), wk =   0.0320000
        k(    5) = (   0.0000000   0.1887012   0.3486224), wk =   0.0640000
        k(    6) = (   0.0000000   0.1887012   0.6972448), wk =   0.0640000
        k(    7) = (   0.0000001   0.3774023   0.0000000), wk =   0.0320000
        k(    8) = (   0.0000001   0.3774023   0.3486224), wk =   0.0640000
        k(    9) = (   0.0000001   0.3774023   0.6972448), wk =   0.0640000
        k(   10) = (   0.1887012   0.1887012   0.0000000), wk =   0.0160000
        k(   11) = (   0.1887012   0.1887012   0.3486224), wk =   0.0320000
        k(   12) = (   0.1887012   0.1887012   0.6972448), wk =   0.0320000
        k(   13) = (   0.1887013   0.3774024   0.0000000), wk =   0.0320000
        k(   14) = (   0.1887013   0.3774024   0.3486224), wk =   0.0640000
        k(   15) = (   0.1887013   0.3774024   0.6972448), wk =   0.0640000
        k(   16) = (   0.3774024   0.3774024   0.0000000), wk =   0.0160000
        k(   17) = (   0.3774024   0.3774024   0.3486224), wk =   0.0320000
        k(   18) = (   0.3774024   0.3774024   0.6972448), wk =   0.0320000
        k(   19) = (  -0.1887011   0.1887011   0.0000000), wk =   0.0160000
        k(   20) = (  -0.1887011   0.1887011  -0.3486224), wk =   0.0320000
        k(   21) = (  -0.1887011   0.1887011  -0.6972448), wk =   0.0320000
        k(   22) = (  -0.1887011   0.3774023   0.0000000), wk =   0.0320000
        k(   23) = (  -0.1887011   0.3774023  -0.3486224), wk =   0.0640000
        k(   24) = (  -0.1887011   0.3774023  -0.6972448), wk =   0.0640000
        k(   25) = (  -0.3774023   0.3774023   0.0000000), wk =   0.0160000
        k(   26) = (  -0.3774023   0.3774023  -0.3486224), wk =   0.0320000
        k(   27) = (  -0.3774023   0.3774023  -0.6972448), wk =   0.0320000
        k(   28) = (   0.0000000   0.0000000   0.0000000), wk =   0.0080000
        k(   29) = (   0.0000000   0.0000000   0.3486224), wk =   0.0160000
        k(   30) = (   0.0000000   0.0000000   0.6972448), wk =   0.0160000
        k(   31) = (   0.0000000   0.1887012   0.0000000), wk =   0.0320000
        k(   32) = (   0.0000000   0.1887012   0.3486224), wk =   0.0640000
        k(   33) = (   0.0000000   0.1887012   0.6972448), wk =   0.0640000
        k(   34) = (   0.0000001   0.3774023   0.0000000), wk =   0.0320000
        k(   35) = (   0.0000001   0.3774023   0.3486224), wk =   0.0640000
        k(   36) = (   0.0000001   0.3774023   0.6972448), wk =   0.0640000
        k(   37) = (   0.1887012   0.1887012   0.0000000), wk =   0.0160000
        k(   38) = (   0.1887012   0.1887012   0.3486224), wk =   0.0320000
        k(   39) = (   0.1887012   0.1887012   0.6972448), wk =   0.0320000
        k(   40) = (   0.1887013   0.3774024   0.0000000), wk =   0.0320000
        k(   41) = (   0.1887013   0.3774024   0.3486224), wk =   0.0640000
        k(   42) = (   0.1887013   0.3774024   0.6972448), wk =   0.0640000
        k(   43) = (   0.3774024   0.3774024   0.0000000), wk =   0.0160000
        k(   44) = (   0.3774024   0.3774024   0.3486224), wk =   0.0320000
        k(   45) = (   0.3774024   0.3774024   0.6972448), wk =   0.0320000
        k(   46) = (  -0.1887011   0.1887011   0.0000000), wk =   0.0160000
        k(   47) = (  -0.1887011   0.1887011  -0.3486224), wk =   0.0320000
        k(   48) = (  -0.1887011   0.1887011  -0.6972448), wk =   0.0320000
        k(   49) = (  -0.1887011   0.3774023   0.0000000), wk =   0.0320000
        k(   50) = (  -0.1887011   0.3774023  -0.3486224), wk =   0.0640000
        k(   51) = (  -0.1887011   0.3774023  -0.6972448), wk =   0.0640000
        k(   52) = (  -0.3774023   0.3774023   0.0000000), wk =   0.0160000
        k(   53) = (  -0.3774023   0.3774023  -0.3486224), wk =   0.0320000
        k(   54) = (  -0.3774023   0.3774023  -0.6972448), wk =   0.0320000

     Largest allocated arrays     est. size (Mb)     dimensions
     Largest temporary arrays     est. size (Mb)     dimensions

     Check: negative/imaginary core charge=   -0.000004    0.000000

     Initial potential from superposition of free atoms
     Check: negative starting charge=(component1):   -0.047650
     Check: negative starting charge=(component2):   -0.011611

     starting charge   52.99990, renormalised to   54.00000

     negative rho (up, down):  0.485E-01 0.118E-01
     Starting wfc are   42 randomized atomic wfcs

     Self-consistent Calculation

[...]

     total energy              =    -518.54983062 Ry
     Harris-Foulkes estimate   =    -518.54983087 Ry
     estimated scf accuracy    <       0.00000001 Ry

[...]

     iteration # 21     ecut=    40.00 Ry     beta=0.30
     Davidson diagonalization with overlap
     ethr =  1.95E-11,  avg # of iterations =  2.0

     negative rho (up, down):  0.301E-01 0.318E-01

     End of self-consistent calculation

 ------ SPIN UP ------------

[...]

 ------ SPIN DOWN ----------

[...]

          k = 0.3774 0.3774 0.6972 (  1877 PWs)   bands (ev):

[...]

          k =-0.3774 0.3774-0.6972 (  1877 PWs)   bands (ev):

   -66.6549 -66.6548 -28.8836 -28.8830 -28.5614 -28.5596 -28.5199 -28.5189
    -5.2791  -5.0577  -4.8917  -4.6421   6.1625   6.5582   6.7171   7.0332
     7.1150   7.8457   7.9529   8.7076   9.9133  10.1022  10.9541  11.1722
    13.7841  14.0729  14.9479  15.3550  16.7663  16.8657  18.6817  19.6786
    19.9781  20.7822  23.6057  24.1006  24.3284  24.4939  28.2023  28.2462
    29.1099  29.2738  30.8813  31.1951  32.4697  33.1284  33.6304  34.2948
    36.7127  37.0165  37.9203  38.0638  40.4513  40.8358  41.9472  42.3894
    42.6207  42.8814  44.4419  45.2618  45.4947  45.8918  46.3110  46.8223
    47.2683  47.5470  47.7864  48.4751  49.2342  49.2952  49.9043  50.0950
    51.5041  52.4967  54.9018  55.7153  55.9601  56.2976  57.1158  57.1991
    58.5654

     the Fermi energy is    15.1200 ev

!    total energy              =    -518.54983094 Ry
     Harris-Foulkes estimate   =    -518.54983093 Ry
     estimated scf accuracy    <          2.1E-09 Ry

     The total energy is the sum of the following terms:

     one-electron contribution =    -123.79149031 Ry
     hartree contribution      =      92.61507411 Ry
     xc contribution           =    -142.65213881 Ry
     ewald contribution        =    -344.72093217 Ry
     smearing contrib. (-TS)   =      -0.00034376 Ry

     total magnetization       =     0.15 Bohr mag/cell
     absolute magnetization    =     0.15 Bohr mag/cell

     convergence has been achieved in  21 iterations

     Forces acting on atoms (Ry/au):

     negative rho (up, down):  0.301E-01 0.318E-01
     atom    1 type  1   force =     0.00000000    0.00000000    0.00000000
     atom    2 type  1   force =     0.00000000    0.00000000    0.00000000
     atom    3 type  2   force =     0.00000960    0.00000960    0.00000000
     atom    4 type  2   force =    -0.00000960   -0.00000960    0.00000000
     atom    5 type  2   force =     0.00000903   -0.00000903    0.00000000
     atom    6 type  2   force =    -0.00000903    0.00000903    0.00000000

     Total force =     0.000026     Total SCF correction =     0.000015
     SCF correction compared to forces is large: reduce conv_thr to get better values

     entering subroutine stress ...

     negative rho (up, down):  0.301E-01 0.318E-01
          total   stress  (Ry/bohr**3)                   (kbar)     P=   29.36
   0.00021904   0.00000000   0.00000000         32.22      0.00      0.00
   0.00000000   0.00021904   0.00000000          0.00     32.22      0.00
   0.00000000   0.00000000   0.00016059          0.00      0.00     23.62

     General routines

     Parallel routines

   This run was terminated on:  16:27:21  24Jan2014

   JOB DONE.