     Program PWSCF v.5.0.2 (svn rev. 9656) starts on  1May2014 at  6: 5:53

     Current dimensions of program PWSCF are:
     Max number of different atomic species (ntypx) = 10
     Max number of k-points (npk) =  40000
     Max angular momentum in pseudopotentials (lmaxx) =  3
     Reading input from pwscf.in
Warning: card &CELL ignored
Warning: card / ignored

     Subspace diagonalization in iterative solution of the eigenvalue problem:
     a serial algorithm will be used

     bravais-lattice index     =            0
     lattice parameter (alat)  =      10.1289  a.u.
     unit-cell volume          =    6836.7721 (a.u.)^3
     number of atoms/cell      =           31
     number of atomic types    =            3
     number of electrons       =       238.00
     number of Kohn-Sham states=          357
     kinetic-energy cutoff     =      40.0000  Ry
     charge density cutoff     =     500.0000  Ry
     convergence threshold     =      1.0E-06
     mixing beta               =       0.7000
     number of iterations used =            8  plain     mixing
     Exchange-correlation      = SLA  PW   PBE  PBE ( 1 4 3 4 0)
     EXX-fraction              =        0.00
     nstep                     =           50

     celldm(1)=  10.128932  celldm(2)=   0.000000  celldm(3)=   0.000000
     celldm(4)=   0.000000  celldm(5)=   0.000000  celldm(6)=   0.000000

     crystal axes: (cart. coord. in units of alat)
               a(1) = (   1.000000   0.000000   0.000000 )
               a(2) = (   0.000000   1.306037   0.000000 )
               a(3) = (   0.000000   0.000000   5.037380 )

     reciprocal axes: (cart. coord. in units 2 pi/alat)
               b(1) = (  1.000000  0.000000  0.000000 )
               b(2) = (  0.000000  0.765675  0.000000 )
               b(3) = (  0.000000  0.000000  0.198516 )

     PseudoPot. # 1 for O  read from file:
     /home/camp/zhonxu/pseudo/o_pbe_v1.01.uspp.F.UPF
     MD5 check sum: 2bcb18d16ea4b960afae9ec6d52f22d2
     Pseudo is Ultrasoft + core correction, Zval =  6.0
     Generated by new atomic code, or converted to UPF format
     Using radial grid of  737 points,  5 beta functions with:
                l(1) =   0
                l(2) =   0
                l(3) =   1
                l(4) =   1
                l(5) =   2
     Q(r) pseudized with  8 coefficients,  rinner =    0.900   0.900   0.900
                                                       0.900   0.900

     PseudoPot. # 2 for Re read from file:
     /home/camp/zhonxu/pseudo/re_pbe_v1.uspp.F.UPF
     MD5 check sum: 6f5a5dcaf9c96c20d0ffdde0de57afc6
     Pseudo is Ultrasoft + core correction, Zval = 15.0
     Generated by new atomic code, or converted to UPF format
     Using radial grid of  981 points,  8 beta functions with:
                l(1) =   0
                l(2) =   0
                l(3) =   1
                l(4) =   1
                l(5) =   2
                l(6) =   2
                l(7) =   3
                l(8) =   3
     Q(r) pseudized with  8 coefficients,  rinner =    1.000   1.000   1.000
                                                       1.000   1.000   1.000
                                                       1.000

     PseudoPot. # 3 for H  read from file:
     /home/camp/zhonxu/pseudo/h_pbe_v1.uspp.F.UPF
     MD5 check sum: 3408e3ff4ec8b0a4e358431e7e038a48
     Pseudo is Ultrasoft, Zval =  1.0
     Generated by new atomic code, or converted to UPF format
     Using radial grid of  615 points,  2 beta functions with:
                l(1) =   0
                l(2) =   0
     Q(r) pseudized with  8 coefficients,  rinner =    0.700

     atomic species   valence    mass     pseudopotential
        O0             6.00    15.99940     O ( 1.00)
        Re1           15.00   186.20700     Re( 1.00)
        H2             1.00     1.00794     H ( 1.00)

     Simplified LDA+U calculation (l_max = 2) with parameters (eV):
     atomic species    L          U    alpha       J0     beta
        Re1            2     4.0000   0.0000   0.0000   0.0000

     No symmetry found

   Cartesian axes

     site n.     atom                  positions (alat units)
         1           O0  tau(   1) = (   0.0000000   0.0000000   1.8646870  )
         2           O0  tau(   2) = (   0.0000000   0.6530184   1.9287121  )
         3           Re1 tau(   3) = (   0.2500000   0.6530184   2.2295948  )
         4           Re1 tau(   4) = (   0.0000000   0.0000000   2.2312068  )
         5           O0  tau(   5) = (   0.2500000   1.0187087   2.2244063  )
         6           O0  tau(   6) = (   0.2500000   0.2873281   2.2234996  )
         7           O0  tau(   7) = (   0.0000000   0.6530184   2.5067011  )
         8           O0  tau(   8) = (   0.0000000   0.0000000   2.5914802  )
         9           Re1 tau(   9) = (   0.2500000   0.0000000   2.8910532  )
        10           Re1 tau(  10) = (   0.0000000   0.6530184   2.8571012  )
        11           O0  tau(  11) = (   0.2500000   0.9403465   2.8803235  )
        12           O0  tau(  12) = (   0.2500000   0.3656903   2.8804747  )
        13           O0  tau(  13) = (   0.0000000   0.0000000   3.1540044  )
        14           O0  tau(  14) = (   0.5000000   0.0000000   1.8645359  )
        15           O0  tau(  15) = (   0.5000000   0.6530184   1.9300722  )
        16           Re1 tau(  16) = (   0.7500000   0.6530184   2.2295444  )
        17           Re1 tau(  17) = (   0.5000000   0.0000000   2.2295948  )
        18           O0  tau(  18) = (   0.7500000   1.0187087   2.2239529  )
        19           O0  tau(  19) = (   0.7500000   0.2873281   2.2238522  )
        20           O0  tau(  20) = (   0.5000000   0.6530184   2.5186397  )
        21           O0  tau(  21) = (   0.5000000   0.0000000   2.5912283  )
        22           Re1 tau(  22) = (   0.7500000   0.0000000   2.8912547  )
        23           Re1 tau(  23) = (   0.5000000   0.6530184   2.9058631  )
        24           O0  tau(  24) = (   0.7500000   0.9403465   2.8806762  )
        25           O0  tau(  25) = (   0.7500000   0.3656903   2.8804243  )
        26           O0  tau(  26) = (   0.5000000   0.0000000   3.1508309  )
        27           H2  tau(  27) = (  -0.0003300   0.8166387   1.8441345  )
        28           H2  tau(  28) = (   0.4996000   0.8128642   1.8387445  )
        29           H2  tau(  29) = (   0.1687200   0.0311098   1.7921991  )
        30           H2  tau(  30) = (   0.6701100   0.0285761   1.7932066  )
        31           O0  tau(  31) = (   0.4998900   0.6523393   3.2273487  )

     number of k points=    10  Methfessel-Paxton smearing, width (Ry)=  0.0100
                       cart. coord. in units 2pi/alat
        k(    1) = (   0.0000000   0.0000000   0.0000000), wk =   0.1250000
        k(    2) = (   0.0000000   0.1914188   0.0000000), wk =   0.2500000
        k(    3) = (   0.0000000  -0.3828376   0.0000000), wk =   0.1250000
        k(    4) = (   0.2500000   0.0000000   0.0000000), wk =   0.2500000
        k(    5) = (   0.2500000   0.1914188   0.0000000), wk =   0.2500000
        k(    6) = (   0.2500000  -0.3828376   0.0000000), wk =   0.2500000
        k(    7) = (  -0.5000000   0.0000000   0.0000000), wk =   0.1250000
        k(    8) = (  -0.5000000   0.1914188   0.0000000), wk =   0.2500000
        k(    9) = (  -0.5000000  -0.3828376   0.0000000), wk =   0.1250000
        k(   10) = (  -0.2500000   0.1914188   0.0000000), wk =   0.2500000

     Largest allocated arrays     est. size (Mb)     dimensions
     Largest temporary arrays     est. size (Mb)     dimensions

     Check: negative/imaginary core charge=   -0.000003    0.000000

     Initial potential from superposition of free atoms
     Check: negative starting charge=   -0.237495

     starting charge  233.99958, renormalised to  238.00000

     negative rho (up, down):  0.242E+00 0.000E+00
     Number of +U iterations with fixed ns =  0
     Starting occupations:
 --- enter write_ns ---
 LDA+U parameters:
U( 2)     =  4.00000000
alpha( 2) =  0.00000000
atom    3   Tr[ns(na)] =   5.00000
    eigenvalues:
  0.500  0.500  0.500  0.500  0.500
    eigenvectors:
  1.000  0.000  0.000  0.000  0.000
  0.000  1.000  0.000  0.000  0.000
  0.000  0.000  1.000  0.000  0.000
  0.000  0.000  0.000  1.000  0.000
  0.000  0.000  0.000  0.000  1.000
    occupations:
  0.500  0.000  0.000  0.000  0.000
  0.000  0.500  0.000  0.000  0.000
  0.000  0.000  0.500  0.000  0.000
  0.000  0.000  0.000  0.500  0.000
  0.000  0.000  0.000  0.000  0.500
atom    4   Tr[ns(na)] =   5.00000
    eigenvalues:
  0.500  0.500  0.500  0.500  0.500
    eigenvectors:
  1.000  0.000  0.000  0.000  0.000
  0.000  1.000  0.000  0.000  0.000
  0.000  0.000  1.000  0.000  0.000
  0.000  0.000  0.000  1.000  0.000
  0.000  0.000  0.000  0.000  1.000
    occupations:
  0.500  0.000  0.000  0.000  0.000
  0.000  0.500  0.000  0.000  0.000
  0.000  0.000  0.500  0.000  0.000
  0.000  0.000  0.000  0.500  0.000
  0.000  0.000  0.000  0.000  0.500
atom    9   Tr[ns(na)] =   5.00000
    eigenvalues:
  0.500  0.500  0.500  0.500  0.500
    eigenvectors:
  1.000  0.000  0.000  0.000  0.000
  0.000  1.000  0.000  0.000  0.000
  0.000  0.000  1.000  0.000  0.000
  0.000  0.000  0.000  1.000  0.000
  0.000  0.000  0.000  0.000  1.000
    occupations:
  0.500  0.000  0.000  0.000  0.000
  0.000  0.500  0.000  0.000  0.000
  0.000  0.000  0.500  0.000  0.000
  0.000  0.000  0.000  0.500  0.000
  0.000  0.000  0.000  0.000  0.500
atom   10   Tr[ns(na)] =   5.00000
    eigenvalues:
  0.500  0.500  0.500  0.500  0.500
    eigenvectors:
  1.000  0.000  0.000  0.000  0.000
  0.000  1.000  0.000  0.000  0.000
  0.000  0.000  1.000  0.000  0.000
  0.000  0.000  0.000  1.000  0.000
  0.000  0.000  0.000  0.000  1.000
    occupations:
  0.500  0.000  0.000  0.000  0.000
  0.000  0.500  0.000  0.000  0.000
  0.000  0.000  0.500  0.000  0.000
  0.000  0.000  0.000  0.500  0.000
  0.000  0.000  0.000  0.000  0.500
atom   16   Tr[ns(na)] =   5.00000
    eigenvalues:
  0.500  0.500  0.500  0.500  0.500
    eigenvectors:
  1.000  0.000  0.000  0.000  0.000
  0.000  1.000  0.000  0.000  0.000
  0.000  0.000  1.000  0.000  0.000
  0.000  0.000  0.000  1.000  0.000
  0.000  0.000  0.000  0.000  1.000
    occupations:
  0.500  0.000  0.000  0.000  0.000
  0.000  0.500  0.000  0.000  0.000
  0.000  0.000  0.500  0.000  0.000
  0.000  0.000  0.000  0.500  0.000
  0.000  0.000  0.000  0.000  0.500
atom   17   Tr[ns(na)] =   5.00000
    eigenvalues:
  0.500  0.500  0.500  0.500  0.500
    eigenvectors:
  1.000  0.000  0.000  0.000  0.000
  0.000  1.000  0.000  0.000  0.000
  0.000  0.000  1.000  0.000  0.000
  0.000  0.000  0.000  1.000  0.000
  0.000  0.000  0.000  0.000  1.000
    occupations:
  0.500  0.000  0.000  0.000  0.000
  0.000  0.500  0.000  0.000  0.000
  0.000  0.000  0.500  0.000  0.000
  0.000  0.000  0.000  0.500  0.000
  0.000  0.000  0.000  0.000  0.500
atom   22   Tr[ns(na)] =   5.00000
    eigenvalues:
  0.500  0.500  0.500  0.500  0.500
    eigenvectors:
  1.000  0.000  0.000  0.000  0.000
  0.000  1.000  0.000  0.000  0.000
  0.000  0.000  1.000  0.000  0.000
  0.000  0.000  0.000  1.000  0.000
[...]
  0.999  0.000  0.000  0.000  0.000
    occupations:
  0.610  0.003  0.000 -0.018  0.001
  0.003  0.721  0.010 -0.000 -0.002
  0.000  0.010  0.604  0.000 -0.000
 -0.018 -0.000  0.000  0.780 -0.000
  0.001 -0.002 -0.000 -0.000  0.572
atom    9   Tr[ns(na)] =   6.57655
    eigenvalues:
  0.586  0.591  0.606  0.751  0.755
    eigenvectors:
  0.000  0.237  0.000  0.064  0.699
  0.000  0.000  1.000  0.000  0.000
  0.994  0.000  0.000  0.005  0.001
  0.000  0.763  0.000  0.020  0.217
  0.006  0.000  0.000  0.911  0.084
    occupations:
  0.716  0.000 -0.001 -0.070  0.001
  0.000  0.606  0.000 -0.000  0.000
 -0.001  0.000  0.587  0.000 -0.012
 -0.070 -0.000  0.000  0.630 -0.000
  0.001  0.000 -0.012 -0.000  0.750
atom   10   Tr[ns(na)] =   6.55206
    eigenvalues:
  0.467  0.542  0.677  0.717  0.873
    eigenvectors:
  1.000  0.000  0.000  0.000  0.000
  0.000  0.000  0.000  0.000  1.000
  0.000  0.000  1.000  0.000  0.000
  0.000  0.000  0.000  1.000  0.000
  0.000  1.000  0.000  0.000  0.000
    occupations:
  0.467 -0.000  0.000 -0.001 -0.000
 -0.000  0.873  0.001  0.000  0.000
  0.000  0.001  0.677  0.000  0.000
 -0.001  0.000  0.000  0.716 -0.000
 -0.000  0.000  0.000 -0.000  0.542
atom   16   Tr[ns(na)] =   6.58692
    eigenvalues:
  0.536  0.569  0.574  0.773  0.842
    eigenvectors:
  0.001  0.297  0.030  0.671  0.000
  0.993  0.003  0.003  0.000  0.001
  0.001  0.175  0.813  0.007  0.003
  0.004  0.524  0.150  0.321  0.000
  0.001  0.001  0.003  0.000  0.996
    occupations:
  0.706  0.000  0.015 -0.094 -0.002
  0.000  0.537 -0.001 -0.003 -0.009
  0.015 -0.001  0.576 -0.008  0.015
 -0.094 -0.003 -0.008  0.635  0.001
 -0.002 -0.009  0.015  0.001  0.840
atom   17   Tr[ns(na)] =   6.56842
    eigenvalues:
  0.573  0.598  0.611  0.715  0.787
    eigenvectors:
  0.000  0.001  0.987  0.001  0.011
  0.000  0.005  0.001  0.994  0.000
  0.000  0.994  0.001  0.005  0.000
  0.000  0.000  0.011  0.000  0.989
  1.000  0.000  0.000  0.000  0.000
    occupations:
  0.613  0.003  0.000 -0.019  0.001
  0.003  0.714  0.008 -0.000 -0.001
  0.000  0.008  0.599  0.002 -0.000
 -0.019 -0.000  0.002  0.785 -0.000
  0.001 -0.001 -0.000 -0.000  0.573
atom   22   Tr[ns(na)] =   6.57657
    eigenvalues:
  0.586  0.591  0.606  0.749  0.757
    eigenvectors:
  0.000  0.237  0.000  0.241  0.522
  0.000  0.000  1.000  0.000  0.000
  0.993  0.001  0.000  0.004  0.002
  0.000  0.762  0.000  0.074  0.163
  0.006  0.000  0.000  0.681  0.313
    occupations:
  0.715  0.000 -0.000 -0.070  0.003
  0.000  0.606  0.000  0.000  0.000
 -0.000  0.000  0.587 -0.000  0.012
 -0.070  0.000 -0.000  0.630 -0.002
  0.003  0.000  0.012 -0.002  0.750
atom   23   Tr[ns(na)] =   6.58613
    eigenvalues:
  0.584  0.606  0.608  0.661  0.834
    eigenvectors:
  0.000  0.000  0.000  0.982  0.018
  0.000  0.999  0.001  0.000  0.000
  0.000  0.001  0.999  0.000  0.000
  0.000  0.000  0.000  0.018  0.982
  1.000  0.000  0.000  0.000  0.000
    occupations:
  0.664 -0.000 -0.000 -0.023 -0.000
 -0.000  0.606 -0.000 -0.000  0.000
 -0.000 -0.000  0.608  0.001  0.000
 -0.023 -0.000  0.001  0.831  0.000
 -0.000  0.000  0.000  0.000  0.584
N of occupied +U levels =  52.6097302
 --- exit write_ns ---

     Threshold (ethr) on eigenvalues was too large:
     Diagonalizing with lowered threshold

     Davidson diagonalization with overlap
     ethr =  9.93E-09,  avg # of iterations =  2.0

[...]

     total energy              =   -2172.80450294 Ry
     Harris-Foulkes estimate   =   -2172.80450295 Ry
     estimated scf accuracy    <       0.00000026 Ry

     iteration # 13     ecut=    40.00 Ry     beta=0.70
     Davidson diagonalization with overlap
     ethr =  4.58E-12,  avg # of iterations =  1.1

     negative rho (up, down):  0.243E+00 0.000E+00

     End of self-consistent calculation
 --- enter write_ns ---
 LDA+U parameters:
U( 2)     =  4.00000000
alpha( 2) =  0.00000000
atom    3   Tr[ns(na)] =   6.58571
    eigenvalues:
  0.537  0.569  0.574  0.773  0.841
    eigenvectors:
  0.001  0.295  0.033  0.671  0.000
  0.993  0.003  0.003  0.000  0.001
  0.001  0.185  0.804  0.008  0.003
  0.004  0.516  0.158  0.321  0.000
  0.001  0.001  0.003  0.000  0.996
    occupations:
  0.706 -0.000  0.015 -0.094  0.002
 -0.000  0.537  0.001  0.003 -0.009
  0.015  0.001  0.575 -0.008 -0.015
 -0.094  0.003 -0.008  0.635 -0.001
  0.002 -0.009 -0.015 -0.001  0.840
atom    4   Tr[ns(na)] =   6.57577
    eigenvalues:
  0.572  0.603  0.608  0.722  0.782
    eigenvectors:
  0.000  0.001  0.986  0.001  0.011
  0.000  0.007  0.001  0.992  0.000
  0.000  0.992  0.001  0.007  0.000
  0.000  0.000  0.011  0.000  0.989
  0.999  0.000  0.000  0.000  0.000
    occupations:
  0.610  0.003  0.000 -0.018  0.001
  0.003  0.721  0.010 -0.000 -0.002
  0.000  0.010  0.604  0.000 -0.000
 -0.018 -0.000  0.000  0.780 -0.000
  0.001 -0.002 -0.000 -0.000  0.572
atom    9   Tr[ns(na)] =   6.57740
    eigenvalues:
  0.586  0.591  0.606  0.751  0.755
    eigenvectors:
  0.000  0.237  0.000  0.071  0.692
  0.000  0.000  1.000  0.000  0.000
  0.994  0.000  0.000  0.005  0.001
  0.000  0.763  0.000  0.022  0.215
  0.006  0.000  0.000  0.902  0.092
    occupations:
  0.716  0.000 -0.001 -0.070  0.001
  0.000  0.606  0.000 -0.000  0.000
 -0.001  0.000  0.587  0.000 -0.012
 -0.070 -0.000  0.000  0.630 -0.000
  0.001  0.000 -0.012 -0.000  0.750
atom   10   Tr[ns(na)] =   6.55298
    eigenvalues:
  0.467  0.542  0.678  0.716  0.873
    eigenvectors:
  1.000  0.000  0.000  0.000  0.000
  0.000  0.000  0.000  0.000  1.000
  0.000  0.000  1.000  0.000  0.000
  0.000  0.000  0.000  1.000  0.000
  0.000  1.000  0.000  0.000  0.000
    occupations:
  0.467 -0.000  0.000 -0.001 -0.000
 -0.000  0.873  0.001  0.000  0.000
  0.000  0.001  0.678  0.000  0.000
 -0.001  0.000  0.000  0.716 -0.000
 -0.000  0.000  0.000 -0.000  0.542
atom   16   Tr[ns(na)] =   6.58576
    eigenvalues:
  0.536  0.568  0.574  0.773  0.841
    eigenvectors:
  0.001  0.291  0.037  0.671  0.000
  0.993  0.003  0.003  0.000  0.001
  0.001  0.200  0.789  0.007  0.003
  0.004  0.506  0.168  0.321  0.000
  0.001  0.001  0.003  0.000  0.996
    occupations:
  0.706  0.000  0.015 -0.094 -0.002
  0.000  0.537 -0.001 -0.003 -0.009
  0.015 -0.001  0.575 -0.008  0.015
 -0.094 -0.003 -0.008  0.635  0.001
 -0.002 -0.009  0.015  0.001  0.840
atom   17   Tr[ns(na)] =   6.56756
    eigenvalues:
  0.573  0.598  0.611  0.715  0.787
    eigenvectors:
  0.000  0.001  0.987  0.001  0.011
  0.000  0.005  0.001  0.994  0.000
  0.000  0.994  0.001  0.005  0.000
  0.000  0.000  0.011  0.000  0.989
  1.000  0.000  0.000  0.000  0.000
    occupations:
  0.613  0.003  0.000 -0.019  0.001
  0.003  0.714  0.008 -0.000 -0.001
  0.000  0.008  0.599  0.002 -0.000
 -0.019 -0.000  0.002  0.785 -0.000
  0.001 -0.001 -0.000 -0.000  0.573
atom   22   Tr[ns(na)] =   6.57730
    eigenvalues:
  0.586  0.591  0.606  0.749  0.757
    eigenvectors:
  0.000  0.237  0.000  0.249  0.514
  0.000  0.000  1.000  0.000  0.000
  0.993  0.001  0.000  0.004  0.002
  0.000  0.762  0.000  0.077  0.160
  0.006  0.000  0.000  0.670  0.324
    occupations:
  0.715  0.000 -0.000 -0.070  0.003
  0.000  0.606  0.000  0.000  0.000
 -0.000  0.000  0.587 -0.000  0.012
 -0.070  0.000 -0.000  0.630 -0.002
  0.003  0.000  0.012 -0.002  0.750
atom   23   Tr[ns(na)] =   6.58675
    eigenvalues:
  0.584  0.606  0.608  0.661  0.835
    eigenvectors:
  0.000  0.000  0.000  0.982  0.018
  0.000  0.999  0.001  0.000  0.000
  0.000  0.001  0.999  0.000  0.000
  0.000  0.000  0.000  0.018  0.982
  1.000  0.000  0.000  0.000  0.000
    occupations:
  0.664 -0.000 -0.000 -0.023 -0.000
 -0.000  0.606 -0.000 -0.000  0.000
 -0.000 -0.000  0.608  0.001  0.000
 -0.023 -0.000  0.001  0.831  0.000
 -0.000  0.000  0.000  0.000  0.584
N of occupied +U levels =  52.6092346
 --- exit write_ns ---

[...]

          k = 0.2500-0.3828 0.0000 ( 29202 PWs)   bands (ev):

[...]

          k =-0.2500 0.1914 0.0000 ( 29229 PWs)   bands (ev):

   -82.0198 -81.3369 -81.2527 -81.0692 -81.0291 -80.7598 -80.7214 -80.6411
   -44.2609 -43.8696 -43.7092 -43.3982 -43.3090 -43.2544 -43.2060 -43.1890
   -43.1363 -43.0813 -43.0186 -42.9811 -42.9283 -42.8756 -42.8128 -42.7747
   -42.7313 -42.6801 -42.6692 -42.6185 -42.5669 -42.5499 -42.4416 -42.1239
   -21.0212 -20.6132 -20.5764 -20.4484 -20.3169 -20.1354 -20.0813 -20.0406
   -19.9301 -19.7596 -19.6887 -19.5895 -19.5751 -19.3495 -19.3280 -19.2258
   -18.6474 -18.6036 -18.3789  -9.2703  -9.1527  -9.0570  -8.9851  -8.9111
    -8.7310  -8.5415  -8.5252  -8.3151  -8.2143  -8.1596  -7.9609  -7.8509
    -7.6510  -7.4772  -7.3627  -7.1751  -7.0118  -6.9147  -6.8699  -6.7030
    -6.5490  -6.4676  -6.3108  -6.0788  -6.0493  -5.8985  -5.7824  -5.7176
    -5.5660  -5.4710  -5.3848  -5.2496  -5.2054  -5.0927  -5.0212  -4.9388
    -4.8852  -4.8308  -4.7269  -4.4628  -4.4127  -4.2704  -4.1847  -4.0985
    -4.0421  -3.9504  -3.8804  -3.7558  -3.6527  -3.5839  -3.5426  -3.3856
    -3.2081  -3.0739  -2.9826  -2.8789  -2.5959  -2.5256  -2.2372  -1.4851
    -1.2775  -1.2555  -1.1030  -0.4029  -0.3456   0.0252   0.1919   0.2921
     0.4662   0.5692   0.6335   0.9230   1.1046   1.1849   1.2771   1.3135
     1.3919   1.5583   1.6276   1.9814   2.2392   3.2953   3.5012   3.5315
     3.7137   3.8261   3.9986   4.2555   4.3635   4.4403   4.5615   4.7489
     4.8740   5.2314   5.4760   5.6112   5.8064   5.9032   6.0495   6.2086
     6.3191   6.4542   6.7150   6.8573   7.1189   7.2780   7.3967   7.5697
     7.6040   7.8367   8.0523   8.1064   8.2548   8.3862   8.5355   8.6157
     8.6346   8.7098   8.9264   9.0719   9.1580   9.3896   9.4652   9.5977
     9.6898   9.7898   9.8655   9.9161   9.9589  10.0126  10.0571  10.2225
    10.2718  10.3517  10.4251  10.4762  10.5703  10.7001  10.7997  10.8989
    11.0350  11.0826  11.2114  11.3694  11.4692  11.5630  11.5939  11.8041
    11.8438  11.9306  12.1330  12.2720  12.3749  12.5163  12.5538  12.6195
    12.7107  12.7297  12.8254  12.9287  12.9619  13.0313  13.1425  13.2666
    13.3336  13.4844  13.5487  13.6178  13.7099  13.7441  13.7785  13.8643
    13.9160  13.9669  14.0662  14.1395  14.2048  14.2377  14.2550  14.4421
    14.4886  14.5266  14.5935  14.6658  14.6898  14.8349  14.8485  14.9062
    14.9989  15.0273  15.0854  15.1515  15.1901  15.2534  15.3032  15.4695
    15.5573  15.5817  15.6795  15.7976  15.8913  16.0637  16.0998  16.1592
    16.2230  16.3134  16.3500  16.4491  16.5339  16.5686  16.6238  16.6846
    16.7543  16.8799  16.9641  17.0585  17.1352  17.1913  17.2754  17.3683
    17.4587  17.5109  17.5929  17.7617  17.7787  17.8206  17.9003  17.9680
    18.0208  18.0885  18.1274  18.2250  18.2832  18.3285  18.3851  18.4503
    18.5151  18.6286  18.6585  18.7525  18.8085  18.9063  18.9640  19.0362
    19.0775  19.2222  19.3201  19.4055  19.5072  19.5811  19.6338  19.7211
    19.7753  19.9332  20.0128  20.0709  20.1273  20.2106  20.2566  20.3965
    20.4974  20.5156  20.5683  20.6124  20.6969  20.7299  20.8296  20.8933
    20.9361  21.0297  21.0767  21.1658  21.2018  21.2623  21.3096  21.3800
    21.4486  21.4780  21.5526  21.6298  21.6581  21.7343  21.8241  21.9124
    21.9811  22.0658  22.1078  22.1755  22.2224  22.2516  22.3370  22.4148
    22.4389  22.4924  22.5440  22.5661  22.6571  22.6877  22.7313  22.7878
    22.8121  22.8770  22.9607  23.0036  23.0470

     the Fermi energy is     0.1785 ev

!    total energy              =   -2172.80450294 Ry
     Harris-Foulkes estimate   =   -2172.80450295 Ry
     estimated scf accuracy    <          4.2E-09 Ry

     The total energy is the sum of the following terms:

     one-electron contribution =  -24276.34880818 Ry
     hartree contribution      =   12154.11959930 Ry
     xc contribution           =    -594.34283880 Ry
     ewald contribution        =   10541.24295903 Ry
     Hubbard energy            =       2.52395161 Ry
     smearing contrib. (-TS)   =       0.00063411 Ry

     convergence has been achieved in  13 iterations

     Forces acting on atoms (Ry/au):

     negative rho (up, down):  0.243E+00 0.000E+00
     atom    1 type  1   force =    -0.00546100   -0.00602008    0.00036253
     atom    2 type  1   force =     0.00008377    0.00343770   -0.00069449
     atom    3 type  2   force =     0.03100891   -0.00230589   -0.00009143
     atom    4 type  2   force =     0.00204005    0.00666227   -0.00016847
     atom    5 type  1   force =     0.00253632    0.00403637    0.00029492
     atom    6 type  1   force =     0.00135264   -0.00413280    0.00033301
     atom    7 type  1   force =    -0.00006656   -0.00005100   -0.00039720
     atom    8 type  1   force =     0.00261884   -0.00120608   -0.00066547
     atom    9 type  2   force =    -0.01500770    0.00153581   -0.00007146
     atom   10 type  2   force =    -0.00011757   -0.00193528   -0.00082080
     atom   11 type  1   force =    -0.01396381   -0.00707651   -0.00013605
     atom   12 type  1   force =    -0.01516951    0.00741400   -0.00020759
     atom   13 type  1   force =    -0.00030650   -0.00023510    0.00043211
     atom   14 type  1   force =    -0.00208909   -0.00538009    0.00007955
     atom   15 type  1   force =    -0.00004883    0.00221159   -0.00050112
     atom   16 type  2   force =    -0.03128180   -0.00192636   -0.00008394
     atom   17 type  2   force =     0.00088228    0.00735700   -0.00009562
     atom   18 type  1   force =     0.00064421    0.00389715    0.00032197
     atom   19 type  1   force =    -0.00073643   -0.00441807    0.00032755
     atom   20 type  1   force =    -0.00006342   -0.00217665    0.00019989
     atom   21 type  1   force =     0.00308121   -0.00162387   -0.00053685
     atom   22 type  2   force =     0.01148514    0.00208695   -0.00008416
     atom   23 type  2   force =     0.00012880    0.00043298   -0.00002477
     atom   24 type  1   force =     0.01438621   -0.00722919   -0.00015488
     atom   25 type  1   force =     0.01474607    0.00723895   -0.00021830
     atom   26 type  1   force =    -0.00045003   -0.00102878    0.00015171
     atom   27 type  3   force =    -0.00000054    0.00066560    0.00042501
     atom   28 type  3   force =    -0.00000691    0.00029383   -0.00002724
     atom   29 type  3   force =    -0.00020865   -0.00022113    0.00066787
     atom   30 type  3   force =    -0.00002294   -0.00023588    0.00073747
     atom   31 type  1   force =     0.00000685   -0.00006744    0.00064623

     Total force =     0.002359     Total SCF correction =     0.000331
     SCF correction compared to forces is large: reduce conv_thr to get better values

     bfgs converged in   9 scf cycles and   8 bfgs steps
     (criteria: energy < 0.10E-03, force < 0.10E-02)

     End of BFGS Geometry Optimization

     Final energy   =   -2172.8045029428 Ry
Begin final coordinates

ATOMIC_POSITIONS (crystal)
O0       0.000000000   0.000000000   0.370845614    0   0   1
O0       0.000000000   0.500000000   0.383551695    0   0   1
Re1      0.250000000   0.500000000   0.442810688    0   0   1
Re1      0.000000000   0.000000000   0.443169845    0   0   1
O0       0.250000000   0.780000000   0.441908931    0   0   1
O0       0.250000000   0.220000000   0.441677315    0   0   1
O0       0.000000000   0.500000000   0.497563267    0   0   1
O0       0.000000000   0.000000000   0.513949484    0   0   1
Re1      0.250000000   0.000000000   0.573745389    0   0   1
Re1      0.000000000   0.500000000   0.567350504    0   0   1
O0       0.250000000   0.720000000   0.571072912    0   0   1
O0       0.250000000   0.280000000   0.571122302    0   0   1
O0       0.000000000   0.000000000   0.625830855    0   0   1
O0       0.500000000   0.000000000   0.370955124    0   0   1
O0       0.500000000   0.500000000   0.383757884    0   0   1
Re1      0.750000000   0.500000000   0.442805049    0   0   1
Re1      0.500000000   0.000000000   0.442996047    0   0   1
O0       0.750000000   0.780000000   0.441799570    0   0   1
O0       0.750000000   0.220000000   0.441749718    0   0   1
O0       0.500000000   0.500000000   0.500575015    0   0   1
O0       0.500000000   0.000000000   0.514004648    0   0   1
Re1      0.750000000   0.000000000   0.573755041    0   0   1
Re1      0.500000000   0.500000000   0.575878351    0   0   1
O0       0.750000000   0.720000000   0.571142374    0   0   1
O0       0.750000000   0.280000000   0.571106808    0   0   1
O0       0.500000000   0.000000000   0.625257340    0   0   1
H2      -0.000338880   0.624459038   0.366450418
H2       0.499588466   0.621260798   0.365217314
H2       0.168230915   0.023475394   0.356120981
H2       0.669558037   0.021340086   0.356406861
O0       0.499906052   0.499235794   0.639272657
End final coordinates

     General routines

     Parallel routines
     Hubbard U routines

   This run was terminated on:  18: 4:42   1May2014

   JOB DONE.