     Program PWSCF v.5.0.2 (svn rev. 9656) starts on 11Feb2014 at 20:49:26

     Current dimensions of program PWSCF are:
     Max number of different atomic species (ntypx) = 10
     Max number of k-points (npk) =  40000
     Max angular momentum in pseudopotentials (lmaxx) =  3
     Reading input from alpha_-0.07/alpha_-0.07.in
Warning: card &IONS ignored
Warning: card / ignored
Warning: card &CELL ignored
Warning: card / ignored

     Subspace diagonalization in iterative solution of the eigenvalue problem:
     a serial algorithm will be used

     bravais-lattice index     =            0
     lattice parameter (alat)  =      17.5745  a.u.
     unit-cell volume          =    3466.9609 (a.u.)^3
     number of atoms/cell      =           48
     number of atomic types    =            3
     number of electrons       =       384.00
     number of Kohn-Sham states=          552
     kinetic-energy cutoff     =      40.0000  Ry
     charge density cutoff     =     500.0000  Ry
     convergence threshold     =      1.0E-06
     mixing beta               =       0.7000
     number of iterations used =            8  plain     mixing
     Exchange-correlation      = SLA  PW   PBE  PBE ( 1 4 3 4 0)
     EXX-fraction              =        0.00

     celldm(1)=  17.574453  celldm(2)=   0.000000  celldm(3)=   0.000000
     celldm(4)=   0.000000  celldm(5)=   0.000000  celldm(6)=   0.000000

     crystal axes: (cart. coord. in units of alat)
               a(1) = (   1.000000   0.000000   0.000000 )
               a(2) = (   0.000000   1.000000   0.000000 )
               a(3) = (   0.000000   0.000000   0.638710 )

     reciprocal axes: (cart. coord. in units 2 pi/alat)
               b(1) = (  1.000000  0.000000  0.000000 )
               b(2) = (  0.000000  1.000000  0.000000 )
               b(3) = (  0.000000  0.000000  1.565657 )

     PseudoPot. # 1 for Ti read from file:
     /home/camp/zhonxu/pseudo/ti_pbe_v1.uspp.F.UPF
     MD5 check sum: bcc8f6961b3b91f0cac3ca967d22d0fb
     Pseudo is Ultrasoft + core correction, Zval = 12.0
     Generated by new atomic code, or converted to UPF format
     Using radial grid of  851 points,  6 beta functions with:
                l(1) =   0
                l(2) =   0
                l(3) =   1
                l(4) =   1
                l(5) =   2
                l(6) =   2
     Q(r) pseudized with  6 coefficients,  rinner =    1.000   1.000   1.000
                                                       1.000   1.000

     PseudoPot. # 2 for O  read from file:
     /home/camp/zhonxu/pseudo/o_pbe_v1.01.uspp.F.UPF
     MD5 check sum: 2bcb18d16ea4b960afae9ec6d52f22d2
     Pseudo is Ultrasoft + core correction, Zval =  6.0
     Generated by new atomic code, or converted to UPF format
     Using radial grid of  737 points,  5 beta functions with:
                l(1) =   0
                l(2) =   0
                l(3) =   1
                l(4) =   1
                l(5) =   2
     Q(r) pseudized with  8 coefficients,  rinner =    0.900   0.900   0.900
                                                       0.900   0.900

     PseudoPot. # 3 for O  read from file:
     /home/camp/zhonxu/pseudo/o_pbe_v1.01.uspp.F.UPF
     MD5 check sum: 2bcb18d16ea4b960afae9ec6d52f22d2
     Pseudo is Ultrasoft + core correction, Zval =  6.0
     Generated by new atomic code, or converted to UPF format
     Using radial grid of  737 points,  5 beta functions with:
                l(1) =   0
                l(2) =   0
                l(3) =   1
                l(4) =   1
                l(5) =   2
     Q(r) pseudized with  8 coefficients,  rinner =    0.900   0.900   0.900
                                                       0.900   0.900

     atomic species   valence    mass     pseudopotential
        Ti0           12.00    47.88000     Ti( 1.00)
        O1             6.00    15.99940     O ( 1.00)
        O2             6.00    15.99940     O ( 1.00)

     Starting magnetic structure
     atomic species   magnetization
        Ti0          0.000
        O1           0.000
        O2           0.000

     Simplified LDA+U calculation (l_max = 2) with parameters (eV):
     atomic species    L          U    alpha       J0     beta
        Ti0            2     0.0000   0.0000   0.0000   0.0000
        O1             1     0.0000  -0.0700   0.0000   0.0000
        O2             1     0.0000   0.0000   0.0000   0.0000

      4 Sym. Ops. (no inversion) found

   Cartesian axes

     site n.     atom                  positions (alat units)
         1           Ti0 tau(   1) = (  -0.1550000  -0.1550000   0.0000000  )
         2           Ti0 tau(   2) = (   0.0950000   0.0950000   0.1596774  )
         3           Ti0 tau(   3) = (  -0.1550000  -0.1550000   0.3193548  )
         4           Ti0 tau(   4) = (   0.0950000   0.0950000   0.4790323  )
         5           Ti0 tau(   5) = (  -0.1550000   0.3450000   0.0000000  )
         6           Ti0 tau(   6) = (   0.0950000   0.5950000   0.1596774  )
         7           Ti0 tau(   7) = (  -0.1550000   0.3450000   0.3193548  )
         8           Ti0 tau(   8) = (   0.0950000   0.5950000   0.4790323  )
         9           Ti0 tau(   9) = (   0.3450000  -0.1550000   0.0000000  )
        10           Ti0 tau(  10) = (   0.5950000   0.0950000   0.1596774  )
        11           Ti0 tau(  11) = (   0.3450000  -0.1550000   0.3193548  )
        12           Ti0 tau(  12) = (   0.5950000   0.0950000   0.4790323  )
        13           Ti0 tau(  13) = (   0.3450000   0.3450000   0.0000000  )
        14           Ti0 tau(  14) = (   0.5950000   0.5950000   0.1596774  )
        15           Ti0 tau(  15) = (   0.3450000   0.3450000   0.3193548  )
        16           Ti0 tau(  16) = (   0.5950000   0.5950000   0.4790323  )
        17           O1  tau(  17) = (   0.0000000   0.0000000   0.0000000  )
        18           O2  tau(  18) = (  -0.3100000  -0.3100000   0.0000000  )
        19           O2  tau(  19) = (   0.2500000  -0.0600000   0.1596774  )
        20           O2  tau(  20) = (  -0.0600000   0.2500000   0.1596774  )
        21           O2  tau(  21) = (   0.0000000   0.0000000   0.3193548  )
        22           O2  tau(  22) = (  -0.3100000  -0.3100000   0.3193548  )
        23           O2  tau(  23) = (   0.2500000  -0.0600000   0.4790323  )
        24           O2  tau(  24) = (  -0.0600000   0.2500000   0.4790323  )
        25           O2  tau(  25) = (   0.0000000   0.5000000   0.0000000  )
        26           O2  tau(  26) = (  -0.3100000   0.1900000   0.0000000  )
        27           O2  tau(  27) = (   0.2500000   0.4400000   0.1596774  )
        28           O2  tau(  28) = (  -0.0600000   0.7500000   0.1596774  )
        29           O2  tau(  29) = (   0.0000000   0.5000000   0.3193548  )
        30           O2  tau(  30) = (  -0.3100000   0.1900000   0.3193548  )
        31           O2  tau(  31) = (   0.2500000   0.4400000   0.4790323  )
        32           O2  tau(  32) = (  -0.0600000   0.7500000   0.4790323  )
        33           O2  tau(  33) = (   0.5000000   0.0000000   0.0000000  )
        34           O2  tau(  34) = (   0.1900000  -0.3100000   0.0000000  )
        35           O2  tau(  35) = (   0.7500000  -0.0600000   0.1596774  )
        36           O2  tau(  36) = (   0.4400000   0.2500000   0.1596774  )
        37           O2  tau(  37) = (   0.5000000   0.0000000   0.3193548  )
        38           O2  tau(  38) = (   0.1900000  -0.3100000   0.3193548  )
        39           O2  tau(  39) = (   0.7500000  -0.0600000   0.4790323  )
        40           O2  tau(  40) = (   0.4400000   0.2500000   0.4790323  )
        41           O2  tau(  41) = (   0.5000000   0.5000000   0.0000000  )
        42           O2  tau(  42) = (   0.1900000   0.1900000   0.0000000  )
        43           O2  tau(  43) = (   0.7500000   0.4400000   0.1596774  )
        44           O2  tau(  44) = (   0.4400000   0.7500000   0.1596774  )
        45           O2  tau(  45) = (   0.5000000   0.5000000   0.3193548  )
        46           O2  tau(  46) = (   0.1900000   0.1900000   0.3193548  )
        47           O2  tau(  47) = (   0.7500000   0.4400000   0.4790323  )
        48           O2  tau(  48) = (   0.4400000   0.7500000   0.4790323  )

     number of k points=    42  Methfessel-Paxton smearing, width (Ry)=  0.0100
                       cart. coord. in units 2pi/alat
        k(    1) = (   0.0000000   0.0000000   0.0000000), wk =   0.0156250
        k(    2) = (   0.0000000   0.0000000   0.3914141), wk =   0.0312500
        k(    3) = (   0.0000000   0.0000000  -0.7828283), wk =   0.0156250
        k(    4) = (   0.0000000   0.2500000   0.0000000), wk =   0.0625000
        k(    5) = (   0.0000000   0.2500000   0.3914141), wk =   0.1250000
        k(    6) = (   0.0000000   0.2500000  -0.7828283), wk =   0.0625000
        k(    7) = (   0.0000000  -0.5000000   0.0000000), wk =   0.0312500
        k(    8) = (   0.0000000  -0.5000000   0.3914141), wk =   0.0625000
        k(    9) = (   0.0000000  -0.5000000  -0.7828283), wk =   0.0312500
        k(   10) = (   0.2500000   0.2500000   0.0000000), wk =   0.0312500
        k(   11) = (   0.2500000   0.2500000   0.3914141), wk =   0.0625000
        k(   12) = (   0.2500000   0.2500000  -0.7828283), wk =   0.0312500
        k(   13) = (   0.2500000  -0.5000000   0.0000000), wk =   0.0625000
        k(   14) = (   0.2500000  -0.5000000   0.3914141), wk =   0.1250000
        k(   15) = (   0.2500000  -0.5000000  -0.7828283), wk =   0.0625000
        k(   16) = (  -0.5000000  -0.5000000   0.0000000), wk =   0.0156250
        k(   17) = (  -0.5000000  -0.5000000   0.3914141), wk =   0.0312500
        k(   18) = (  -0.5000000  -0.5000000  -0.7828283), wk =   0.0156250
        k(   19) = (   0.2500000  -0.2500000   0.0000000), wk =   0.0312500
        k(   20) = (   0.2500000  -0.2500000   0.3914141), wk =   0.0625000
        k(   21) = (   0.2500000  -0.2500000  -0.7828283), wk =   0.0312500
        k(   22) = (   0.0000000   0.0000000   0.0000000), wk =   0.0156250
        k(   23) = (   0.0000000   0.0000000   0.3914141), wk =   0.0312500
        k(   24) = (   0.0000000   0.0000000  -0.7828283), wk =   0.0156250
        k(   25) = (   0.0000000   0.2500000   0.0000000), wk =   0.0625000
        k(   26) = (   0.0000000   0.2500000   0.3914141), wk =   0.1250000
        k(   27) = (   0.0000000   0.2500000  -0.7828283), wk =   0.0625000
        k(   28) = (   0.0000000  -0.5000000   0.0000000), wk =   0.0312500
        k(   29) = (   0.0000000  -0.5000000   0.3914141), wk =   0.0625000
        k(   30) = (   0.0000000  -0.5000000  -0.7828283), wk =   0.0312500
        k(   31) = (   0.2500000   0.2500000   0.0000000), wk =   0.0312500
        k(   32) = (   0.2500000   0.2500000   0.3914141), wk =   0.0625000
        k(   33) = (   0.2500000   0.2500000  -0.7828283), wk =   0.0312500
        k(   34) = (   0.2500000  -0.5000000   0.0000000), wk =   0.0625000
        k(   35) = (   0.2500000  -0.5000000   0.3914141), wk =   0.1250000
        k(   36) = (   0.2500000  -0.5000000  -0.7828283), wk =   0.0625000
[...]
   spin  2
    eigenvalues:
  0.895  0.903  0.908
    eigenvectors:
  0.000  0.000  1.000
  0.500  0.500  0.000
  0.500  0.500  0.000
    occupations:
  0.908  0.000 -0.000
  0.000  0.899  0.004
 -0.000  0.004  0.899
atomic mag. moment =     0.000000
atom   40   Tr[ns(na)] (up, down, total) =   2.70577  2.70577  5.41153
   spin  1
    eigenvalues:
  0.895  0.903  0.908
    eigenvectors:
  0.000  0.000  1.000
  0.500  0.500  0.000
  0.500  0.500  0.000
    occupations:
  0.908  0.000 -0.000
  0.000  0.899  0.004
 -0.000  0.004  0.899
   spin  2
    eigenvalues:
  0.895  0.903  0.908
    eigenvectors:
  0.000  0.000  1.000
  0.500  0.500  0.000
  0.500  0.500  0.000
    occupations:
  0.908  0.000 -0.000
  0.000  0.899  0.004
 -0.000  0.004  0.899
atomic mag. moment =     0.000000
atom   41   Tr[ns(na)] (up, down, total) =   2.70578  2.70578  5.41156
   spin  1
    eigenvalues:
  0.895  0.903  0.908
    eigenvectors:
  0.000  0.000  1.000
  0.500  0.500  0.000
  0.500  0.500  0.000
    occupations:
  0.908 -0.000 -0.000
 -0.000  0.899 -0.004
 -0.000 -0.004  0.899
   spin  2
    eigenvalues:
  0.895  0.903  0.908
    eigenvectors:
  0.000  0.000  1.000
  0.500  0.500  0.000
  0.500  0.500  0.000
    occupations:
  0.908 -0.000 -0.000
 -0.000  0.899 -0.004
 -0.000 -0.004  0.899
atomic mag. moment =    -0.000000
atom   42   Tr[ns(na)] (up, down, total) =   2.70573  2.70573  5.41147
   spin  1
    eigenvalues:
  0.895  0.903  0.908
    eigenvectors:
  0.000  0.000  1.000
  0.500  0.500  0.000
  0.500  0.500  0.000
    occupations:
  0.908 -0.000 -0.000
 -0.000  0.899 -0.004
 -0.000 -0.004  0.899
   spin  2
    eigenvalues:
  0.895  0.903  0.908
    eigenvectors:
  0.000  0.000  1.000
  0.500  0.500  0.000
  0.500  0.500  0.000
    occupations:
  0.908 -0.000 -0.000
 -0.000  0.899 -0.004
 -0.000 -0.004  0.899
atomic mag. moment =    -0.000000
atom   43   Tr[ns(na)] (up, down, total) =   2.70575  2.70575  5.41151
   spin  1
    eigenvalues:
  0.895  0.903  0.908
    eigenvectors:
  0.000  0.000  1.000
  0.500  0.500  0.000
  0.500  0.500  0.000
    occupations:
  0.908  0.000  0.000
  0.000  0.899  0.004
  0.000  0.004  0.899
   spin  2
    eigenvalues:
  0.895  0.903  0.908
    eigenvectors:
  0.000  0.000  1.000
  0.500  0.500  0.000
  0.500  0.500  0.000
    occupations:
  0.908  0.000  0.000
  0.000  0.899  0.004
  0.000  0.004  0.899
atomic mag. moment =     0.000000
atom   44   Tr[ns(na)] (up, down, total) =   2.70575  2.70575  5.41151
   spin  1
    eigenvalues:
  0.895  0.903  0.908
    eigenvectors:
  0.000  0.000  1.000
  0.500  0.500  0.000
  0.500  0.500  0.000
    occupations:
  0.908  0.000  0.000
  0.000  0.899  0.004
  0.000  0.004  0.899
   spin  2
    eigenvalues:
  0.895  0.903  0.908
    eigenvectors:
  0.000  0.000  1.000
  0.500  0.500  0.000
  0.500  0.500  0.000
    occupations:
  0.908  0.000  0.000
  0.000  0.899  0.004
  0.000  0.004  0.899
atomic mag. moment =     0.000000
atom   45   Tr[ns(na)] (up, down, total) =   2.70579  2.70579  5.41158
   spin  1
    eigenvalues:
  0.895  0.903  0.908
    eigenvectors:
  0.000  0.000  1.000
  0.500  0.500  0.000
  0.500  0.500  0.000
    occupations:
  0.908 -0.000 -0.000
 -0.000  0.899 -0.004
 -0.000 -0.004  0.899
   spin  2
    eigenvalues:
  0.895  0.903  0.908
    eigenvectors:
  0.000  0.000  1.000
  0.500  0.500  0.000
  0.500  0.500  0.000
    occupations:
  0.908 -0.000 -0.000
 -0.000  0.899 -0.004
 -0.000 -0.004  0.899
atomic mag. moment =     0.000000
atom   46   Tr[ns(na)] (up, down, total) =   2.70578  2.70578  5.41155
   spin  1
    eigenvalues:
  0.895  0.903  0.908
    eigenvectors:
  0.000  0.000  1.000
  0.500  0.500  0.000
  0.500  0.500  0.000
    occupations:
  0.908 -0.000 -0.000
 -0.000  0.899 -0.004
 -0.000 -0.004  0.899
   spin  2
    eigenvalues:
  0.895  0.903  0.908
    eigenvectors:
  0.000  0.000  1.000
  0.500  0.500  0.000
  0.500  0.500  0.000
    occupations:
  0.908 -0.000 -0.000
 -0.000  0.899 -0.004
 -0.000 -0.004  0.899
atomic mag. moment =    -0.000000
atom   47   Tr[ns(na)] (up, down, total) =   2.70575  2.70575  5.41151
   spin  1
    eigenvalues:
  0.895  0.903  0.908
    eigenvectors:
  0.000  0.000  1.000
  0.500  0.500  0.000
  0.500  0.500  0.000
    occupations:
  0.908 -0.000 -0.000
 -0.000  0.899  0.004
 -0.000  0.004  0.899
   spin  2
    eigenvalues:
  0.895  0.903  0.908
    eigenvectors:
  0.000  0.000  1.000
  0.500  0.500  0.000
  0.500  0.500  0.000
    occupations:
  0.908 -0.000 -0.000
 -0.000  0.899  0.004
 -0.000  0.004  0.899
atomic mag. moment =     0.000000
atom   48   Tr[ns(na)] (up, down, total) =   2.70575  2.70575  5.41151
   spin  1
    eigenvalues:
  0.895  0.903  0.908
    eigenvectors:
  0.000  0.000  1.000
  0.500  0.500  0.000
  0.500  0.500  0.000
    occupations:
  0.908 -0.000 -0.000
 -0.000  0.899  0.004
 -0.000  0.004  0.899
   spin  2
    eigenvalues:
  0.895  0.903  0.908
    eigenvectors:
  0.000  0.000  1.000
  0.500  0.500  0.000
  0.500  0.500  0.000
    occupations:
  0.908 -0.000 -0.000
 -0.000  0.899  0.004
 -0.000  0.004  0.899
atomic mag. moment =     0.000000
N of occupied +U levels = 219.8226154
 --- exit write_ns ---

 ------ SPIN UP ------------

          k = 0.0000 0.0000 0.0000 ( 14755 PWs)   bands (ev):

   -48.1868 -48.1820 -48.1794 -48.1787 -48.1787 -48.1786 -48.1784 -48.1721
   -48.1436 -48.1397 -48.1388 -48.1387 -48.1387 -48.1386 -48.1386 -48.1384
   -24.7349 -24.7330 -24.7326 -24.7325 -24.7259 -24.7249 -24.7242 -24.7242
   -24.5031 -24.5029 -24.4930 -24.4928 -24.4580 -24.4569 -24.4565 -24.4564
   -24.3764 -24.3751 -24.3745 -24.3745 -24.3543 -24.3514 -24.3505 -24.3502
   -24.3495 -24.3495 -24.3495 -24.3495 -24.3439 -24.3426 -24.3411 -24.3408
   -24.3360 -24.3358 -24.3344 -24.3337 -24.3331 -24.3331 -24.3298 -24.3296
   -24.2906 -24.2775 -24.2753 -24.2747 -24.2746 -24.2744 -24.2743 -24.2598
    -9.3728  -8.7523  -8.7506  -8.7103  -8.7101  -8.7099  -8.7064  -8.2949
    -8.2948  -8.2948  -8.2915  -8.2723  -8.1359  -8.1341  -8.0549  -8.0531
    -7.9020  -7.9001  -7.8001  -7.7984  -7.6923  -7.6921  -7.6920  -7.6886
    -7.6407  -7.6406  -7.6406  -7.6374  -7.6266  -7.6237  -7.5105  -7.5085
     3.0499   3.2889   3.2916   3.4756   3.7830   3.7864   3.7877   3.7878
     3.7975   3.8007   3.8023   3.8024   4.0341   4.1736   4.1736   4.2727
     4.2733   4.3867   4.3881   4.8068   4.8088   4.8657   4.8676   4.9036
     4.9070   4.9071   4.9071   4.9938   4.9972   4.9975   4.9975   5.1281
     5.1287   5.1432   5.1441   5.2743   5.2745   5.5445   5.5453   5.5476
     5.5477   5.6025   5.6069   5.6070   5.6074   5.8812   5.8828   5.8913
     5.8947   5.8949   5.8950   6.0665   6.0684   6.0831   6.0846   6.2019
     6.2023   6.3615   6.3620   6.3628   6.3638   6.5415   6.5439   6.5983
     6.6004   6.6371   6.6388   6.6398   6.6398   6.8304   7.1828   7.1867
     7.1868   7.1868   7.2559   7.2560   7.4530   7.4550   7.5377   7.5397
     7.7063   7.7092   7.7098   7.7099   7.7712   7.7719   7.9168   7.9201
     7.9203   7.9205   7.9566   7.9570   8.0137   8.2881   8.2882   8.6011
    10.6208  10.6213  10.6216  10.6216  10.6505  10.7203  10.7205  11.0596
    11.1955  11.1958  11.2126  11.2130  11.2214  11.2272  11.2276  11.3354
    11.3363  11.3365  11.3366  11.5303  11.5306  11.6233  11.6241  11.6244
    11.6245  11.8121  11.8125  11.8463  11.8472  11.8475  11.8476  11.8633
    11.8636  11.9924  11.9930  12.2573  12.2585  12.2588  12.2588  12.3925
    12.3931  12.4865  12.4871  12.5776  12.5783  12.5786  12.5787  12.8563
    13.1659  13.5526  13.5531  13.5533  13.5534  13.9455  13.9461  14.2765
    14.2771  14.3029  14.3035  14.5487  14.5498  14.5501  14.5501  14.7427
    14.7432  14.7660  14.7664  15.1557  15.1569  15.1572  15.1573  15.4267
    15.4273  15.4369  15.4374  15.6497  15.6500  15.6505  15.6506  15.8682
    16.5625  18.6723  18.6724  18.6735  18.6743  19.7509  19.7512  20.2927
    20.2929  20.3556  20.3558  20.7586  20.7588  20.7592  20.7593  20.9779
    20.9781  21.5447  21.5449  22.0098  22.0099  22.0102  22.0106  22.7096
    22.7099  22.7100  22.7100  22.8291  22.8294  22.8320  23.1171  23.1171
    23.4029  23.4030  23.9510  23.9515  24.0045  24.0050  24.2729  24.3564
    24.3571  24.3573  24.3576  24.5939  24.5940  24.5941  24.5944  25.2981
    25.5360  25.5363  25.6647  25.6649  25.7179  25.7180  25.7181  25.7187
    26.3190  26.3193  26.6528  26.7025  26.7030  26.7030  26.7032  26.7431
    26.7432  26.7875  26.7876  26.7882  26.7891  26.9514  26.9515  26.9518
    26.9519  27.4307  27.4307  27.5524  27.5525  28.0586  28.0590  28.1646
    28.1654  28.1655  28.3830  28.3831  28.3837  28.3837  29.5761  29.5763
    29.9071  29.9955  29.9955  29.9971  29.9974  30.1216  30.1218  30.7318
    30.7319  31.0264  31.0266  31.2939  31.4996  31.4997  31.6591  31.6595
    31.6595  31.6598  31.6981  31.6983  31.6984  31.6992  32.2684  32.2689
    32.2825  32.2826  32.2944  32.2946  32.2948  32.2950  32.4270  32.4276
    32.8380  32.8384  33.4501  33.9809  33.9811  34.1607  34.1610  34.1613
    34.1616  34.2218  34.2219  34.2224  34.2227  34.5071  34.5072  34.5304
    34.7724  34.7726  35.0118  35.0122  35.3310  35.7222  35.7222  35.8055
    35.8055  35.8059  35.8060  35.8622  35.8623  35.8628  35.8629  35.8756
    35.8761  36.0095  36.0097  36.0097  36.0100  36.1128  36.1129  36.1133
    36.1134  36.3798  36.3802  36.6356  36.6356  36.6357  36.6357  37.0339
    37.1203  37.1211  37.3530  37.3530  37.9179  37.9180  38.8118  38.8122
    39.3935  39.3939  39.4563  40.0351  40.0354  40.0576  40.0577  40.0959
    40.0959  40.0961  40.0968  40.1092  40.2200  40.4047  40.4050  40.4050
    40.4051  40.5302  40.5302  40.5310  40.5310  40.6468  40.6471  40.9756
    40.9761  41.1148  41.1150  41.2631  41.2632  41.2635  41.2636  41.5866
    41.5870  41.5870  41.5872  41.6803  41.7809  41.7814  41.8074  41.8081
    41.9185  41.9186  42.7964  42.7964  43.2742  43.2744  43.6334  43.6335
    43.7772  43.7779  43.7990  43.7993  43.7995  43.7998  43.9864  43.9865
    44.0034  44.0035  44.0036  44.0045  44.1460  44.1462  44.1462  44.1464
    44.2956  44.2961  44.3746  44.3748  44.3750  44.3756  44.4173  44.7881
    44.7884  44.8246  44.8246  45.2672  45.2675  45.4080  45.4080  45.4085
    45.4092  45.5747  45.6078  45.6083  45.7042  45.7044  45.7046  45.7047
    46.1176  46.1180  46.3674  46.3675  46.4937  46.4943  46.5789  46.5790
    46.5791  46.5796  46.5912  46.5915  46.9712  46.9713  46.9717  46.9719

[...]

          k =-0.5000-0.5000 0.0000 ( 14812 PWs)   bands (ev):

[...]

 ------ SPIN DOWN ----------

[...]

          k =-0.5000-0.5000-0.7828 ( 14744 PWs)   bands (ev):

[...]

          k = 0.2500-0.2500-0.7828 ( 14778 PWs)   bands (ev):

   -48.1651 -48.1646 -48.1621 -48.1620 -48.1609 -48.1608 -48.1598 -48.1596
   -48.1588 -48.1587 -48.1574 -48.1573 -48.1572 -48.1570 -48.1548 -48.1548
   -24.5189 -24.5189 -24.5173 -24.5172 -24.5164 -24.5164 -24.5100 -24.5097
   -24.5097 -24.5094 -24.5092 -24.5088 -24.5056 -24.5055 -24.4988 -24.4987
   -24.4402 -24.4398 -24.4345 -24.4342 -24.4240 -24.4239 -24.4214 -24.4212
   -24.4211 -24.4210 -24.4179 -24.4179 -24.4037 -24.4033 -24.4018 -24.4018
   -24.3485 -24.3482 -24.3478 -24.3474 -24.3376 -24.3376 -24.3350 -24.3349
   -24.3342 -24.3341 -24.3325 -24.3324 -24.3268 -24.3267 -24.3237 -24.3236
    -8.7154  -8.7131  -8.4749  -8.4748  -8.4747  -8.4716  -8.3624  -8.3588
    -8.2175  -8.2175  -8.1269  -8.1266  -8.1265  -8.1205  -7.9493  -7.9476
    -7.9032  -7.9029  -7.9029  -7.8985  -7.8921  -7.8914  -7.8686  -7.8640
    -7.8579  -7.8578  -7.8474  -7.8473  -7.8472  -7.8447  -7.8000  -7.7946
     3.9138   3.9192   3.9311   3.9341   4.1521   4.1523   4.1529   4.1530
     4.1852   4.1855   4.1908   4.1924   4.2512   4.2515   4.2773   4.2792
     4.3640   4.3676   4.3678   4.3679   4.4261   4.4266   4.4627   4.4661
     4.4678   4.4679   4.6691   4.6701   4.6732   4.6732   4.7240   4.7247
     5.1325   5.1337   5.1724   5.1750   5.1775   5.1777   5.3740   5.3747
     5.5577   5.5588   5.5589   5.5590   5.6659   5.6660   5.9020   5.9041
     5.9050   5.9051   5.9557   5.9597   5.9847   5.9870   6.3507   6.3521
     6.4805   6.4808   6.4841   6.4843   6.7279   6.7287   6.7293   6.7294
     6.7842   6.7849   6.8313   6.8317   6.9145   6.9149   6.9837   6.9839
     7.1292   7.1305   7.1309   7.1310   7.1481   7.1500   7.2491   7.2510
     7.2844   7.2858   7.3623   7.3638   7.5360   7.5367   7.5375   7.5377
     7.6401   7.6409   7.9575   7.9604   7.9604   7.9606   8.2487   8.2500
    10.8838  10.8840  11.0987  11.0988  11.0988  11.0989  11.3497  11.3500
    11.4013  11.4015  11.4165  11.4167  11.5156  11.5157  11.5157  11.5159
    11.6502  11.6503  11.7068  11.7068  11.7068  11.7071  11.7112  11.7113
    11.7217  11.7218  11.8180  11.8181  11.9168  11.9169  11.9321  11.9323
    11.9405  11.9407  11.9416  11.9416  12.1359  12.1363  12.1365  12.1365
    12.1373  12.1373  12.3617  12.3620  12.3621  12.3622  12.5942  12.5943
    13.6499  13.6502  13.7440  13.7450  13.7451  13.7452  14.0527  14.0528
    14.0533  14.0534  14.0757  14.0758  14.3761  14.3762  14.4093  14.4095
    14.8228  14.8232  14.8296  14.8298  14.9267  14.9268  14.9270  14.9271
    15.0591  15.0592  15.3557  15.3559  15.3560  15.3561  15.3566  15.3567
    18.3931  18.3939  19.2503  19.2507  19.2513  19.2529  19.8118  19.8128
    20.5155  20.5168  20.5815  20.5818  20.5824  20.5842  21.8153  21.8160
    22.1476  22.1487  22.2356  22.2368  22.7277  22.7281  22.7289  22.7297
    22.9671  22.9679  23.4938  23.4947  23.5101  23.5104  23.7652  23.7654
    23.7666  23.7666  23.9094  23.9099  23.9102  23.9110  23.9185  23.9190
    24.0071  24.0071  24.2869  24.2873  24.2878  24.2883  25.3280  25.3287
    25.3288  25.3296  25.3367  25.3375  25.5926  25.5928  25.7810  25.7813
    25.9327  25.9335  25.9900  25.9902  25.9910  25.9915  26.4080  26.4088
    26.5836  26.5838  26.5843  26.5849  26.8032  26.8034  27.0568  27.0569
    27.0993  27.1004  27.2103  27.2108  27.7251  27.7253  27.7256  27.7259
    27.9176  27.9178  28.3885  28.3888  28.4454  28.4455  28.4458  28.4459
    29.1454  29.1461  29.3345  29.3350  29.3352  29.3354  30.3273  30.3280
    30.3971  30.3977  30.3979  30.3984  30.9199  30.9199  31.3201  31.3203
    31.8985  31.8986  32.3269  32.3270  32.3271  32.3273  32.7969  32.7969
    33.0421  33.0436  33.0676  33.0677  33.1057  33.1065  33.1109  33.1119
    33.2873  33.2877  33.2881  33.2886  33.8580  33.8582  33.8586  33.8589
    34.0049  34.0053  34.4499  34.4502  34.4503  34.4507  34.4996  34.5001
    35.0129  35.0132  35.0134  35.0142  35.0393  35.0400  35.1796  35.1796
    35.7102  35.7102  35.7103  35.7109  35.7355  35.7362  36.3123  36.3124
    36.3125  36.3135  36.3556  36.3559  36.5299  36.5305  36.8678  36.8681
    36.9284  36.9287  36.9287  36.9288  36.9343  36.9346  37.2854  37.2858
    37.3019  37.3020  37.6733  37.6739  37.8523  37.8524  37.8526  37.8528
    38.0897  38.0900  38.0903  38.0905  38.3813  38.3816  39.2143  39.2147
    39.7460  39.7462  39.7462  39.7465  39.8828  39.8830  40.2584  40.2587
    40.4601  40.4604  40.5381  40.5383  40.5430  40.5433  40.5436  40.5439
    40.8514  40.8522  40.8710  40.8714  41.5251  41.5254  41.5256  41.5256
    42.4382  42.4388  42.4389  42.4395  42.4844  42.4845  42.7274  42.7282
    43.0317  43.0326  43.6627  43.6630  43.7379  43.7382  43.7465  43.7469
    43.7471  43.7473  43.9774  43.9776  43.9779  43.9785  44.0011  44.0014
    44.1278  44.1283  44.1507  44.1508  44.4748  44.4750  44.8324  44.8324
    44.8325  44.8333  45.0054  45.0054  45.0057  45.0064  45.3321  45.3323
    45.4696  45.4706  45.6178  45.6180  45.6182  45.6185  45.7231  45.7233
    45.8188  45.8196  45.9704  45.9704  45.9710  45.9713  46.0240  46.0246
    46.3041  46.3046  46.4794  46.4797  46.4803  46.4806  46.5708  46.5710
    46.5976  46.5985  46.6314  46.6315  46.6318  46.6322  46.8397  46.8398

     the Fermi energy is     8.6557 ev

!    total energy              =   -2932.00564928 Ry
     Harris-Foulkes estimate   =   -2932.00564949 Ry
     estimated scf accuracy    <       0.00000023 Ry

     The total energy is the sum of the following terms:

     one-electron contribution =   -1044.10710607 Ry
     hartree contribution      =     704.64067213 Ry
     xc contribution           =    -505.96840990 Ry
     ewald contribution        =   -2086.54328247 Ry
     Hubbard energy            =      -0.02786224 Ry
     smearing contrib. (-TS)   =       0.00033925 Ry

     total magnetization       =     0.00 Bohr mag/cell
     absolute magnetization    =     0.00 Bohr mag/cell

     convergence has been achieved in   4 iterations

     Writing output data file pwscf.save

     General routines

     Parallel routines
     Hubbard U routines

   This run was terminated on:  22:59: 5  11Feb2014

   JOB DONE.