     Program PWSCF v.5.0.2 (svn rev. 9656) starts on 12Feb2014 at  0:55:58

     Current dimensions of program PWSCF are:
     Max number of different atomic species (ntypx) = 10
     Max number of k-points (npk) =  40000
     Max angular momentum in pseudopotentials (lmaxx) =  3
     Reading input from alpha_0.07/alpha_0.07.in
Warning: card &IONS ignored
Warning: card / ignored
Warning: card &CELL ignored
Warning: card / ignored

     Subspace diagonalization in iterative solution of the eigenvalue problem:
     a serial algorithm will be used

     bravais-lattice index     =            0
     lattice parameter (alat)  =      17.5745  a.u.
     unit-cell volume          =    3466.9609 (a.u.)^3
     number of atoms/cell      =           48
     number of atomic types    =            3
     number of electrons       =       384.00
     number of Kohn-Sham states=          552
     kinetic-energy cutoff     =      40.0000  Ry
     charge density cutoff     =     500.0000  Ry
     convergence threshold     =      1.0E-06
     mixing beta               =       0.7000
     number of iterations used =            8  plain     mixing
     Exchange-correlation      = SLA  PW   PBE  PBE ( 1 4 3 4 0)
     EXX-fraction              =        0.00

     celldm(1)=  17.574453  celldm(2)=   0.000000  celldm(3)=   0.000000
     celldm(4)=   0.000000  celldm(5)=   0.000000  celldm(6)=   0.000000

     crystal axes: (cart. coord. in units of alat)
               a(1) = (   1.000000   0.000000   0.000000 )
               a(2) = (   0.000000   1.000000   0.000000 )
               a(3) = (   0.000000   0.000000   0.638710 )

     reciprocal axes: (cart. coord. in units 2 pi/alat)
               b(1) = (  1.000000  0.000000  0.000000 )
               b(2) = (  0.000000  1.000000  0.000000 )
               b(3) = (  0.000000  0.000000  1.565657 )

     PseudoPot. # 1 for Ti read from file:
     /home/camp/zhonxu/pseudo/ti_pbe_v1.uspp.F.UPF
     MD5 check sum: bcc8f6961b3b91f0cac3ca967d22d0fb
     Pseudo is Ultrasoft + core correction, Zval = 12.0
     Generated by new atomic code, or converted to UPF format
     Using radial grid of  851 points,  6 beta functions with:
                l(1) =   0
                l(2) =   0
                l(3) =   1
                l(4) =   1
                l(5) =   2
                l(6) =   2
     Q(r) pseudized with  6 coefficients,  rinner =    1.000   1.000   1.000
                                                       1.000   1.000

     PseudoPot. # 2 for O  read from file:
     /home/camp/zhonxu/pseudo/o_pbe_v1.01.uspp.F.UPF
     MD5 check sum: 2bcb18d16ea4b960afae9ec6d52f22d2
     Pseudo is Ultrasoft + core correction, Zval =  6.0
     Generated by new atomic code, or converted to UPF format
     Using radial grid of  737 points,  5 beta functions with:
                l(1) =   0
                l(2) =   0
                l(3) =   1
                l(4) =   1
                l(5) =   2
     Q(r) pseudized with  8 coefficients,  rinner =    0.900   0.900   0.900
                                                       0.900   0.900

     PseudoPot. # 3 for O  read from file:
     /home/camp/zhonxu/pseudo/o_pbe_v1.01.uspp.F.UPF
     MD5 check sum: 2bcb18d16ea4b960afae9ec6d52f22d2
     Pseudo is Ultrasoft + core correction, Zval =  6.0
     Generated by new atomic code, or converted to UPF format
     Using radial grid of  737 points,  5 beta functions with:
                l(1) =   0
                l(2) =   0
                l(3) =   1
                l(4) =   1
                l(5) =   2
     Q(r) pseudized with  8 coefficients,  rinner =    0.900   0.900   0.900
                                                       0.900   0.900

     atomic species   valence    mass     pseudopotential
        Ti0           12.00    47.88000     Ti( 1.00)
        O1             6.00    15.99940     O ( 1.00)
        O2             6.00    15.99940     O ( 1.00)

     Starting magnetic structure
     atomic species   magnetization
        Ti0          0.000
        O1           0.000
        O2           0.000

     Simplified LDA+U calculation (l_max = 2) with parameters (eV):
     atomic species    L          U    alpha       J0     beta
        Ti0            2     0.0000   0.0000   0.0000   0.0000
        O1             1     0.0000   0.0700   0.0000   0.0000
        O2             1     0.0000   0.0000   0.0000   0.0000

      4 Sym. Ops. (no inversion) found

   Cartesian axes

     site n.     atom                  positions (alat units)
         1           Ti0 tau(   1) = (  -0.1550000  -0.1550000   0.0000000  )
         2           Ti0 tau(   2) = (   0.0950000   0.0950000   0.1596774  )
         3           Ti0 tau(   3) = (  -0.1550000  -0.1550000   0.3193548  )
         4           Ti0 tau(   4) = (   0.0950000   0.0950000   0.4790323  )
         5           Ti0 tau(   5) = (  -0.1550000   0.3450000   0.0000000  )
         6           Ti0 tau(   6) = (   0.0950000   0.5950000   0.1596774  )
         7           Ti0 tau(   7) = (  -0.1550000   0.3450000   0.3193548  )
         8           Ti0 tau(   8) = (   0.0950000   0.5950000   0.4790323  )
         9           Ti0 tau(   9) = (   0.3450000  -0.1550000   0.0000000  )
        10           Ti0 tau(  10) = (   0.5950000   0.0950000   0.1596774  )
        11           Ti0 tau(  11) = (   0.3450000  -0.1550000   0.3193548  )
        12           Ti0 tau(  12) = (   0.5950000   0.0950000   0.4790323  )
        13           Ti0 tau(  13) = (   0.3450000   0.3450000   0.0000000  )
        14           Ti0 tau(  14) = (   0.5950000   0.5950000   0.1596774  )
        15           Ti0 tau(  15) = (   0.3450000   0.3450000   0.3193548  )
        16           Ti0 tau(  16) = (   0.5950000   0.5950000   0.4790323  )
        17           O1  tau(  17) = (   0.0000000   0.0000000   0.0000000  )
        18           O2  tau(  18) = (  -0.3100000  -0.3100000   0.0000000  )
        19           O2  tau(  19) = (   0.2500000  -0.0600000   0.1596774  )
        20           O2  tau(  20) = (  -0.0600000   0.2500000   0.1596774  )
        21           O2  tau(  21) = (   0.0000000   0.0000000   0.3193548  )
        22           O2  tau(  22) = (  -0.3100000  -0.3100000   0.3193548  )
        23           O2  tau(  23) = (   0.2500000  -0.0600000   0.4790323  )
        24           O2  tau(  24) = (  -0.0600000   0.2500000   0.4790323  )
        25           O2  tau(  25) = (   0.0000000   0.5000000   0.0000000  )
        26           O2  tau(  26) = (  -0.3100000   0.1900000   0.0000000  )
        27           O2  tau(  27) = (   0.2500000   0.4400000   0.1596774  )
        28           O2  tau(  28) = (  -0.0600000   0.7500000   0.1596774  )
        29           O2  tau(  29) = (   0.0000000   0.5000000   0.3193548  )
        30           O2  tau(  30) = (  -0.3100000   0.1900000   0.3193548  )
        31           O2  tau(  31) = (   0.2500000   0.4400000   0.4790323  )
        32           O2  tau(  32) = (  -0.0600000   0.7500000   0.4790323  )
        33           O2  tau(  33) = (   0.5000000   0.0000000   0.0000000  )
        34           O2  tau(  34) = (   0.1900000  -0.3100000   0.0000000  )
        35           O2  tau(  35) = (   0.7500000  -0.0600000   0.1596774  )
        36           O2  tau(  36) = (   0.4400000   0.2500000   0.1596774  )
        37           O2  tau(  37) = (   0.5000000   0.0000000   0.3193548  )
        38           O2  tau(  38) = (   0.1900000  -0.3100000   0.3193548  )
        39           O2  tau(  39) = (   0.7500000  -0.0600000   0.4790323  )
        40           O2  tau(  40) = (   0.4400000   0.2500000   0.4790323  )
        41           O2  tau(  41) = (   0.5000000   0.5000000   0.0000000  )
        42           O2  tau(  42) = (   0.1900000   0.1900000   0.0000000  )
        43           O2  tau(  43) = (   0.7500000   0.4400000   0.1596774  )
        44           O2  tau(  44) = (   0.4400000   0.7500000   0.1596774  )
        45           O2  tau(  45) = (   0.5000000   0.5000000   0.3193548  )
        46           O2  tau(  46) = (   0.1900000   0.1900000   0.3193548  )
        47           O2  tau(  47) = (   0.7500000   0.4400000   0.4790323  )
        48           O2  tau(  48) = (   0.4400000   0.7500000   0.4790323  )

     number of k points=    42  Methfessel-Paxton smearing, width (Ry)=  0.0100
                       cart. coord. in units 2pi/alat
        k(    1) = (   0.0000000   0.0000000   0.0000000), wk =   0.0156250
        k(    2) = (   0.0000000   0.0000000   0.3914141), wk =   0.0312500
        k(    3) = (   0.0000000   0.0000000  -0.7828283), wk =   0.0156250
        k(    4) = (   0.0000000   0.2500000   0.0000000), wk =   0.0625000
        k(    5) = (   0.0000000   0.2500000   0.3914141), wk =   0.1250000
        k(    6) = (   0.0000000   0.2500000  -0.7828283), wk =   0.0625000
        k(    7) = (   0.0000000  -0.5000000   0.0000000), wk =   0.0312500
        k(    8) = (   0.0000000  -0.5000000   0.3914141), wk =   0.0625000
        k(    9) = (   0.0000000  -0.5000000  -0.7828283), wk =   0.0312500
        k(   10) = (   0.2500000   0.2500000   0.0000000), wk =   0.0312500
        k(   11) = (   0.2500000   0.2500000   0.3914141), wk =   0.0625000
        k(   12) = (   0.2500000   0.2500000  -0.7828283), wk =   0.0312500
        k(   13) = (   0.2500000  -0.5000000   0.0000000), wk =   0.0625000
        k(   14) = (   0.2500000  -0.5000000   0.3914141), wk =   0.1250000
        k(   15) = (   0.2500000  -0.5000000  -0.7828283), wk =   0.0625000
        k(   16) = (  -0.5000000  -0.5000000   0.0000000), wk =   0.0156250
        k(   17) = (  -0.5000000  -0.5000000   0.3914141), wk =   0.0312500
        k(   18) = (  -0.5000000  -0.5000000  -0.7828283), wk =   0.0156250
        k(   19) = (   0.2500000  -0.2500000   0.0000000), wk =   0.0312500
        k(   20) = (   0.2500000  -0.2500000   0.3914141), wk =   0.0625000
        k(   21) = (   0.2500000  -0.2500000  -0.7828283), wk =   0.0312500
        k(   22) = (   0.0000000   0.0000000   0.0000000), wk =   0.0156250
        k(   23) = (   0.0000000   0.0000000   0.3914141), wk =   0.0312500
        k(   24) = (   0.0000000   0.0000000  -0.7828283), wk =   0.0156250
        k(   25) = (   0.0000000   0.2500000   0.0000000), wk =   0.0625000
        k(   26) = (   0.0000000   0.2500000   0.3914141), wk =   0.1250000
        k(   27) = (   0.0000000   0.2500000  -0.7828283), wk =   0.0625000
        k(   28) = (   0.0000000  -0.5000000   0.0000000), wk =   0.0312500
        k(   29) = (   0.0000000  -0.5000000   0.3914141), wk =   0.0625000
        k(   30) = (   0.0000000  -0.5000000  -0.7828283), wk =   0.0312500
        k(   31) = (   0.2500000   0.2500000   0.0000000), wk =   0.0312500
        k(   32) = (   0.2500000   0.2500000   0.3914141), wk =   0.0625000
        k(   33) = (   0.2500000   0.2500000  -0.7828283), wk =   0.0312500
        k(   34) = (   0.2500000  -0.5000000   0.0000000), wk =   0.0625000
        k(   35) = (   0.2500000  -0.5000000   0.3914141), wk =   0.1250000
        k(   36) = (   0.2500000  -0.5000000  -0.7828283), wk =   0.0625000
[...]
   spin  2
    eigenvalues:
  0.895  0.903  0.908
    eigenvectors:
  0.000  0.000  1.000
  0.500  0.500  0.000
  0.500  0.500  0.000
    occupations:
  0.908 -0.000  0.000
 -0.000  0.899  0.004
  0.000  0.004  0.899
atomic mag. moment =     0.000000
atom   40   Tr[ns(na)] (up, down, total) =   2.70578  2.70578  5.41156
   spin  1
    eigenvalues:
  0.895  0.903  0.908
    eigenvectors:
  0.000  0.000  1.000
  0.500  0.500  0.000
  0.500  0.500  0.000
    occupations:
  0.908 -0.000  0.000
 -0.000  0.899  0.004
  0.000  0.004  0.899
   spin  2
    eigenvalues:
  0.895  0.903  0.908
    eigenvectors:
  0.000  0.000  1.000
  0.500  0.500  0.000
  0.500  0.500  0.000
    occupations:
  0.908 -0.000  0.000
 -0.000  0.899  0.004
  0.000  0.004  0.899
atomic mag. moment =     0.000000
atom   41   Tr[ns(na)] (up, down, total) =   2.70576  2.70576  5.41152
   spin  1
    eigenvalues:
  0.895  0.903  0.908
    eigenvectors:
  0.000  0.000  1.000
  0.500  0.500  0.000
  0.500  0.500  0.000
    occupations:
  0.908 -0.000 -0.000
 -0.000  0.899 -0.004
 -0.000 -0.004  0.899
   spin  2
    eigenvalues:
  0.895  0.903  0.908
    eigenvectors:
  0.000  0.000  1.000
  0.500  0.500  0.000
  0.500  0.500  0.000
    occupations:
  0.908 -0.000 -0.000
 -0.000  0.899 -0.004
 -0.000 -0.004  0.899
atomic mag. moment =    -0.000000
atom   42   Tr[ns(na)] (up, down, total) =   2.70579  2.70579  5.41159
   spin  1
    eigenvalues:
  0.895  0.903  0.908
    eigenvectors:
  0.000  0.000  1.000
  0.500  0.500  0.000
  0.500  0.500  0.000
    occupations:
  0.908 -0.000 -0.000
 -0.000  0.899 -0.004
 -0.000 -0.004  0.899
   spin  2
    eigenvalues:
  0.895  0.903  0.908
    eigenvectors:
  0.000  0.000  1.000
  0.500  0.500  0.000
  0.500  0.500  0.000
    occupations:
  0.908 -0.000 -0.000
 -0.000  0.899 -0.004
 -0.000 -0.004  0.899
atomic mag. moment =    -0.000000
atom   43   Tr[ns(na)] (up, down, total) =   2.70577  2.70577  5.41154
   spin  1
    eigenvalues:
  0.895  0.903  0.908
    eigenvectors:
  0.000  0.000  1.000
  0.500  0.500  0.000
  0.500  0.500  0.000
    occupations:
  0.908 -0.000 -0.000
 -0.000  0.899  0.004
 -0.000  0.004  0.899
   spin  2
    eigenvalues:
  0.895  0.903  0.908
    eigenvectors:
  0.000  0.000  1.000
  0.500  0.500  0.000
  0.500  0.500  0.000
    occupations:
  0.908 -0.000 -0.000
 -0.000  0.899  0.004
 -0.000  0.004  0.899
atomic mag. moment =     0.000000
atom   44   Tr[ns(na)] (up, down, total) =   2.70577  2.70577  5.41154
   spin  1
    eigenvalues:
  0.895  0.903  0.908
    eigenvectors:
  0.000  0.000  1.000
  0.500  0.500  0.000
  0.500  0.500  0.000
    occupations:
  0.908 -0.000 -0.000
 -0.000  0.899  0.004
 -0.000  0.004  0.899
   spin  2
    eigenvalues:
  0.895  0.903  0.908
    eigenvectors:
  0.000  0.000  1.000
  0.500  0.500  0.000
  0.500  0.500  0.000
    occupations:
  0.908 -0.000 -0.000
 -0.000  0.899  0.004
 -0.000  0.004  0.899
atomic mag. moment =     0.000000
atom   45   Tr[ns(na)] (up, down, total) =   2.70575  2.70575  5.41150
   spin  1
    eigenvalues:
  0.895  0.903  0.908
    eigenvectors:
  0.000  0.000  1.000
  0.500  0.500  0.000
  0.500  0.500  0.000
    occupations:
  0.908 -0.000 -0.000
 -0.000  0.899 -0.004
 -0.000 -0.004  0.899
   spin  2
    eigenvalues:
  0.895  0.903  0.908
    eigenvectors:
  0.000  0.000  1.000
  0.500  0.500  0.000
  0.500  0.500  0.000
    occupations:
  0.908 -0.000 -0.000
 -0.000  0.899 -0.004
 -0.000 -0.004  0.899
atomic mag. moment =     0.000000
atom   46   Tr[ns(na)] (up, down, total) =   2.70575  2.70575  5.41150
   spin  1
    eigenvalues:
  0.895  0.903  0.908
    eigenvectors:
  0.000  0.000  1.000
  0.500  0.500  0.000
  0.500  0.500  0.000
    occupations:
  0.908 -0.000 -0.000
 -0.000  0.899 -0.004
 -0.000 -0.004  0.899
   spin  2
    eigenvalues:
  0.895  0.903  0.908
    eigenvectors:
  0.000  0.000  1.000
  0.500  0.500  0.000
  0.500  0.500  0.000
    occupations:
  0.908 -0.000 -0.000
 -0.000  0.899 -0.004
 -0.000 -0.004  0.899
atomic mag. moment =    -0.000000
atom   47   Tr[ns(na)] (up, down, total) =   2.70577  2.70577  5.41154
   spin  1
    eigenvalues:
  0.895  0.903  0.908
    eigenvectors:
  0.000  0.000  1.000
  0.500  0.500  0.000
  0.500  0.500  0.000
    occupations:
  0.908  0.000  0.000
  0.000  0.899  0.004
  0.000  0.004  0.899
   spin  2
    eigenvalues:
  0.895  0.903  0.908
    eigenvectors:
  0.000  0.000  1.000
  0.500  0.500  0.000
  0.500  0.500  0.000
    occupations:
  0.908  0.000  0.000
  0.000  0.899  0.004
  0.000  0.004  0.899
atomic mag. moment =     0.000000
atom   48   Tr[ns(na)] (up, down, total) =   2.70577  2.70577  5.41154
   spin  1
    eigenvalues:
  0.895  0.903  0.908
    eigenvectors:
  0.000  0.000  1.000
  0.500  0.500  0.000
  0.500  0.500  0.000
    occupations:
  0.908  0.000  0.000
  0.000  0.899  0.004
  0.000  0.004  0.899
   spin  2
    eigenvalues:
  0.895  0.903  0.908
    eigenvectors:
  0.000  0.000  1.000
  0.500  0.500  0.000
  0.500  0.500  0.000
    occupations:
  0.908  0.000  0.000
  0.000  0.899  0.004
  0.000  0.004  0.899
atomic mag. moment =     0.000000
N of occupied +U levels = 219.8238868
 --- exit write_ns ---

 ------ SPIN UP ------------

          k = 0.0000 0.0000 0.0000 ( 14755 PWs)   bands (ev):

   -48.1843 -48.1776 -48.1776 -48.1775 -48.1774 -48.1767 -48.1746 -48.1693
   -48.1377 -48.1376 -48.1376 -48.1375 -48.1375 -48.1373 -48.1364 -48.1331
   -24.7315 -24.7314 -24.7313 -24.7300 -24.7234 -24.7233 -24.7227 -24.7210
   -24.5009 -24.5008 -24.4910 -24.4907 -24.4554 -24.4553 -24.4550 -24.4537
   -24.3735 -24.3734 -24.3730 -24.3717 -24.3499 -24.3496 -24.3488 -24.3484
   -24.3484 -24.3484 -24.3476 -24.3449 -24.3411 -24.3408 -24.3392 -24.3385
   -24.3338 -24.3335 -24.3320 -24.3320 -24.3314 -24.3301 -24.3276 -24.3273
   -24.2883 -24.2738 -24.2736 -24.2735 -24.2733 -24.2726 -24.2708 -24.2576
    -9.3735  -8.7531  -8.7510  -8.7125  -8.7089  -8.7087  -8.7086  -8.2978
    -8.2939  -8.2938  -8.2936  -8.2730  -8.1368  -8.1349  -8.0558  -8.0539
    -7.9026  -7.9007  -7.8009  -7.7991  -7.6951  -7.6911  -7.6910  -7.6908
    -7.6432  -7.6397  -7.6396  -7.6395  -7.6266  -7.6252  -7.5111  -7.5095
     3.0543   3.2927   3.2953   3.4787   3.7886   3.7888   3.7898   3.7933
     3.8034   3.8035   3.8051   3.8079   4.0385   4.1778   4.1780   4.2773
     4.2778   4.3903   4.3917   4.8099   4.8116   4.8687   4.8704   4.9081
     4.9081   4.9082   4.9120   4.9984   4.9985   4.9988   5.0020   5.1316
     5.1321   5.1473   5.1479   5.2774   5.2775   5.5489   5.5489   5.5513
     5.5519   5.6081   5.6084   5.6085   5.6127   5.8851   5.8871   5.8959
     5.8960   5.8962   5.9000   6.0696   6.0712   6.0858   6.0878   6.2056
     6.2059   6.3648   6.3657   6.3667   6.3670   6.5448   6.5471   6.6013
     6.6033   6.6408   6.6409   6.6418   6.6438   6.8338   7.1877   7.1878
     7.1879   7.1915   7.2590   7.2591   7.4560   7.4581   7.5407   7.5426
     7.7106   7.7109   7.7115   7.7142   7.7741   7.7747   7.9212   7.9214
     7.9217   7.9250   7.9595   7.9598   8.0164   8.2908   8.2909   8.6037
    10.6226  10.6226  10.6229  10.6234  10.6521  10.7219  10.7222  11.0613
    11.1971  11.1975  11.2143  11.2148  11.2231  11.2288  11.2294  11.3376
    11.3376  11.3378  11.3387  11.5320  11.5324  11.6255  11.6255  11.6257
    11.6267  11.8139  11.8143  11.8486  11.8487  11.8488  11.8498  11.8650
    11.8655  11.9942  11.9948  12.2598  12.2598  12.2599  12.2613  12.3943
    12.3949  12.4884  12.4890  12.5797  12.5798  12.5801  12.5809  12.8579
    13.1679  13.5546  13.5547  13.5549  13.5554  13.9474  13.9480  14.2783
    14.2790  14.3048  14.3055  14.5511  14.5512  14.5513  14.5525  14.7446
    14.7450  14.7678  14.7683  15.1583  15.1583  15.1585  15.1597  15.4287
    15.4292  15.4388  15.4394  15.6517  15.6518  15.6524  15.6526  15.8696
    16.5628  18.6715  18.6724  18.6735  18.6735  19.7504  19.7507  20.2924
    20.2926  20.3555  20.3557  20.7583  20.7584  20.7589  20.7591  20.9777
    20.9778  21.5447  21.5449  22.0096  22.0100  22.0104  22.0104  22.7094
    22.7095  22.7095  22.7099  22.8291  22.8294  22.8315  23.1166  23.1166
    23.4028  23.4029  23.9508  23.9513  24.0045  24.0050  24.2734  24.3563
    24.3567  24.3569  24.3575  24.5935  24.5938  24.5940  24.5941  25.2981
    25.5359  25.5363  25.6646  25.6648  25.7178  25.7184  25.7185  25.7186
    26.3190  26.3193  26.6526  26.7027  26.7029  26.7029  26.7034  26.7432
    26.7434  26.7872  26.7881  26.7887  26.7888  26.9516  26.9518  26.9521
    26.9522  27.4310  27.4310  27.5523  27.5524  28.0588  28.0592  28.1644
    28.1655  28.1657  28.3831  28.3831  28.3838  28.3838  29.5766  29.5768
    29.9074  29.9950  29.9954  29.9970  29.9971  30.1216  30.1218  30.7316
    30.7317  31.0265  31.0267  31.2935  31.4997  31.4999  31.6593  31.6596
    31.6597  31.6600  31.6980  31.6988  31.6990  31.6991  32.2685  32.2691
    32.2825  32.2826  32.2946  32.2949  32.2950  32.2952  32.4270  32.4276
    32.8377  32.8382  33.4503  33.9809  33.9810  34.1608  34.1611  34.1614
    34.1617  34.2215  34.2219  34.2223  34.2224  34.5074  34.5075  34.5303
    34.7725  34.7726  35.0117  35.0121  35.3315  35.7222  35.7222  35.8054
    35.8055  35.8059  35.8060  35.8622  35.8623  35.8629  35.8630  35.8756
    35.8761  36.0094  36.0097  36.0097  36.0099  36.1130  36.1130  36.1134
    36.1135  36.3798  36.3803  36.6356  36.6357  36.6357  36.6357  37.0344
    37.1200  37.1208  37.3530  37.3530  37.9180  37.9181  38.8118  38.8123
    39.3937  39.3941  39.4566  40.0354  40.0357  40.0576  40.0578  40.0955
    40.0963  40.0964  40.0964  40.1096  40.2197  40.4050  40.4050  40.4050
    40.4054  40.5300  40.5300  40.5308  40.5309  40.6466  40.6468  40.9756
    40.9762  41.1147  41.1150  41.2630  41.2631  41.2634  41.2635  41.5869
    41.5871  41.5871  41.5876  41.6804  41.7809  41.7814  41.8074  41.8081
    41.9184  41.9185  42.7966  42.7967  43.2744  43.2745  43.6335  43.6336
    43.7772  43.7780  43.7991  43.7994  43.7996  43.7999  43.9861  43.9862
    44.0029  44.0039  44.0040  44.0041  44.1460  44.1461  44.1462  44.1464
    44.2957  44.2961  44.3742  44.3748  44.3750  44.3752  44.4172  44.7882
    44.7885  44.8246  44.8246  45.2673  45.2676  45.4079  45.4086  45.4091
    45.4091  45.5747  45.6077  45.6082  45.7042  45.7043  45.7045  45.7047
    46.1175  46.1179  46.3673  46.3674  46.4937  46.4942  46.5786  46.5792
    46.5793  46.5794  46.5915  46.5919  46.9712  46.9714  46.9718  46.9719

[...]

          k =-0.5000-0.5000 0.0000 ( 14812 PWs)   bands (ev):

[...]

 ------ SPIN DOWN ----------

[...]

          k =-0.5000-0.5000-0.7828 ( 14744 PWs)   bands (ev):

[...]

          k = 0.2500-0.2500-0.7828 ( 14778 PWs)   bands (ev):

   -48.1616 -48.1616 -48.1594 -48.1591 -48.1589 -48.1587 -48.1578 -48.1576
   -48.1565 -48.1564 -48.1555 -48.1555 -48.1545 -48.1542 -48.1516 -48.1514
   -24.5161 -24.5159 -24.5153 -24.5152 -24.5143 -24.5143 -24.5086 -24.5083
   -24.5074 -24.5074 -24.5072 -24.5071 -24.5028 -24.5027 -24.4964 -24.4963
   -24.4377 -24.4374 -24.4321 -24.4318 -24.4222 -24.4221 -24.4195 -24.4195
   -24.4193 -24.4191 -24.4162 -24.4160 -24.4007 -24.4007 -24.3991 -24.3987
   -24.3467 -24.3463 -24.3461 -24.3457 -24.3346 -24.3345 -24.3330 -24.3329
   -24.3320 -24.3319 -24.3297 -24.3297 -24.3248 -24.3246 -24.3216 -24.3216
    -8.7162  -8.7136  -8.4768  -8.4734  -8.4732  -8.4731  -8.3644  -8.3605
    -8.2164  -8.2164  -8.1318  -8.1251  -8.1250  -8.1247  -7.9502  -7.9478
    -7.9077  -7.9016  -7.9016  -7.9013  -7.8913  -7.8910  -7.8708  -7.8667
    -7.8569  -7.8569  -7.8476  -7.8461  -7.8461  -7.8459  -7.8020  -7.7982
     3.9209   3.9234   3.9360   3.9413   4.1542   4.1543   4.1549   4.1549
     4.1870   4.1871   4.1953   4.1971   4.2530   4.2533   4.2806   4.2822
     4.3688   4.3689   4.3692   4.3727   4.4307   4.4311   4.4691   4.4692
     4.4709   4.4743   4.6744   4.6745   4.6775   4.6787   4.7260   4.7267
     5.1367   5.1380   5.1787   5.1788   5.1814   5.1839   5.3764   5.3771
     5.5599   5.5599   5.5601   5.5612   5.6674   5.6675   5.9060   5.9061
     5.9068   5.9090   5.9615   5.9645   5.9893   5.9926   6.3541   6.3556
     6.4853   6.4855   6.4888   6.4892   6.7307   6.7308   6.7314   6.7322
     6.7861   6.7868   6.8330   6.8334   6.9166   6.9171   6.9850   6.9852
     7.1324   7.1325   7.1328   7.1339   7.1524   7.1544   7.2524   7.2542
     7.2884   7.2899   7.3655   7.3670   7.5390   7.5391   7.5398   7.5406
     7.6435   7.6443   7.9617   7.9619   7.9620   7.9649   8.2514   8.2528
    10.8855  10.8856  11.1004  11.1005  11.1005  11.1006  11.3513  11.3515
    11.4033  11.4035  11.4184  11.4186  11.5172  11.5173  11.5174  11.5174
    11.6520  11.6521  11.7082  11.7082  11.7084  11.7085  11.7127  11.7129
    11.7237  11.7238  11.8202  11.8204  11.9180  11.9182  11.9334  11.9336
    11.9429  11.9429  11.9438  11.9440  12.1381  12.1381  12.1383  12.1384
    12.1390  12.1394  12.3637  12.3638  12.3639  12.3641  12.5961  12.5962
    13.6518  13.6521  13.7462  13.7462  13.7464  13.7473  14.0547  14.0548
    14.0554  14.0554  14.0776  14.0777  14.3775  14.3776  14.4107  14.4109
    14.8253  14.8256  14.8319  14.8323  14.9285  14.9285  14.9287  14.9288
    15.0608  15.0609  15.3576  15.3578  15.3580  15.3581  15.3583  15.3584
    18.3928  18.3936  19.2494  19.2510  19.2516  19.2520  19.8113  19.8124
    20.5151  20.5164  20.5804  20.5821  20.5827  20.5831  21.8149  21.8155
    22.1478  22.1489  22.2357  22.2368  22.7272  22.7280  22.7288  22.7292
    22.9668  22.9676  23.4935  23.4944  23.5101  23.5104  23.7651  23.7652
    23.7664  23.7666  23.9094  23.9102  23.9106  23.9110  23.9185  23.9191
    24.0066  24.0067  24.2868  24.2873  24.2877  24.2881  25.3276  25.3285
    25.3287  25.3293  25.3365  25.3373  25.5924  25.5926  25.7810  25.7813
    25.9328  25.9336  25.9898  25.9903  25.9911  25.9913  26.4080  26.4088
    26.5833  26.5840  26.5844  26.5848  26.8035  26.8037  27.0569  27.0570
    27.0992  27.1003  27.2104  27.2109  27.7253  27.7257  27.7260  27.7261
    27.9179  27.9181  28.3886  28.3889  28.4457  28.4458  28.4461  28.4462
    29.1455  29.1463  29.3349  29.3351  29.3353  29.3357  30.3275  30.3282
    30.3973  30.3977  30.3979  30.3985  30.9202  30.9202  31.3205  31.3207
    31.8986  31.8987  32.3271  32.3274  32.3275  32.3275  32.7972  32.7972
    33.0418  33.0434  33.0676  33.0676  33.1057  33.1065  33.1105  33.1115
    33.2872  33.2877  33.2881  33.2885  33.8580  33.8583  33.8586  33.8588
    34.0053  34.0057  34.4500  34.4504  34.4506  34.4509  34.4993  34.4998
    35.0125  35.0133  35.0135  35.0138  35.0392  35.0400  35.1800  35.1800
    35.7099  35.7105  35.7106  35.7107  35.7356  35.7364  36.3116  36.3127
    36.3127  36.3128  36.3555  36.3558  36.5299  36.5305  36.8679  36.8682
    36.9285  36.9286  36.9286  36.9290  36.9340  36.9344  37.2858  37.2862
    37.3018  37.3019  37.6732  37.6738  37.8522  37.8525  37.8527  37.8527
    38.0898  38.0900  38.0903  38.0907  38.3816  38.3818  39.2142  39.2146
    39.7461  39.7464  39.7464  39.7466  39.8827  39.8828  40.2581  40.2584
    40.4602  40.4606  40.5379  40.5380  40.5431  40.5434  40.5437  40.5440
    40.8514  40.8522  40.8710  40.8714  41.5251  41.5251  41.5253  41.5256
    42.4383  42.4389  42.4390  42.4396  42.4845  42.4846  42.7272  42.7280
    43.0316  43.0325  43.6632  43.6635  43.7378  43.7380  43.7467  43.7469
    43.7471  43.7475  43.9771  43.9778  43.9780  43.9782  44.0009  44.0011
    44.1280  44.1285  44.1505  44.1506  44.4749  44.4752  44.8321  44.8329
    44.8330  44.8330  45.0051  45.0058  45.0061  45.0062  45.3324  45.3325
    45.4693  45.4703  45.6178  45.6181  45.6182  45.6184  45.7230  45.7232
    45.8188  45.8196  45.9703  45.9705  45.9711  45.9712  46.0242  46.0248
    46.3042  46.3047  46.4791  46.4794  46.4800  46.4803  46.5706  46.5709
    46.5975  46.5983  46.6312  46.6316  46.6319  46.6320  46.8402  46.8403

     the Fermi energy is     8.6583 ev

!    total energy              =   -2931.94996558 Ry
     Harris-Foulkes estimate   =   -2931.94996581 Ry
     estimated scf accuracy    <       0.00000026 Ry

     The total energy is the sum of the following terms:

     one-electron contribution =   -1044.11651908 Ry
     hartree contribution      =     704.64952783 Ry
     xc contribution           =    -505.96785296 Ry
     ewald contribution        =   -2086.54328247 Ry
     Hubbard energy            =       0.02782165 Ry
     smearing contrib. (-TS)   =       0.00033944 Ry

     total magnetization       =     0.00 Bohr mag/cell
     absolute magnetization    =     0.00 Bohr mag/cell

     convergence has been achieved in   4 iterations

     Writing output data file pwscf.save

     General routines

     Parallel routines
     Hubbard U routines

   This run was terminated on:   3: 5:32  12Feb2014

   JOB DONE.