     Program PWSCF v.5.0.2 (svn rev. 9656) starts on 12Feb2014 at  3: 8:17

     Current dimensions of program PWSCF are:
     Max number of different atomic species (ntypx) = 10
     Max number of k-points (npk) =  40000
     Max angular momentum in pseudopotentials (lmaxx) =  3
     Reading input from alpha_0.15/alpha_0.15.in
Warning: card &IONS ignored
Warning: card / ignored
Warning: card &CELL ignored
Warning: card / ignored

     Subspace diagonalization in iterative solution of the eigenvalue problem:
     a serial algorithm will be used

     bravais-lattice index     =            0
     lattice parameter (alat)  =      17.5745  a.u.
     unit-cell volume          =    3466.9609 (a.u.)^3
     number of atoms/cell      =           48
     number of atomic types    =            3
     number of electrons       =       384.00
     number of Kohn-Sham states=          552
     kinetic-energy cutoff     =      40.0000  Ry
     charge density cutoff     =     500.0000  Ry
     convergence threshold     =      1.0E-06
     mixing beta               =       0.7000
     number of iterations used =            8  plain     mixing
     Exchange-correlation      = SLA  PW   PBE  PBE ( 1 4 3 4 0)
     EXX-fraction              =        0.00

     celldm(1)=  17.574453  celldm(2)=   0.000000  celldm(3)=   0.000000
     celldm(4)=   0.000000  celldm(5)=   0.000000  celldm(6)=   0.000000

     crystal axes: (cart. coord. in units of alat)
               a(1) = (   1.000000   0.000000   0.000000 )
               a(2) = (   0.000000   1.000000   0.000000 )
               a(3) = (   0.000000   0.000000   0.638710 )

     reciprocal axes: (cart. coord. in units 2 pi/alat)
               b(1) = (  1.000000  0.000000  0.000000 )
               b(2) = (  0.000000  1.000000  0.000000 )
               b(3) = (  0.000000  0.000000  1.565657 )

     PseudoPot. # 1 for Ti read from file:
     /home/camp/zhonxu/pseudo/ti_pbe_v1.uspp.F.UPF
     MD5 check sum: bcc8f6961b3b91f0cac3ca967d22d0fb
     Pseudo is Ultrasoft + core correction, Zval = 12.0
     Generated by new atomic code, or converted to UPF format
     Using radial grid of  851 points,  6 beta functions with:
                l(1) =   0
                l(2) =   0
                l(3) =   1
                l(4) =   1
                l(5) =   2
                l(6) =   2
     Q(r) pseudized with  6 coefficients,  rinner =    1.000   1.000   1.000
                                                       1.000   1.000

     PseudoPot. # 2 for O  read from file:
     /home/camp/zhonxu/pseudo/o_pbe_v1.01.uspp.F.UPF
     MD5 check sum: 2bcb18d16ea4b960afae9ec6d52f22d2
     Pseudo is Ultrasoft + core correction, Zval =  6.0
     Generated by new atomic code, or converted to UPF format
     Using radial grid of  737 points,  5 beta functions with:
                l(1) =   0
                l(2) =   0
                l(3) =   1
                l(4) =   1
                l(5) =   2
     Q(r) pseudized with  8 coefficients,  rinner =    0.900   0.900   0.900
                                                       0.900   0.900

     PseudoPot. # 3 for O  read from file:
     /home/camp/zhonxu/pseudo/o_pbe_v1.01.uspp.F.UPF
     MD5 check sum: 2bcb18d16ea4b960afae9ec6d52f22d2
     Pseudo is Ultrasoft + core correction, Zval =  6.0
     Generated by new atomic code, or converted to UPF format
     Using radial grid of  737 points,  5 beta functions with:
                l(1) =   0
                l(2) =   0
                l(3) =   1
                l(4) =   1
                l(5) =   2
     Q(r) pseudized with  8 coefficients,  rinner =    0.900   0.900   0.900
                                                       0.900   0.900

     atomic species   valence    mass     pseudopotential
        Ti0           12.00    47.88000     Ti( 1.00)
        O1             6.00    15.99940     O ( 1.00)
        O2             6.00    15.99940     O ( 1.00)

     Starting magnetic structure
     atomic species   magnetization
        Ti0          0.000
        O1           0.000
        O2           0.000

     Simplified LDA+U calculation (l_max = 2) with parameters (eV):
     atomic species    L          U    alpha       J0     beta
        Ti0            2     0.0000   0.0000   0.0000   0.0000
        O1             1     0.0000   0.1500   0.0000   0.0000
        O2             1     0.0000   0.0000   0.0000   0.0000

      4 Sym. Ops. (no inversion) found

   Cartesian axes

     site n.     atom                  positions (alat units)
         1           Ti0 tau(   1) = (  -0.1550000  -0.1550000   0.0000000  )
         2           Ti0 tau(   2) = (   0.0950000   0.0950000   0.1596774  )
         3           Ti0 tau(   3) = (  -0.1550000  -0.1550000   0.3193548  )
         4           Ti0 tau(   4) = (   0.0950000   0.0950000   0.4790323  )
         5           Ti0 tau(   5) = (  -0.1550000   0.3450000   0.0000000  )
         6           Ti0 tau(   6) = (   0.0950000   0.5950000   0.1596774  )
         7           Ti0 tau(   7) = (  -0.1550000   0.3450000   0.3193548  )
         8           Ti0 tau(   8) = (   0.0950000   0.5950000   0.4790323  )
         9           Ti0 tau(   9) = (   0.3450000  -0.1550000   0.0000000  )
        10           Ti0 tau(  10) = (   0.5950000   0.0950000   0.1596774  )
        11           Ti0 tau(  11) = (   0.3450000  -0.1550000   0.3193548  )
        12           Ti0 tau(  12) = (   0.5950000   0.0950000   0.4790323  )
        13           Ti0 tau(  13) = (   0.3450000   0.3450000   0.0000000  )
        14           Ti0 tau(  14) = (   0.5950000   0.5950000   0.1596774  )
        15           Ti0 tau(  15) = (   0.3450000   0.3450000   0.3193548  )
        16           Ti0 tau(  16) = (   0.5950000   0.5950000   0.4790323  )
        17           O1  tau(  17) = (   0.0000000   0.0000000   0.0000000  )
        18           O2  tau(  18) = (  -0.3100000  -0.3100000   0.0000000  )
        19           O2  tau(  19) = (   0.2500000  -0.0600000   0.1596774  )
        20           O2  tau(  20) = (  -0.0600000   0.2500000   0.1596774  )
        21           O2  tau(  21) = (   0.0000000   0.0000000   0.3193548  )
        22           O2  tau(  22) = (  -0.3100000  -0.3100000   0.3193548  )
        23           O2  tau(  23) = (   0.2500000  -0.0600000   0.4790323  )
        24           O2  tau(  24) = (  -0.0600000   0.2500000   0.4790323  )
        25           O2  tau(  25) = (   0.0000000   0.5000000   0.0000000  )
        26           O2  tau(  26) = (  -0.3100000   0.1900000   0.0000000  )
        27           O2  tau(  27) = (   0.2500000   0.4400000   0.1596774  )
        28           O2  tau(  28) = (  -0.0600000   0.7500000   0.1596774  )
        29           O2  tau(  29) = (   0.0000000   0.5000000   0.3193548  )
        30           O2  tau(  30) = (  -0.3100000   0.1900000   0.3193548  )
        31           O2  tau(  31) = (   0.2500000   0.4400000   0.4790323  )
        32           O2  tau(  32) = (  -0.0600000   0.7500000   0.4790323  )
        33           O2  tau(  33) = (   0.5000000   0.0000000   0.0000000  )
        34           O2  tau(  34) = (   0.1900000  -0.3100000   0.0000000  )
        35           O2  tau(  35) = (   0.7500000  -0.0600000   0.1596774  )
        36           O2  tau(  36) = (   0.4400000   0.2500000   0.1596774  )
        37           O2  tau(  37) = (   0.5000000   0.0000000   0.3193548  )
        38           O2  tau(  38) = (   0.1900000  -0.3100000   0.3193548  )
        39           O2  tau(  39) = (   0.7500000  -0.0600000   0.4790323  )
        40           O2  tau(  40) = (   0.4400000   0.2500000   0.4790323  )
        41           O2  tau(  41) = (   0.5000000   0.5000000   0.0000000  )
        42           O2  tau(  42) = (   0.1900000   0.1900000   0.0000000  )
        43           O2  tau(  43) = (   0.7500000   0.4400000   0.1596774  )
        44           O2  tau(  44) = (   0.4400000   0.7500000   0.1596774  )
        45           O2  tau(  45) = (   0.5000000   0.5000000   0.3193548  )
        46           O2  tau(  46) = (   0.1900000   0.1900000   0.3193548  )
        47           O2  tau(  47) = (   0.7500000   0.4400000   0.4790323  )
        48           O2  tau(  48) = (   0.4400000   0.7500000   0.4790323  )

     number of k points=    42  Methfessel-Paxton smearing, width (Ry)=  0.0100
                       cart. coord. in units 2pi/alat
        k(    1) = (   0.0000000   0.0000000   0.0000000), wk =   0.0156250
        k(    2) = (   0.0000000   0.0000000   0.3914141), wk =   0.0312500
        k(    3) = (   0.0000000   0.0000000  -0.7828283), wk =   0.0156250
        k(    4) = (   0.0000000   0.2500000   0.0000000), wk =   0.0625000
        k(    5) = (   0.0000000   0.2500000   0.3914141), wk =   0.1250000
        k(    6) = (   0.0000000   0.2500000  -0.7828283), wk =   0.0625000
        k(    7) = (   0.0000000  -0.5000000   0.0000000), wk =   0.0312500
        k(    8) = (   0.0000000  -0.5000000   0.3914141), wk =   0.0625000
        k(    9) = (   0.0000000  -0.5000000  -0.7828283), wk =   0.0312500
        k(   10) = (   0.2500000   0.2500000   0.0000000), wk =   0.0312500
        k(   11) = (   0.2500000   0.2500000   0.3914141), wk =   0.0625000
        k(   12) = (   0.2500000   0.2500000  -0.7828283), wk =   0.0312500
        k(   13) = (   0.2500000  -0.5000000   0.0000000), wk =   0.0625000
        k(   14) = (   0.2500000  -0.5000000   0.3914141), wk =   0.1250000
        k(   15) = (   0.2500000  -0.5000000  -0.7828283), wk =   0.0625000
        k(   16) = (  -0.5000000  -0.5000000   0.0000000), wk =   0.0156250
        k(   17) = (  -0.5000000  -0.5000000   0.3914141), wk =   0.0312500
        k(   18) = (  -0.5000000  -0.5000000  -0.7828283), wk =   0.0156250
        k(   19) = (   0.2500000  -0.2500000   0.0000000), wk =   0.0312500
        k(   20) = (   0.2500000  -0.2500000   0.3914141), wk =   0.0625000
        k(   21) = (   0.2500000  -0.2500000  -0.7828283), wk =   0.0312500
        k(   22) = (   0.0000000   0.0000000   0.0000000), wk =   0.0156250
        k(   23) = (   0.0000000   0.0000000   0.3914141), wk =   0.0312500
        k(   24) = (   0.0000000   0.0000000  -0.7828283), wk =   0.0156250
        k(   25) = (   0.0000000   0.2500000   0.0000000), wk =   0.0625000
        k(   26) = (   0.0000000   0.2500000   0.3914141), wk =   0.1250000
        k(   27) = (   0.0000000   0.2500000  -0.7828283), wk =   0.0625000
        k(   28) = (   0.0000000  -0.5000000   0.0000000), wk =   0.0312500
        k(   29) = (   0.0000000  -0.5000000   0.3914141), wk =   0.0625000
        k(   30) = (   0.0000000  -0.5000000  -0.7828283), wk =   0.0312500
        k(   31) = (   0.2500000   0.2500000   0.0000000), wk =   0.0312500
        k(   32) = (   0.2500000   0.2500000   0.3914141), wk =   0.0625000
        k(   33) = (   0.2500000   0.2500000  -0.7828283), wk =   0.0312500
        k(   34) = (   0.2500000  -0.5000000   0.0000000), wk =   0.0625000
        k(   35) = (   0.2500000  -0.5000000   0.3914141), wk =   0.1250000
        k(   36) = (   0.2500000  -0.5000000  -0.7828283), wk =   0.0625000
[...]
   spin  2
    eigenvalues:
  0.895  0.903  0.908
    eigenvectors:
  0.000  0.000  1.000
  0.500  0.500  0.000
  0.500  0.500  0.000
    occupations:
  0.908 -0.000  0.000
 -0.000  0.899  0.004
  0.000  0.004  0.899
atomic mag. moment =     0.000000
atom   40   Tr[ns(na)] (up, down, total) =   2.70578  2.70578  5.41155
   spin  1
    eigenvalues:
  0.895  0.903  0.908
    eigenvectors:
  0.000  0.000  1.000
  0.500  0.500  0.000
  0.500  0.500  0.000
    occupations:
  0.908  0.000  0.000
  0.000  0.899  0.004
  0.000  0.004  0.899
   spin  2
    eigenvalues:
  0.895  0.903  0.908
    eigenvectors:
  0.000  0.000  1.000
  0.500  0.500  0.000
  0.500  0.500  0.000
    occupations:
  0.908  0.000  0.000
  0.000  0.899  0.004
  0.000  0.004  0.899
atomic mag. moment =     0.000000
atom   41   Tr[ns(na)] (up, down, total) =   2.70576  2.70576  5.41151
   spin  1
    eigenvalues:
  0.895  0.903  0.908
    eigenvectors:
  0.000  0.000  1.000
  0.500  0.500  0.000
  0.500  0.500  0.000
    occupations:
  0.908 -0.000 -0.000
 -0.000  0.899 -0.004
 -0.000 -0.004  0.899
   spin  2
    eigenvalues:
  0.895  0.903  0.908
    eigenvectors:
  0.000  0.000  1.000
  0.500  0.500  0.000
  0.500  0.500  0.000
    occupations:
  0.908 -0.000 -0.000
 -0.000  0.899 -0.004
 -0.000 -0.004  0.899
atomic mag. moment =    -0.000000
atom   42   Tr[ns(na)] (up, down, total) =   2.70587  2.70587  5.41175
   spin  1
    eigenvalues:
  0.895  0.904  0.908
    eigenvectors:
  0.000  0.000  1.000
  0.500  0.500  0.000
  0.500  0.500  0.000
    occupations:
  0.908 -0.000 -0.000
 -0.000  0.899 -0.004
 -0.000 -0.004  0.899
   spin  2
    eigenvalues:
  0.895  0.904  0.908
    eigenvectors:
  0.000  0.000  1.000
  0.500  0.500  0.000
  0.500  0.500  0.000
    occupations:
  0.908 -0.000 -0.000
 -0.000  0.899 -0.004
 -0.000 -0.004  0.899
atomic mag. moment =    -0.000000
atom   43   Tr[ns(na)] (up, down, total) =   2.70578  2.70578  5.41155
   spin  1
    eigenvalues:
  0.895  0.903  0.908
    eigenvectors:
  0.000  0.000  1.000
  0.500  0.500  0.000
  0.500  0.500  0.000
    occupations:
  0.908  0.000 -0.000
  0.000  0.899  0.004
 -0.000  0.004  0.899
   spin  2
    eigenvalues:
  0.895  0.903  0.908
    eigenvectors:
  0.000  0.000  1.000
  0.500  0.500  0.000
  0.500  0.500  0.000
    occupations:
  0.908  0.000 -0.000
  0.000  0.899  0.004
 -0.000  0.004  0.899
atomic mag. moment =     0.000000
atom   44   Tr[ns(na)] (up, down, total) =   2.70578  2.70578  5.41155
   spin  1
    eigenvalues:
  0.895  0.903  0.908
    eigenvectors:
  0.000  0.000  1.000
  0.500  0.500  0.000
  0.500  0.500  0.000
    occupations:
  0.908 -0.000  0.000
 -0.000  0.899  0.004
  0.000  0.004  0.899
   spin  2
    eigenvalues:
  0.895  0.903  0.908
    eigenvectors:
  0.000  0.000  1.000
  0.500  0.500  0.000
  0.500  0.500  0.000
    occupations:
  0.908 -0.000  0.000
 -0.000  0.899  0.004
  0.000  0.004  0.899
atomic mag. moment =     0.000000
atom   45   Tr[ns(na)] (up, down, total) =   2.70575  2.70575  5.41149
   spin  1
    eigenvalues:
  0.895  0.903  0.908
    eigenvectors:
  0.000  0.000  1.000
  0.500  0.500  0.000
  0.500  0.500  0.000
    occupations:
  0.908 -0.000 -0.000
 -0.000  0.899 -0.004
 -0.000 -0.004  0.899
   spin  2
    eigenvalues:
  0.895  0.903  0.908
    eigenvectors:
  0.000  0.000  1.000
  0.500  0.500  0.000
  0.500  0.500  0.000
    occupations:
  0.908 -0.000 -0.000
 -0.000  0.899 -0.004
 -0.000 -0.004  0.899
atomic mag. moment =     0.000000
atom   46   Tr[ns(na)] (up, down, total) =   2.70577  2.70577  5.41154
   spin  1
    eigenvalues:
  0.895  0.903  0.908
    eigenvectors:
  0.000  0.000  1.000
  0.500  0.500  0.000
  0.500  0.500  0.000
    occupations:
  0.908 -0.000 -0.000
 -0.000  0.899 -0.004
 -0.000 -0.004  0.899
   spin  2
    eigenvalues:
  0.895  0.903  0.908
    eigenvectors:
  0.000  0.000  1.000
  0.500  0.500  0.000
  0.500  0.500  0.000
    occupations:
  0.908 -0.000 -0.000
 -0.000  0.899 -0.004
 -0.000 -0.004  0.899
atomic mag. moment =    -0.000000
atom   47   Tr[ns(na)] (up, down, total) =   2.70578  2.70578  5.41155
   spin  1
    eigenvalues:
  0.895  0.903  0.908
    eigenvectors:
  0.000  0.000  1.000
  0.500  0.500  0.000
  0.500  0.500  0.000
    occupations:
  0.908 -0.000  0.000
 -0.000  0.899  0.004
  0.000  0.004  0.899
   spin  2
    eigenvalues:
  0.895  0.903  0.908
    eigenvectors:
  0.000  0.000  1.000
  0.500  0.500  0.000
  0.500  0.500  0.000
    occupations:
  0.908 -0.000  0.000
 -0.000  0.899  0.004
  0.000  0.004  0.899
atomic mag. moment =     0.000000
atom   48   Tr[ns(na)] (up, down, total) =   2.70578  2.70578  5.41155
   spin  1
    eigenvalues:
  0.895  0.903  0.908
    eigenvectors:
  0.000  0.000  1.000
  0.500  0.500  0.000
  0.500  0.500  0.000
    occupations:
  0.908  0.000 -0.000
  0.000  0.899  0.004
 -0.000  0.004  0.899
   spin  2
    eigenvalues:
  0.895  0.903  0.908
    eigenvectors:
  0.000  0.000  1.000
  0.500  0.500  0.000
  0.500  0.500  0.000
    occupations:
  0.908  0.000 -0.000
  0.000  0.899  0.004
 -0.000  0.004  0.899
atomic mag. moment =     0.000000
N of occupied +U levels = 219.8245885
 --- exit write_ns ---

 ------ SPIN UP ------------

          k = 0.0000 0.0000 0.0000 ( 14755 PWs)   bands (ev):

   -48.1833 -48.1772 -48.1768 -48.1767 -48.1762 -48.1757 -48.1721 -48.1654
   -48.1372 -48.1372 -48.1368 -48.1368 -48.1365 -48.1357 -48.1356 -48.1270
   -24.7311 -24.7306 -24.7301 -24.7282 -24.7230 -24.7226 -24.7217 -24.7170
   -24.4998 -24.4997 -24.4900 -24.4894 -24.4550 -24.4546 -24.4538 -24.4510
   -24.3731 -24.3728 -24.3718 -24.3691 -24.3492 -24.3490 -24.3480 -24.3477
   -24.3477 -24.3475 -24.3468 -24.3403 -24.3402 -24.3397 -24.3382 -24.3369
   -24.3328 -24.3323 -24.3316 -24.3314 -24.3301 -24.3265 -24.3261 -24.3255
   -24.2873 -24.2732 -24.2728 -24.2726 -24.2725 -24.2719 -24.2672 -24.2559
    -9.3741  -8.7555  -8.7503  -8.7156  -8.7086  -8.7079  -8.7076  -8.3023
    -8.2935  -8.2935  -8.2930  -8.2730  -8.1384  -8.1343  -8.0573  -8.0534
    -7.9041  -7.9000  -7.8026  -7.7986  -7.6992  -7.6907  -7.6906  -7.6900
    -7.6458  -7.6393  -7.6391  -7.6389  -7.6265  -7.6245  -7.5120  -7.5089
     3.0566   3.2933   3.2988   3.4804   3.7891   3.7892   3.7914   3.7989
     3.8038   3.8045   3.8078   3.8136   4.0409   4.1800   4.1806   4.2795
     4.2806   4.3916   4.3947   4.8105   4.8139   4.8693   4.8727   4.9085
     4.9087   4.9088   4.9178   4.9989   4.9989   4.9996   5.0066   5.1332
     5.1341   5.1495   5.1506   5.2791   5.2793   5.5494   5.5494   5.5549
     5.5562   5.6084   5.6093   5.6093   5.6183   5.8859   5.8904   5.8963
     5.8965   5.8971   5.9056   6.0702   6.0731   6.0864   6.0914   6.2077
     6.2082   6.3653   6.3673   6.3697   6.3703   6.5452   6.5500   6.6017
     6.6059   6.6413   6.6414   6.6436   6.6485   6.8356   7.1881   7.1881
     7.1885   7.1967   7.2608   7.2610   7.4565   7.4612   7.5411   7.5452
     7.7110   7.7113   7.7128   7.7188   7.7754   7.7768   7.9215   7.9218
     7.9226   7.9299   7.9613   7.9616   8.0181   8.2922   8.2926   8.6052
    10.6231  10.6232  10.6240  10.6249  10.6530  10.7227  10.7232  11.0622
    11.1979  11.1986  11.2150  11.2158  11.2241  11.2296  11.2307  11.3380
    11.3383  11.3388  11.3407  11.5329  11.5335  11.6258  11.6262  11.6268
    11.6288  11.8147  11.8154  11.8490  11.8493  11.8498  11.8518  11.8658
    11.8669  11.9949  11.9962  12.2601  12.2604  12.2608  12.2637  12.3951
    12.3962  12.4891  12.4903  12.5802  12.5805  12.5812  12.5829  12.8589
    13.1690  13.5552  13.5553  13.5561  13.5571  13.9481  13.9494  14.2790
    14.2803  14.3056  14.3068  14.5515  14.5518  14.5523  14.5548  14.7454
    14.7462  14.7687  14.7697  15.1586  15.1590  15.1594  15.1622  15.4295
    15.4303  15.4396  15.4410  15.6522  15.6525  15.6537  15.6544  15.8703
    16.5629  18.6699  18.6718  18.6741  18.6741  19.7500  19.7505  20.2921
    20.2926  20.3553  20.3557  20.7577  20.7580  20.7588  20.7592  20.9774
    20.9778  21.5445  21.5449  22.0091  22.0100  22.0105  22.0107  22.7091
    22.7092  22.7093  22.7099  22.8290  22.8295  22.8312  23.1164  23.1164
    23.4026  23.4029  23.9504  23.9514  24.0042  24.0052  24.2736  24.3556
    24.3564  24.3567  24.3582  24.5931  24.5936  24.5940  24.5942  25.2981
    25.5357  25.5364  25.6645  25.6648  25.7174  25.7186  25.7187  25.7190
    26.3188  26.3195  26.6525  26.7024  26.7028  26.7028  26.7038  26.7431
    26.7435  26.7863  26.7881  26.7892  26.7895  26.9515  26.9519  26.9525
    26.9526  27.4312  27.4312  27.5521  27.5524  28.0586  28.0595  28.1640
    28.1656  28.1662  28.3827  28.3828  28.3841  28.3842  29.5767  29.5772
    29.9076  29.9937  29.9945  29.9977  29.9980  30.1215  30.1219  30.7315
    30.7317  31.0264  31.0269  31.2933  31.4997  31.5001  31.6590  31.6597
    31.6597  31.6605  31.6975  31.6992  31.6992  31.6996  32.2683  32.2694
    32.2824  32.2826  32.2945  32.2950  32.2953  32.2956  32.4267  32.4280
    32.8373  32.8383  33.4504  33.9808  33.9811  34.1602  34.1609  34.1617
    34.1623  34.2209  34.2216  34.2225  34.2227  34.5074  34.5076  34.5302
    34.7724  34.7728  35.0114  35.0122  35.3317  35.7222  35.7222  35.8050
    35.8053  35.8062  35.8062  35.8619  35.8620  35.8632  35.8635  35.8753
    35.8763  36.0091  36.0096  36.0097  36.0100  36.1127  36.1128  36.1138
    36.1139  36.3795  36.3805  36.6355  36.6356  36.6357  36.6359  37.0347
    37.1194  37.1210  37.3529  37.3530  37.9180  37.9182  38.8116  38.8126
    39.3936  39.3943  39.4568  40.0354  40.0361  40.0576  40.0579  40.0948
    40.0963  40.0967  40.0967  40.1099  40.2195  40.4049  40.4049  40.4051
    40.4057  40.5294  40.5295  40.5312  40.5313  40.6463  40.6468  40.9753
    40.9765  41.1146  41.1151  41.2627  41.2629  41.2636  41.2637  41.5868
    41.5871  41.5872  41.5881  41.6804  41.7805  41.7817  41.8071  41.8085
    41.9184  41.9184  42.7967  42.7968  43.2745  43.2747  43.6334  43.6336
    43.7767  43.7784  43.7988  43.7994  43.7997  43.8003  43.9859  43.9861
    44.0021  44.0041  44.0042  44.0044  44.1458  44.1460  44.1462  44.1465
    44.2954  44.2964  44.3735  44.3746  44.3752  44.3756  44.4172  44.7881
    44.7886  44.8245  44.8246  45.2672  45.2678  45.4072  45.4085  45.4097
    45.4098  45.5748  45.6073  45.6084  45.7040  45.7041  45.7045  45.7049
    46.1172  46.1180  46.3671  46.3673  46.4933  46.4945  46.5781  46.5792
    46.5794  46.5797  46.5915  46.5922  46.9708  46.9712  46.9721  46.9723

[...]

          k =-0.5000-0.5000 0.0000 ( 14812 PWs)   bands (ev):

[...]

 ------ SPIN DOWN ----------

[...]

          k =-0.5000-0.5000-0.7828 ( 14744 PWs)   bands (ev):

[...]

          k = 0.2500-0.2500-0.7828 ( 14778 PWs)   bands (ev):

   -48.1609 -48.1607 -48.1589 -48.1583 -48.1581 -48.1580 -48.1570 -48.1564
   -48.1558 -48.1556 -48.1550 -48.1539 -48.1532 -48.1530 -48.1464 -48.1462
   -24.5156 -24.5153 -24.5144 -24.5143 -24.5128 -24.5126 -24.5080 -24.5070
   -24.5066 -24.5062 -24.5062 -24.5059 -24.5010 -24.5010 -24.4942 -24.4942
   -24.4367 -24.4365 -24.4306 -24.4302 -24.4215 -24.4208 -24.4189 -24.4182
   -24.4182 -24.4179 -24.4153 -24.4149 -24.4004 -24.4004 -24.3965 -24.3955
   -24.3459 -24.3458 -24.3452 -24.3436 -24.3339 -24.3337 -24.3325 -24.3323
   -24.3311 -24.3310 -24.3264 -24.3262 -24.3239 -24.3237 -24.3204 -24.3196
    -8.7185  -8.7126  -8.4806  -8.4727  -8.4723  -8.4721  -8.3679  -8.3594
    -8.2159  -8.2158  -8.1390  -8.1243  -8.1241  -8.1236  -7.9534  -7.9471
    -7.9143  -7.9009  -7.9008  -7.9004  -7.8908  -7.8904  -7.8730  -7.8657
    -7.8565  -7.8563  -7.8479  -7.8455  -7.8454  -7.8453  -7.8039  -7.7971
     3.9218   3.9254   3.9371   3.9500   4.1549   4.1551   4.1563   4.1563
     4.1877   4.1879   4.1969   4.2008   4.2538   4.2545   4.2814   4.2846
     4.3693   4.3695   4.3702   4.3775   4.4329   4.4336   4.4697   4.4698
     4.4739   4.4812   4.6749   4.6752   4.6820   4.6848   4.7269   4.7282
     5.1381   5.1411   5.1791   5.1794   5.1855   5.1908   5.3773   5.3790
     5.5603   5.5604   5.5609   5.5631   5.6682   5.6685   5.9065   5.9068
     5.9081   5.9130   5.9625   5.9680   5.9906   5.9991   6.3552   6.3583
     6.4858   6.4861   6.4934   6.4944   6.7313   6.7317   6.7330   6.7346
     6.7867   6.7883   6.8337   6.8347   6.9175   6.9186   6.9856   6.9860
     7.1331   7.1333   7.1342   7.1361   7.1538   7.1584   7.2532   7.2572
     7.2899   7.2933   7.3663   7.3699   7.5396   7.5400   7.5417   7.5433
     7.6449   7.6469   7.9623   7.9626   7.9628   7.9694   8.2522   8.2554
    10.8864  10.8865  11.1013  11.1014  11.1016  11.1016  11.3522  11.3524
    11.4043  11.4045  11.4194  11.4197  11.5180  11.5181  11.5184  11.5184
    11.6530  11.6531  11.7089  11.7091  11.7092  11.7096  11.7136  11.7137
    11.7247  11.7251  11.8214  11.8218  11.9188  11.9189  11.9343  11.9344
    11.9434  11.9435  11.9457  11.9461  12.1387  12.1388  12.1395  12.1395
    12.1403  12.1410  12.3646  12.3646  12.3649  12.3656  12.5971  12.5974
    13.6529  13.6532  13.7469  13.7469  13.7471  13.7491  14.0553  14.0557
    14.0568  14.0571  14.0786  14.0790  14.3782  14.3786  14.4117  14.4117
    14.8262  14.8267  14.8332  14.8344  14.9292  14.9295  14.9297  14.9301
    15.0617  15.0620  15.3583  15.3584  15.3592  15.3592  15.3598  15.3599
    18.3922  18.3939  19.2474  19.2508  19.2521  19.2529  19.8105  19.8126
    20.5141  20.5168  20.5784  20.5820  20.5832  20.5839  21.8143  21.8156
    22.1473  22.1496  22.2350  22.2374  22.7258  22.7274  22.7292  22.7301
    22.9662  22.9678  23.4928  23.4946  23.5100  23.5105  23.7643  23.7644
    23.7669  23.7673  23.9086  23.9102  23.9109  23.9118  23.9183  23.9194
    24.0064  24.0065  24.2860  24.2870  24.2879  24.2888  25.3264  25.3283
    25.3287  25.3300  25.3361  25.3376  25.5922  25.5927  25.7809  25.7815
    25.9324  25.9341  25.9888  25.9899  25.9917  25.9920  26.4076  26.4092
    26.5825  26.5840  26.5847  26.5854  26.8036  26.8040  27.0569  27.0571
    27.0987  27.1008  27.2102  27.2112  27.7250  27.7256  27.7263  27.7267
    27.9179  27.9185  28.3885  28.3891  28.4455  28.4458  28.4465  28.4466
    29.1452  29.1467  29.3346  29.3350  29.3354  29.3364  30.3272  30.3286
    30.3967  30.3976  30.3980  30.3993  30.9203  30.9204  31.3208  31.3209
    31.8987  31.8987  32.3271  32.3275  32.3278  32.3279  32.7974  32.7975
    33.0408  33.0441  33.0675  33.0676  33.1054  33.1069  33.1097  33.1118
    33.2864  33.2874  33.2884  33.2891  33.8575  33.8582  33.8588  33.8592
    34.0052  34.0062  34.4496  34.4504  34.4509  34.4514  34.4988  34.5000
    35.0116  35.0132  35.0136  35.0144  35.0388  35.0404  35.1802  35.1802
    35.7094  35.7106  35.7109  35.7109  35.7353  35.7368  36.3105  36.3128
    36.3129  36.3131  36.3553  36.3559  36.5296  36.5308  36.8677  36.8684
    36.9284  36.9285  36.9285  36.9293  36.9337  36.9345  37.2858  37.2867
    37.3017  37.3019  37.6729  37.6740  37.8518  37.8525  37.8528  37.8529
    38.0894  38.0899  38.0905  38.0912  38.3817  38.3821  39.2139  39.2147
    39.7459  39.7465  39.7465  39.7469  39.8825  39.8829  40.2579  40.2583
    40.4601  40.4609  40.5376  40.5379  40.5426  40.5432  40.5440  40.5445
    40.8510  40.8526  40.8708  40.8717  41.5247  41.5249  41.5253  41.5259
    42.4377  42.4388  42.4391  42.4403  42.4846  42.4847  42.7268  42.7282
    43.0311  43.0328  43.6633  43.6640  43.7375  43.7381  43.7464  43.7467
    43.7472  43.7480  43.9762  43.9777  43.9782  43.9786  44.0006  44.0011
    44.1278  44.1289  44.1503  44.1506  44.4749  44.4754  44.8315  44.8331
    44.8334  44.8334  45.0044  45.0058  45.0065  45.0066  45.3324  45.3328
    45.4687  45.4706  45.6173  45.6180  45.6183  45.6188  45.7229  45.7233
    45.8184  45.8200  45.9697  45.9702  45.9715  45.9716  46.0240  46.0252
    46.3040  46.3049  46.4783  46.4789  46.4802  46.4808  46.5704  46.5709
    46.5970  46.5986  46.6306  46.6314  46.6321  46.6324  46.8403  46.8407

     the Fermi energy is     8.6598 ev

!    total energy              =   -2931.91818313 Ry
     Harris-Foulkes estimate   =   -2931.91818316 Ry
     estimated scf accuracy    <       0.00000004 Ry

     The total energy is the sum of the following terms:

     one-electron contribution =   -1044.12213487 Ry
     hartree contribution      =     704.65499902 Ry
     xc contribution           =    -505.96767159 Ry
     ewald contribution        =   -2086.54328247 Ry
     Hubbard energy            =       0.05956717 Ry
     smearing contrib. (-TS)   =       0.00033961 Ry

     total magnetization       =     0.00 Bohr mag/cell
     absolute magnetization    =     0.00 Bohr mag/cell

     convergence has been achieved in   6 iterations

     Writing output data file pwscf.save

     General routines

     Parallel routines
     Hubbard U routines

   This run was terminated on:   5:48:59  12Feb2014

   JOB DONE.