     Program PWSCF v.5.0.2 (svn rev. 9656) starts on 11Feb2014 at 18:35:36

     Current dimensions of program PWSCF are:
     Max number of different atomic species (ntypx) = 10
     Max number of k-points (npk) =  40000
     Max angular momentum in pseudopotentials (lmaxx) =  3
     Reading input from alpha_-0.15/alpha_-0.15.in
Warning: card &IONS ignored
Warning: card / ignored
Warning: card &CELL ignored
Warning: card / ignored

     Subspace diagonalization in iterative solution of the eigenvalue problem:
     a serial algorithm will be used

     bravais-lattice index     =            0
     lattice parameter (alat)  =      17.5745  a.u.
     unit-cell volume          =    3466.9609 (a.u.)^3
     number of atoms/cell      =           48
     number of atomic types    =            3
     number of electrons       =       384.00
     number of Kohn-Sham states=          552
     kinetic-energy cutoff     =      40.0000  Ry
     charge density cutoff     =     500.0000  Ry
     convergence threshold     =      1.0E-06
     mixing beta               =       0.7000
     number of iterations used =            8  plain     mixing
     Exchange-correlation      = SLA  PW   PBE  PBE ( 1 4 3 4 0)
     EXX-fraction              =        0.00

     celldm(1)=  17.574453  celldm(2)=   0.000000  celldm(3)=   0.000000
     celldm(4)=   0.000000  celldm(5)=   0.000000  celldm(6)=   0.000000

     crystal axes: (cart. coord. in units of alat)
               a(1) = (   1.000000   0.000000   0.000000 )
               a(2) = (   0.000000   1.000000   0.000000 )
               a(3) = (   0.000000   0.000000   0.638710 )

     reciprocal axes: (cart. coord. in units 2 pi/alat)
               b(1) = (  1.000000  0.000000  0.000000 )
               b(2) = (  0.000000  1.000000  0.000000 )
               b(3) = (  0.000000  0.000000  1.565657 )

     PseudoPot. # 1 for Ti read from file:
     /home/camp/zhonxu/pseudo/ti_pbe_v1.uspp.F.UPF
     MD5 check sum: bcc8f6961b3b91f0cac3ca967d22d0fb
     Pseudo is Ultrasoft + core correction, Zval = 12.0
     Generated by new atomic code, or converted to UPF format
     Using radial grid of  851 points,  6 beta functions with:
                l(1) =   0
                l(2) =   0
                l(3) =   1
                l(4) =   1
                l(5) =   2
                l(6) =   2
     Q(r) pseudized with  6 coefficients,  rinner =    1.000   1.000   1.000
                                                       1.000   1.000

     PseudoPot. # 2 for O  read from file:
     /home/camp/zhonxu/pseudo/o_pbe_v1.01.uspp.F.UPF
     MD5 check sum: 2bcb18d16ea4b960afae9ec6d52f22d2
     Pseudo is Ultrasoft + core correction, Zval =  6.0
     Generated by new atomic code, or converted to UPF format
     Using radial grid of  737 points,  5 beta functions with:
                l(1) =   0
                l(2) =   0
                l(3) =   1
                l(4) =   1
                l(5) =   2
     Q(r) pseudized with  8 coefficients,  rinner =    0.900   0.900   0.900
                                                       0.900   0.900

     PseudoPot. # 3 for O  read from file:
     /home/camp/zhonxu/pseudo/o_pbe_v1.01.uspp.F.UPF
     MD5 check sum: 2bcb18d16ea4b960afae9ec6d52f22d2
     Pseudo is Ultrasoft + core correction, Zval =  6.0
     Generated by new atomic code, or converted to UPF format
     Using radial grid of  737 points,  5 beta functions with:
                l(1) =   0
                l(2) =   0
                l(3) =   1
                l(4) =   1
                l(5) =   2
     Q(r) pseudized with  8 coefficients,  rinner =    0.900   0.900   0.900
                                                       0.900   0.900

     atomic species   valence    mass     pseudopotential
        Ti0           12.00    47.88000     Ti( 1.00)
        O1             6.00    15.99940     O ( 1.00)
        O2             6.00    15.99940     O ( 1.00)

     Starting magnetic structure
     atomic species   magnetization
        Ti0          0.000
        O1           0.000
        O2           0.000

     Simplified LDA+U calculation (l_max = 2) with parameters (eV):
     atomic species    L          U    alpha       J0     beta
        Ti0            2     0.0000   0.0000   0.0000   0.0000
        O1             1     0.0000  -0.1500   0.0000   0.0000
        O2             1     0.0000   0.0000   0.0000   0.0000

      4 Sym. Ops. (no inversion) found

   Cartesian axes

     site n.     atom                  positions (alat units)
         1           Ti0 tau(   1) = (  -0.1550000  -0.1550000   0.0000000  )
         2           Ti0 tau(   2) = (   0.0950000   0.0950000   0.1596774  )
         3           Ti0 tau(   3) = (  -0.1550000  -0.1550000   0.3193548  )
         4           Ti0 tau(   4) = (   0.0950000   0.0950000   0.4790323  )
         5           Ti0 tau(   5) = (  -0.1550000   0.3450000   0.0000000  )
         6           Ti0 tau(   6) = (   0.0950000   0.5950000   0.1596774  )
         7           Ti0 tau(   7) = (  -0.1550000   0.3450000   0.3193548  )
         8           Ti0 tau(   8) = (   0.0950000   0.5950000   0.4790323  )
         9           Ti0 tau(   9) = (   0.3450000  -0.1550000   0.0000000  )
        10           Ti0 tau(  10) = (   0.5950000   0.0950000   0.1596774  )
        11           Ti0 tau(  11) = (   0.3450000  -0.1550000   0.3193548  )
        12           Ti0 tau(  12) = (   0.5950000   0.0950000   0.4790323  )
        13           Ti0 tau(  13) = (   0.3450000   0.3450000   0.0000000  )
        14           Ti0 tau(  14) = (   0.5950000   0.5950000   0.1596774  )
        15           Ti0 tau(  15) = (   0.3450000   0.3450000   0.3193548  )
        16           Ti0 tau(  16) = (   0.5950000   0.5950000   0.4790323  )
        17           O1  tau(  17) = (   0.0000000   0.0000000   0.0000000  )
        18           O2  tau(  18) = (  -0.3100000  -0.3100000   0.0000000  )
        19           O2  tau(  19) = (   0.2500000  -0.0600000   0.1596774  )
        20           O2  tau(  20) = (  -0.0600000   0.2500000   0.1596774  )
        21           O2  tau(  21) = (   0.0000000   0.0000000   0.3193548  )
        22           O2  tau(  22) = (  -0.3100000  -0.3100000   0.3193548  )
        23           O2  tau(  23) = (   0.2500000  -0.0600000   0.4790323  )
        24           O2  tau(  24) = (  -0.0600000   0.2500000   0.4790323  )
        25           O2  tau(  25) = (   0.0000000   0.5000000   0.0000000  )
        26           O2  tau(  26) = (  -0.3100000   0.1900000   0.0000000  )
        27           O2  tau(  27) = (   0.2500000   0.4400000   0.1596774  )
        28           O2  tau(  28) = (  -0.0600000   0.7500000   0.1596774  )
        29           O2  tau(  29) = (   0.0000000   0.5000000   0.3193548  )
        30           O2  tau(  30) = (  -0.3100000   0.1900000   0.3193548  )
        31           O2  tau(  31) = (   0.2500000   0.4400000   0.4790323  )
        32           O2  tau(  32) = (  -0.0600000   0.7500000   0.4790323  )
        33           O2  tau(  33) = (   0.5000000   0.0000000   0.0000000  )
        34           O2  tau(  34) = (   0.1900000  -0.3100000   0.0000000  )
        35           O2  tau(  35) = (   0.7500000  -0.0600000   0.1596774  )
        36           O2  tau(  36) = (   0.4400000   0.2500000   0.1596774  )
        37           O2  tau(  37) = (   0.5000000   0.0000000   0.3193548  )
        38           O2  tau(  38) = (   0.1900000  -0.3100000   0.3193548  )
        39           O2  tau(  39) = (   0.7500000  -0.0600000   0.4790323  )
        40           O2  tau(  40) = (   0.4400000   0.2500000   0.4790323  )
        41           O2  tau(  41) = (   0.5000000   0.5000000   0.0000000  )
        42           O2  tau(  42) = (   0.1900000   0.1900000   0.0000000  )
        43           O2  tau(  43) = (   0.7500000   0.4400000   0.1596774  )
        44           O2  tau(  44) = (   0.4400000   0.7500000   0.1596774  )
        45           O2  tau(  45) = (   0.5000000   0.5000000   0.3193548  )
        46           O2  tau(  46) = (   0.1900000   0.1900000   0.3193548  )
        47           O2  tau(  47) = (   0.7500000   0.4400000   0.4790323  )
        48           O2  tau(  48) = (   0.4400000   0.7500000   0.4790323  )

     number of k points=    42  Methfessel-Paxton smearing, width (Ry)=  0.0100
                       cart. coord. in units 2pi/alat
        k(    1) = (   0.0000000   0.0000000   0.0000000), wk =   0.0156250
        k(    2) = (   0.0000000   0.0000000   0.3914141), wk =   0.0312500
        k(    3) = (   0.0000000   0.0000000  -0.7828283), wk =   0.0156250
        k(    4) = (   0.0000000   0.2500000   0.0000000), wk =   0.0625000
        k(    5) = (   0.0000000   0.2500000   0.3914141), wk =   0.1250000
        k(    6) = (   0.0000000   0.2500000  -0.7828283), wk =   0.0625000
        k(    7) = (   0.0000000  -0.5000000   0.0000000), wk =   0.0312500
        k(    8) = (   0.0000000  -0.5000000   0.3914141), wk =   0.0625000
        k(    9) = (   0.0000000  -0.5000000  -0.7828283), wk =   0.0312500
        k(   10) = (   0.2500000   0.2500000   0.0000000), wk =   0.0312500
        k(   11) = (   0.2500000   0.2500000   0.3914141), wk =   0.0625000
        k(   12) = (   0.2500000   0.2500000  -0.7828283), wk =   0.0312500
        k(   13) = (   0.2500000  -0.5000000   0.0000000), wk =   0.0625000
        k(   14) = (   0.2500000  -0.5000000   0.3914141), wk =   0.1250000
        k(   15) = (   0.2500000  -0.5000000  -0.7828283), wk =   0.0625000
        k(   16) = (  -0.5000000  -0.5000000   0.0000000), wk =   0.0156250
        k(   17) = (  -0.5000000  -0.5000000   0.3914141), wk =   0.0312500
        k(   18) = (  -0.5000000  -0.5000000  -0.7828283), wk =   0.0156250
        k(   19) = (   0.2500000  -0.2500000   0.0000000), wk =   0.0312500
        k(   20) = (   0.2500000  -0.2500000   0.3914141), wk =   0.0625000
        k(   21) = (   0.2500000  -0.2500000  -0.7828283), wk =   0.0312500
        k(   22) = (   0.0000000   0.0000000   0.0000000), wk =   0.0156250
        k(   23) = (   0.0000000   0.0000000   0.3914141), wk =   0.0312500
        k(   24) = (   0.0000000   0.0000000  -0.7828283), wk =   0.0156250
        k(   25) = (   0.0000000   0.2500000   0.0000000), wk =   0.0625000
        k(   26) = (   0.0000000   0.2500000   0.3914141), wk =   0.1250000
        k(   27) = (   0.0000000   0.2500000  -0.7828283), wk =   0.0625000
        k(   28) = (   0.0000000  -0.5000000   0.0000000), wk =   0.0312500
        k(   29) = (   0.0000000  -0.5000000   0.3914141), wk =   0.0625000
        k(   30) = (   0.0000000  -0.5000000  -0.7828283), wk =   0.0312500
        k(   31) = (   0.2500000   0.2500000   0.0000000), wk =   0.0312500
        k(   32) = (   0.2500000   0.2500000   0.3914141), wk =   0.0625000
        k(   33) = (   0.2500000   0.2500000  -0.7828283), wk =   0.0312500
        k(   34) = (   0.2500000  -0.5000000   0.0000000), wk =   0.0625000
        k(   35) = (   0.2500000  -0.5000000   0.3914141), wk =   0.1250000
        k(   36) = (   0.2500000  -0.5000000  -0.7828283), wk =   0.0625000
[...]
   spin  2
    eigenvalues:
  0.895  0.903  0.908
    eigenvectors:
  0.000  0.000  1.000
  0.500  0.500  0.000
  0.500  0.500  0.000
    occupations:
  0.908  0.000 -0.000
  0.000  0.899  0.004
 -0.000  0.004  0.899
atomic mag. moment =     0.000000
atom   40   Tr[ns(na)] (up, down, total) =   2.70576  2.70576  5.41151
   spin  1
    eigenvalues:
  0.895  0.903  0.908
    eigenvectors:
  0.000  0.000  1.000
  0.500  0.500  0.000
  0.500  0.500  0.000
    occupations:
  0.908  0.000 -0.000
  0.000  0.899  0.004
 -0.000  0.004  0.899
   spin  2
    eigenvalues:
  0.895  0.903  0.908
    eigenvectors:
  0.000  0.000  1.000
  0.500  0.500  0.000
  0.500  0.500  0.000
    occupations:
  0.908  0.000 -0.000
  0.000  0.899  0.004
 -0.000  0.004  0.899
atomic mag. moment =     0.000000
atom   41   Tr[ns(na)] (up, down, total) =   2.70579  2.70579  5.41158
   spin  1
    eigenvalues:
  0.895  0.903  0.908
    eigenvectors:
  0.000  0.000  1.000
  0.500  0.500  0.000
  0.500  0.500  0.000
    occupations:
  0.908 -0.000 -0.000
 -0.000  0.899 -0.004
 -0.000 -0.004  0.899
   spin  2
    eigenvalues:
  0.895  0.903  0.908
    eigenvectors:
  0.000  0.000  1.000
  0.500  0.500  0.000
  0.500  0.500  0.000
    occupations:
  0.908 -0.000 -0.000
 -0.000  0.899 -0.004
 -0.000 -0.004  0.899
atomic mag. moment =    -0.000000
atom   42   Tr[ns(na)] (up, down, total) =   2.70570  2.70570  5.41140
   spin  1
    eigenvalues:
  0.895  0.903  0.908
    eigenvectors:
  0.000  0.000  1.000
  0.500  0.500  0.000
  0.500  0.500  0.000
    occupations:
  0.908 -0.000 -0.000
 -0.000  0.899 -0.004
 -0.000 -0.004  0.899
   spin  2
    eigenvalues:
  0.895  0.903  0.908
    eigenvectors:
  0.000  0.000  1.000
  0.500  0.500  0.000
  0.500  0.500  0.000
    occupations:
  0.908 -0.000 -0.000
 -0.000  0.899 -0.004
 -0.000 -0.004  0.899
atomic mag. moment =    -0.000000
atom   43   Tr[ns(na)] (up, down, total) =   2.70574  2.70574  5.41148
   spin  1
    eigenvalues:
  0.895  0.903  0.908
    eigenvectors:
  0.000  0.000  1.000
  0.500  0.500  0.000
  0.500  0.500  0.000
    occupations:
  0.908  0.000  0.000
  0.000  0.899  0.004
  0.000  0.004  0.899
   spin  2
    eigenvalues:
  0.895  0.903  0.908
    eigenvectors:
  0.000  0.000  1.000
  0.500  0.500  0.000
  0.500  0.500  0.000
    occupations:
  0.908  0.000  0.000
  0.000  0.899  0.004
  0.000  0.004  0.899
atomic mag. moment =     0.000000
atom   44   Tr[ns(na)] (up, down, total) =   2.70574  2.70574  5.41148
   spin  1
    eigenvalues:
  0.895  0.903  0.908
    eigenvectors:
  0.000  0.000  1.000
  0.500  0.500  0.000
  0.500  0.500  0.000
    occupations:
  0.908  0.000  0.000
  0.000  0.899  0.004
  0.000  0.004  0.899
   spin  2
    eigenvalues:
  0.895  0.903  0.908
    eigenvectors:
  0.000  0.000  1.000
  0.500  0.500  0.000
  0.500  0.500  0.000
    occupations:
  0.908  0.000  0.000
  0.000  0.899  0.004
  0.000  0.004  0.899
atomic mag. moment =     0.000000
atom   45   Tr[ns(na)] (up, down, total) =   2.70581  2.70581  5.41162
   spin  1
    eigenvalues:
  0.895  0.903  0.908
    eigenvectors:
  0.000  0.000  1.000
  0.500  0.500  0.000
  0.500  0.500  0.000
    occupations:
  0.908 -0.000 -0.000
 -0.000  0.899 -0.004
 -0.000 -0.004  0.899
   spin  2
    eigenvalues:
  0.895  0.903  0.908
    eigenvectors:
  0.000  0.000  1.000
  0.500  0.500  0.000
  0.500  0.500  0.000
    occupations:
  0.908 -0.000 -0.000
 -0.000  0.899 -0.004
 -0.000 -0.004  0.899
atomic mag. moment =     0.000000
atom   46   Tr[ns(na)] (up, down, total) =   2.70578  2.70578  5.41157
   spin  1
    eigenvalues:
  0.895  0.903  0.908
    eigenvectors:
  0.000  0.000  1.000
  0.500  0.500  0.000
  0.500  0.500  0.000
    occupations:
  0.908 -0.000 -0.000
 -0.000  0.899 -0.004
 -0.000 -0.004  0.899
   spin  2
    eigenvalues:
  0.895  0.903  0.908
    eigenvectors:
  0.000  0.000  1.000
  0.500  0.500  0.000
  0.500  0.500  0.000
    occupations:
  0.908 -0.000 -0.000
 -0.000  0.899 -0.004
 -0.000 -0.004  0.899
atomic mag. moment =    -0.000000
atom   47   Tr[ns(na)] (up, down, total) =   2.70574  2.70574  5.41148
   spin  1
    eigenvalues:
  0.895  0.903  0.908
    eigenvectors:
  0.000  0.000  1.000
  0.500  0.500  0.000
  0.500  0.500  0.000
    occupations:
  0.908 -0.000 -0.000
 -0.000  0.899  0.004
 -0.000  0.004  0.899
   spin  2
    eigenvalues:
  0.895  0.903  0.908
    eigenvectors:
  0.000  0.000  1.000
  0.500  0.500  0.000
  0.500  0.500  0.000
    occupations:
  0.908 -0.000 -0.000
 -0.000  0.899  0.004
 -0.000  0.004  0.899
atomic mag. moment =     0.000000
atom   48   Tr[ns(na)] (up, down, total) =   2.70574  2.70574  5.41148
   spin  1
    eigenvalues:
  0.895  0.903  0.908
    eigenvectors:
  0.000  0.000  1.000
  0.500  0.500  0.000
  0.500  0.500  0.000
    occupations:
  0.908 -0.000 -0.000
 -0.000  0.899  0.004
 -0.000  0.004  0.899
   spin  2
    eigenvalues:
  0.895  0.903  0.908
    eigenvectors:
  0.000  0.000  1.000
  0.500  0.500  0.000
  0.500  0.500  0.000
    occupations:
  0.908 -0.000 -0.000
 -0.000  0.899  0.004
 -0.000  0.004  0.899
atomic mag. moment =     0.000000
N of occupied +U levels = 219.8218552
 --- exit write_ns ---

 ------ SPIN UP ------------

          k = 0.0000 0.0000 0.0000 ( 14755 PWs)   bands (ev):

   -48.1903 -48.1847 -48.1809 -48.1794 -48.1793 -48.1792 -48.1790 -48.1731
   -48.1495 -48.1415 -48.1394 -48.1393 -48.1393 -48.1392 -48.1392 -48.1390
   -24.7388 -24.7342 -24.7334 -24.7331 -24.7273 -24.7257 -24.7249 -24.7248
   -24.5046 -24.5040 -24.4942 -24.4938 -24.4603 -24.4579 -24.4571 -24.4569
   -24.3792 -24.3762 -24.3752 -24.3750 -24.3595 -24.3529 -24.3511 -24.3510
   -24.3502 -24.3502 -24.3500 -24.3499 -24.3472 -24.3437 -24.3418 -24.3416
   -24.3375 -24.3372 -24.3357 -24.3346 -24.3338 -24.3337 -24.3308 -24.3305
   -24.2924 -24.2809 -24.2767 -24.2753 -24.2751 -24.2749 -24.2747 -24.2608
    -9.3725  -8.7530  -8.7498  -8.7113  -8.7109  -8.7105  -8.7030  -8.2957
    -8.2953  -8.2952  -8.2892  -8.2714  -8.1365  -8.1328  -8.0555  -8.0517
    -7.9027  -7.8987  -7.8007  -7.7971  -7.6930  -7.6927  -7.6925  -7.6859
    -7.6414  -7.6412  -7.6411  -7.6356  -7.6273  -7.6186  -7.5111  -7.5061
     3.0472   3.2851   3.2910   3.4738   3.7769   3.7840   3.7871   3.7873
     3.7912   3.7985   3.8017   3.8018   4.0316   4.1710   4.1711   4.2697
     4.2709   4.3839   4.3868   4.8036   4.8082   4.8626   4.8670   4.8995
     4.9064   4.9065   4.9066   4.9890   4.9964   4.9969   4.9969   5.1256
     5.1270   5.1405   5.1426   5.2726   5.2729   5.5402   5.5419   5.5469
     5.5470   5.5964   5.6060   5.6061   5.6070   5.8778   5.8798   5.8880
     5.8938   5.8943   5.8945   6.0634   6.0678   6.0812   6.0840   6.1995
     6.2006   6.3583   6.3595   6.3611   6.3632   6.5379   6.5435   6.5954
     6.5999   6.6339   6.6371   6.6392   6.6393   6.8285   7.1777   7.1860
     7.1862   7.1863   7.2541   7.2544   7.4503   7.4545   7.5348   7.5391
     7.7018   7.7079   7.7091   7.7095   7.7693   7.7707   7.9123   7.9192
     7.9197   7.9202   7.9549   7.9557   8.0122   8.2866   8.2868   8.5996
    10.6194  10.6203  10.6210  10.6211  10.6496  10.7193  10.7198  11.0586
    11.1943  11.1950  11.2113  11.2123  11.2204  11.2260  11.2269  11.3336
    11.3354  11.3359  11.3361  11.5292  11.5298  11.6214  11.6233  11.6238
    11.6239  11.8108  11.8118  11.8443  11.8463  11.8469  11.8470  11.8622
    11.8629  11.9910  11.9923  12.2550  12.2578  12.2582  12.2583  12.3912
    12.3924  12.4852  12.4864  12.5757  12.5773  12.5779  12.5781  12.8553
    13.1648  13.5510  13.5520  13.5526  13.5528  13.9440  13.9454  14.2751
    14.2764  14.3016  14.3028  14.5466  14.5490  14.5494  14.5496  14.7414
    14.7424  14.7648  14.7656  15.1534  15.1561  15.1566  15.1567  15.4252
    15.4265  15.4358  15.4366  15.6480  15.6486  15.6498  15.6500  15.8674
    16.5623  18.6717  18.6718  18.6740  18.6759  19.7511  19.7516  20.2928
    20.2932  20.3555  20.3560  20.7584  20.7588  20.7597  20.7599  20.9780
    20.9784  21.5447  21.5451  22.0095  22.0096  22.0102  22.0111  22.7095
    22.7101  22.7103  22.7103  22.8290  22.8295  22.8323  23.1174  23.1174
    23.4029  23.4031  23.9509  23.9519  24.0043  24.0053  24.2727  24.3558
    24.3571  24.3576  24.3583  24.5937  24.5940  24.5943  24.5950  25.2981
    25.5358  25.5366  25.6646  25.6650  25.7176  25.7178  25.7179  25.7191
    26.3188  26.3195  26.6529  26.7020  26.7030  26.7031  26.7035  26.7429
    26.7431  26.7868  26.7870  26.7882  26.7902  26.9509  26.9511  26.9518
    26.9522  27.4305  27.4306  27.5524  27.5527  28.0583  28.0591  28.1642
    28.1653  28.1659  28.3826  28.3827  28.3840  28.3841  29.5757  29.5761
    29.9069  29.9946  29.9947  29.9980  29.9987  30.1215  30.1219  30.7319
    30.7321  31.0262  31.0267  31.2941  31.4994  31.4997  31.6586  31.6593
    31.6593  31.6601  31.6976  31.6979  31.6981  31.6999  32.2680  32.2691
    32.2823  32.2826  32.2940  32.2944  32.2948  32.2953  32.4266  32.4280
    32.8378  32.8388  33.4500  33.9808  33.9812  34.1601  34.1607  34.1614
    34.1621  34.2215  34.2217  34.2227  34.2234  34.5069  34.5072  34.5305
    34.7723  34.7726  35.0117  35.0126  35.3307  35.7222  35.7222  35.8052
    35.8052  35.8061  35.8064  35.8617  35.8619  35.8632  35.8633  35.8753
    35.8764  36.0093  36.0097  36.0097  36.0103  36.1124  36.1125  36.1134
    36.1136  36.3795  36.3805  36.6355  36.6356  36.6357  36.6358  37.0337
    37.1201  37.1217  37.3530  37.3530  37.9178  37.9180  38.8114  38.8125
    39.3932  39.3939  39.4561  40.0347  40.0354  40.0575  40.0578  40.0956
    40.0957  40.0960  40.0976  40.1089  40.2202  40.4042  40.4049  40.4051
    40.4051  40.5297  40.5299  40.5315  40.5317  40.6468  40.6474  40.9753
    40.9764  41.1146  41.1151  41.2629  41.2630  41.2637  41.2639  41.5860
    41.5870  41.5870  41.5874  41.6803  41.7807  41.7816  41.8070  41.8086
    41.9186  41.9186  42.7962  42.7964  43.2740  43.2743  43.6334  43.6336
    43.7768  43.7783  43.7986  43.7992  43.7995  43.8003  43.9865  43.9866
    44.0030  44.0032  44.0034  44.0055  44.1458  44.1461  44.1463  44.1466
    44.2954  44.2963  44.3743  44.3747  44.3752  44.3764  44.4173  44.7880
    44.7885  44.8246  44.8247  45.2669  45.2676  45.4074  45.4074  45.4085
    45.4098  45.5747  45.6076  45.6087  45.7040  45.7043  45.7048  45.7049
    46.1175  46.1184  46.3674  46.3677  46.4934  46.4946  46.5786  46.5789
    46.5790  46.5801  46.5908  46.5916  46.9708  46.9710  46.9718  46.9723

[...]

          k =-0.5000-0.5000 0.0000 ( 14812 PWs)   bands (ev):

[...]

 ------ SPIN DOWN ----------

[...]

          k =-0.5000-0.5000-0.7828 ( 14744 PWs)   bands (ev):

[...]

          k = 0.2500-0.2500-0.7828 ( 14778 PWs)   bands (ev):

   -48.1703 -48.1694 -48.1636 -48.1634 -48.1620 -48.1619 -48.1605 -48.1603
   -48.1597 -48.1595 -48.1582 -48.1581 -48.1577 -48.1575 -48.1555 -48.1553
   -24.5222 -24.5222 -24.5183 -24.5180 -24.5172 -24.5171 -24.5114 -24.5111
   -24.5106 -24.5104 -24.5100 -24.5090 -24.5067 -24.5066 -24.4997 -24.4996
   -24.4423 -24.4414 -24.4358 -24.4353 -24.4254 -24.4250 -24.4227 -24.4223
   -24.4219 -24.4218 -24.4187 -24.4185 -24.4062 -24.4056 -24.4023 -24.4023
   -24.3500 -24.3494 -24.3487 -24.3478 -24.3409 -24.3408 -24.3359 -24.3358
   -24.3349 -24.3348 -24.3331 -24.3331 -24.3282 -24.3279 -24.3247 -24.3243
    -8.7165  -8.7117  -8.4759  -8.4757  -8.4754  -8.4694  -8.3635  -8.3560
    -8.2182  -8.2181  -8.1281  -8.1275  -8.1273  -8.1151  -7.9501  -7.9471
    -7.9043  -7.9036  -7.9036  -7.8967  -7.8927  -7.8904  -7.8696  -7.8606
    -7.8585  -7.8584  -7.8481  -7.8479  -7.8477  -7.8408  -7.8010  -7.7865
     3.9036   3.9182   3.9289   3.9330   4.1500   4.1507   4.1522   4.1523
     4.1831   4.1847   4.1880   4.1909   4.2500   4.2506   4.2741   4.2784
     4.3589   4.3667   4.3672   4.3674   4.4230   4.4242   4.4562   4.4635
     4.4671   4.4673   4.6640   4.6658   4.6724   4.6725   4.7225   4.7239
     5.1291   5.1317   5.1660   5.1717   5.1768   5.1772   5.3722   5.3737
     5.5557   5.5581   5.5583   5.5585   5.6649   5.6651   5.8978   5.9023
     5.9043   5.9047   5.9494   5.9587   5.9819   5.9857   6.3478   6.3510
     6.4757   6.4762   6.4834   6.4838   6.7254   6.7272   6.7285   6.7287
     6.7827   6.7843   6.8301   6.8310   6.9131   6.9140   6.9829   6.9833
     7.1261   7.1291   7.1299   7.1302   7.1448   7.1488   7.2463   7.2502
     7.2813   7.2844   7.3598   7.3629   7.5335   7.5350   7.5366   7.5369
     7.6379   7.6396   7.9535   7.9595   7.9596   7.9601   8.2464   8.2492
    10.8829  10.8831  11.0976  11.0978  11.0979  11.0981  11.3487  11.3492
    11.4001  11.4005  11.4154  11.4157  11.5146  11.5148  11.5148  11.5152
    11.6492  11.6494  11.7057  11.7058  11.7058  11.7065  11.7105  11.7106
    11.7205  11.7207  11.8166  11.8169  11.9160  11.9163  11.9313  11.9317
    11.9386  11.9390  11.9409  11.9409  12.1340  12.1350  12.1354  12.1355
    12.1367  12.1367  12.3604  12.3609  12.3611  12.3614  12.5931  12.5932
    13.6487  13.6492  13.7422  13.7442  13.7445  13.7447  14.0512  14.0513
    14.0525  14.0527  14.0746  14.0748  14.3753  14.3755  14.4083  14.4088
    14.8209  14.8219  14.8284  14.8288  14.9256  14.9258  14.9262  14.9263
    15.0582  15.0582  15.3542  15.3545  15.3549  15.3550  15.3559  15.3561
    18.3928  18.3945  19.2494  19.2503  19.2514  19.2549  19.8114  19.8136
    20.5150  20.5176  20.5806  20.5813  20.5825  20.5864  21.8152  21.8166
    22.1468  22.1491  22.2350  22.2374  22.7268  22.7277  22.7294  22.7311
    22.9668  22.9685  23.4935  23.4954  23.5100  23.5105  23.7644  23.7648
    23.7674  23.7674  23.9086  23.9095  23.9102  23.9118  23.9181  23.9193
    24.0073  24.0074  24.2863  24.2871  24.2881  24.2891  25.3273  25.3287
    25.3289  25.3305  25.3364  25.3382  25.5925  25.5930  25.7808  25.7814
    25.9322  25.9339  25.9893  25.9897  25.9913  25.9925  26.4075  26.4092
    26.5829  26.5835  26.5844  26.5859  26.8029  26.8033  27.0566  27.0569
    27.0988  27.1011  27.2100  27.2110  27.7246  27.7249  27.7256  27.7262
    27.9173  27.9178  28.3883  28.3889  28.4450  28.4452  28.4458  28.4461
    29.1449  29.1465  29.3339  29.3348  29.3353  29.3357  30.3269  30.3283
    30.3964  30.3977  30.3979  30.3990  30.9197  30.9197  31.3199  31.3201
    31.8985  31.8985  32.3266  32.3267  32.3269  32.3275  32.7966  32.7967
    33.0413  33.0445  33.0676  33.0677  33.1053  33.1069  33.1106  33.1127
    33.2867  33.2874  33.2884  33.2895  33.8576  33.8580  33.8587  33.8594
    34.0045  34.0054  34.4494  34.4499  34.4503  34.4511  34.4994  34.5006
    35.0124  35.0130  35.0135  35.0151  35.0388  35.0404  35.1794  35.1794
    35.7100  35.7100  35.7102  35.7115  35.7350  35.7366  36.3121  36.3123
    36.3124  36.3146  36.3555  36.3561  36.5296  36.5308  36.8676  36.8683
    36.9281  36.9287  36.9288  36.9290  36.9344  36.9351  37.2849  37.2858
    37.3018  37.3021  37.6731  37.6743  37.8521  37.8523  37.8526  37.8532
    38.0891  38.0898  38.0904  38.0909  38.3811  38.3815  39.2142  39.2150
    39.7457  39.7461  39.7461  39.7467  39.8827  39.8832  40.2585  40.2590
    40.4598  40.4606  40.5380  40.5385  40.5425  40.5431  40.5438  40.5444
    40.8510  40.8527  40.8707  40.8716  41.5248  41.5254  41.5258  41.5259
    42.4375  42.4387  42.4389  42.4401  42.4843  42.4844  42.7271  42.7287
    43.0313  43.0332  43.6623  43.6629  43.7378  43.7384  43.7460  43.7468
    43.7472  43.7477  43.9770  43.9774  43.9779  43.9794  44.0011  44.0017
    44.1274  44.1285  44.1507  44.1510  44.4746  44.4751  44.8320  44.8320
    44.8323  44.8339  45.0049  45.0050  45.0057  45.0071  45.3319  45.3322
    45.4693  45.4713  45.6175  45.6179  45.6182  45.6188  45.7230  45.7234
    45.8184  45.8201  45.9700  45.9700  45.9713  45.9718  46.0236  46.0248
    46.3038  46.3048  46.4789  46.4795  46.4807  46.4814  46.5707  46.5712
    46.5973  46.5991  46.6310  46.6313  46.6320  46.6329  46.8393  46.8397

     the Fermi energy is     8.6542 ev

!    total energy              =   -2932.03750426 Ry
     Harris-Foulkes estimate   =   -2932.03750513 Ry
     estimated scf accuracy    <       0.00000097 Ry

     The total energy is the sum of the following terms:

     one-electron contribution =   -1044.10151033 Ry
     hartree contribution      =     704.63542090 Ry
     xc contribution           =    -505.96871662 Ry
     ewald contribution        =   -2086.54328247 Ry
     Hubbard energy            =      -0.05975495 Ry
     smearing contrib. (-TS)   =       0.00033920 Ry

     total magnetization       =     0.00 Bohr mag/cell
     absolute magnetization    =     0.00 Bohr mag/cell

     convergence has been achieved in   4 iterations

     Writing output data file pwscf.save

     General routines

     Parallel routines
     Hubbard U routines

   This run was terminated on:  20:46:27  11Feb2014

   JOB DONE.