     Program PWSCF v.5.0.2 (svn rev. 9656) starts on 30Apr2014 at 22:25:29

     Current dimensions of program PWSCF are:
     Max number of different atomic species (ntypx) = 10
     Max number of k-points (npk) =  40000
     Max angular momentum in pseudopotentials (lmaxx) =  3
     Reading input from pwscf.in
Warning: card &CELL ignored
Warning: card / ignored

     Subspace diagonalization in iterative solution of the eigenvalue problem:
     a serial algorithm will be used

     bravais-lattice index     =            0
     lattice parameter (alat)  =      11.1872  a.u.
     unit-cell volume          =    7531.8600 (a.u.)^3
     number of atoms/cell      =           32
     number of atomic types    =            3
     number of electrons       =       223.00
     number of Kohn-Sham states=          334
     kinetic-energy cutoff     =      40.0000  Ry
     charge density cutoff     =     500.0000  Ry
     convergence threshold     =      1.0E-06
     mixing beta               =       0.7000
     number of iterations used =            8  plain     mixing
     Exchange-correlation      = SLA  PW   PBE  PBE ( 1 4 3 4 0)
     EXX-fraction              =        0.00
     nstep                     =           50

     celldm(1)=  11.187179  celldm(2)=   0.000000  celldm(3)=   0.000000
     celldm(4)=   0.000000  celldm(5)=   0.000000  celldm(6)=   0.000000

     crystal axes: (cart. coord. in units of alat)
               a(1) = (   1.000000   0.000000   0.000000 )
               a(2) = (   0.000000   1.180104   0.000000 )
               a(3) = (   0.000000   0.000000   4.558482 )

     reciprocal axes: (cart. coord. in units 2 pi/alat)
               b(1) = (  1.000000  0.000000  0.000000 )
               b(2) = (  0.000000  0.847383  0.000000 )
               b(3) = (  0.000000  0.000000  0.219371 )

     PseudoPot. # 1 for O  read from file:
     /home/camp/zhonxu/pseudo/o_pbe_v1.01.uspp.F.UPF
     MD5 check sum: 2bcb18d16ea4b960afae9ec6d52f22d2
     Pseudo is Ultrasoft + core correction, Zval =  6.0
     Generated by new atomic code, or converted to UPF format
     Using radial grid of  737 points,  5 beta functions with:
                l(1) =   0
                l(2) =   0
                l(3) =   1
                l(4) =   1
                l(5) =   2
     Q(r) pseudized with  8 coefficients,  rinner =    0.900   0.900   0.900
                                                       0.900   0.900

     PseudoPot. # 2 for Nb read from file:
     /home/camp/zhonxu/pseudo/nb_pbe_v1.uspp.F.UPF
     MD5 check sum: 573aab8a2fa660278ed4a62cd769473f
     Pseudo is Ultrasoft + core correction, Zval = 13.0
     Generated by new atomic code, or converted to UPF format
     Using radial grid of  887 points,  6 beta functions with:
                l(1) =   0
                l(2) =   0
                l(3) =   1
                l(4) =   1
                l(5) =   2
                l(6) =   2
     Q(r) pseudized with  6 coefficients,  rinner =    1.000   1.000   1.000
                                                       1.000   1.000

     PseudoPot. # 3 for H  read from file:
     /home/camp/zhonxu/pseudo/h_pbe_v1.uspp.F.UPF
     MD5 check sum: 3408e3ff4ec8b0a4e358431e7e038a48
     Pseudo is Ultrasoft, Zval =  1.0
     Generated by new atomic code, or converted to UPF format
     Using radial grid of  615 points,  2 beta functions with:
                l(1) =   0
                l(2) =   0
     Q(r) pseudized with  8 coefficients,  rinner =    0.700

     atomic species   valence    mass     pseudopotential
        O0             6.00    15.99940     O ( 1.00)
        Nb1           13.00    92.90640     Nb( 1.00)
        H2             1.00     1.00794     H ( 1.00)

     Simplified LDA+U calculation (l_max = 2) with parameters (eV):
     atomic species    L          U    alpha       J0     beta
        Nb1            2     3.0000   0.0000   0.0000   0.0000

     No symmetry found

   Cartesian axes

     site n.     atom                  positions (alat units)
         1           O0  tau(   1) = (   0.0000000   0.0000000   1.6962568  )
         2           O0  tau(   2) = (   0.0000000   0.5900519   1.7738878  )
         3           Nb1 tau(   3) = (   0.2500000   0.5900519   2.0270203  )
         4           Nb1 tau(   4) = (   0.0000000   0.0000000   2.0275217  )
         5           O0  tau(   5) = (   0.2500000   0.9322821   2.0383253  )
         6           O0  tau(   6) = (   0.2500000   0.2478218   2.0383253  )
         7           O0  tau(   7) = (   0.0000000   0.5900519   2.2801984  )
         8           O0  tau(   8) = (   0.0000000   0.0000000   2.3861375  )
         9           Nb1 tau(   9) = (   0.2500000   0.0000000   2.6321588  )
        10           Nb1 tau(  10) = (   0.0000000   0.5900519   2.5957821  )
        11           O0  tau(  11) = (   0.2500000   0.8378738   2.6252299  )
        12           O0  tau(  12) = (   0.2500000   0.3422301   2.6252299  )
        13           O0  tau(  13) = (   0.0000000   0.0000000   2.8359230  )
        14           O0  tau(  14) = (   0.5000000   0.0000000   1.6977155  )
        15           O0  tau(  15) = (   0.5000000   0.5900519   1.7812725  )
        16           Nb1 tau(  16) = (   0.7500000   0.5900519   2.0271571  )
        17           Nb1 tau(  17) = (   0.5000000   0.0000000   2.0300745  )
        18           O0  tau(  18) = (   0.7500000   0.9322821   2.0383253  )
        19           O0  tau(  19) = (   0.7500000   0.2478218   2.0383709  )
        20           O0  tau(  20) = (   0.5000000   0.5900519   2.2745003  )
        21           O0  tau(  21) = (   0.5000000   0.0000000   2.3862287  )
        22           Nb1 tau(  22) = (   0.7500000   0.0000000   2.6327514  )
        23           Nb1 tau(  23) = (   0.5000000   0.5900519   2.6327970  )
        24           O0  tau(  24) = (   0.7500000   0.8378738   2.6254579  )
        25           O0  tau(  25) = (   0.7500000   0.3422301   2.6255034  )
        26           O0  tau(  26) = (   0.5000000   0.0000000   2.8354216  )
        27           H2  tau(  27) = (  -0.0004800   0.5922115   1.6084605  )
        28           H2  tau(  28) = (   0.4995300   0.5922233   1.6161643  )
        29           H2  tau(  29) = (   0.1505800   0.0006019   1.6239593  )
        30           H2  tau(  30) = (   0.6505400   0.0006019   1.6254180  )
        31           O0  tau(  31) = (   0.5024200   0.5900519   2.9584550  )
        32           H2  tau(  32) = (   0.3976800   0.5901109   3.0854543  )

     number of k points=    10  Methfessel-Paxton smearing, width (Ry)=  0.0100
                       cart. coord. in units 2pi/alat
        k(    1) = (   0.0000000   0.0000000   0.0000000), wk =   0.1250000
        k(    2) = (   0.0000000   0.2118458   0.0000000), wk =   0.2500000
        k(    3) = (   0.0000000  -0.4236915   0.0000000), wk =   0.1250000
        k(    4) = (   0.2500000   0.0000000   0.0000000), wk =   0.2500000
        k(    5) = (   0.2500000   0.2118458   0.0000000), wk =   0.2500000
        k(    6) = (   0.2500000  -0.4236915   0.0000000), wk =   0.2500000
        k(    7) = (  -0.5000000   0.0000000   0.0000000), wk =   0.1250000
        k(    8) = (  -0.5000000   0.2118458   0.0000000), wk =   0.2500000
        k(    9) = (  -0.5000000  -0.4236915   0.0000000), wk =   0.1250000
        k(   10) = (  -0.2500000   0.2118458   0.0000000), wk =   0.2500000

     Largest allocated arrays     est. size (Mb)     dimensions
     Largest temporary arrays     est. size (Mb)     dimensions

     Check: negative/imaginary core charge=   -0.000003    0.000000

     Initial potential from superposition of free atoms
     Check: negative starting charge=   -0.003641

     starting charge  222.97806, renormalised to  223.00000

     negative rho (up, down):  0.364E-02 0.000E+00
     Number of +U iterations with fixed ns =  0
     Starting occupations:
 --- enter write_ns ---
 LDA+U parameters:
U( 2)     =  3.00000000
alpha( 2) =  0.00000000
atom    3   Tr[ns(na)] =   3.00000
    eigenvalues:
  0.300  0.300  0.300  0.300  0.300
    eigenvectors:
  1.000  0.000  0.000  0.000  0.000
  0.000  1.000  0.000  0.000  0.000
  0.000  0.000  1.000  0.000  0.000
  0.000  0.000  0.000  1.000  0.000
  0.000  0.000  0.000  0.000  1.000
    occupations:
  0.300  0.000  0.000  0.000  0.000
  0.000  0.300  0.000  0.000  0.000
  0.000  0.000  0.300  0.000  0.000
  0.000  0.000  0.000  0.300  0.000
  0.000  0.000  0.000  0.000  0.300
atom    4   Tr[ns(na)] =   3.00000
    eigenvalues:
  0.300  0.300  0.300  0.300  0.300
    eigenvectors:
  1.000  0.000  0.000  0.000  0.000
  0.000  1.000  0.000  0.000  0.000
  0.000  0.000  1.000  0.000  0.000
  0.000  0.000  0.000  1.000  0.000
  0.000  0.000  0.000  0.000  1.000
    occupations:
  0.300  0.000  0.000  0.000  0.000
  0.000  0.300  0.000  0.000  0.000
  0.000  0.000  0.300  0.000  0.000
  0.000  0.000  0.000  0.300  0.000
  0.000  0.000  0.000  0.000  0.300
atom    9   Tr[ns(na)] =   3.00000
    eigenvalues:
  0.300  0.300  0.300  0.300  0.300
    eigenvectors:
  1.000  0.000  0.000  0.000  0.000
  0.000  1.000  0.000  0.000  0.000
  0.000  0.000  1.000  0.000  0.000
  0.000  0.000  0.000  1.000  0.000
  0.000  0.000  0.000  0.000  1.000
    occupations:
  0.300  0.000  0.000  0.000  0.000
  0.000  0.300  0.000  0.000  0.000
  0.000  0.000  0.300  0.000  0.000
  0.000  0.000  0.000  0.300  0.000
  0.000  0.000  0.000  0.000  0.300
atom   10   Tr[ns(na)] =   3.00000
    eigenvalues:
  0.300  0.300  0.300  0.300  0.300
    eigenvectors:
  1.000  0.000  0.000  0.000  0.000
  0.000  1.000  0.000  0.000  0.000
  0.000  0.000  1.000  0.000  0.000
  0.000  0.000  0.000  1.000  0.000
  0.000  0.000  0.000  0.000  1.000
    occupations:
  0.300  0.000  0.000  0.000  0.000
  0.000  0.300  0.000  0.000  0.000
  0.000  0.000  0.300  0.000  0.000
  0.000  0.000  0.000  0.300  0.000
  0.000  0.000  0.000  0.000  0.300
atom   16   Tr[ns(na)] =   3.00000
    eigenvalues:
  0.300  0.300  0.300  0.300  0.300
    eigenvectors:
  1.000  0.000  0.000  0.000  0.000
  0.000  1.000  0.000  0.000  0.000
  0.000  0.000  1.000  0.000  0.000
  0.000  0.000  0.000  1.000  0.000
  0.000  0.000  0.000  0.000  1.000
    occupations:
  0.300  0.000  0.000  0.000  0.000
  0.000  0.300  0.000  0.000  0.000
  0.000  0.000  0.300  0.000  0.000
  0.000  0.000  0.000  0.300  0.000
  0.000  0.000  0.000  0.000  0.300
atom   17   Tr[ns(na)] =   3.00000
    eigenvalues:
  0.300  0.300  0.300  0.300  0.300
    eigenvectors:
  1.000  0.000  0.000  0.000  0.000
  0.000  1.000  0.000  0.000  0.000
  0.000  0.000  1.000  0.000  0.000
  0.000  0.000  0.000  1.000  0.000
  0.000  0.000  0.000  0.000  1.000
    occupations:
  0.300  0.000  0.000  0.000  0.000
  0.000  0.300  0.000  0.000  0.000
  0.000  0.000  0.300  0.000  0.000
  0.000  0.000  0.000  0.300  0.000
  0.000  0.000  0.000  0.000  0.300
atom   22   Tr[ns(na)] =   3.00000
    eigenvalues:
  0.300  0.300  0.300  0.300  0.300
    eigenvectors:
  1.000  0.000  0.000  0.000  0.000
  0.000  1.000  0.000  0.000  0.000
  0.000  0.000  1.000  0.000  0.000
  0.000  0.000  0.000  1.000  0.000
  0.000  0.000  0.000  0.000  1.000
[...]
    eigenvectors:
  0.000  0.004  0.000  0.995  0.001
  0.000  0.995  0.000  0.005  0.001
  1.000  0.000  0.000  0.000  0.000
  0.000  0.001  0.000  0.001  0.998
  0.000  0.000  1.000  0.000  0.000
    occupations:
  0.585  0.010  0.000  0.002 -0.000
  0.010  0.435 -0.000 -0.006 -0.000
  0.000 -0.000  0.405  0.000  0.001
  0.002 -0.006  0.000  0.641  0.000
 -0.000 -0.000  0.001  0.000  0.553
atom    9   Tr[ns(na)] =   5.28794
    eigenvalues:
  0.452  0.464  0.507  0.609  0.613
    eigenvectors:
  0.880  0.000  0.000  0.118  0.002
  0.000  0.000  0.000  0.015  0.985
  0.000  0.052  0.948  0.000  0.000
  0.120  0.000  0.000  0.867  0.013
  0.000  0.948  0.052  0.000  0.000
    occupations:
  0.471 -0.000  0.000  0.051 -0.000
 -0.000  0.613 -0.000 -0.000  0.000
  0.000 -0.000  0.504 -0.000  0.010
  0.051 -0.000 -0.000  0.590 -0.000
 -0.000  0.000  0.010 -0.000  0.466
atom   10   Tr[ns(na)] =   5.11528
    eigenvalues:
  0.364  0.491  0.511  0.547  0.645
    eigenvectors:
  0.000  0.005  0.984  0.000  0.010
  0.000  0.995  0.005  0.000  0.000
  1.000  0.000  0.000  0.000  0.000
  0.000  0.000  0.011  0.000  0.989
  0.000  0.000  0.000  1.000  0.000
    occupations:
  0.512 -0.002 -0.000  0.014  0.000
 -0.002  0.491  0.000 -0.002  0.000
 -0.000  0.000  0.364 -0.000  0.000
  0.014 -0.002 -0.000  0.644  0.000
  0.000  0.000  0.000  0.000  0.547
atom   16   Tr[ns(na)] =   5.19356
    eigenvalues:
  0.364  0.404  0.513  0.575  0.741
    eigenvectors:
  0.000  0.000  0.001  0.408  0.590
  0.000  0.000  0.998  0.002  0.000
  0.001  0.999  0.000  0.000  0.000
  0.000  0.000  0.001  0.590  0.409
  0.999  0.001  0.000  0.000  0.000
    occupations:
  0.673  0.004  0.001 -0.082 -0.000
  0.004  0.514 -0.000  0.000  0.000
  0.001 -0.000  0.404 -0.000  0.001
 -0.082  0.000 -0.000  0.643  0.000
 -0.000  0.000  0.001  0.000  0.364
atom   17   Tr[ns(na)] =   5.23561
    eigenvalues:
  0.406  0.434  0.551  0.586  0.640
    eigenvectors:
  0.000  0.004  0.000  0.995  0.000
  0.000  0.995  0.000  0.004  0.001
  1.000  0.000  0.000  0.000  0.000
  0.000  0.001  0.000  0.000  0.999
  0.000  0.000  1.000  0.000  0.000
    occupations:
  0.585  0.010  0.000  0.001 -0.000
  0.010  0.435 -0.000 -0.006 -0.000
  0.000 -0.000  0.406  0.000  0.001
  0.001 -0.006  0.000  0.640  0.000
 -0.000 -0.000  0.001  0.000  0.551
atom   22   Tr[ns(na)] =   5.28556
    eigenvalues:
  0.452  0.464  0.505  0.609  0.613
    eigenvectors:
  0.881  0.000  0.000  0.118  0.001
  0.000  0.000  0.000  0.010  0.990
  0.000  0.075  0.925  0.000  0.000
  0.119  0.000  0.000  0.872  0.009
  0.000  0.925  0.075  0.000  0.000
    occupations:
  0.471  0.000  0.000  0.051 -0.000
  0.000  0.613  0.000  0.000  0.000
  0.000  0.000  0.502 -0.000 -0.011
  0.051  0.000 -0.000  0.590  0.000
 -0.000  0.000 -0.011  0.000  0.467
atom   23   Tr[ns(na)] =   5.28613
    eigenvalues:
  0.420  0.468  0.551  0.593  0.611
    eigenvectors:
  0.000  0.009  0.000  0.945  0.045
  0.000  0.990  0.000  0.010  0.000
  1.000  0.000  0.000  0.000  0.000
  0.000  0.001  0.000  0.045  0.954
  0.000  0.000  1.000  0.000  0.000
    occupations:
  0.593  0.012 -0.000  0.004  0.000
  0.012  0.470  0.000 -0.004  0.000
 -0.000  0.000  0.420 -0.000  0.000
  0.004 -0.004 -0.000  0.610 -0.000
  0.000  0.000  0.000 -0.000  0.551
N of occupied +U levels =  41.8353613
 --- exit write_ns ---

     Threshold (ethr) on eigenvalues was too large:
     Diagonalizing with lowered threshold

     Davidson diagonalization with overlap
     ethr =  2.63E-09,  avg # of iterations =  3.0

[...]

     total energy              =   -1561.57886570 Ry
     Harris-Foulkes estimate   =   -1561.57886570 Ry
     estimated scf accuracy    <       0.00000002 Ry

     iteration #  9     ecut=    40.00 Ry     beta=0.70
     Davidson diagonalization with overlap
     ethr =  1.08E-11,  avg # of iterations =  1.0

     negative rho (up, down):  0.347E-02 0.000E+00

     End of self-consistent calculation
 --- enter write_ns ---
 LDA+U parameters:
U( 2)     =  3.00000000
alpha( 2) =  0.00000000
atom    3   Tr[ns(na)] =   5.19385
    eigenvalues:
  0.362  0.404  0.514  0.575  0.742
    eigenvectors:
  0.000  0.000  0.002  0.403  0.595
  0.000  0.000  0.997  0.002  0.000
  0.031  0.969  0.000  0.000  0.000
  0.000  0.000  0.001  0.595  0.405
  0.969  0.031  0.000  0.000  0.000
    occupations:
  0.674 -0.005  0.001 -0.082  0.000
 -0.005  0.514  0.000  0.000  0.000
  0.001  0.000  0.403 -0.000 -0.007
 -0.082  0.000 -0.000  0.642 -0.000
  0.000  0.000 -0.007 -0.000  0.363
atom    4   Tr[ns(na)] =   5.23696
    eigenvalues:
  0.405  0.434  0.553  0.586  0.641
    eigenvectors:
  0.000  0.004  0.000  0.995  0.001
  0.000  0.995  0.000  0.005  0.001
  1.000  0.000  0.000  0.000  0.000
  0.000  0.001  0.000  0.001  0.998
  0.000  0.000  1.000  0.000  0.000
    occupations:
  0.585  0.010  0.000  0.002 -0.000
  0.010  0.435 -0.000 -0.006 -0.000
  0.000 -0.000  0.405  0.000  0.001
  0.002 -0.006  0.000  0.640  0.000
 -0.000 -0.000  0.001  0.000  0.553
atom    9   Tr[ns(na)] =   5.28769
    eigenvalues:
  0.452  0.464  0.506  0.609  0.613
    eigenvectors:
  0.880  0.000  0.000  0.118  0.002
  0.000  0.000  0.000  0.015  0.985
  0.000  0.052  0.948  0.000  0.000
  0.120  0.000  0.000  0.867  0.013
  0.000  0.948  0.052  0.000  0.000
    occupations:
  0.471 -0.000  0.000  0.051 -0.000
 -0.000  0.613 -0.000 -0.000  0.000
  0.000 -0.000  0.504 -0.000  0.009
  0.051 -0.000 -0.000  0.590 -0.000
 -0.000  0.000  0.009 -0.000  0.466
atom   10   Tr[ns(na)] =   5.11554
    eigenvalues:
  0.364  0.491  0.511  0.547  0.645
    eigenvectors:
  0.000  0.005  0.984  0.000  0.010
  0.000  0.995  0.005  0.000  0.000
  1.000  0.000  0.000  0.000  0.000
  0.000  0.000  0.011  0.000  0.989
  0.000  0.000  0.000  1.000  0.000
    occupations:
  0.512 -0.002 -0.000  0.014  0.000
 -0.002  0.491  0.000 -0.002  0.000
 -0.000  0.000  0.364 -0.000  0.000
  0.014 -0.002 -0.000  0.644  0.000
  0.000  0.000  0.000  0.000  0.547
atom   16   Tr[ns(na)] =   5.19369
    eigenvalues:
  0.364  0.404  0.513  0.575  0.741
    eigenvectors:
  0.000  0.000  0.001  0.408  0.590
  0.000  0.000  0.998  0.002  0.000
  0.001  0.999  0.000  0.000  0.000
  0.000  0.000  0.001  0.590  0.409
  0.999  0.001  0.000  0.000  0.000
    occupations:
  0.673  0.004  0.001 -0.082 -0.000
  0.004  0.514 -0.000  0.000  0.000
  0.001 -0.000  0.404 -0.000  0.001
 -0.082  0.000 -0.000  0.643  0.000
 -0.000  0.000  0.001  0.000  0.364
atom   17   Tr[ns(na)] =   5.23614
    eigenvalues:
  0.406  0.434  0.551  0.586  0.640
    eigenvectors:
  0.000  0.004  0.000  0.995  0.000
  0.000  0.995  0.000  0.004  0.001
  1.000  0.000  0.000  0.000  0.000
  0.000  0.001  0.000  0.000  0.999
  0.000  0.000  1.000  0.000  0.000
    occupations:
  0.585  0.010  0.000  0.001 -0.000
  0.010  0.435 -0.000 -0.006 -0.000
  0.000 -0.000  0.406  0.000  0.001
  0.001 -0.006  0.000  0.640  0.000
 -0.000 -0.000  0.001  0.000  0.551
atom   22   Tr[ns(na)] =   5.28527
    eigenvalues:
  0.452  0.464  0.505  0.609  0.613
    eigenvectors:
  0.881  0.000  0.000  0.118  0.001
  0.000  0.000  0.000  0.010  0.990
  0.000  0.075  0.925  0.000  0.000
  0.119  0.000  0.000  0.872  0.009
  0.000  0.925  0.075  0.000  0.000
    occupations:
  0.471  0.000  0.000  0.051 -0.000
  0.000  0.613  0.000  0.000  0.000
  0.000  0.000  0.502 -0.000 -0.011
  0.051  0.000 -0.000  0.590  0.000
 -0.000  0.000 -0.011  0.000  0.467
atom   23   Tr[ns(na)] =   5.28607
    eigenvalues:
  0.420  0.468  0.551  0.593  0.611
    eigenvectors:
  0.000  0.009  0.000  0.945  0.046
  0.000  0.990  0.000  0.010  0.000
  1.000  0.000  0.000  0.000  0.000
  0.000  0.001  0.000  0.045  0.954
  0.000  0.000  1.000  0.000  0.000
    occupations:
  0.593  0.012 -0.000  0.004  0.000
  0.012  0.470  0.000 -0.004  0.000
 -0.000  0.000  0.420 -0.000  0.000
  0.004 -0.004 -0.000  0.610 -0.000
  0.000  0.000  0.000 -0.000  0.551
N of occupied +U levels =  41.8352103
 --- exit write_ns ---

[...]

          k = 0.2500-0.4237 0.0000 ( 32188 PWs)   bands (ev):

[...]

          k =-0.2500 0.2118 0.0000 ( 32165 PWs)   bands (ev):

   -56.1511 -56.0854 -55.8397 -55.7805 -55.7450 -55.6724 -55.6611 -55.6047
   -32.9686 -32.3591 -32.3195 -32.2739 -32.2453 -32.2272 -32.2069 -32.1510
   -32.1446 -32.1424 -32.0945 -32.0745 -32.0484 -32.0166 -31.9733 -31.8363
   -31.7539 -31.7049 -31.6544 -31.6166 -31.5924 -31.5154 -31.4771 -31.3895
   -20.2260 -20.0565 -19.3140 -19.0584 -19.0270 -18.8937 -18.8200 -18.7865
   -18.7437 -18.6980 -18.6873 -18.6754 -18.0870 -18.0040 -17.9889 -17.9168
   -17.8550 -17.7244 -17.6950  -8.7322  -8.3917  -7.5201  -7.4047  -7.0198
    -6.8500  -6.7197  -6.5442  -6.4414  -6.2535  -6.1850  -6.1127  -6.1000
    -5.9078  -5.8226  -5.8080  -5.7341  -5.5442  -5.5229  -5.5003  -5.3125
    -5.0687  -4.9815  -4.9080  -4.7466  -4.5747  -4.4742  -4.3335  -4.2765
    -4.2271  -4.1552  -4.1057  -4.0030  -3.9553  -3.8844  -3.8596  -3.8407
    -3.8083  -3.6168  -3.5859  -3.4810  -3.4408  -3.3600  -3.2217  -3.1468
    -3.1075  -3.0410  -2.9435  -2.9293  -2.7398  -2.7014  -2.6708  -2.5277
    -2.4596  -2.3982  -2.2751  -1.9877  -0.3849   0.3411   0.4503   1.0310
     1.1405   1.4978   1.7362   1.8006   1.8739   2.1381   2.1764   2.2546
     2.3370   2.4188   2.4457   2.5386   2.7075   2.7582   2.8266   2.8390
     2.9046   2.9791   3.0817   3.1173   3.3012   3.7494   4.2304   4.3229
     4.5980   4.7187   4.9247   5.0749   5.0953   5.1713   5.3473   5.3881
     5.4647   5.5975   5.6988   5.7957   5.8310   5.9127   6.0307   6.1161
     6.4079   6.4372   6.4781   6.6374   6.6717   6.7473   6.8424   6.9746
     7.1198   7.2320   7.3006   7.3440   7.4798   7.6768   7.8757   7.9550
     8.0249   8.0704   8.2032   8.2867   8.4299   8.5127   8.6419   8.7233
     8.8366   8.9182   8.9963   9.1558   9.1947   9.3068   9.3510   9.5124
     9.5887   9.6734   9.8085   9.8290   9.9992  10.0605  10.0906  10.2364
    10.3337  10.4021  10.5136  10.7177  10.7972  10.9021  10.9539  11.0428
    11.0830  11.1309  11.2360  11.2941  11.3650  11.5084  11.5349  11.5789
    11.6035  11.7268  11.8579  11.8780  12.0120  12.0830  12.1840  12.2731
    12.4077  12.4611  12.5163  12.5665  12.6503  12.6957  12.7775  12.8337
    12.8901  12.9405  12.9874  13.0305  13.1163  13.2023  13.2816  13.3885
    13.4709  13.5137  13.5801  13.6107  13.6939  13.7875  13.8462  13.9279
    13.9713  14.0412  14.0482  14.1410  14.2444  14.3036  14.3462  14.4368
    14.5730  14.7100  14.7531  14.7865  14.8637  14.9146  15.0231  15.0876
    15.2042  15.2480  15.2944  15.3819  15.3983  15.4358  15.5207  15.6132
    15.6532  15.7675  15.8132  15.8714  15.9018  15.9500  16.0521  16.1196
    16.1945  16.2481  16.2904  16.3727  16.4714  16.5991  16.6338  16.6766
    16.7569  16.7990  16.8622  16.9573  17.0233  17.0611  17.1384  17.1837
    17.2534  17.2926  17.3211  17.4158  17.4659  17.5437  17.6260  17.7109
    17.7934  17.8486  17.9426  17.9955  18.0507  18.1304  18.1562  18.2311
    18.3323  18.4131  18.4979  18.5444  18.5969  18.6470  18.7527  18.8176
    18.8700  18.9783  19.0010  19.0924  19.1218  19.1990  19.2432  19.2875
    19.3379  19.3925  19.4617  19.5626  19.5983  19.6640  19.6927  19.7660
    19.8006  19.8674  19.9077  19.9842  20.0203  20.0630

     the Fermi energy is     1.0557 ev

!    total energy              =   -1561.57886570 Ry
     Harris-Foulkes estimate   =   -1561.57886570 Ry
     estimated scf accuracy    <          3.5E-09 Ry

     The total energy is the sum of the following terms:

     one-electron contribution =  -19048.34735864 Ry
     hartree contribution      =    9554.00571606 Ry
     xc contribution           =    -287.65014070 Ry
     ewald contribution        =    8218.29606279 Ry
     Hubbard energy            =       2.11685040 Ry
     smearing contrib. (-TS)   =       0.00000439 Ry

     convergence has been achieved in   9 iterations

     Forces acting on atoms (Ry/au):

     negative rho (up, down):  0.347E-02 0.000E+00
     atom    1 type  1   force =     0.00182655   -0.00001965    0.00041463
     atom    2 type  1   force =    -0.00122169    0.00024906    0.00049418
     atom    3 type  2   force =     0.02673601   -0.00021420   -0.00016285
     atom    4 type  2   force =    -0.00495146    0.00005392    0.00050817
     atom    5 type  1   force =    -0.00297867   -0.01254978   -0.00006278
     atom    6 type  1   force =    -0.00307567    0.01250150   -0.00006298
     atom    7 type  1   force =    -0.00119501    0.00003941    0.00018013
     atom    8 type  1   force =     0.00140184    0.00001116   -0.00040455
     atom    9 type  2   force =     0.00158995    0.00000333   -0.00028313
     atom   10 type  2   force =     0.00036986   -0.00000271    0.00027670
     atom   11 type  1   force =    -0.01784549   -0.01083689   -0.00019495
     atom   12 type  1   force =    -0.01784655    0.01083977   -0.00019798
     atom   13 type  1   force =     0.00140784    0.00000049   -0.00045955
     atom   14 type  1   force =     0.00115213   -0.00003140    0.00051998
     atom   15 type  1   force =    -0.00045495    0.00025870    0.00030706
     atom   16 type  2   force =    -0.02168909   -0.00020453   -0.00026943
     atom   17 type  2   force =    -0.00415780    0.00006022    0.00043885
     atom   18 type  1   force =     0.00413168   -0.01281324   -0.00004527
     atom   19 type  1   force =     0.00406862    0.01276326   -0.00004064
     atom   20 type  1   force =    -0.00649750    0.00007597   -0.00028486
     atom   21 type  1   force =     0.00200012    0.00000608    0.00002935
     atom   22 type  2   force =    -0.00264928    0.00000045   -0.00008108
     atom   23 type  2   force =     0.00552966   -0.00001076   -0.00043200
     atom   24 type  1   force =     0.01685540   -0.01268114   -0.00023192
     atom   25 type  1   force =     0.01684867    0.01268304   -0.00022932
     atom   26 type  1   force =    -0.00003954   -0.00000064   -0.00038235
     atom   27 type  3   force =     0.00000842   -0.00008258    0.00042856
     atom   28 type  3   force =    -0.00000366   -0.00006832    0.00015374
     atom   29 type  3   force =    -0.00022882   -0.00001880    0.00006119
     atom   30 type  3   force =    -0.00023073   -0.00001592    0.00014063
     atom   31 type  1   force =     0.00025014    0.00000106   -0.00013750
     atom   32 type  3   force =     0.00088904    0.00000314    0.00000997

     Total force =     0.001932     Total SCF correction =     0.000138

     bfgs converged in  16 scf cycles and  15 bfgs steps
     (criteria: energy < 0.10E-03, force < 0.10E-02)

     End of BFGS Geometry Optimization

     Final energy   =   -1561.5788656989 Ry
Begin final coordinates

ATOMIC_POSITIONS (crystal)
O0       0.000000000   0.000000000   0.372606727    0   0   1
O0       0.000000000   0.500000000   0.388502141    0   0   1
Nb1      0.250000000   0.500000000   0.443920537    0   0   1
Nb1      0.000000000   0.000000000   0.445247629    0   0   1
O0       0.250000000   0.790000000   0.447005312    0   0   1
O0       0.250000000   0.210000000   0.447002507    0   0   1
O0       0.000000000   0.500000000   0.500138520    0   0   1
O0       0.000000000   0.000000000   0.523631140    0   0   1
Nb1      0.250000000   0.000000000   0.577639715    0   0   1
Nb1      0.000000000   0.500000000   0.569288017    0   0   1
O0       0.250000000   0.710000000   0.576211147    0   0   1
O0       0.250000000   0.290000000   0.576209909    0   0   1
O0       0.000000000   0.000000000   0.622154025    0   0   1
O0       0.500000000   0.000000000   0.372806123    0   0   1
O0       0.500000000   0.500000000   0.389085417    0   0   1
Nb1      0.750000000   0.500000000   0.443896499    0   0   1
Nb1      0.500000000   0.000000000   0.445582098    0   0   1
O0       0.750000000   0.790000000   0.447010470    0   0   1
O0       0.750000000   0.210000000   0.447006315    0   0   1
O0       0.500000000   0.500000000   0.500978042    0   0   1
O0       0.500000000   0.000000000   0.523582586    0   0   1
Nb1      0.750000000   0.000000000   0.577712509    0   0   1
Nb1      0.500000000   0.500000000   0.577050233    0   0   1
O0       0.750000000   0.710000000   0.576341530    0   0   1
O0       0.750000000   0.290000000   0.576341099    0   0   1
O0       0.500000000   0.000000000   0.622052180    0   0   1
H2      -0.000602755   0.501382621   0.352229674
H2       0.499572539   0.501514385   0.352804809
H2       0.150687586   0.000478585   0.356829055
H2       0.650231337   0.000485956   0.356856530
O0       0.499786950   0.499998348   0.648699151
H2       0.404379852   0.500064952   0.678088352
End final coordinates

     General routines

     Parallel routines
     Hubbard U routines

   This run was terminated on:   8:56:41   1May2014

   JOB DONE.