     Program PWSCF v.5.0.2 (svn rev. 9656) starts on 30Apr2014 at  6:23: 8

     Current dimensions of program PWSCF are:
     Max number of different atomic species (ntypx) = 10
     Max number of k-points (npk) =  40000
     Max angular momentum in pseudopotentials (lmaxx) =  3
     Reading input from pwscf.in
Warning: card &CELL ignored
Warning: card / ignored

     Subspace diagonalization in iterative solution of the eigenvalue problem:
     a serial algorithm will be used

     bravais-lattice index     =            0
     lattice parameter (alat)  =      11.7541  a.u.
     unit-cell volume          =    7139.8207 (a.u.)^3
     number of atoms/cell      =           32
     number of atomic types    =            3
     number of electrons       =       239.00
     number of Kohn-Sham states=          358
     kinetic-energy cutoff     =      40.0000  Ry
     charge density cutoff     =     500.0000  Ry
     convergence threshold     =      1.0E-06
     mixing beta               =       0.7000
     number of iterations used =            8  plain     mixing
     Exchange-correlation      = SLA  PW   PBE  PBE ( 1 4 3 4 0)
     EXX-fraction              =        0.00
     nstep                     =           50

     celldm(1)=  11.754097  celldm(2)=   0.000000  celldm(3)=   0.000000
     celldm(4)=   0.000000  celldm(5)=   0.000000  celldm(6)=   0.000000

     crystal axes: (cart. coord. in units of alat)
               a(1) = (   1.000000   0.000000   0.000000 )
               a(2) = (   0.000000   1.034513   0.000000 )
               a(3) = (   0.000000   0.000000   4.249947 )

     reciprocal axes: (cart. coord. in units 2 pi/alat)
               b(1) = (  1.000000  0.000000  0.000000 )
               b(2) = (  0.000000  0.966638  0.000000 )
               b(3) = (  0.000000  0.000000  0.235297 )

     PseudoPot. # 1 for O  read from file:
     /home/camp/zhonxu/pseudo/o_pbe_v1.01.uspp.F.UPF
     MD5 check sum: 2bcb18d16ea4b960afae9ec6d52f22d2
     Pseudo is Ultrasoft + core correction, Zval =  6.0
     Generated by new atomic code, or converted to UPF format
     Using radial grid of  737 points,  5 beta functions with:
                l(1) =   0
                l(2) =   0
                l(3) =   1
                l(4) =   1
                l(5) =   2
     Q(r) pseudized with  8 coefficients,  rinner =    0.900   0.900   0.900
                                                       0.900   0.900

     PseudoPot. # 2 for Rh read from file:
     /home/camp/zhonxu/pseudo/rh_pbe_v1.uspp.F.UPF
     MD5 check sum: 37b626987ad0dd8ec6bf4cc9ef289918
     Pseudo is Ultrasoft + core correction, Zval = 15.0
     Generated by new atomic code, or converted to UPF format
     Using radial grid of  969 points,  7 beta functions with:
                l(1) =   0
                l(2) =   0
                l(3) =   1
                l(4) =   1
                l(5) =   2
                l(6) =   2
                l(7) =   2
     Q(r) pseudized with  6 coefficients,  rinner =    1.050   1.050   1.050
                                                       1.050   1.050

     PseudoPot. # 3 for H  read from file:
     /home/camp/zhonxu/pseudo/h_pbe_v1.uspp.F.UPF
     MD5 check sum: 3408e3ff4ec8b0a4e358431e7e038a48
     Pseudo is Ultrasoft, Zval =  1.0
     Generated by new atomic code, or converted to UPF format
     Using radial grid of  615 points,  2 beta functions with:
                l(1) =   0
                l(2) =   0
     Q(r) pseudized with  8 coefficients,  rinner =    0.700

     atomic species   valence    mass     pseudopotential
        O0             6.00    15.99940     O ( 1.00)
        Rh1           15.00   102.90550     Rh( 1.00)
        H2             1.00     1.00794     H ( 1.00)

     Simplified LDA+U calculation (l_max = 2) with parameters (eV):
     atomic species    L          U    alpha       J0     beta
        Rh1            2     3.0000   0.0000   0.0000   0.0000

     No symmetry found

   Cartesian axes

     site n.     atom                  positions (alat units)
         1           O0  tau(   1) = (   0.0000000   0.0000000   1.6077125  )
         2           O0  tau(   2) = (   0.0000000   0.5172566   1.7060138  )
         3           Rh1 tau(   3) = (   0.2500000   0.5172566   1.9233561  )
         4           Rh1 tau(   4) = (   0.0000000   0.0000000   1.9242061  )
         5           O0  tau(   5) = (   0.2500000   0.8379556   1.9221236  )
         6           O0  tau(   6) = (   0.2500000   0.1965575   1.9218261  )
         7           O0  tau(   7) = (   0.0000000   0.5172566   2.1180887  )
         8           O0  tau(   8) = (   0.0000000   0.0000000   2.2452046  )
         9           Rh1 tau(   9) = (   0.2500000   0.0000000   2.4467796  )
        10           Rh1 tau(  10) = (   0.0000000   0.5172566   2.4248074  )
        11           O0  tau(  11) = (   0.2500000   0.7138141   2.4490746  )
        12           O0  tau(  12) = (   0.2500000   0.3206991   2.4494996  )
        13           O0  tau(  13) = (   0.0000000   0.0000000   2.6392597  )
        14           O0  tau(  14) = (   0.5000000   0.0000000   1.6071175  )
        15           O0  tau(  15) = (   0.5000000   0.5172566   1.7046963  )
        16           Rh1 tau(  16) = (   0.7500000   0.5172566   1.9233561  )
        17           Rh1 tau(  17) = (   0.5000000   0.0000000   1.9236961  )
        18           O0  tau(  18) = (   0.7500000   0.8379556   1.9222086  )
        19           O0  tau(  19) = (   0.7500000   0.1965575   1.9219111  )
        20           O0  tau(  20) = (   0.5000000   0.5172566   2.1234861  )
        21           O0  tau(  21) = (   0.5000000   0.0000000   2.2446521  )
        22           Rh1 tau(  22) = (   0.7500000   0.0000000   2.4466946  )
        23           Rh1 tau(  23) = (   0.5000000   0.5172566   2.4467371  )
        24           O0  tau(  24) = (   0.7500000   0.7138141   2.4449521  )
        25           O0  tau(  25) = (   0.7500000   0.3206991   2.4452921  )
        26           O0  tau(  26) = (   0.5000000   0.0000000   2.6379847  )
        27           H2  tau(  27) = (  -0.0000100   0.6596573   1.6332972  )
        28           H2  tau(  28) = (   0.4999400   0.6612505   1.6349547  )
        29           H2  tau(  29) = (   0.1484100   0.0351631   1.5627056  )
        30           H2  tau(  30) = (   0.6482100   0.0356700   1.5619406  )
        31           O0  tau(  31) = (   0.5154200   0.5168841   2.7565583  )
        32           H2  tau(  32) = (   0.3686900   0.5167083   2.8162275  )

     number of k points=    10  Methfessel-Paxton smearing, width (Ry)=  0.0100
                       cart. coord. in units 2pi/alat
        k(    1) = (   0.0000000   0.0000000   0.0000000), wk =   0.1250000
        k(    2) = (   0.0000000   0.2416596   0.0000000), wk =   0.2500000
        k(    3) = (   0.0000000  -0.4833191   0.0000000), wk =   0.1250000
        k(    4) = (   0.2500000   0.0000000   0.0000000), wk =   0.2500000
        k(    5) = (   0.2500000   0.2416596   0.0000000), wk =   0.2500000
        k(    6) = (   0.2500000  -0.4833191   0.0000000), wk =   0.2500000
        k(    7) = (  -0.5000000   0.0000000   0.0000000), wk =   0.1250000
        k(    8) = (  -0.5000000   0.2416596   0.0000000), wk =   0.2500000
        k(    9) = (  -0.5000000  -0.4833191   0.0000000), wk =   0.1250000
        k(   10) = (  -0.2500000   0.2416596   0.0000000), wk =   0.2500000

     Largest allocated arrays     est. size (Mb)     dimensions
     Largest temporary arrays     est. size (Mb)     dimensions

     Check: negative/imaginary core charge=   -0.000003    0.000000

     Initial potential from superposition of free atoms
     Check: negative starting charge=   -0.644969

     starting charge  234.99914, renormalised to  239.00000

     negative rho (up, down):  0.656E+00 0.000E+00
     Number of +U iterations with fixed ns =  0
     Starting occupations:
 --- enter write_ns ---
 LDA+U parameters:
U( 2)     =  3.00000000
alpha( 2) =  0.00000000
atom    3   Tr[ns(na)] =   7.00000
    eigenvalues:
  0.700  0.700  0.700  0.700  0.700
    eigenvectors:
  1.000  0.000  0.000  0.000  0.000
  0.000  1.000  0.000  0.000  0.000
  0.000  0.000  1.000  0.000  0.000
  0.000  0.000  0.000  1.000  0.000
  0.000  0.000  0.000  0.000  1.000
    occupations:
  0.700  0.000  0.000  0.000  0.000
  0.000  0.700  0.000  0.000  0.000
  0.000  0.000  0.700  0.000  0.000
  0.000  0.000  0.000  0.700  0.000
  0.000  0.000  0.000  0.000  0.700
atom    4   Tr[ns(na)] =   7.00000
    eigenvalues:
  0.700  0.700  0.700  0.700  0.700
    eigenvectors:
  1.000  0.000  0.000  0.000  0.000
  0.000  1.000  0.000  0.000  0.000
  0.000  0.000  1.000  0.000  0.000
  0.000  0.000  0.000  1.000  0.000
  0.000  0.000  0.000  0.000  1.000
    occupations:
  0.700  0.000  0.000  0.000  0.000
  0.000  0.700  0.000  0.000  0.000
  0.000  0.000  0.700  0.000  0.000
  0.000  0.000  0.000  0.700  0.000
  0.000  0.000  0.000  0.000  0.700
atom    9   Tr[ns(na)] =   7.00000
    eigenvalues:
  0.700  0.700  0.700  0.700  0.700
    eigenvectors:
  1.000  0.000  0.000  0.000  0.000
  0.000  1.000  0.000  0.000  0.000
  0.000  0.000  1.000  0.000  0.000
  0.000  0.000  0.000  1.000  0.000
  0.000  0.000  0.000  0.000  1.000
    occupations:
  0.700  0.000  0.000  0.000  0.000
  0.000  0.700  0.000  0.000  0.000
  0.000  0.000  0.700  0.000  0.000
  0.000  0.000  0.000  0.700  0.000
  0.000  0.000  0.000  0.000  0.700
atom   10   Tr[ns(na)] =   7.00000
    eigenvalues:
  0.700  0.700  0.700  0.700  0.700
    eigenvectors:
  1.000  0.000  0.000  0.000  0.000
  0.000  1.000  0.000  0.000  0.000
  0.000  0.000  1.000  0.000  0.000
  0.000  0.000  0.000  1.000  0.000
  0.000  0.000  0.000  0.000  1.000
    occupations:
  0.700  0.000  0.000  0.000  0.000
  0.000  0.700  0.000  0.000  0.000
  0.000  0.000  0.700  0.000  0.000
  0.000  0.000  0.000  0.700  0.000
  0.000  0.000  0.000  0.000  0.700
atom   16   Tr[ns(na)] =   7.00000
    eigenvalues:
  0.700  0.700  0.700  0.700  0.700
    eigenvectors:
  1.000  0.000  0.000  0.000  0.000
  0.000  1.000  0.000  0.000  0.000
  0.000  0.000  1.000  0.000  0.000
  0.000  0.000  0.000  1.000  0.000
  0.000  0.000  0.000  0.000  1.000
    occupations:
  0.700  0.000  0.000  0.000  0.000
  0.000  0.700  0.000  0.000  0.000
  0.000  0.000  0.700  0.000  0.000
  0.000  0.000  0.000  0.700  0.000
  0.000  0.000  0.000  0.000  0.700
atom   17   Tr[ns(na)] =   7.00000
    eigenvalues:
  0.700  0.700  0.700  0.700  0.700
    eigenvectors:
  1.000  0.000  0.000  0.000  0.000
  0.000  1.000  0.000  0.000  0.000
  0.000  0.000  1.000  0.000  0.000
  0.000  0.000  0.000  1.000  0.000
  0.000  0.000  0.000  0.000  1.000
    occupations:
  0.700  0.000  0.000  0.000  0.000
  0.000  0.700  0.000  0.000  0.000
  0.000  0.000  0.700  0.000  0.000
  0.000  0.000  0.000  0.700  0.000
  0.000  0.000  0.000  0.000  0.700
atom   22   Tr[ns(na)] =   7.00000
    eigenvalues:
  0.700  0.700  0.700  0.700  0.700
    eigenvectors:
  1.000  0.000  0.000  0.000  0.000
  0.000  1.000  0.000  0.000  0.000
  0.000  0.000  1.000  0.000  0.000
  0.000  0.000  0.000  1.000  0.000
[...]
  0.927  0.000 -0.000 -0.119 -0.000
  0.000  0.637  0.000  0.001 -0.000
 -0.000  0.000  0.856 -0.000 -0.003
 -0.119  0.001 -0.000  0.696  0.001
 -0.000 -0.000 -0.003  0.001  0.893
atom   10   Tr[ns(na)] =   8.02210
    eigenvalues:
  0.595  0.604  0.916  0.919  0.977
    eigenvectors:
  0.000  0.992  0.000  0.000  0.008
  0.000  0.000  1.000  0.000  0.000
  0.000  0.000  0.000  1.000  0.000
  0.000  0.008  0.000  0.000  0.992
  1.000  0.000  0.000  0.000  0.000
    occupations:
  0.607 -0.003  0.001  0.033 -0.000
 -0.003  0.916  0.000  0.000 -0.000
  0.001  0.000  0.919  0.000  0.003
  0.033  0.000  0.000  0.974  0.000
 -0.000 -0.000  0.003  0.000  0.595
atom   16   Tr[ns(na)] =   8.03114
    eigenvalues:
  0.585  0.607  0.891  0.958  0.975
    eigenvectors:
  0.008  0.193  0.003  0.001  0.796
  0.971  0.029  0.000  0.000  0.000
  0.000  0.000  0.973  0.025  0.002
  0.021  0.778  0.000  0.000  0.200
  0.000  0.000  0.024  0.974  0.001
    occupations:
  0.900  0.006  0.003 -0.148  0.001
  0.006  0.586  0.001  0.001 -0.006
  0.003  0.001  0.893 -0.004 -0.010
 -0.148  0.001 -0.004  0.680  0.000
  0.001 -0.006 -0.010  0.000  0.956
atom   17   Tr[ns(na)] =   8.02501
    eigenvalues:
  0.600  0.649  0.870  0.916  0.976
    eigenvectors:
  0.001  0.992  0.000  0.000  0.007
  0.000  0.000  0.074  0.926  0.000
  0.000  0.000  0.926  0.074  0.000
  0.000  0.007  0.000  0.000  0.993
  0.999  0.001  0.000  0.000  0.000
    occupations:
  0.651 -0.004 -0.001  0.028  0.001
 -0.004  0.913  0.012  0.001 -0.001
 -0.001  0.012  0.874 -0.000  0.001
  0.028  0.001 -0.000  0.974  0.000
  0.001 -0.001  0.001  0.000  0.600
atom   22   Tr[ns(na)] =   8.01442
    eigenvalues:
  0.638  0.647  0.849  0.896  0.977
    eigenvectors:
  0.000  0.151  0.000  0.000  0.849
  0.999  0.001  0.000  0.000  0.000
  0.000  0.000  0.996  0.004  0.000
  0.001  0.849  0.000  0.000  0.151
  0.000  0.000  0.004  0.996  0.000
    occupations:
  0.928  0.001 -0.000 -0.118 -0.000
  0.001  0.638  0.001 -0.001 -0.000
 -0.000  0.001  0.849 -0.000  0.003
 -0.118 -0.001 -0.000  0.697  0.001
 -0.000 -0.000  0.003  0.001  0.896
atom   23   Tr[ns(na)] =   8.01585
    eigenvalues:
  0.606  0.652  0.849  0.925  0.976
    eigenvectors:
  0.000  0.991  0.000  0.000  0.008
  0.000  0.000  0.000  1.000  0.000
  0.000  0.000  1.000  0.000  0.000
  0.000  0.008  0.000  0.000  0.992
  1.000  0.000  0.000  0.000  0.000
    occupations:
  0.655  0.006 -0.000  0.029 -0.000
  0.006  0.925 -0.000 -0.000 -0.000
 -0.000 -0.000  0.849  0.000 -0.002
  0.029 -0.000  0.000  0.973  0.000
 -0.000 -0.000 -0.002  0.000  0.606
N of occupied +U levels =  64.1843300
 --- exit write_ns ---

     Threshold (ethr) on eigenvalues was too large:
     Diagonalizing with lowered threshold

     Davidson diagonalization with overlap
     ethr =  6.91E-09,  avg # of iterations =  3.4

[...]

     total energy              =   -1980.41446756 Ry
     Harris-Foulkes estimate   =   -1980.41446758 Ry
     estimated scf accuracy    <       0.00000015 Ry

     iteration # 15     ecut=    40.00 Ry     beta=0.70
     Davidson diagonalization with overlap
     ethr =  1.90E-11,  avg # of iterations =  1.0

     negative rho (up, down):  0.693E+00 0.000E+00

     End of self-consistent calculation
 --- enter write_ns ---
 LDA+U parameters:
U( 2)     =  3.00000000
alpha( 2) =  0.00000000
atom    3   Tr[ns(na)] =   8.03172
    eigenvalues:
  0.585  0.607  0.892  0.958  0.975
    eigenvectors:
  0.007  0.194  0.003  0.001  0.796
  0.974  0.026  0.000  0.000  0.000
  0.000  0.000  0.967  0.031  0.002
  0.019  0.780  0.000  0.000  0.200
  0.000  0.000  0.030  0.968  0.001
    occupations:
  0.900 -0.006  0.003 -0.148 -0.002
 -0.006  0.585 -0.002 -0.001 -0.006
  0.003 -0.002  0.894 -0.004  0.011
 -0.148 -0.001 -0.004  0.680 -0.001
 -0.002 -0.006  0.011 -0.001  0.956
atom    4   Tr[ns(na)] =   8.02469
    eigenvalues:
  0.601  0.649  0.868  0.918  0.976
    eigenvectors:
  0.001  0.992  0.000  0.000  0.007
  0.000  0.000  0.050  0.950  0.000
  0.000  0.000  0.950  0.050  0.000
  0.000  0.007  0.000  0.000  0.993
  0.999  0.001  0.000  0.000  0.000
    occupations:
  0.652 -0.004 -0.001  0.028  0.001
 -0.004  0.915  0.011  0.001 -0.001
 -0.001  0.011  0.870 -0.001  0.001
  0.028  0.001 -0.001  0.974  0.000
  0.001 -0.001  0.001  0.000  0.601
atom    9   Tr[ns(na)] =   8.01895
    eigenvalues:
  0.637  0.646  0.856  0.893  0.977
    eigenvectors:
  0.002  0.150  0.000  0.000  0.848
  0.987  0.013  0.000  0.000  0.000
  0.000  0.000  0.994  0.006  0.000
  0.011  0.837  0.000  0.000  0.152
  0.000  0.000  0.006  0.994  0.000
    occupations:
  0.927  0.000 -0.000 -0.119 -0.000
  0.000  0.637  0.000  0.001 -0.000
 -0.000  0.000  0.856 -0.000 -0.003
 -0.119  0.001 -0.000  0.696  0.001
 -0.000 -0.000 -0.003  0.001  0.893
atom   10   Tr[ns(na)] =   8.02236
    eigenvalues:
  0.595  0.604  0.916  0.919  0.977
    eigenvectors:
  0.000  0.992  0.000  0.000  0.008
  0.000  0.000  1.000  0.000  0.000
  0.000  0.000  0.000  1.000  0.000
  0.000  0.008  0.000  0.000  0.992
  1.000  0.000  0.000  0.000  0.000
    occupations:
  0.607 -0.003  0.001  0.033 -0.000
 -0.003  0.916  0.000  0.000 -0.000
  0.001  0.000  0.919  0.000  0.003
  0.033  0.000  0.000  0.974  0.000
 -0.000 -0.000  0.003  0.000  0.595
atom   16   Tr[ns(na)] =   8.03148
    eigenvalues:
  0.585  0.607  0.891  0.958  0.975
    eigenvectors:
  0.008  0.193  0.003  0.001  0.796
  0.971  0.029  0.000  0.000  0.000
  0.000  0.000  0.973  0.025  0.002
  0.021  0.778  0.000  0.000  0.200
  0.000  0.000  0.025  0.974  0.001
    occupations:
  0.900  0.006  0.003 -0.147  0.002
  0.006  0.586  0.001  0.001 -0.006
  0.003  0.001  0.893 -0.004 -0.010
 -0.147  0.001 -0.004  0.680  0.000
  0.002 -0.006 -0.010  0.000  0.956
atom   17   Tr[ns(na)] =   8.02443
    eigenvalues:
  0.600  0.649  0.870  0.916  0.976
    eigenvectors:
  0.001  0.992  0.000  0.000  0.007
  0.000  0.000  0.074  0.926  0.000
  0.000  0.000  0.926  0.074  0.000
  0.000  0.007  0.000  0.000  0.993
  0.999  0.001  0.000  0.000  0.000
    occupations:
  0.651 -0.004 -0.001  0.028  0.001
 -0.004  0.913  0.012  0.001 -0.001
 -0.001  0.012  0.874 -0.000  0.001
  0.028  0.001 -0.000  0.974  0.000
  0.001 -0.001  0.001  0.000  0.600
atom   22   Tr[ns(na)] =   8.01548
    eigenvalues:
  0.638  0.647  0.849  0.896  0.977
    eigenvectors:
  0.000  0.151  0.000  0.000  0.849
  0.999  0.001  0.000  0.000  0.000
  0.000  0.000  0.996  0.004  0.000
  0.001  0.849  0.000  0.000  0.151
  0.000  0.000  0.004  0.996  0.000
    occupations:
  0.928  0.001 -0.000 -0.118 -0.000
  0.001  0.638  0.001 -0.001 -0.000
 -0.000  0.001  0.849 -0.000  0.003
 -0.118 -0.001 -0.000  0.697  0.001
 -0.000 -0.000  0.003  0.001  0.896
atom   23   Tr[ns(na)] =   8.01533
    eigenvalues:
  0.606  0.652  0.849  0.925  0.976
    eigenvectors:
  0.000  0.991  0.000  0.000  0.008
  0.000  0.000  0.000  1.000  0.000
  0.000  0.000  1.000  0.000  0.000
  0.000  0.008  0.000  0.000  0.992
  1.000  0.000  0.000  0.000  0.000
    occupations:
  0.655  0.006 -0.000  0.029 -0.000
  0.006  0.925 -0.000 -0.000 -0.000
 -0.000 -0.000  0.849  0.000 -0.002
  0.029 -0.000  0.000  0.973  0.000
 -0.000 -0.000 -0.002  0.000  0.606
N of occupied +U levels =  64.1844225
 --- exit write_ns ---

[...]

          k = 0.2500-0.4833 0.0000 ( 30510 PWs)   bands (ev):

[...]

          k =-0.2500 0.2417 0.0000 ( 30481 PWs)   bands (ev):

   -49.0782 -49.0234 -49.0118 -48.9923 -48.9620 -48.9466 -48.9249 -48.9150
   -48.8987 -48.8870 -48.8785 -48.8725 -48.7912 -48.7855 -48.7615 -48.6679
   -48.6620 -48.6315 -48.6050 -48.5949 -48.5704 -48.5672 -48.5666 -48.5382
   -21.3493 -21.0666 -20.9396 -20.8164 -20.5532 -20.4213 -20.3586 -20.3429
   -20.2434 -20.1538 -20.0882 -20.0425 -20.0032 -19.9912 -19.8369 -19.8103
   -19.7521 -19.0232 -18.8934  -9.7620  -9.6716  -9.5689  -9.3151  -9.0092
    -8.9350  -8.9203  -8.8071  -8.6522  -8.6230  -8.5760  -8.4886  -8.4585
    -8.3772  -8.1950  -8.1031  -7.9313  -7.9089  -7.6635  -7.4727  -7.3943
    -7.3033  -7.2405  -7.0782  -6.9380  -6.8575  -6.7806  -6.6164  -6.4024
    -6.3866  -6.3383  -6.2951  -6.1981  -6.1221  -6.0329  -6.0045  -5.9281
    -5.8310  -5.7659  -5.6843  -5.5367  -5.3843  -5.3692  -5.1484  -5.0008
    -4.9482  -4.8207  -4.7230  -4.6017  -4.5257  -4.4810  -4.2698  -4.1393
    -4.0457  -3.9305  -3.8632  -3.7988  -3.6858  -3.5954  -3.5248  -3.4487
    -3.3816  -3.2964  -3.2379  -3.2025  -3.1491  -3.1233  -3.0397  -2.9838
    -2.9311  -2.8129  -2.4969  -2.3092  -2.1771  -2.0199  -1.8862  -1.8548
    -1.8194  -1.6425  -1.5447  -1.4489  -0.8504  -0.2989  -0.2287   0.0712
     0.3840   0.5959   0.8819   1.0561   1.3643   1.4258   1.5867   1.6262
     1.7492   1.8670   1.9345   2.2766   3.6870   3.8992   4.5911   4.9805
     5.3635   5.5046   5.5695   5.8733   6.1394   6.3615   6.4657   6.4844
     6.5357   6.7805   6.8888   7.0897   7.2638   7.4541   7.5545   7.7071
     7.8907   7.9541   8.0729   8.1767   8.2219   8.3415   8.4489   8.5582
     8.7356   8.8424   8.9300   8.9726   9.0977   9.2483   9.4596   9.5657
     9.6292   9.7343   9.8062   9.9152   9.9281  10.0020  10.1935  10.2225
    10.3428  10.3674  10.4248  10.5885  10.7021  10.7388  10.8405  10.9463
    11.0279  11.0808  11.2071  11.2190  11.3349  11.3998  11.4935  11.5534
    11.5867  11.6987  11.7890  11.8130  11.8934  12.0277  12.1507  12.1940
    12.2428  12.2826  12.3512  12.4366  12.4995  12.5390  12.6384  12.6964
    12.7818  12.8307  12.9195  12.9924  13.1191  13.1708  13.2503  13.2822
    13.3737  13.4355  13.5160  13.5524  13.7282  13.7896  13.8487  13.9426
    13.9929  14.0342  14.1562  14.2121  14.2810  14.3203  14.4085  14.4624
    14.5920  14.6495  14.7067  14.8031  14.9803  15.0621  15.2036  15.3236
    15.3616  15.3978  15.4878  15.5376  15.5835  15.5976  15.6990  15.7816
    15.8077  15.8535  15.9198  16.0335  16.0892  16.1372  16.1904  16.3063
    16.3660  16.4119  16.4477  16.4881  16.5250  16.5798  16.6326  16.7317
    16.7714  16.8657  16.9448  17.0203  17.0876  17.1948  17.2274  17.2567
    17.3577  17.4006  17.4772  17.5195  17.5812  17.6507  17.7435  17.8358
    17.8842  17.9570  18.0269  18.0846  18.1045  18.2357  18.2826  18.3213
    18.4438  18.5222  18.5999  18.6731  18.7518  18.8145  18.8547  18.9312
    18.9795  19.0301  19.1259  19.1419  19.2474  19.2801  19.3310  19.4636
    19.5326  19.6041  19.6430  19.7384  19.7840  19.8863  19.9524  20.0487
    20.1545  20.2107  20.2914  20.3757  20.4890  20.5584  20.5935  20.6585
    20.7296  20.7860  20.8461  20.9134  20.9656  21.0675  21.1669  21.1855
    21.2369  21.2889  21.3222  21.3883  21.4350  21.4778  21.5400  21.6667
    21.7219  21.7927  21.8265  21.8615  21.9394  21.9852  22.0681  22.1214
    22.2170  22.2572  22.3665  22.4176  22.4945  22.5643

     the Fermi energy is    -1.8831 ev

!    total energy              =   -1980.41446757 Ry
     Harris-Foulkes estimate   =   -1980.41446757 Ry
     estimated scf accuracy    <          7.0E-09 Ry

     The total energy is the sum of the following terms:

     one-electron contribution =  -23351.86864608 Ry
     hartree contribution      =   11725.12211069 Ry
     xc contribution           =    -372.93321464 Ry
     ewald contribution        =   10018.07809422 Ry
     Hubbard energy            =       1.18873578 Ry
     smearing contrib. (-TS)   =      -0.00154754 Ry

     convergence has been achieved in  15 iterations

     Forces acting on atoms (Ry/au):

     negative rho (up, down):  0.693E+00 0.000E+00
     atom    1 type  1   force =    -0.00689299   -0.01284473   -0.00020708
     atom    2 type  1   force =     0.00039628    0.00439274   -0.00006001
     atom    3 type  2   force =     0.03084892    0.00742482   -0.00053420
     atom    4 type  2   force =     0.00831119    0.00905801   -0.00014409
     atom    5 type  1   force =    -0.00283174   -0.02949848    0.00022344
     atom    6 type  1   force =     0.00239099    0.02596658    0.00030710
     atom    7 type  1   force =     0.00199040   -0.00144192    0.00034928
     atom    8 type  1   force =    -0.00151096   -0.00093802   -0.00014298
     atom    9 type  2   force =     0.00430111   -0.00015069   -0.00019470
     atom   10 type  2   force =    -0.00623696   -0.00151668   -0.00085395
     atom   11 type  1   force =    -0.01013697    0.01214941    0.00030699
     atom   12 type  1   force =    -0.01034534   -0.01198955    0.00029863
     atom   13 type  1   force =    -0.00112887   -0.00000969   -0.00005444
     atom   14 type  1   force =    -0.00661349   -0.01301988    0.00017753
     atom   15 type  1   force =     0.00025895    0.00466533   -0.00017242
     atom   16 type  2   force =    -0.03200759    0.00622006   -0.00055551
     atom   17 type  2   force =     0.00843190    0.00916077   -0.00045424
     atom   18 type  1   force =    -0.00102863   -0.02933484    0.00022979
     atom   19 type  1   force =     0.00367168    0.02672672    0.00030826
     atom   20 type  1   force =    -0.00156228   -0.00486449    0.00066954
     atom   21 type  1   force =    -0.00414604   -0.00058131   -0.00014978
     atom   22 type  2   force =    -0.00093647    0.00053582   -0.00033016
     atom   23 type  2   force =     0.00260710    0.00021284    0.00000687
     atom   24 type  1   force =     0.01069235    0.01716436    0.00013251
     atom   25 type  1   force =     0.01156889   -0.01738215    0.00012479
     atom   26 type  1   force =    -0.00088873   -0.00016843   -0.00019951
     atom   27 type  3   force =    -0.00000964   -0.00007725    0.00046047
     atom   28 type  3   force =     0.00000872   -0.00000853    0.00055002
     atom   29 type  3   force =    -0.00001775    0.00011652    0.00010420
     atom   30 type  3   force =    -0.00029632    0.00016669   -0.00000778
     atom   31 type  1   force =     0.00024716   -0.00007339    0.00010005
     atom   32 type  3   force =     0.00086514   -0.00006062   -0.00028861

     Total force =     0.002131     Total SCF correction =     0.000457
     SCF correction compared to forces is large: reduce conv_thr to get better values

     bfgs converged in   8 scf cycles and   7 bfgs steps
     (criteria: energy < 0.10E-03, force < 0.10E-02)

     End of BFGS Geometry Optimization

     Final energy   =   -1980.4144675652 Ry
Begin final coordinates

ATOMIC_POSITIONS (crystal)
O0       0.000000000   0.000000000   0.378450861    0   0   1
O0       0.000000000   0.500000000   0.401937341    0   0   1
Rh1      0.250000000   0.500000000   0.452748173    0   0   1
Rh1      0.000000000   0.000000000   0.452760763    0   0   1
O0       0.250000000   0.810000000   0.452354340    0   0   1
O0       0.250000000   0.190000000   0.452186704    0   0   1
O0       0.000000000   0.500000000   0.498998765    0   0   1
O0       0.000000000   0.000000000   0.528212782    0   0   1
Rh1      0.250000000   0.000000000   0.575558121    0   0   1
Rh1      0.000000000   0.500000000   0.570712903    0   0   1
O0       0.250000000   0.690000000   0.575994122    0   0   1
O0       0.250000000   0.310000000   0.576071658    0   0   1
O0       0.000000000   0.000000000   0.620894220    0   0   1
O0       0.500000000   0.000000000   0.378176943    0   0   1
O0       0.500000000   0.500000000   0.401528488    0   0   1
Rh1      0.750000000   0.500000000   0.452746305    0   0   1
Rh1      0.500000000   0.000000000   0.452494531    0   0   1
O0       0.750000000   0.810000000   0.452361321    0   0   1
O0       0.750000000   0.190000000   0.452198160    0   0   1
O0       0.500000000   0.500000000   0.499957049    0   0   1
O0       0.500000000   0.000000000   0.528091109    0   0   1
Rh1      0.750000000   0.000000000   0.575498625    0   0   1
Rh1      0.500000000   0.500000000   0.575365308    0   0   1
O0       0.750000000   0.690000000   0.574910250    0   0   1
O0       0.750000000   0.310000000   0.574974106    0   0   1
O0       0.500000000   0.000000000   0.620693768    0   0   1
H2      -0.000108233   0.636601337   0.384460635
H2       0.499868673   0.638464247   0.384891069
H2       0.148171702   0.034251628   0.367709412
H2       0.648085141   0.034992758   0.367505347
O0       0.516427516   0.499497222   0.648159373
H2       0.370200761   0.499378255   0.662517450
End final coordinates

     General routines

     Parallel routines
     Hubbard U routines

   This run was terminated on:  18:40:27  30Apr2014

   JOB DONE.
Running PBS batch system epilogue script
Job id: 340558.audhumbla.fysik.dtu.dk
Username: zhonxu
Groupname: campgst
Jobname: RhO2/Eads-2-layers/OH-U-3.0
Sessionid: 11634
Queuename: verylong
Accounting:
This job has allocated the following 16 nodes:
a129 a129 a129 a129 a129 a129 a129 a129 a117 a117 a117 a117 a117 a117 a117 a117
Finished epilogue job 340558.audhumbla.fysik.dtu.dk for zhonxu