     Program PWSCF v.5.0.2 (svn rev. 9656) starts on 27Feb2014 at 18: 1:38

     Current dimensions of program PWSCF are:
     Max number of different atomic species (ntypx) = 10
     Max number of k-points (npk) =  40000
     Max angular momentum in pseudopotentials (lmaxx) =  3
     Reading input from bare.in
Warning: card &CELL ignored
Warning: card / ignored

     Subspace diagonalization in iterative solution of the eigenvalue problem:
     a serial algorithm will be used

     Found symmetry operation: I + ( -0.5000  0.0000  0.0000)
     This is a supercell, fractional translations are disabled

     bravais-lattice index     =            0
     lattice parameter (alat)  =      12.2076  a.u.
     unit-cell volume          =    7496.5096 (a.u.)^3
     number of atoms/cell      =           30
     number of atomic types    =            3
     number of electrons       =       240.00
     number of Kohn-Sham states=          360
     kinetic-energy cutoff     =      40.0000  Ry
     charge density cutoff     =     500.0000  Ry
     convergence threshold     =      1.0E-06
     mixing beta               =       0.3000
     number of iterations used =            8  plain     mixing
     Exchange-correlation      = SLA  PW   PBE  PBE ( 1 4 3 4 0)
     EXX-fraction              =        0.00
     nstep                     =           50

     celldm(1)=  12.207631  celldm(2)=   0.000000  celldm(3)=   0.000000
     celldm(4)=   0.000000  celldm(5)=   0.000000  celldm(6)=   0.000000

     crystal axes: (cart. coord. in units of alat)
               a(1) = (   1.000000   0.000000   0.000000 )
               a(2) = (   0.000000   1.004836   0.000000 )
               a(3) = (   0.000000   0.000000   4.100811 )

     reciprocal axes: (cart. coord. in units 2 pi/alat)
               b(1) = (  1.000000  0.000000  0.000000 )
               b(2) = (  0.000000  0.995187  0.000000 )
               b(3) = (  0.000000  0.000000  0.243854 )

     PseudoPot. # 1 for O  read from file:
     /home/camp/zhonxu/pseudo/o_pbe_v1.01.uspp.F.UPF
     MD5 check sum: 2bcb18d16ea4b960afae9ec6d52f22d2
     Pseudo is Ultrasoft + core correction, Zval =  6.0
     Generated by new atomic code, or converted to UPF format
     Using radial grid of  737 points,  5 beta functions with:
                l(1) =   0
                l(2) =   0
                l(3) =   1
                l(4) =   1
                l(5) =   2
     Q(r) pseudized with  8 coefficients,  rinner =    0.900   0.900   0.900
                                                       0.900   0.900

     PseudoPot. # 2 for Pt read from file:
     /home/camp/zhonxu/pseudo/pt_pbe_v1.uspp.F.UPF
     MD5 check sum: 4c71d6ad5ef119f1eb26a4d0b7884226
     Pseudo is Ultrasoft + core correction, Zval = 16.0
     Generated by new atomic code, or converted to UPF format
     Using radial grid of  985 points,  6 beta functions with:
                l(1) =   0
                l(2) =   0
                l(3) =   1
                l(4) =   1
                l(5) =   2
                l(6) =   2
     Q(r) pseudized with  8 coefficients,  rinner =    1.300   1.300   1.300
                                                       1.300   1.300

     PseudoPot. # 3 for H  read from file:
     /home/camp/zhonxu/pseudo/h_pbe_v1.uspp.F.UPF
     MD5 check sum: 3408e3ff4ec8b0a4e358431e7e038a48
     Pseudo is Ultrasoft, Zval =  1.0
     Generated by new atomic code, or converted to UPF format
     Using radial grid of  615 points,  2 beta functions with:
                l(1) =   0
                l(2) =   0
     Q(r) pseudized with  8 coefficients,  rinner =    0.700

     atomic species   valence    mass     pseudopotential
        O0             6.00    15.99940     O ( 1.00)
        Pt1           16.00   195.08000     Pt( 1.00)
        H2             1.00     1.00794     H ( 1.00)

     No symmetry found

   Cartesian axes

     site n.     atom                  positions (alat units)
         1           O0  tau(   1) = (   0.0000000   0.0000000   1.5470310  )
         2           O0  tau(   2) = (   0.0000000   0.5024180   1.6360596  )
         3           Pt1 tau(   3) = (   0.2500000   0.5024180   1.8398289  )
         4           Pt1 tau(   4) = (   0.0000000   0.0000000   1.8542228  )
         5           O0  tau(   5) = (   0.2500000   0.8139171   1.8188738  )
         6           O0  tau(   6) = (   0.2500000   0.1909188   1.8745218  )
         7           O0  tau(   7) = (   0.0000000   0.5024180   2.0304346  )
         8           O0  tau(   8) = (   0.0000000   0.0000000   2.1717486  )
         9           Pt1 tau(   9) = (   0.2500000   0.0000000   2.3648558  )
        10           Pt1 tau(  10) = (   0.0000000   0.5024180   2.3549318  )
        11           O0  tau(  11) = (   0.2500000   0.6933368   2.3889686  )
        12           O0  tau(  12) = (   0.2500000   0.3114991   2.3909780  )
        13           O0  tau(  13) = (   0.0000000   0.0000000   2.5531650  )
        14           O0  tau(  14) = (   0.5000000   0.0000000   1.5470310  )
        15           O0  tau(  15) = (   0.5000000   0.5024180   1.6360596  )
        16           Pt1 tau(  16) = (   0.7500000   0.5024180   1.8398289  )
        17           Pt1 tau(  17) = (   0.5000000   0.0000000   1.8542228  )
        18           O0  tau(  18) = (   0.7500000   0.8139171   1.8188738  )
        19           O0  tau(  19) = (   0.7500000   0.1909188   1.8745218  )
        20           O0  tau(  20) = (   0.5000000   0.5024180   2.0304346  )
        21           O0  tau(  21) = (   0.5000000   0.0000000   2.1717486  )
        22           Pt1 tau(  22) = (   0.7500000   0.0000000   2.3648558  )
        23           Pt1 tau(  23) = (   0.5000000   0.5024180   2.3549318  )
        24           O0  tau(  24) = (   0.7500000   0.6933368   2.3889686  )
        25           O0  tau(  25) = (   0.7500000   0.3114991   2.3909780  )
        26           O0  tau(  26) = (   0.5000000   0.0000000   2.5531650  )
        27           H2  tau(  27) = (  -0.0002100   0.6424218   1.5708567  )
        28           H2  tau(  28) = (   0.4997900   0.6424318   1.5708567  )
        29           H2  tau(  29) = (   0.1457600   0.0290398   1.5104928  )
        30           H2  tau(  30) = (   0.6457600   0.0290398   1.5104928  )

     number of k points=    10  Methfessel-Paxton smearing, width (Ry)=  0.0100
                       cart. coord. in units 2pi/alat
        k(    1) = (   0.0000000   0.0000000   0.0000000), wk =   0.1250000
        k(    2) = (   0.0000000   0.2487968   0.0000000), wk =   0.2500000
        k(    3) = (   0.0000000  -0.4975937   0.0000000), wk =   0.1250000
        k(    4) = (   0.2500000   0.0000000   0.0000000), wk =   0.2500000
        k(    5) = (   0.2500000   0.2487968   0.0000000), wk =   0.2500000
        k(    6) = (   0.2500000  -0.4975937   0.0000000), wk =   0.2500000
        k(    7) = (  -0.5000000   0.0000000   0.0000000), wk =   0.1250000
        k(    8) = (  -0.5000000   0.2487968   0.0000000), wk =   0.2500000
        k(    9) = (  -0.5000000  -0.4975937   0.0000000), wk =   0.1250000
        k(   10) = (  -0.2500000   0.2487968   0.0000000), wk =   0.2500000

     Largest allocated arrays     est. size (Mb)     dimensions
     Largest temporary arrays     est. size (Mb)     dimensions

     Check: negative/imaginary core charge=   -0.000003    0.000000

     Initial potential from superposition of free atoms
     Check: negative starting charge=   -1.536080

     starting charge  235.99985, renormalised to  240.00000

     negative rho (up, down):  0.156E+01 0.000E+00
     Starting wfc are  172 randomized atomic wfcs

     Self-consistent Calculation

     iteration #  1     ecut=    40.00 Ry     beta=0.30
     Davidson diagonalization with overlap
     ethr =  1.00E-02,  avg # of iterations =  5.3

     negative rho (up, down):  0.154E+01 0.000E+00

     total energy              =   -2240.28415757 Ry
     Harris-Foulkes estimate   =   -2254.81247155 Ry
     estimated scf accuracy    <      30.78793462 Ry

[...]

     End of self-consistent calculation

          k = 0.0000 0.0000 0.0000 ( 32157 PWs)   bands (ev):

   -55.8852 -55.8314 -55.8127 -55.8093 -55.7432 -55.7093 -55.6892 -55.6557
   -55.5440 -55.5432 -55.5385 -55.5358 -55.4951 -55.4910 -55.4464 -55.4415
   -55.3890 -55.3825 -55.2652 -55.2099 -54.9077 -54.9003 -54.6533 -54.6497
   -22.0233 -21.6734 -21.2865 -21.1435 -20.4829 -20.4510 -20.3654 -20.2237
   -20.2178 -20.1809 -20.1759 -20.1027 -20.0696 -19.8277 -19.8148 -19.7709
   -18.8655 -18.7427 -10.4833 -10.3657 -10.0614  -9.4279  -9.1308  -9.0986
    -9.0777  -9.0179  -8.9000  -8.8220  -8.7903  -8.7627  -8.7283  -8.6378
    -8.4704  -8.2929  -8.2001  -8.1851  -7.7826  -7.6067  -7.5918  -7.5315
    -7.3922  -7.1171  -7.0249  -6.8622  -6.6859  -6.3113  -6.0412  -5.9951
    -5.9202  -5.8360  -5.7547  -5.7309  -5.7271  -5.6927  -5.6053  -5.6052
    -5.4621  -5.2501  -5.0868  -5.0110  -4.9869  -4.8894  -4.7786  -4.7420
    -4.7331  -4.7201  -4.6650  -4.6535  -4.6110  -4.5156  -4.4780  -4.3520
    -4.3047  -4.2721  -4.2220  -3.9666  -3.9288  -3.8938  -3.6995  -3.5297
    -3.5062  -3.3496  -3.1062  -2.9801  -2.9426  -2.8179  -2.7369  -2.5553
    -2.3565  -2.1979  -2.1461  -1.9632  -1.9543  -1.8875  -1.8696  -1.5421
    -1.3140  -1.2607  -0.5464  -0.4305  -0.4161  -0.2418  -0.1365   0.0535
     0.1997   0.5619   0.9242   1.3930   1.4341   1.4608   1.6185   1.8213
     2.3265   3.1706   4.1437   4.5848   4.6409   5.4895   5.5559   5.7933
     5.8075   5.9310   6.2947   6.5602   6.5842   6.8256   6.9516   6.9983
     7.0560   7.0688   7.1424   7.2213   7.5035   7.5836   7.6940   7.6941
     7.7888   7.8137   7.8707   7.9839   8.0442   8.1021   8.1207   8.2187
     8.3158   8.4370   8.4444   8.5611   8.6668   8.8143   8.8962   9.0065
     9.0523   9.0924   9.3950   9.4990   9.5665   9.6056   9.7170   9.8332
     9.9197   9.9220  10.0596  10.1721  10.2744  10.4255  10.5802  10.6057
    10.7180  10.7917  10.8744  10.9386  10.9445  11.0179  11.0597  11.0616
    11.2708  11.3542  11.3809  11.3829  11.4393  11.4783  11.5792  11.7018
    11.8625  11.8887  11.9239  11.9619  12.0366  12.1245  12.1815  12.1845
    12.2865  12.3492  12.4313  12.4664  12.5064  12.6523  12.7626  12.9521
    12.9587  13.2219  13.2990  13.3121  13.3459  13.3844  13.5165  13.5663
    13.6442  13.7040  13.9376  13.9459  13.9944  14.0922  14.2289  14.2602
    14.3952  14.4855  14.5153  14.5394  14.6733  14.7015  14.7204  14.9638
    15.1388  15.2135  15.2262  15.3667  15.3810  15.4636  15.5302  15.6123
    15.6872  15.7426  15.8362  15.8427  15.9521  16.1288  16.1910  16.2569
    16.2832  16.3376  16.4260  16.4761  16.5205  16.5855  16.5911  16.6446
    16.6958  16.7229  16.7513  16.8279  16.9533  16.9806  17.1093  17.2023
    17.2764  17.2787  17.3328  17.3452  17.3848  17.6265  17.6918  17.7750
    17.8234  17.8393  17.9814  17.9922  18.0857  18.1187  18.1553  18.1618
    18.2046  18.4306  18.4938  18.5356  18.5683  18.6148  18.6500  18.8034
    18.8211  18.8805  18.8861  18.9178  19.0040  19.0128  19.0510  19.0545
    19.1194  19.1717  19.2855  19.3117  19.5181  19.5375  19.5695  19.5709
[...]
     atom   11 type  1   force =    -0.00001949   -0.00602257    0.00313480
     atom   12 type  1   force =     0.00006189    0.00703504    0.00309768
     atom   13 type  1   force =    -0.00106560   -0.00030049   -0.00785767
     atom   14 type  1   force =    -0.00440425   -0.00654200    0.00101153
     atom   15 type  1   force =    -0.00000867    0.00440928   -0.00152568
     atom   16 type  2   force =    -0.00039453    0.00240706    0.00499334
     atom   17 type  2   force =     0.00800727   -0.00023679    0.00006075
     atom   18 type  1   force =     0.00091348   -0.00269404   -0.00103969
     atom   19 type  1   force =    -0.00006579    0.00228493    0.00473681
     atom   20 type  1   force =     0.00003125    0.00368021   -0.00174672
     atom   21 type  1   force =    -0.00354984   -0.00579207    0.00362810
     atom   22 type  2   force =     0.00160634    0.00086277   -0.00151417
     atom   23 type  2   force =    -0.00003515   -0.00159724   -0.00238503
     atom   24 type  1   force =     0.00004678   -0.00602191    0.00313406
     atom   25 type  1   force =     0.00012178    0.00703433    0.00309681
     atom   26 type  1   force =    -0.00106305   -0.00029899   -0.00802961
     atom   27 type  3   force =     0.00011162    0.00157209    0.00016548
     atom   28 type  3   force =     0.00011187    0.00148757    0.00020310
     atom   29 type  3   force =    -0.00121793    0.00101666   -0.00473090
     atom   30 type  3   force =    -0.00121988    0.00101650   -0.00473007

     Total force =     0.019263     Total SCF correction =     0.003080
     SCF correction compared to forces is large: reduce conv_thr to get better values

     BFGS Geometry Optimization

     number of scf cycles    =   1
     number of bfgs steps    =   0

     energy   new            =   -2248.8121647615 Ry

     new trust radius        =       0.0080296073 bohr
     new conv_thr            =       0.0000010000 Ry

ATOMIC_POSITIONS (crystal)
O0       0.000000000   0.000000000   0.377270942    0   0   1
O0       0.000000000   0.500000000   0.398930621    0   0   1
Pt1      0.250000000   0.500000000   0.448749741    0   0   1
Pt1      0.000000000   0.000000000   0.452161822    0   0   1
O0       0.250000000   0.810000000   0.443519233    0   0   1
O0       0.250000000   0.190000000   0.457204629    0   0   1
O0       0.000000000   0.500000000   0.495096881    0   0   1
O0       0.000000000   0.000000000   0.529661131    0   0   1
Pt1      0.250000000   0.000000000   0.576649751    0   0   1
Pt1      0.000000000   0.500000000   0.574211035    0   0   1
O0       0.250000000   0.690000000   0.582622619    0   0   1
O0       0.250000000   0.310000000   0.583111878    0   0   1
O0       0.000000000   0.000000000   0.622443039    0   0   1
O0       0.500000000   0.000000000   0.377270206    0   0   1
O0       0.500000000   0.500000000   0.398929524    0   0   1
Pt1      0.750000000   0.500000000   0.448749745    0   0   1
Pt1      0.500000000   0.000000000   0.452161214    0   0   1
O0       0.750000000   0.810000000   0.443519232    0   0   1
O0       0.750000000   0.190000000   0.457204620    0   0   1
O0       0.500000000   0.500000000   0.495095108    0   0   1
O0       0.500000000   0.000000000   0.529662473    0   0   1
Pt1      0.750000000   0.000000000   0.576649754    0   0   1
Pt1      0.500000000   0.500000000   0.574212358    0   0   1
O0       0.750000000   0.690000000   0.582622605    0   0   1
O0       0.750000000   0.310000000   0.583111860    0   0   1
O0       0.500000000   0.000000000   0.622439604    0   0   1
H2      -0.000200856   0.639458159   0.383063306
H2       0.499799164   0.639461269   0.383064057
H2       0.145660232   0.028982880   0.368245498
H2       0.645660072   0.028982867   0.368245514

     Check: negative starting charge=   -1.536080
     NEW-OLD atomic charge density approx. for the potential

     Check: negative/imaginary core charge=   -0.000003    0.000000
     Check: negative starting charge=   -1.536580

[...]

     Total force =     0.014405     Total SCF correction =     0.001910
     SCF correction compared to forces is large: reduce conv_thr to get better values

[...]

     energy   old            =   -2248.8121647615 Ry
     energy   new            =   -2248.8124736530 Ry

     CASE: energy  _new < energy  _old

[...]

     Total force =     0.011285     Total SCF correction =     0.000564

[...]

     Threshold (ethr) on eigenvalues was too large:
     Diagonalizing with lowered threshold

     Davidson diagonalization with overlap
     ethr =  8.08E-08,  avg # of iterations =  1.0

[...]

     number of scf cycles    =  10
     number of bfgs steps    =   9

     energy   old            =   -2248.8136847363 Ry
     energy   new            =   -2248.8137162921 Ry

     CASE: energy  _new < energy  _old

     new trust radius        =       0.0052018812 bohr
     new conv_thr            =       0.0000000100 Ry

ATOMIC_POSITIONS (crystal)
O0       0.000000000   0.000000000   0.376930552    0   0   1
O0       0.000000000   0.500000000   0.399174816    0   0   1
Pt1      0.250000000   0.500000000   0.449029987    0   0   1
Pt1      0.000000000   0.000000000   0.451971093    0   0   1
O0       0.250000000   0.810000000   0.442769332    0   0   1
O0       0.250000000   0.190000000   0.459044629    0   0   1
O0       0.000000000   0.500000000   0.495411312    0   0   1
O0       0.000000000   0.000000000   0.529366628    0   0   1
Pt1      0.250000000   0.000000000   0.576124009    0   0   1
Pt1      0.000000000   0.500000000   0.574256884    0   0   1
O0       0.250000000   0.690000000   0.583076215    0   0   1
O0       0.250000000   0.310000000   0.583651724    0   0   1
O0       0.000000000   0.000000000   0.621612489    0   0   1
O0       0.500000000   0.000000000   0.376930475    0   0   1
O0       0.500000000   0.500000000   0.399174755    0   0   1
Pt1      0.750000000   0.500000000   0.449029983    0   0   1
Pt1      0.500000000   0.000000000   0.451970827    0   0   1
O0       0.750000000   0.810000000   0.442769295    0   0   1
O0       0.750000000   0.190000000   0.459044633    0   0   1
O0       0.500000000   0.500000000   0.495411770    0   0   1
O0       0.500000000   0.000000000   0.529367141    0   0   1
Pt1      0.750000000   0.000000000   0.576124006    0   0   1
Pt1      0.500000000   0.500000000   0.574256016    0   0   1
O0       0.750000000   0.690000000   0.583076202    0   0   1
O0       0.750000000   0.310000000   0.583651709    0   0   1
O0       0.500000000   0.000000000   0.621614196    0   0   1
H2      -0.000051790   0.640064258   0.383546583
H2       0.499948255   0.640063132   0.383546288
H2       0.144066135   0.031376302   0.366973612
H2       0.644065158   0.031375853   0.366972841

     Check: negative starting charge=   -1.537298
     NEW-OLD atomic charge density approx. for the potential

     Check: negative/imaginary core charge=   -0.000003    0.000000
     Check: negative starting charge=   -1.537282

[...]

     Self-consistent Calculation

[...]

     Threshold (ethr) on eigenvalues was too large:
     Diagonalizing with lowered threshold

     Davidson diagonalization with overlap
     ethr =  1.06E-08,  avg # of iterations =  2.0

[...]

     total energy              =   -2248.81373539 Ry
     Harris-Foulkes estimate   =   -2248.81373540 Ry
     estimated scf accuracy    <       0.00000006 Ry

     iteration # 10     ecut=    40.00 Ry     beta=0.30
     Davidson diagonalization with overlap
     ethr =  2.64E-11,  avg # of iterations =  1.0

     negative rho (up, down):  0.158E+01 0.000E+00

     End of self-consistent calculation

[...]

          k = 0.2500-0.4976 0.0000 ( 32026 PWs)   bands (ev):

[...]

          k =-0.2500 0.2488 0.0000 ( 32025 PWs)   bands (ev):

   -55.8871 -55.8485 -55.7970 -55.7946 -55.7111 -55.6909 -55.6731 -55.6530
   -55.5364 -55.5329 -55.5267 -55.5213 -55.4865 -55.4833 -55.4098 -55.4063
   -55.3741 -55.3696 -55.2389 -55.2000 -54.8888 -54.8835 -54.6538 -54.6513
   -21.9184 -21.6803 -21.0880 -20.9340 -20.5841 -20.4914 -20.3949 -20.2641
   -20.2592 -20.1857 -20.1434 -20.0830 -20.0553 -19.9479 -19.8800 -19.8408
   -18.9185 -18.8014 -10.0034  -9.7763  -9.7237  -9.5839  -9.1679  -9.1346
    -9.0673  -8.9183  -8.8155  -8.8090  -8.6221  -8.6025  -8.5828  -8.3938
    -8.3669  -8.2947  -8.0676  -8.0210  -7.7966  -7.7102  -7.5748  -7.4711
    -7.3551  -7.0110  -6.8880  -6.8271  -6.6822  -6.6237  -6.6065  -6.5241
    -6.4218  -6.3170  -6.2660  -6.2128  -6.1107  -6.0518  -5.8507  -5.8339
    -5.5875  -5.5197  -5.3952  -5.3637  -5.3039  -5.1178  -5.0157  -4.9157
    -4.8350  -4.7427  -4.5946  -4.3872  -4.2530  -4.2313  -4.0810  -3.9842
    -3.8603  -3.8153  -3.7692  -3.6416  -3.5681  -3.5219  -3.5143  -3.3673
    -3.3075  -3.2781  -3.2533  -2.9997  -2.9485  -2.9019  -2.5674  -2.4100
    -2.3323  -2.2852  -2.1024  -2.0895  -2.0157  -1.9096  -1.6167  -1.5402
    -1.5230  -1.2210  -0.9394  -0.6332  -0.2270  -0.1743   0.0176   0.3709
     0.6276   0.7937   0.9652   1.0117   1.2795   1.3029   1.4688   1.6587
     3.0759   3.6596   4.5808   4.9853   5.0666   5.1260   5.2333   5.3976
     5.6883   5.9592   6.0492   6.2443   6.4267   6.5021   6.6088   6.6389
     6.7652   6.8332   7.0298   7.0757   7.2723   7.3888   7.4160   7.5262
     7.5631   7.7371   7.8250   7.9588   8.0550   8.1533   8.2410   8.2943
     8.3221   8.4386   8.5567   8.6434   8.7552   8.8500   9.0265   9.1268
     9.2959   9.3438   9.4472   9.5445   9.6704   9.7413   9.8754   9.9624
    10.1082  10.1656  10.2071  10.2178  10.4277  10.5024  10.5362  10.6434
    10.6723  10.8206  10.8210  10.9733  11.1413  11.2482  11.3471  11.3746
    11.4091  11.5241  11.6291  11.7574  11.7791  11.8318  11.8636  11.9287
    11.9747  12.1440  12.1574  12.2096  12.3191  12.3349  12.4245  12.5133
    12.5583  12.6106  12.7173  12.7766  12.8585  12.8786  13.0097  13.0653
    13.1409  13.2250  13.4112  13.4840  13.5751  13.6245  13.6949  13.7894
    13.8279  13.8797  13.9914  14.0192  14.1250  14.2435  14.3539  14.3759
    14.4644  14.5820  14.6657  14.7015  14.8129  14.9187  14.9729  15.1484
    15.1976  15.2206  15.3390  15.3651  15.4499  15.5196  15.5464  15.6291
    15.6293  15.6749  15.7512  15.8110  15.8413  15.9201  16.0116  16.0399
    16.1525  16.1629  16.2163  16.2733  16.2951  16.3174  16.4050  16.4831
    16.5784  16.6078  16.6159  16.6425  16.6592  16.7532  16.7908  16.8919
    16.9205  17.0316  17.0589  17.1180  17.1334  17.1618  17.2051  17.2376
    17.2748  17.2873  17.3924  17.3977  17.4648  17.4665  17.5260  17.6076
    17.6826  17.7471  17.7701  17.8995  18.0122  18.0706  18.0995  18.1848
    18.1966  18.3288  18.3689  18.3741  18.5148  18.5459  18.6753  18.6824
    18.7129  18.8828  18.9235  19.0130  19.0284  19.0996  19.1336  19.2521
    19.3095  19.3717  19.4025  19.5434  19.5897  19.7339  19.7956  19.8307
    19.8970  19.9430  19.9710  20.0194  20.0298  20.0689  20.2425  20.2596
    20.3249  20.3279  20.4870  20.5028  20.6054  20.6968  20.7507  20.7992
    20.8034  20.9413  20.9516  21.0095  21.0248  21.2145  21.2534  21.2571
    21.3484  21.4288  21.4414  21.5280  21.5749  21.6198  21.6388  21.7516

     the Fermi energy is    -1.4903 ev

!    total energy              =   -2248.81373539 Ry
     Harris-Foulkes estimate   =   -2248.81373539 Ry
     estimated scf accuracy    <          5.7E-09 Ry

     The total energy is the sum of the following terms:

     one-electron contribution =  -22774.02880724 Ry
     hartree contribution      =   11426.54188360 Ry
     xc contribution           =    -565.05210050 Ry
     ewald contribution        =    9663.72599162 Ry
     smearing contrib. (-TS)   =      -0.00070288 Ry

     convergence has been achieved in  10 iterations

     Forces acting on atoms (Ry/au):

     negative rho (up, down):  0.158E+01 0.000E+00
     atom    1 type  1   force =    -0.00761738   -0.00520017    0.00051400
     atom    2 type  1   force =     0.00010656    0.00514639    0.00048068
     atom    3 type  2   force =    -0.00047661    0.00165319   -0.00019993
     atom    4 type  2   force =     0.01056121    0.00217372    0.00039942
     atom    5 type  1   force =     0.00100653   -0.00272755   -0.00082767
     atom    6 type  1   force =     0.00000989    0.00144046   -0.00074118
     atom    7 type  1   force =     0.00004884    0.00467896    0.00043092
     atom    8 type  1   force =    -0.00393529   -0.00744277    0.00033741
     atom    9 type  2   force =     0.00181463    0.00092683   -0.00003454
     atom   10 type  2   force =    -0.00004356   -0.00183836   -0.00070550
     atom   11 type  1   force =     0.00000970   -0.00668398    0.00021608
     atom   12 type  1   force =     0.00009007    0.00790934    0.00028936
     atom   13 type  1   force =    -0.00114679   -0.00033774   -0.00029736
     atom   14 type  1   force =    -0.00762133   -0.00520088    0.00051359
     atom   15 type  1   force =     0.00010656    0.00513985    0.00048529
     atom   16 type  2   force =    -0.00047942    0.00165317   -0.00019987
     atom   17 type  2   force =     0.01056343    0.00217405    0.00041348
     atom   18 type  1   force =     0.00100197   -0.00272748   -0.00082746
     atom   19 type  1   force =     0.00000279    0.00144039   -0.00074101
     atom   20 type  1   force =     0.00004881    0.00467913    0.00043886
     atom   21 type  1   force =    -0.00393555   -0.00744297    0.00033314
     atom   22 type  2   force =     0.00180193    0.00092690   -0.00003457
     atom   23 type  2   force =    -0.00004367   -0.00183834   -0.00070086
     atom   24 type  1   force =    -0.00001177   -0.00668391    0.00021610
     atom   25 type  1   force =     0.00006811    0.00790930    0.00028944
     atom   26 type  1   force =    -0.00114675   -0.00033783   -0.00032165
     atom   27 type  3   force =     0.00001499   -0.00012838    0.00040078
     atom   28 type  3   force =     0.00001488   -0.00012358    0.00039935
     atom   29 type  3   force =    -0.00040817    0.00043065   -0.00026425
     atom   30 type  3   force =    -0.00040460    0.00043161   -0.00026204

     Total force =     0.002667     Total SCF correction =     0.000166

     bfgs converged in  11 scf cycles and  10 bfgs steps
     (criteria: energy < 0.10E-03, force < 0.10E-02)

     End of BFGS Geometry Optimization

     Final energy   =   -2248.8137353942 Ry
Begin final coordinates

ATOMIC_POSITIONS (crystal)
O0       0.000000000   0.000000000   0.376930552    0   0   1
O0       0.000000000   0.500000000   0.399174816    0   0   1
Pt1      0.250000000   0.500000000   0.449029987    0   0   1
Pt1      0.000000000   0.000000000   0.451971093    0   0   1
O0       0.250000000   0.810000000   0.442769332    0   0   1
O0       0.250000000   0.190000000   0.459044629    0   0   1
O0       0.000000000   0.500000000   0.495411312    0   0   1
O0       0.000000000   0.000000000   0.529366628    0   0   1
Pt1      0.250000000   0.000000000   0.576124009    0   0   1
Pt1      0.000000000   0.500000000   0.574256884    0   0   1
O0       0.250000000   0.690000000   0.583076215    0   0   1
O0       0.250000000   0.310000000   0.583651724    0   0   1
O0       0.000000000   0.000000000   0.621612489    0   0   1
O0       0.500000000   0.000000000   0.376930475    0   0   1
O0       0.500000000   0.500000000   0.399174755    0   0   1
Pt1      0.750000000   0.500000000   0.449029983    0   0   1
Pt1      0.500000000   0.000000000   0.451970827    0   0   1
O0       0.750000000   0.810000000   0.442769295    0   0   1
O0       0.750000000   0.190000000   0.459044633    0   0   1
O0       0.500000000   0.500000000   0.495411770    0   0   1
O0       0.500000000   0.000000000   0.529367141    0   0   1
Pt1      0.750000000   0.000000000   0.576124006    0   0   1
Pt1      0.500000000   0.500000000   0.574256016    0   0   1
O0       0.750000000   0.690000000   0.583076202    0   0   1
O0       0.750000000   0.310000000   0.583651709    0   0   1
O0       0.500000000   0.000000000   0.621614196    0   0   1
H2      -0.000051790   0.640064258   0.383546583
H2       0.499948255   0.640063132   0.383546288
H2       0.144066135   0.031376302   0.366973612
H2       0.644065158   0.031375853   0.366972841
End final coordinates

     General routines

     Parallel routines

   This run was terminated on:   1:56:24  28Feb2014

   JOB DONE.
Running PBS batch system epilogue script
Job id: 278708.audhumbla.fysik.dtu.dk
Username: zhonxu
Groupname: campgst
Jobname: PtO2/bare
Sessionid: 15871
Queuename: verylong
Accounting:
This job has allocated the following 16 nodes:
a059 a059 a059 a059 a059 a059 a059 a059 a056 a056 a056 a056 a056 a056 a056 a056
Finished epilogue job 278708.audhumbla.fysik.dtu.dk for zhonxu