     Program PWSCF v.5.0.2 (svn rev. 9656) starts on 29Apr2014 at  0:18: 5

     Current dimensions of program PWSCF are:
     Max number of different atomic species (ntypx) = 10
     Max number of k-points (npk) =  40000
     Max angular momentum in pseudopotentials (lmaxx) =  3
     Reading input from pwscf.in
Warning: card &CELL ignored
Warning: card / ignored

     Subspace diagonalization in iterative solution of the eigenvalue problem:
     a serial algorithm will be used

     bravais-lattice index     =            0
     lattice parameter (alat)  =      10.3179  a.u.
     unit-cell volume          =    6964.3238 (a.u.)^3
     number of atoms/cell      =           32
     number of atomic types    =            3
     number of electrons       =       231.00
     number of Kohn-Sham states=          346
     kinetic-energy cutoff     =      40.0000  Ry
     charge density cutoff     =     500.0000  Ry
     convergence threshold     =      1.0E-06
     mixing beta               =       0.7000
     number of iterations used =            8  plain     mixing
     Exchange-correlation      = SLA  PW   PBE  PBE ( 1 4 3 4 0)
     EXX-fraction              =        0.00
     nstep                     =           50

     celldm(1)=  10.317905  celldm(2)=   0.000000  celldm(3)=   0.000000
     celldm(4)=   0.000000  celldm(5)=   0.000000  celldm(6)=   0.000000

     crystal axes: (cart. coord. in units of alat)
               a(1) = (   1.000000   0.000000   0.000000 )
               a(2) = (   0.000000   1.282117   0.000000 )
               a(3) = (   0.000000   0.000000   4.945120 )

     reciprocal axes: (cart. coord. in units 2 pi/alat)
               b(1) = (  1.000000  0.000000  0.000000 )
               b(2) = (  0.000000  0.779960  0.000000 )
               b(3) = (  0.000000  0.000000  0.202220 )

     PseudoPot. # 1 for O  read from file:
     /home/camp/zhonxu/pseudo/o_pbe_v1.01.uspp.F.UPF
     MD5 check sum: 2bcb18d16ea4b960afae9ec6d52f22d2
     Pseudo is Ultrasoft + core correction, Zval =  6.0
     Generated by new atomic code, or converted to UPF format
     Using radial grid of  737 points,  5 beta functions with:
                l(1) =   0
                l(2) =   0
                l(3) =   1
                l(4) =   1
                l(5) =   2
     Q(r) pseudized with  8 coefficients,  rinner =    0.900   0.900   0.900
                                                       0.900   0.900

     PseudoPot. # 2 for Mo read from file:
     /home/camp/zhonxu/pseudo/mo_pbe_v1.uspp.F.UPF
     MD5 check sum: 30c4dcd161f5d35cd49bb5239c51a633
     Pseudo is Ultrasoft + core correction, Zval = 14.0
     Generated by new atomic code, or converted to UPF format
     Using radial grid of  889 points,  6 beta functions with:
                l(1) =   0
                l(2) =   0
                l(3) =   1
                l(4) =   1
                l(5) =   2
                l(6) =   2
     Q(r) pseudized with  6 coefficients,  rinner =    1.000   1.000   1.000
                                                       1.000   1.000

     PseudoPot. # 3 for H  read from file:
     /home/camp/zhonxu/pseudo/h_pbe_v1.uspp.F.UPF
     MD5 check sum: 3408e3ff4ec8b0a4e358431e7e038a48
     Pseudo is Ultrasoft, Zval =  1.0
     Generated by new atomic code, or converted to UPF format
     Using radial grid of  615 points,  2 beta functions with:
                l(1) =   0
                l(2) =   0
     Q(r) pseudized with  8 coefficients,  rinner =    0.700

     atomic species   valence    mass     pseudopotential
        O0             6.00    15.99940     O ( 1.00)
        Mo1           14.00    95.94000     Mo( 1.00)
        H2             1.00     1.00794     H ( 1.00)

     Simplified LDA+U calculation (l_max = 2) with parameters (eV):
     atomic species    L          U    alpha       J0     beta
        Mo1            2     3.0000   0.0000   0.0000   0.0000

     No symmetry found

   Cartesian axes

     site n.     atom                  positions (alat units)
         1           O0  tau(   1) = (   0.0000000   0.0000000   1.8362221  )
         2           O0  tau(   2) = (   0.0000000   0.6410583   1.8932888  )
         3           Mo1 tau(   3) = (   0.2500000   0.6410583   2.1787211  )
         4           Mo1 tau(   4) = (   0.0000000   0.0000000   2.1942488  )
         5           O0  tau(   5) = (   0.2500000   1.0000510   2.1917762  )
         6           O0  tau(   6) = (   0.2500000   0.2820657   2.1916279  )
         7           O0  tau(   7) = (   0.0000000   0.6410583   2.4619282  )
         8           O0  tau(   8) = (   0.0000000   0.0000000   2.5552920  )
         9           Mo1 tau(   9) = (   0.2500000   0.0000000   2.8451750  )
        10           Mo1 tau(  10) = (   0.0000000   0.6410583   2.7951798  )
        11           O0  tau(  11) = (   0.2500000   0.9231240   2.8229220  )
        12           O0  tau(  12) = (   0.2500000   0.3589927   2.8238121  )
        13           O0  tau(  13) = (   0.0000000   0.0000000   3.0959420  )
        14           O0  tau(  14) = (   0.5000000   0.0000000   1.8365188  )
        15           O0  tau(  15) = (   0.5000000   0.6410583   1.8939316  )
        16           Mo1 tau(  16) = (   0.7500000   0.6410583   2.1784244  )
        17           Mo1 tau(  17) = (   0.5000000   0.0000000   2.1964741  )
        18           O0  tau(  18) = (   0.7500000   1.0000510   2.1920730  )
        19           O0  tau(  19) = (   0.7500000   0.2820657   2.1913806  )
        20           O0  tau(  20) = (   0.5000000   0.6410583   2.4641535  )
        21           O0  tau(  21) = (   0.5000000   0.0000000   2.5544514  )
        22           Mo1 tau(  22) = (   0.7500000   0.0000000   2.8455212  )
        23           Mo1 tau(  23) = (   0.5000000   0.6410583   2.8262846  )
        24           O0  tau(  24) = (   0.7500000   0.9231240   2.8210923  )
        25           O0  tau(  25) = (   0.7500000   0.3589927   2.8208450  )
        26           O0  tau(  26) = (   0.5000000   0.0000000   3.0950519  )
        27           H2  tau(  27) = (  -0.0007600   0.7828861   1.7821225  )
        28           H2  tau(  28) = (   0.4995000   0.7914763   1.7941391  )
        29           H2  tau(  29) = (   0.1669200   0.0220268   1.7647651  )
        30           H2  tau(  30) = (   0.6653100   0.0245269   1.7632816  )
        31           O0  tau(  31) = (   0.5147600   0.6413532   3.1767948  )
        32           H2  tau(  32) = (   0.3891500   0.6353401   3.3044778  )

     number of k points=    10  Methfessel-Paxton smearing, width (Ry)=  0.0100
                       cart. coord. in units 2pi/alat
        k(    1) = (   0.0000000   0.0000000   0.0000000), wk =   0.1250000
        k(    2) = (   0.0000000   0.1949901   0.0000000), wk =   0.2500000
        k(    3) = (   0.0000000  -0.3899801   0.0000000), wk =   0.1250000
        k(    4) = (   0.2500000   0.0000000   0.0000000), wk =   0.2500000
        k(    5) = (   0.2500000   0.1949901   0.0000000), wk =   0.2500000
        k(    6) = (   0.2500000  -0.3899801   0.0000000), wk =   0.2500000
        k(    7) = (  -0.5000000   0.0000000   0.0000000), wk =   0.1250000
        k(    8) = (  -0.5000000   0.1949901   0.0000000), wk =   0.2500000
        k(    9) = (  -0.5000000  -0.3899801   0.0000000), wk =   0.1250000
        k(   10) = (  -0.2500000   0.1949901   0.0000000), wk =   0.2500000

     Largest allocated arrays     est. size (Mb)     dimensions
     Largest temporary arrays     est. size (Mb)     dimensions

     Check: negative/imaginary core charge=   -0.000003    0.000000

     Initial potential from superposition of free atoms
     Check: negative starting charge=   -0.002345

     starting charge  230.99142, renormalised to  231.00000

     negative rho (up, down):  0.235E-02 0.000E+00
     Number of +U iterations with fixed ns =  0
     Starting occupations:
 --- enter write_ns ---
 LDA+U parameters:
U( 2)     =  3.00000000
alpha( 2) =  0.00000000
atom    3   Tr[ns(na)] =   5.00000
    eigenvalues:
  0.500  0.500  0.500  0.500  0.500
    eigenvectors:
  1.000  0.000  0.000  0.000  0.000
  0.000  1.000  0.000  0.000  0.000
  0.000  0.000  1.000  0.000  0.000
  0.000  0.000  0.000  1.000  0.000
  0.000  0.000  0.000  0.000  1.000
    occupations:
  0.500  0.000  0.000  0.000  0.000
  0.000  0.500  0.000  0.000  0.000
  0.000  0.000  0.500  0.000  0.000
  0.000  0.000  0.000  0.500  0.000
  0.000  0.000  0.000  0.000  0.500
atom    4   Tr[ns(na)] =   5.00000
    eigenvalues:
  0.500  0.500  0.500  0.500  0.500
    eigenvectors:
  1.000  0.000  0.000  0.000  0.000
  0.000  1.000  0.000  0.000  0.000
  0.000  0.000  1.000  0.000  0.000
  0.000  0.000  0.000  1.000  0.000
  0.000  0.000  0.000  0.000  1.000
    occupations:
  0.500  0.000  0.000  0.000  0.000
  0.000  0.500  0.000  0.000  0.000
  0.000  0.000  0.500  0.000  0.000
  0.000  0.000  0.000  0.500  0.000
  0.000  0.000  0.000  0.000  0.500
atom    9   Tr[ns(na)] =   5.00000
    eigenvalues:
  0.500  0.500  0.500  0.500  0.500
    eigenvectors:
  1.000  0.000  0.000  0.000  0.000
  0.000  1.000  0.000  0.000  0.000
  0.000  0.000  1.000  0.000  0.000
  0.000  0.000  0.000  1.000  0.000
  0.000  0.000  0.000  0.000  1.000
    occupations:
  0.500  0.000  0.000  0.000  0.000
  0.000  0.500  0.000  0.000  0.000
  0.000  0.000  0.500  0.000  0.000
  0.000  0.000  0.000  0.500  0.000
  0.000  0.000  0.000  0.000  0.500
atom   10   Tr[ns(na)] =   5.00000
    eigenvalues:
  0.500  0.500  0.500  0.500  0.500
    eigenvectors:
  1.000  0.000  0.000  0.000  0.000
  0.000  1.000  0.000  0.000  0.000
  0.000  0.000  1.000  0.000  0.000
  0.000  0.000  0.000  1.000  0.000
  0.000  0.000  0.000  0.000  1.000
    occupations:
  0.500  0.000  0.000  0.000  0.000
  0.000  0.500  0.000  0.000  0.000
  0.000  0.000  0.500  0.000  0.000
  0.000  0.000  0.000  0.500  0.000
  0.000  0.000  0.000  0.000  0.500
atom   16   Tr[ns(na)] =   5.00000
    eigenvalues:
  0.500  0.500  0.500  0.500  0.500
    eigenvectors:
  1.000  0.000  0.000  0.000  0.000
  0.000  1.000  0.000  0.000  0.000
  0.000  0.000  1.000  0.000  0.000
  0.000  0.000  0.000  1.000  0.000
  0.000  0.000  0.000  0.000  1.000
    occupations:
  0.500  0.000  0.000  0.000  0.000
  0.000  0.500  0.000  0.000  0.000
  0.000  0.000  0.500  0.000  0.000
  0.000  0.000  0.000  0.500  0.000
  0.000  0.000  0.000  0.000  0.500
atom   17   Tr[ns(na)] =   5.00000
    eigenvalues:
  0.500  0.500  0.500  0.500  0.500
    eigenvectors:
  1.000  0.000  0.000  0.000  0.000
  0.000  1.000  0.000  0.000  0.000
  0.000  0.000  1.000  0.000  0.000
  0.000  0.000  0.000  1.000  0.000
  0.000  0.000  0.000  0.000  1.000
    occupations:
  0.500  0.000  0.000  0.000  0.000
  0.000  0.500  0.000  0.000  0.000
  0.000  0.000  0.500  0.000  0.000
  0.000  0.000  0.000  0.500  0.000
  0.000  0.000  0.000  0.000  0.500
atom   22   Tr[ns(na)] =   5.00000
    eigenvalues:
  0.500  0.500  0.500  0.500  0.500
    eigenvectors:
  1.000  0.000  0.000  0.000  0.000
  0.000  1.000  0.000  0.000  0.000
  0.000  0.000  1.000  0.000  0.000
  0.000  0.000  0.000  1.000  0.000
  0.000  0.000  0.000  0.000  1.000
[...]
  0.000  0.000  0.749  0.027  0.224
  0.870  0.130  0.000  0.000  0.000
    occupations:
  0.684 -0.000 -0.001 -0.051 -0.001
 -0.000  0.594 -0.000 -0.001 -0.000
 -0.001 -0.000  0.523  0.000  0.011
 -0.051 -0.001  0.000  0.617  0.000
 -0.001 -0.000  0.011  0.000  0.498
atom   10   Tr[ns(na)] =   5.78916
    eigenvalues:
  0.489  0.499  0.519  0.649  0.738
    eigenvectors:
  0.070  0.929  0.000  0.001  0.000
  0.000  0.000  0.000  0.999  0.000
  0.929  0.071  0.000  0.000  0.000
  0.000  0.000  0.000  0.000  1.000
  0.000  0.000  1.000  0.000  0.000
    occupations:
  0.498 -0.004 -0.002 -0.004 -0.000
 -0.004  0.649 -0.001  0.000  0.000
 -0.002 -0.001  0.490 -0.000 -0.000
 -0.004  0.000 -0.000  0.738 -0.000
 -0.000  0.000 -0.000 -0.000  0.519
atom   16   Tr[ns(na)] =   5.83242
    eigenvalues:
  0.476  0.506  0.565  0.619  0.750
    eigenvectors:
  0.011  0.001  0.324  0.000  0.663
  0.001  0.996  0.002  0.001  0.000
  0.964  0.000  0.003  0.023  0.009
  0.000  0.001  0.671  0.000  0.328
  0.023  0.001  0.000  0.975  0.000
    occupations:
  0.687  0.003  0.024 -0.086  0.002
  0.003  0.507  0.002  0.001 -0.003
  0.024  0.002  0.482 -0.011 -0.022
 -0.086  0.001 -0.011  0.626 -0.000
  0.002 -0.003 -0.022 -0.000  0.615
atom   17   Tr[ns(na)] =   5.83461
    eigenvalues:
  0.443  0.521  0.585  0.622  0.746
    eigenvectors:
  0.000  0.000  0.985  0.014  0.001
  0.001  0.000  0.014  0.985  0.000
  0.999  0.000  0.000  0.001  0.000
  0.000  0.000  0.001  0.000  0.999
  0.000  1.000  0.000  0.000  0.000
    occupations:
  0.585  0.004  0.001 -0.005  0.000
  0.004  0.622  0.004 -0.001 -0.000
  0.001  0.004  0.444 -0.001  0.000
 -0.005 -0.001 -0.001  0.746  0.000
  0.000 -0.000  0.000  0.000  0.521
atom   22   Tr[ns(na)] =   5.83274
    eigenvalues:
  0.490  0.529  0.589  0.594  0.714
    eigenvectors:
  0.000  0.000  0.205  0.019  0.775
  0.000  0.000  0.085  0.915  0.000
  0.120  0.879  0.000  0.000  0.000
  0.000  0.000  0.709  0.066  0.225
  0.879  0.120  0.000  0.000  0.000
    occupations:
  0.686  0.001 -0.000 -0.052 -0.002
  0.001  0.593 -0.000  0.001 -0.000
 -0.000 -0.000  0.524  0.000 -0.013
 -0.052  0.001  0.000  0.618  0.001
 -0.002 -0.000 -0.013  0.001  0.495
atom   23   Tr[ns(na)] =   5.84582
    eigenvalues:
  0.492  0.528  0.551  0.590  0.763
    eigenvectors:
  0.000  0.000  0.056  0.938  0.007
  0.000  0.000  0.944  0.056  0.000
  0.998  0.002  0.000  0.000  0.000
  0.000  0.000  0.000  0.006  0.993
  0.002  0.998  0.000  0.000  0.000
    occupations:
  0.589  0.009 -0.000 -0.014  0.000
  0.009  0.553  0.001  0.001  0.000
 -0.000  0.001  0.492 -0.001 -0.001
 -0.014  0.001 -0.001  0.762 -0.000
  0.000  0.000 -0.001 -0.000  0.528
N of occupied +U levels =  46.6302277
 --- exit write_ns ---

     Threshold (ethr) on eigenvalues was too large:
     Diagonalizing with lowered threshold

     Davidson diagonalization with overlap
     ethr =  4.64E-09,  avg # of iterations =  2.9

[...]

     total energy              =   -1731.61755313 Ry
     Harris-Foulkes estimate   =   -1731.61755315 Ry
     estimated scf accuracy    <       0.00000013 Ry

     iteration # 14     ecut=    40.00 Ry     beta=0.70
     Davidson diagonalization with overlap
     ethr =  5.00E-12,  avg # of iterations =  1.0

     negative rho (up, down):  0.342E-02 0.000E+00

     End of self-consistent calculation
 --- enter write_ns ---
 LDA+U parameters:
U( 2)     =  3.00000000
alpha( 2) =  0.00000000
atom    3   Tr[ns(na)] =   5.83329
    eigenvalues:
  0.477  0.507  0.565  0.620  0.747
    eigenvectors:
  0.012  0.001  0.321  0.000  0.666
  0.001  0.996  0.002  0.001  0.000
  0.965  0.000  0.003  0.023  0.009
  0.000  0.001  0.674  0.001  0.324
  0.023  0.001  0.000  0.976  0.000
    occupations:
  0.685 -0.004  0.024 -0.084 -0.001
 -0.004  0.508 -0.002 -0.001 -0.003
  0.024 -0.002  0.483 -0.010  0.022
 -0.084 -0.001 -0.010  0.624  0.000
 -0.001 -0.003  0.022  0.000  0.617
atom    4   Tr[ns(na)] =   5.82739
    eigenvalues:
  0.434  0.521  0.583  0.632  0.744
    eigenvectors:
  0.000  0.000  0.992  0.008  0.000
  0.000  0.000  0.008  0.992  0.000
  1.000  0.000  0.000  0.000  0.000
  0.000  0.000  0.000  0.000  0.999
  0.000  1.000  0.000  0.000  0.000
    occupations:
  0.584  0.004  0.001 -0.003  0.000
  0.004  0.631  0.003 -0.001 -0.000
  0.001  0.003  0.434 -0.001  0.000
 -0.003 -0.001 -0.001  0.744  0.000
  0.000 -0.000  0.000  0.000  0.521
atom    9   Tr[ns(na)] =   5.83510
    eigenvalues:
  0.494  0.528  0.589  0.594  0.712
    eigenvectors:
  0.000  0.000  0.216  0.008  0.776
  0.000  0.000  0.035  0.965  0.000
  0.129  0.871  0.000  0.000  0.000
  0.000  0.000  0.749  0.027  0.224
  0.871  0.129  0.000  0.000  0.000
    occupations:
  0.684 -0.000 -0.001 -0.051 -0.001
 -0.000  0.594 -0.000 -0.001 -0.000
 -0.001 -0.000  0.523  0.000  0.011
 -0.051 -0.001  0.000  0.617  0.000
 -0.001 -0.000  0.011  0.000  0.499
atom   10   Tr[ns(na)] =   5.78731
    eigenvalues:
  0.489  0.499  0.519  0.649  0.738
    eigenvectors:
  0.069  0.930  0.000  0.001  0.000
  0.000  0.000  0.000  0.999  0.000
  0.931  0.069  0.000  0.000  0.000
  0.000  0.000  0.000  0.000  1.000
  0.000  0.000  1.000  0.000  0.000
    occupations:
  0.498 -0.004 -0.002 -0.004 -0.000
 -0.004  0.649 -0.001  0.000  0.000
 -0.002 -0.001  0.490 -0.000 -0.000
 -0.004  0.000 -0.000  0.738 -0.000
 -0.000  0.000 -0.000 -0.000  0.519
atom   16   Tr[ns(na)] =   5.83268
    eigenvalues:
  0.476  0.506  0.565  0.619  0.750
    eigenvectors:
  0.011  0.001  0.324  0.000  0.663
  0.001  0.996  0.002  0.001  0.000
  0.964  0.000  0.003  0.024  0.009
  0.000  0.001  0.671  0.000  0.328
  0.023  0.001  0.000  0.975  0.000
    occupations:
  0.687  0.003  0.024 -0.086  0.002
  0.003  0.507  0.002  0.001 -0.003
  0.024  0.002  0.482 -0.011 -0.022
 -0.086  0.001 -0.011  0.626 -0.000
  0.002 -0.003 -0.022 -0.000  0.615
atom   17   Tr[ns(na)] =   5.83460
    eigenvalues:
  0.443  0.521  0.585  0.622  0.746
    eigenvectors:
  0.000  0.000  0.985  0.014  0.001
  0.001  0.000  0.014  0.985  0.000
  0.999  0.000  0.000  0.001  0.000
  0.000  0.000  0.001  0.000  0.999
  0.000  1.000  0.000  0.000  0.000
    occupations:
  0.585  0.004  0.001 -0.005  0.000
  0.004  0.622  0.004 -0.001 -0.000
  0.001  0.004  0.444 -0.001  0.000
 -0.005 -0.001 -0.001  0.745  0.000
  0.000 -0.000  0.000  0.000  0.521
atom   22   Tr[ns(na)] =   5.83293
    eigenvalues:
  0.490  0.529  0.589  0.594  0.714
    eigenvectors:
  0.000  0.000  0.205  0.019  0.775
  0.000  0.000  0.086  0.914  0.000
  0.119  0.881  0.000  0.000  0.000
  0.000  0.000  0.708  0.067  0.225
  0.881  0.119  0.000  0.000  0.000
    occupations:
  0.686  0.001 -0.000 -0.052 -0.002
  0.001  0.593 -0.000  0.001 -0.000
 -0.000 -0.000  0.524  0.000 -0.012
 -0.052  0.001  0.000  0.618  0.001
 -0.002 -0.000 -0.012  0.001  0.495
atom   23   Tr[ns(na)] =   5.84661
    eigenvalues:
  0.492  0.528  0.551  0.590  0.763
    eigenvectors:
  0.000  0.000  0.056  0.937  0.007
  0.000  0.000  0.943  0.056  0.000
  0.998  0.002  0.000  0.000  0.000
  0.000  0.000  0.000  0.006  0.993
  0.002  0.998  0.000  0.000  0.000
    occupations:
  0.589  0.009 -0.000 -0.014  0.000
  0.009  0.553  0.001  0.001  0.000
 -0.000  0.001  0.492 -0.001 -0.001
 -0.014  0.001 -0.001  0.762 -0.000
  0.000  0.000 -0.001 -0.000  0.528
N of occupied +U levels =  46.6299107
 --- exit write_ns ---

[...]

          k = 0.2500-0.3900 0.0000 ( 29726 PWs)   bands (ev):

[...]

          k =-0.2500 0.1950 0.0000 ( 29746 PWs)   bands (ev):

   -62.2811 -62.2551 -62.1674 -62.0299 -62.0035 -61.9898 -61.9204 -61.9075
   -36.8314 -36.6730 -36.6485 -36.5846 -36.5542 -36.5093 -36.3301 -36.3238
   -36.3187 -36.3054 -36.2932 -36.2230 -36.2170 -36.1565 -36.1533 -36.1292
   -36.0801 -36.0488 -36.0182 -35.9947 -35.9785 -35.7553 -35.5961 -35.5781
   -20.5695 -20.3204 -19.7492 -19.6417 -19.5712 -19.4842 -19.3521 -19.2764
   -19.1841 -19.1268 -18.8890 -18.7757 -18.7471 -18.6759 -18.6678 -18.5701
   -18.4621 -18.0636 -17.9075  -8.6389  -8.4577  -8.0727  -8.0272  -7.7199
    -7.5985  -7.5439  -7.4396  -7.2659  -7.2111  -7.1581  -7.0228  -6.8655
    -6.7198  -6.6428  -6.3307  -6.2611  -6.1651  -6.1151  -5.9565  -5.8506
    -5.6949  -5.6639  -5.5346  -5.4576  -5.2495  -5.1912  -5.0726  -4.9565
    -4.8408  -4.6682  -4.6132  -4.4441  -4.3899  -4.3429  -4.2723  -4.2317
    -4.1956  -4.1169  -4.0434  -3.9525  -3.8527  -3.7610  -3.6494  -3.5162
    -3.4244  -3.3333  -3.2797  -3.1829  -3.1234  -3.0641  -2.9881  -2.8651
    -2.6987  -2.6514  -2.5941  -2.3324  -1.7287  -1.5958  -1.4717  -0.5568
    -0.4078  -0.3753  -0.2173   0.3516   0.4405   0.7526   0.8576   0.9549
     1.0223   1.2463   1.3019   1.5053   1.6750   1.6913   1.7021   1.9074
     1.9246   1.9799   2.0110   2.3619   2.6126   3.4819   3.6974   3.7762
     3.8957   4.0243   4.1214   4.2334   4.5104   4.6431   4.7355   4.8388
     4.8975   5.0423   5.1003   5.3601   5.6937   5.8740   5.9480   6.0734
     6.1838   6.2735   6.4441   6.4954   6.6165   6.8147   7.1170   7.1680
     7.2875   7.3584   7.6179   7.7074   8.0077   8.1158   8.2856   8.3647
     8.5314   8.6308   8.7456   8.8688   8.9729   9.0678   9.1680   9.3048
     9.4176   9.5021   9.5710   9.6459   9.7187   9.7657   9.8431   9.9794
    10.0955  10.3437  10.3782  10.4569  10.5181  10.6846  10.7424  10.8395
    10.9064  11.0292  11.1406  11.2019  11.3891  11.5087  11.6138  11.6560
    11.7813  11.8906  11.9115  12.0380  12.0865  12.2110  12.3046  12.3616
    12.4141  12.4393  12.5125  12.6426  12.7654  12.8401  12.9687  13.0308
    13.0934  13.1768  13.2431  13.3347  13.3764  13.4745  13.4990  13.5651
    13.6391  13.7280  13.8186  13.8586  13.9413  14.0296  14.0514  14.1114
    14.1783  14.2168  14.2900  14.3469  14.4022  14.5013  14.5364  14.6354
    14.6876  14.7580  14.8612  14.9436  15.0223  15.1053  15.1338  15.2361
    15.3399  15.4386  15.5227  15.5944  15.6134  15.7306  15.7848  15.9506
    15.9679  16.0265  16.0818  16.1433  16.2369  16.3241  16.3907  16.4234
    16.4558  16.4855  16.5676  16.6567  16.7743  16.8164  16.8502  16.9823
    17.0726  17.1433  17.2037  17.2411  17.2735  17.3311  17.4166  17.4894
    17.5408  17.6012  17.7023  17.8262  17.8869  17.9787  18.0604  18.1344
    18.2206  18.2539  18.3058  18.3270  18.4294  18.5518  18.5883  18.7092
    18.7713  18.8498  18.9526  18.9833  19.0576  19.1429  19.2175  19.2668
    19.3748  19.4271  19.5371  19.6007  19.8081  19.8248  19.9250  19.9666
    19.9768  20.0791  20.1320  20.1771  20.2597  20.2877  20.3493  20.3624
    20.3894  20.4736  20.5252  20.6094  20.6496  20.7366  20.7852  20.8218
    20.9110  21.0110  21.0419  21.1392  21.2252  21.2748  21.3258  21.3676
    21.4342  21.4918  21.5387  21.6129  21.6452  21.7305  21.7595  21.7952
    21.8434  21.8810

     the Fermi energy is     0.2078 ev

!    total energy              =   -1731.61755314 Ry
     Harris-Foulkes estimate   =   -1731.61755314 Ry
     estimated scf accuracy    <          4.0E-09 Ry

     The total energy is the sum of the following terms:

     one-electron contribution =  -22259.37546462 Ry
     hartree contribution      =   11155.16414467 Ry
     xc contribution           =    -294.54792348 Ry
     ewald contribution        =    9665.07412073 Ry
     Hubbard energy            =       2.06773993 Ry
     smearing contrib. (-TS)   =      -0.00017036 Ry

     convergence has been achieved in  14 iterations

     Forces acting on atoms (Ry/au):

     negative rho (up, down):  0.342E-02 0.000E+00
     atom    1 type  1   force =    -0.00070139   -0.00499712   -0.00004554
     atom    2 type  1   force =    -0.00021266    0.00803974    0.00039892
     atom    3 type  2   force =     0.00380179   -0.00587158   -0.00006191
     atom    4 type  2   force =     0.00034055    0.00472561   -0.00094612
     atom    5 type  1   force =     0.00101278   -0.01057347    0.00019976
     atom    6 type  1   force =    -0.00057091    0.00741029    0.00018382
     atom    7 type  1   force =     0.00050403    0.00079330    0.00069954
     atom    8 type  1   force =     0.00360735    0.00037571    0.00011373
     atom    9 type  2   force =     0.00074847    0.00070885    0.00029491
     atom   10 type  2   force =    -0.00509055    0.00062989   -0.00050032
     atom   11 type  1   force =    -0.01414951   -0.01843147   -0.00023722
     atom   12 type  1   force =    -0.01446685    0.01687658   -0.00022365
     atom   13 type  1   force =     0.00060212    0.00004731   -0.00020510
     atom   14 type  1   force =    -0.00314106   -0.00606508   -0.00011461
     atom   15 type  1   force =    -0.00032669    0.01056089    0.00021400
     atom   16 type  2   force =     0.00030155   -0.00745823   -0.00010822
     atom   17 type  2   force =    -0.00140894    0.00429875   -0.00069100
     atom   18 type  1   force =     0.00171172   -0.01063768    0.00021606
     atom   19 type  1   force =     0.00036010    0.00825742    0.00013188
     atom   20 type  1   force =    -0.00689417    0.00089766    0.00009789
     atom   21 type  1   force =     0.00296682    0.00060533    0.00009319
     atom   22 type  2   force =    -0.00534979   -0.00028636   -0.00027450
     atom   23 type  2   force =     0.00634811    0.00212985   -0.00037000
     atom   24 type  1   force =     0.01467915   -0.01606381   -0.00003981
     atom   25 type  1   force =     0.01549682    0.01535806   -0.00003122
     atom   26 type  1   force =    -0.00019013    0.00037633   -0.00003456
     atom   27 type  3   force =    -0.00001859   -0.00062864    0.00008761
     atom   28 type  3   force =    -0.00000595   -0.00050431   -0.00006672
     atom   29 type  3   force =    -0.00002456   -0.00004702   -0.00002830
     atom   30 type  3   force =     0.00023619   -0.00007334    0.00008770
     atom   31 type  1   force =    -0.00088679    0.00001891    0.00086028
     atom   32 type  3   force =     0.00072098   -0.00047237    0.00029947

     Total force =     0.002462     Total SCF correction =     0.000284
     SCF correction compared to forces is large: reduce conv_thr to get better values

     bfgs converged in   7 scf cycles and   6 bfgs steps
     (criteria: energy < 0.10E-03, force < 0.10E-02)

     End of BFGS Geometry Optimization

     Final energy   =   -1731.6175531364 Ry
Begin final coordinates

ATOMIC_POSITIONS (crystal)
O0       0.000000000   0.000000000   0.371394048    0   0   1
O0       0.000000000   0.500000000   0.383092244    0   0   1
Mo1      0.250000000   0.500000000   0.440651880    0   0   1
Mo1      0.000000000   0.000000000   0.443534127    0   0   1
O0       0.250000000   0.780000000   0.443262524    0   0   1
O0       0.250000000   0.220000000   0.443212432    0   0   1
O0       0.000000000   0.500000000   0.498124441    0   0   1
O0       0.000000000   0.000000000   0.516519026    0   0   1
Mo1      0.250000000   0.000000000   0.575289604    0   0   1
Mo1      0.000000000   0.500000000   0.565450818    0   0   1
O0       0.250000000   0.720000000   0.571042151    0   0   1
O0       0.250000000   0.280000000   0.571219293    0   0   1
O0       0.000000000   0.000000000   0.625732643    0   0   1
O0       0.500000000   0.000000000   0.371621809    0   0   1
O0       0.500000000   0.500000000   0.382843338    0   0   1
Mo1      0.750000000   0.500000000   0.440530595    0   0   1
Mo1      0.500000000   0.000000000   0.444071639    0   0   1
O0       0.750000000   0.780000000   0.443346048    0   0   1
O0       0.750000000   0.220000000   0.443139931    0   0   1
O0       0.500000000   0.500000000   0.498770355    0   0   1
O0       0.500000000   0.000000000   0.516244895    0   0   1
Mo1      0.750000000   0.000000000   0.575144799    0   0   1
Mo1      0.500000000   0.500000000   0.571177442    0   0   1
O0       0.750000000   0.720000000   0.570802582    0   0   1
O0       0.750000000   0.280000000   0.570780596    0   0   1
O0       0.500000000   0.000000000   0.625661106    0   0   1
H2      -0.000779493   0.609895438   0.360387606
H2       0.499492091   0.617283898   0.362671385
H2       0.166908884   0.017150374   0.356905500
H2       0.665220328   0.018986979   0.356697447
O0       0.513208392   0.500208751   0.641843590
H2       0.390522106   0.495154409   0.668184106
End final coordinates

     General routines

     Parallel routines
     Hubbard U routines

   This run was terminated on:   7:38:21  29Apr2014

   JOB DONE.
Running PBS batch system epilogue script
Job id: 340388.audhumbla.fysik.dtu.dk
Username: zhonxu
Groupname: campgst
Jobname: MoO2/Eads-2-layers/OH-U-3.0
Sessionid: 24633
Queuename: verylong
Accounting:
This job has allocated the following 16 nodes:
b040 b040 b040 b040 b040 b040 b040 b040 b035 b035 b035 b035 b035 b035 b035 b035
Finished epilogue job 340388.audhumbla.fysik.dtu.dk for zhonxu