     Program PWSCF v.5.0.2 (svn rev. 9656) starts on 30Apr2014 at 20:28:31

     Current dimensions of program PWSCF are:
     Max number of different atomic species (ntypx) = 10
     Max number of k-points (npk) =  40000
     Max angular momentum in pseudopotentials (lmaxx) =  3
     Reading input from pwscf.in
Warning: card &CELL ignored
Warning: card / ignored

     Subspace diagonalization in iterative solution of the eigenvalue problem:
     a serial algorithm will be used

     bravais-lattice index     =            0
     lattice parameter (alat)  =      11.7541  a.u.
     unit-cell volume          =    7139.8207 (a.u.)^3
     number of atoms/cell      =           32
     number of atomic types    =            3
     number of electrons       =       239.00
     number of Kohn-Sham states=          358
     kinetic-energy cutoff     =      40.0000  Ry
     charge density cutoff     =     500.0000  Ry
     convergence threshold     =      1.0E-06
     mixing beta               =       0.7000
     number of iterations used =            8  plain     mixing
     Exchange-correlation      = SLA  PW   PBE  PBE ( 1 4 3 4 0)
     EXX-fraction              =        0.00
     nstep                     =           50

     celldm(1)=  11.754097  celldm(2)=   0.000000  celldm(3)=   0.000000
     celldm(4)=   0.000000  celldm(5)=   0.000000  celldm(6)=   0.000000

     crystal axes: (cart. coord. in units of alat)
               a(1) = (   1.000000   0.000000   0.000000 )
               a(2) = (   0.000000   1.034513   0.000000 )
               a(3) = (   0.000000   0.000000   4.249947 )

     reciprocal axes: (cart. coord. in units 2 pi/alat)
               b(1) = (  1.000000  0.000000  0.000000 )
               b(2) = (  0.000000  0.966638  0.000000 )
               b(3) = (  0.000000  0.000000  0.235297 )

     PseudoPot. # 1 for O  read from file:
     /home/camp/zhonxu/pseudo/o_pbe_v1.01.uspp.F.UPF
     MD5 check sum: 2bcb18d16ea4b960afae9ec6d52f22d2
     Pseudo is Ultrasoft + core correction, Zval =  6.0
     Generated by new atomic code, or converted to UPF format
     Using radial grid of  737 points,  5 beta functions with:
                l(1) =   0
                l(2) =   0
                l(3) =   1
                l(4) =   1
                l(5) =   2
     Q(r) pseudized with  8 coefficients,  rinner =    0.900   0.900   0.900
                                                       0.900   0.900

     PseudoPot. # 2 for Rh read from file:
     /home/camp/zhonxu/pseudo/rh_pbe_v1.uspp.F.UPF
     MD5 check sum: 37b626987ad0dd8ec6bf4cc9ef289918
     Pseudo is Ultrasoft + core correction, Zval = 15.0
     Generated by new atomic code, or converted to UPF format
     Using radial grid of  969 points,  7 beta functions with:
                l(1) =   0
                l(2) =   0
                l(3) =   1
                l(4) =   1
                l(5) =   2
                l(6) =   2
                l(7) =   2
     Q(r) pseudized with  6 coefficients,  rinner =    1.050   1.050   1.050
                                                       1.050   1.050

     PseudoPot. # 3 for H  read from file:
     /home/camp/zhonxu/pseudo/h_pbe_v1.uspp.F.UPF
     MD5 check sum: 3408e3ff4ec8b0a4e358431e7e038a48
     Pseudo is Ultrasoft, Zval =  1.0
     Generated by new atomic code, or converted to UPF format
     Using radial grid of  615 points,  2 beta functions with:
                l(1) =   0
                l(2) =   0
     Q(r) pseudized with  8 coefficients,  rinner =    0.700

     atomic species   valence    mass     pseudopotential
        O0             6.00    15.99940     O ( 1.00)
        Rh1           15.00   102.90550     Rh( 1.00)
        H2             1.00     1.00794     H ( 1.00)

     Simplified LDA+U calculation (l_max = 2) with parameters (eV):
     atomic species    L          U    alpha       J0     beta
        Rh1            2     3.5000   0.0000   0.0000   0.0000

     No symmetry found

   Cartesian axes

     site n.     atom                  positions (alat units)
         1           O0  tau(   1) = (   0.0000000   0.0000000   1.6077125  )
         2           O0  tau(   2) = (   0.0000000   0.5172566   1.7060138  )
         3           Rh1 tau(   3) = (   0.2500000   0.5172566   1.9233561  )
         4           Rh1 tau(   4) = (   0.0000000   0.0000000   1.9242061  )
         5           O0  tau(   5) = (   0.2500000   0.8379556   1.9221236  )
         6           O0  tau(   6) = (   0.2500000   0.1965575   1.9218261  )
         7           O0  tau(   7) = (   0.0000000   0.5172566   2.1180887  )
         8           O0  tau(   8) = (   0.0000000   0.0000000   2.2452046  )
         9           Rh1 tau(   9) = (   0.2500000   0.0000000   2.4467796  )
        10           Rh1 tau(  10) = (   0.0000000   0.5172566   2.4248074  )
        11           O0  tau(  11) = (   0.2500000   0.7138141   2.4490746  )
        12           O0  tau(  12) = (   0.2500000   0.3206991   2.4494996  )
        13           O0  tau(  13) = (   0.0000000   0.0000000   2.6392597  )
        14           O0  tau(  14) = (   0.5000000   0.0000000   1.6071175  )
        15           O0  tau(  15) = (   0.5000000   0.5172566   1.7046963  )
        16           Rh1 tau(  16) = (   0.7500000   0.5172566   1.9233561  )
        17           Rh1 tau(  17) = (   0.5000000   0.0000000   1.9236961  )
        18           O0  tau(  18) = (   0.7500000   0.8379556   1.9222086  )
        19           O0  tau(  19) = (   0.7500000   0.1965575   1.9219111  )
        20           O0  tau(  20) = (   0.5000000   0.5172566   2.1234861  )
        21           O0  tau(  21) = (   0.5000000   0.0000000   2.2446521  )
        22           Rh1 tau(  22) = (   0.7500000   0.0000000   2.4466946  )
        23           Rh1 tau(  23) = (   0.5000000   0.5172566   2.4467371  )
        24           O0  tau(  24) = (   0.7500000   0.7138141   2.4449521  )
        25           O0  tau(  25) = (   0.7500000   0.3206991   2.4452921  )
        26           O0  tau(  26) = (   0.5000000   0.0000000   2.6379847  )
        27           H2  tau(  27) = (  -0.0000100   0.6596573   1.6332972  )
        28           H2  tau(  28) = (   0.4999400   0.6612505   1.6349547  )
        29           H2  tau(  29) = (   0.1484100   0.0351631   1.5627056  )
        30           H2  tau(  30) = (   0.6482100   0.0356700   1.5619406  )
        31           O0  tau(  31) = (   0.5154200   0.5168841   2.7565583  )
        32           H2  tau(  32) = (   0.3686900   0.5167083   2.8162275  )

     number of k points=    10  Methfessel-Paxton smearing, width (Ry)=  0.0100
                       cart. coord. in units 2pi/alat
        k(    1) = (   0.0000000   0.0000000   0.0000000), wk =   0.1250000
        k(    2) = (   0.0000000   0.2416596   0.0000000), wk =   0.2500000
        k(    3) = (   0.0000000  -0.4833191   0.0000000), wk =   0.1250000
        k(    4) = (   0.2500000   0.0000000   0.0000000), wk =   0.2500000
        k(    5) = (   0.2500000   0.2416596   0.0000000), wk =   0.2500000
        k(    6) = (   0.2500000  -0.4833191   0.0000000), wk =   0.2500000
        k(    7) = (  -0.5000000   0.0000000   0.0000000), wk =   0.1250000
        k(    8) = (  -0.5000000   0.2416596   0.0000000), wk =   0.2500000
        k(    9) = (  -0.5000000  -0.4833191   0.0000000), wk =   0.1250000
        k(   10) = (  -0.2500000   0.2416596   0.0000000), wk =   0.2500000

     Largest allocated arrays     est. size (Mb)     dimensions
     Largest temporary arrays     est. size (Mb)     dimensions

     Check: negative/imaginary core charge=   -0.000003    0.000000

     Initial potential from superposition of free atoms
     Check: negative starting charge=   -0.644969

     starting charge  234.99914, renormalised to  239.00000

     negative rho (up, down):  0.656E+00 0.000E+00
     Number of +U iterations with fixed ns =  0
     Starting occupations:
 --- enter write_ns ---
 LDA+U parameters:
U( 2)     =  3.50000000
alpha( 2) =  0.00000000
atom    3   Tr[ns(na)] =   7.00000
    eigenvalues:
  0.700  0.700  0.700  0.700  0.700
    eigenvectors:
  1.000  0.000  0.000  0.000  0.000
  0.000  1.000  0.000  0.000  0.000
  0.000  0.000  1.000  0.000  0.000
  0.000  0.000  0.000  1.000  0.000
  0.000  0.000  0.000  0.000  1.000
    occupations:
  0.700  0.000  0.000  0.000  0.000
  0.000  0.700  0.000  0.000  0.000
  0.000  0.000  0.700  0.000  0.000
  0.000  0.000  0.000  0.700  0.000
  0.000  0.000  0.000  0.000  0.700
atom    4   Tr[ns(na)] =   7.00000
    eigenvalues:
  0.700  0.700  0.700  0.700  0.700
    eigenvectors:
  1.000  0.000  0.000  0.000  0.000
  0.000  1.000  0.000  0.000  0.000
  0.000  0.000  1.000  0.000  0.000
  0.000  0.000  0.000  1.000  0.000
  0.000  0.000  0.000  0.000  1.000
    occupations:
  0.700  0.000  0.000  0.000  0.000
  0.000  0.700  0.000  0.000  0.000
  0.000  0.000  0.700  0.000  0.000
  0.000  0.000  0.000  0.700  0.000
  0.000  0.000  0.000  0.000  0.700
atom    9   Tr[ns(na)] =   7.00000
    eigenvalues:
  0.700  0.700  0.700  0.700  0.700
    eigenvectors:
  1.000  0.000  0.000  0.000  0.000
  0.000  1.000  0.000  0.000  0.000
  0.000  0.000  1.000  0.000  0.000
  0.000  0.000  0.000  1.000  0.000
  0.000  0.000  0.000  0.000  1.000
    occupations:
  0.700  0.000  0.000  0.000  0.000
  0.000  0.700  0.000  0.000  0.000
  0.000  0.000  0.700  0.000  0.000
  0.000  0.000  0.000  0.700  0.000
  0.000  0.000  0.000  0.000  0.700
atom   10   Tr[ns(na)] =   7.00000
    eigenvalues:
  0.700  0.700  0.700  0.700  0.700
    eigenvectors:
  1.000  0.000  0.000  0.000  0.000
  0.000  1.000  0.000  0.000  0.000
  0.000  0.000  1.000  0.000  0.000
  0.000  0.000  0.000  1.000  0.000
  0.000  0.000  0.000  0.000  1.000
    occupations:
  0.700  0.000  0.000  0.000  0.000
  0.000  0.700  0.000  0.000  0.000
  0.000  0.000  0.700  0.000  0.000
  0.000  0.000  0.000  0.700  0.000
  0.000  0.000  0.000  0.000  0.700
atom   16   Tr[ns(na)] =   7.00000
    eigenvalues:
  0.700  0.700  0.700  0.700  0.700
    eigenvectors:
  1.000  0.000  0.000  0.000  0.000
  0.000  1.000  0.000  0.000  0.000
  0.000  0.000  1.000  0.000  0.000
  0.000  0.000  0.000  1.000  0.000
  0.000  0.000  0.000  0.000  1.000
    occupations:
  0.700  0.000  0.000  0.000  0.000
  0.000  0.700  0.000  0.000  0.000
  0.000  0.000  0.700  0.000  0.000
  0.000  0.000  0.000  0.700  0.000
  0.000  0.000  0.000  0.000  0.700
atom   17   Tr[ns(na)] =   7.00000
    eigenvalues:
  0.700  0.700  0.700  0.700  0.700
    eigenvectors:
  1.000  0.000  0.000  0.000  0.000
  0.000  1.000  0.000  0.000  0.000
  0.000  0.000  1.000  0.000  0.000
  0.000  0.000  0.000  1.000  0.000
  0.000  0.000  0.000  0.000  1.000
    occupations:
  0.700  0.000  0.000  0.000  0.000
  0.000  0.700  0.000  0.000  0.000
  0.000  0.000  0.700  0.000  0.000
  0.000  0.000  0.000  0.700  0.000
  0.000  0.000  0.000  0.000  0.700
atom   22   Tr[ns(na)] =   7.00000
    eigenvalues:
  0.700  0.700  0.700  0.700  0.700
    eigenvectors:
  1.000  0.000  0.000  0.000  0.000
  0.000  1.000  0.000  0.000  0.000
  0.000  0.000  1.000  0.000  0.000
  0.000  0.000  0.000  1.000  0.000
[...]
  0.012  0.836  0.000  0.000  0.152
  0.000  0.000  0.006  0.994  0.000
    occupations:
  0.927  0.000 -0.000 -0.119 -0.000
  0.000  0.637  0.000  0.001 -0.000
 -0.000  0.000  0.860 -0.000 -0.003
 -0.119  0.001 -0.000  0.696  0.001
 -0.000 -0.000 -0.003  0.001  0.896
atom   10   Tr[ns(na)] =   8.03187
    eigenvalues:
  0.594  0.601  0.919  0.923  0.978
    eigenvectors:
  0.000  0.992  0.000  0.000  0.008
  0.000  0.000  1.000  0.000  0.000
  0.000  0.000  0.000  1.000  0.000
  0.000  0.008  0.000  0.000  0.992
  1.000  0.000  0.000  0.000  0.000
    occupations:
  0.604 -0.003  0.001  0.033 -0.000
 -0.003  0.919  0.000  0.000 -0.000
  0.001  0.000  0.923  0.000  0.003
  0.033  0.000  0.000  0.975  0.000
 -0.000 -0.000  0.003  0.000  0.594
atom   16   Tr[ns(na)] =   8.04166
    eigenvalues:
  0.584  0.606  0.895  0.960  0.976
    eigenvectors:
  0.008  0.193  0.003  0.001  0.796
  0.971  0.029  0.000  0.000  0.000
  0.000  0.000  0.972  0.026  0.002
  0.021  0.778  0.000  0.000  0.200
  0.000  0.000  0.025  0.973  0.001
    occupations:
  0.901  0.006  0.002 -0.148  0.001
  0.006  0.585  0.001  0.001 -0.006
  0.002  0.001  0.897 -0.004 -0.010
 -0.148  0.001 -0.004  0.679  0.000
  0.001 -0.006 -0.010  0.000  0.958
atom   17   Tr[ns(na)] =   8.03799
    eigenvalues:
  0.600  0.649  0.874  0.920  0.977
    eigenvectors:
  0.001  0.992  0.000  0.000  0.007
  0.000  0.000  0.077  0.922  0.000
  0.000  0.000  0.923  0.077  0.000
  0.000  0.007  0.000  0.000  0.993
  0.999  0.001  0.000  0.000  0.000
    occupations:
  0.651 -0.004 -0.001  0.028  0.001
 -0.004  0.916  0.012  0.001 -0.001
 -0.001  0.012  0.877 -0.000  0.001
  0.028  0.001 -0.000  0.975  0.000
  0.001 -0.001  0.001  0.000  0.600
atom   22   Tr[ns(na)] =   8.02875
    eigenvalues:
  0.638  0.647  0.852  0.899  0.978
    eigenvectors:
  0.000  0.150  0.000  0.000  0.849
  0.999  0.001  0.000  0.000  0.000
  0.000  0.000  0.996  0.004  0.000
  0.001  0.849  0.000  0.000  0.150
  0.000  0.000  0.004  0.996  0.000
    occupations:
  0.928  0.001 -0.000 -0.118 -0.000
  0.001  0.638  0.001 -0.001 -0.000
 -0.000  0.001  0.853 -0.000  0.003
 -0.118 -0.001 -0.000  0.697  0.001
 -0.000 -0.000  0.003  0.001  0.899
atom   23   Tr[ns(na)] =   8.02673
    eigenvalues:
  0.605  0.652  0.852  0.928  0.976
    eigenvectors:
  0.000  0.991  0.000  0.000  0.008
  0.000  0.000  0.000  0.999  0.000
  0.000  0.000  1.000  0.000  0.000
  0.000  0.008  0.000  0.000  0.992
  1.000  0.000  0.000  0.000  0.000
    occupations:
  0.655  0.006 -0.000  0.029 -0.000
  0.006  0.928 -0.000 -0.000 -0.000
 -0.000 -0.000  0.852  0.000 -0.002
  0.029 -0.000  0.000  0.974  0.000
 -0.000 -0.000 -0.002  0.000  0.605
N of occupied +U levels =  64.2794230
 --- exit write_ns ---

     Threshold (ethr) on eigenvalues was too large:
     Diagonalizing with lowered threshold

     Davidson diagonalization with overlap
     ethr =  1.48E-08,  avg # of iterations =  2.0

[...]

     total energy              =   -1980.21718765 Ry
     Harris-Foulkes estimate   =   -1980.21718765 Ry
     estimated scf accuracy    <       0.00000006 Ry

     iteration # 15     ecut=    40.00 Ry     beta=0.70
     Davidson diagonalization with overlap
     ethr =  2.44E-11,  avg # of iterations =  1.0

     negative rho (up, down):  0.692E+00 0.000E+00

     End of self-consistent calculation
 --- enter write_ns ---
 LDA+U parameters:
U( 2)     =  3.50000000
alpha( 2) =  0.00000000
atom    3   Tr[ns(na)] =   8.04181
    eigenvalues:
  0.583  0.605  0.896  0.960  0.976
    eigenvectors:
  0.007  0.194  0.003  0.001  0.796
  0.974  0.026  0.000  0.000  0.000
  0.000  0.000  0.966  0.032  0.002
  0.019  0.780  0.000  0.000  0.200
  0.000  0.000  0.031  0.967  0.001
    occupations:
  0.901 -0.006  0.002 -0.148 -0.002
 -0.006  0.584 -0.002 -0.001 -0.006
  0.002 -0.002  0.898 -0.004  0.011
 -0.148 -0.001 -0.004  0.679 -0.001
 -0.002 -0.006  0.011 -0.001  0.958
atom    4   Tr[ns(na)] =   8.03703
    eigenvalues:
  0.600  0.649  0.871  0.921  0.977
    eigenvectors:
  0.001  0.992  0.000  0.000  0.008
  0.000  0.000  0.052  0.948  0.000
  0.000  0.000  0.948  0.052  0.000
  0.000  0.008  0.000  0.000  0.992
  0.999  0.001  0.000  0.000  0.000
    occupations:
  0.652 -0.004 -0.001  0.028  0.001
 -0.004  0.918  0.011  0.001 -0.001
 -0.001  0.011  0.873 -0.001  0.001
  0.028  0.001 -0.001  0.975  0.000
  0.001 -0.001  0.001  0.000  0.600
atom    9   Tr[ns(na)] =   8.03249
    eigenvalues:
  0.637  0.645  0.860  0.896  0.978
    eigenvectors:
  0.002  0.150  0.000  0.000  0.848
  0.986  0.014  0.000  0.000  0.000
  0.000  0.000  0.994  0.006  0.000
  0.012  0.836  0.000  0.000  0.152
  0.000  0.000  0.006  0.994  0.000
    occupations:
  0.927  0.000 -0.000 -0.119 -0.000
  0.000  0.637  0.000  0.001 -0.000
 -0.000  0.000  0.860 -0.000 -0.003
 -0.119  0.001 -0.000  0.696  0.001
 -0.000 -0.000 -0.003  0.001  0.896
atom   10   Tr[ns(na)] =   8.03262
    eigenvalues:
  0.594  0.601  0.920  0.923  0.978
    eigenvectors:
  0.000  0.992  0.000  0.000  0.008
  0.000  0.000  1.000  0.000  0.000
  0.000  0.000  0.000  1.000  0.000
  0.000  0.008  0.000  0.000  0.992
  1.000  0.000  0.000  0.000  0.000
    occupations:
  0.604 -0.003  0.001  0.033 -0.000
 -0.003  0.919  0.000  0.000 -0.000
  0.001  0.000  0.923  0.000  0.003
  0.033  0.000  0.000  0.975  0.000
 -0.000 -0.000  0.003  0.000  0.594
atom   16   Tr[ns(na)] =   8.04161
    eigenvalues:
  0.584  0.606  0.895  0.960  0.976
    eigenvectors:
  0.008  0.193  0.003  0.001  0.796
  0.971  0.029  0.000  0.000  0.000
  0.000  0.000  0.972  0.026  0.002
  0.021  0.778  0.000  0.000  0.200
  0.000  0.000  0.025  0.973  0.001
    occupations:
  0.901  0.006  0.002 -0.148  0.001
  0.006  0.585  0.001  0.001 -0.006
  0.002  0.001  0.897 -0.004 -0.010
 -0.148  0.001 -0.004  0.679  0.000
  0.001 -0.006 -0.010  0.000  0.958
atom   17   Tr[ns(na)] =   8.03687
    eigenvalues:
  0.600  0.649  0.873  0.919  0.977
    eigenvectors:
  0.001  0.992  0.000  0.000  0.007
  0.000  0.000  0.077  0.923  0.000
  0.000  0.000  0.923  0.077  0.000
  0.000  0.007  0.000  0.000  0.993
  0.999  0.001  0.000  0.000  0.000
    occupations:
  0.651 -0.004 -0.001  0.028  0.001
 -0.004  0.916  0.012  0.001 -0.001
 -0.001  0.012  0.877 -0.000  0.001
  0.028  0.001 -0.000  0.975  0.000
  0.001 -0.001  0.001  0.000  0.600
atom   22   Tr[ns(na)] =   8.02904
    eigenvalues:
  0.638  0.647  0.853  0.899  0.978
    eigenvectors:
  0.000  0.150  0.000  0.000  0.849
  0.999  0.001  0.000  0.000  0.000
  0.000  0.000  0.996  0.004  0.000
  0.001  0.849  0.000  0.000  0.150
  0.000  0.000  0.004  0.996  0.000
    occupations:
  0.928  0.001 -0.000 -0.118 -0.000
  0.001  0.638  0.001 -0.001 -0.000
 -0.000  0.001  0.853 -0.000  0.003
 -0.118 -0.001 -0.000  0.697  0.001
 -0.000 -0.000  0.003  0.001  0.899
atom   23   Tr[ns(na)] =   8.02787
    eigenvalues:
  0.605  0.652  0.852  0.928  0.976
    eigenvectors:
  0.000  0.991  0.000  0.000  0.008
  0.000  0.000  0.000  0.999  0.000
  0.000  0.000  1.000  0.000  0.000
  0.000  0.008  0.000  0.000  0.992
  1.000  0.000  0.000  0.000  0.000
    occupations:
  0.655  0.006 -0.000  0.029 -0.000
  0.006  0.928 -0.000 -0.000 -0.000
 -0.000 -0.000  0.852  0.000 -0.002
  0.029 -0.000  0.000  0.974  0.000
 -0.000 -0.000 -0.002  0.000  0.605
N of occupied +U levels =  64.2793360
 --- exit write_ns ---

[...]

          k = 0.2500-0.4833 0.0000 ( 30510 PWs)   bands (ev):

[...]

          k =-0.2500 0.2417 0.0000 ( 30481 PWs)   bands (ev):

   -49.0070 -48.9498 -48.9389 -48.9143 -48.8902 -48.8781 -48.8618 -48.8390
   -48.8244 -48.8221 -48.8059 -48.7995 -48.7181 -48.7116 -48.6869 -48.5905
   -48.5845 -48.5590 -48.5308 -48.5301 -48.4950 -48.4919 -48.4893 -48.4634
   -21.3393 -21.0578 -20.9409 -20.8197 -20.5443 -20.4258 -20.3674 -20.3518
   -20.2607 -20.1608 -20.0912 -20.0493 -20.0125 -20.0003 -19.8384 -19.8110
   -19.7639 -19.0393 -18.9063  -9.8213  -9.7467  -9.6329  -9.3795  -9.0982
    -9.0083  -8.9944  -8.8891  -8.6795  -8.6490  -8.6138  -8.5174  -8.4809
    -8.4182  -8.2412  -8.1334  -7.9663  -7.9448  -7.6941  -7.5137  -7.4164
    -7.3304  -7.2665  -7.0926  -7.0032  -6.9184  -6.8394  -6.6732  -6.4501
    -6.4418  -6.3915  -6.3459  -6.2483  -6.1759  -6.0954  -6.0416  -5.9704
    -5.8807  -5.8065  -5.7474  -5.6085  -5.4583  -5.4143  -5.1931  -5.0361
    -4.9816  -4.8538  -4.7517  -4.6315  -4.5752  -4.5039  -4.2918  -4.1907
    -4.0776  -4.0058  -3.9259  -3.8748  -3.7346  -3.6347  -3.5671  -3.4918
    -3.4295  -3.3358  -3.2808  -3.2385  -3.1983  -3.1672  -3.0745  -3.0232
    -2.9707  -2.8487  -2.5302  -2.3397  -2.2199  -2.0553  -1.9211  -1.8883
    -1.8555  -1.6768  -1.5781  -1.4821  -0.8333  -0.2806  -0.2090   0.0908
     0.3944   0.6176   0.8986   1.0836   1.3819   1.4449   1.6058   1.6473
     1.7668   1.8799   1.9501   2.2931   3.6887   3.8948   4.5859   4.9754
     5.3614   5.5067   5.5680   5.8709   6.1364   6.3560   6.4638   6.4814
     6.5335   6.7772   6.8833   7.0852   7.2630   7.4516   7.5549   7.7074
     7.8889   7.9617   8.0736   8.1777   8.2321   8.3374   8.4496   8.5582
     8.7335   8.8458   8.9355   8.9777   9.0994   9.2473   9.4592   9.5705
     9.6331   9.7357   9.8106   9.9148   9.9361  10.0020  10.1930  10.2237
    10.3430  10.3672  10.4289  10.5910  10.7015  10.7393  10.8414  10.9495
    11.0340  11.0860  11.2112  11.2270  11.3404  11.4094  11.4954  11.5520
    11.5883  11.6988  11.7911  11.8257  11.8949  12.0274  12.1583  12.1952
    12.2457  12.2842  12.3619  12.4440  12.4999  12.5395  12.6398  12.6974
    12.7829  12.8315  12.9221  12.9947  13.1258  13.1749  13.2539  13.2851
    13.3829  13.4489  13.5231  13.5579  13.7353  13.7907  13.8541  13.9457
    14.0085  14.0418  14.1620  14.2233  14.2863  14.3238  14.4111  14.4667
    14.5955  14.6588  14.7112  14.8078  14.9841  15.0646  15.2073  15.3282
    15.3641  15.4000  15.4895  15.5389  15.5849  15.6012  15.6998  15.7830
    15.8098  15.8555  15.9176  16.0335  16.0907  16.1405  16.1899  16.3093
    16.3715  16.4142  16.4552  16.4926  16.5304  16.5811  16.6354  16.7342
    16.7784  16.8715  16.9469  17.0236  17.0879  17.1953  17.2282  17.2561
    17.3576  17.4001  17.4743  17.5203  17.5826  17.6519  17.7428  17.8344
    17.8852  17.9571  18.0258  18.0825  18.1031  18.2335  18.2851  18.3226
    18.4450  18.5225  18.5995  18.6713  18.7502  18.8162  18.8593  18.9310
    18.9788  19.0318  19.1295  19.1466  19.2511  19.2818  19.3374  19.4655
    19.5334  19.6102  19.6482  19.7458  19.7868  19.8923  19.9543  20.0495
    20.1594  20.2133  20.2981  20.3796  20.4906  20.5555  20.5991  20.6601
    20.7331  20.7875  20.8486  20.9168  20.9648  21.0713  21.1664  21.1868
    21.2375  21.2885  21.3266  21.3908  21.4411  21.4815  21.5446  21.6660
    21.7209  21.7912  21.8248  21.8608  21.9442  21.9865  22.0706  22.1228
    22.2226  22.2610  22.3677  22.4166  22.4968  22.5700

     the Fermi energy is    -1.9180 ev

!    total energy              =   -1980.21718765 Ry
     Harris-Foulkes estimate   =   -1980.21718765 Ry
     estimated scf accuracy    <          1.7E-09 Ry

     The total energy is the sum of the following terms:

     one-electron contribution =  -23357.40214563 Ry
     hartree contribution      =   11728.17722808 Ry
     xc contribution           =    -372.95923087 Ry
     ewald contribution        =   10020.59338176 Ry
     Hubbard energy            =       1.37517595 Ry
     smearing contrib. (-TS)   =      -0.00159694 Ry

     convergence has been achieved in  15 iterations

     Forces acting on atoms (Ry/au):

     negative rho (up, down):  0.692E+00 0.000E+00
     atom    1 type  1   force =    -0.00680997   -0.01267472   -0.00001038
     atom    2 type  1   force =     0.00036804    0.00394875   -0.00031807
     atom    3 type  2   force =     0.03068291    0.00761461   -0.00017979
     atom    4 type  2   force =     0.00825599    0.00898967   -0.00004010
     atom    5 type  1   force =    -0.00307586   -0.02922790    0.00008209
     atom    6 type  1   force =     0.00258119    0.02567400    0.00017673
     atom    7 type  1   force =     0.00200132   -0.00153974    0.00006037
     atom    8 type  1   force =    -0.00151646   -0.00093806   -0.00030046
     atom    9 type  2   force =     0.00412779   -0.00014276   -0.00013644
     atom   10 type  2   force =    -0.00623933   -0.00149349   -0.00045400
     atom   11 type  1   force =    -0.00978234    0.01281995    0.00023510
     atom   12 type  1   force =    -0.00999799   -0.01267935    0.00022316
     atom   13 type  1   force =    -0.00114410   -0.00001588   -0.00008506
     atom   14 type  1   force =    -0.00662015   -0.01287632    0.00023680
     atom   15 type  1   force =     0.00025668    0.00420296   -0.00035425
     atom   16 type  2   force =    -0.03179306    0.00633971   -0.00020079
     atom   17 type  2   force =     0.00837565    0.00910286   -0.00022844
     atom   18 type  1   force =    -0.00120522   -0.02903907    0.00009296
     atom   19 type  1   force =     0.00394097    0.02647169    0.00017804
     atom   20 type  1   force =    -0.00162331   -0.00494553    0.00086343
     atom   21 type  1   force =    -0.00410960   -0.00058058   -0.00030891
     atom   22 type  2   force =    -0.00081539    0.00056406   -0.00028558
     atom   23 type  2   force =     0.00269627    0.00027086    0.00017669
     atom   24 type  1   force =     0.01036693    0.01786462    0.00004173
     atom   25 type  1   force =     0.01128636   -0.01810649    0.00003044
     atom   26 type  1   force =    -0.00085490   -0.00017001    0.00007925
     atom   27 type  3   force =    -0.00000395    0.00017816    0.00029686
     atom   28 type  3   force =     0.00001291    0.00024083    0.00040276
     atom   29 type  3   force =    -0.00007115    0.00010659    0.00007219
     atom   30 type  3   force =    -0.00026997    0.00018504   -0.00003788
     atom   31 type  1   force =     0.00038283   -0.00007846   -0.00017773
     atom   32 type  3   force =     0.00059693   -0.00006601   -0.00013070

     Total force =     0.001707     Total SCF correction =     0.000108

     bfgs converged in   9 scf cycles and   8 bfgs steps
     (criteria: energy < 0.10E-03, force < 0.10E-02)

     End of BFGS Geometry Optimization

     Final energy   =   -1980.2171876479 Ry
Begin final coordinates

ATOMIC_POSITIONS (crystal)
O0       0.000000000   0.000000000   0.378459571    0   0   1
O0       0.000000000   0.500000000   0.402015130    0   0   1
Rh1      0.250000000   0.500000000   0.452761172    0   0   1
Rh1      0.000000000   0.000000000   0.452757960    0   0   1
O0       0.250000000   0.810000000   0.452387524    0   0   1
O0       0.250000000   0.190000000   0.452206590    0   0   1
O0       0.000000000   0.500000000   0.499076236    0   0   1
O0       0.000000000   0.000000000   0.528193961    0   0   1
Rh1      0.250000000   0.000000000   0.575513712    0   0   1
Rh1      0.000000000   0.500000000   0.570730996    0   0   1
O0       0.250000000   0.690000000   0.575946047    0   0   1
O0       0.250000000   0.310000000   0.576020329    0   0   1
O0       0.000000000   0.000000000   0.620861875    0   0   1
O0       0.500000000   0.000000000   0.378181596    0   0   1
O0       0.500000000   0.500000000   0.401585772    0   0   1
Rh1      0.750000000   0.500000000   0.452758753    0   0   1
Rh1      0.500000000   0.000000000   0.452476266    0   0   1
O0       0.750000000   0.810000000   0.452393567    0   0   1
O0       0.750000000   0.190000000   0.452216862    0   0   1
O0       0.500000000   0.500000000   0.499992997    0   0   1
O0       0.500000000   0.000000000   0.528071244    0   0   1
Rh1      0.750000000   0.000000000   0.575453517    0   0   1
Rh1      0.500000000   0.500000000   0.575316187    0   0   1
O0       0.750000000   0.690000000   0.574871625    0   0   1
O0       0.750000000   0.310000000   0.574934428    0   0   1
O0       0.500000000   0.000000000   0.620656488    0   0   1
H2      -0.000129451   0.636439935   0.384495355
H2       0.499851565   0.638377575   0.384939283
H2       0.148184648   0.034319650   0.367734521
H2       0.648065133   0.035112436   0.367517499
O0       0.516551799   0.499442061   0.648113116
H2       0.370362365   0.499357275   0.662479823
End final coordinates

     General routines

     Parallel routines
     Hubbard U routines

   This run was terminated on:   7:29:17   1May2014

   JOB DONE.
Running PBS batch system epilogue script
Job id: 340559.audhumbla.fysik.dtu.dk
Username: zhonxu
Groupname: campgst
Jobname: RhO2/Eads-2-layers/OH-U-3.5
Sessionid: 6334
Queuename: verylong
Accounting:
This job has allocated the following 16 nodes:
c125 c125 c125 c125 c125 c125 c125 c125 c039 c039 c039 c039 c039 c039 c039 c039
Finished epilogue job 340559.audhumbla.fysik.dtu.dk for zhonxu