     Program PWSCF v.5.0.2 (svn rev. 9656) starts on 24Jan2014 at 16:11:24

     Current dimensions of program PWSCF are:
     Max number of different atomic species (ntypx) = 10
     Max number of k-points (npk) =  40000
     Max angular momentum in pseudopotentials (lmaxx) =  3
     Reading input from RhO2-v-1.05.in

     Subspace diagonalization in iterative solution of the eigenvalue problem:
     a serial algorithm will be used

     bravais-lattice index     =            0
     lattice parameter (alat)  =       8.9133  a.u.
     unit-cell volume          =     456.3578 (a.u.)^3
     number of atoms/cell      =            6
     number of atomic types    =            2
     number of electrons       =        54.00
     number of Kohn-Sham states=           81
     kinetic-energy cutoff     =      40.0000  Ry
     charge density cutoff     =     500.0000  Ry
     convergence threshold     =      1.0E-06
     mixing beta               =       0.3000
     number of iterations used =            8  plain     mixing
     Exchange-correlation      = SLA  PW   PBE  PBE ( 1 4 3 4 0)
     EXX-fraction              =        0.00
     nstep                     =           50

     celldm(1)=   8.913330  celldm(2)=   0.000000  celldm(3)=   0.000000
     celldm(4)=   0.000000  celldm(5)=   0.000000  celldm(6)=   0.000000

     crystal axes: (cart. coord. in units of alat)
               a(1) = (   1.000000   0.000000   0.000000 )
               a(2) = (   0.000000   1.000000   0.000000 )
               a(3) = (   0.000000   0.000000   0.644444 )

     reciprocal axes: (cart. coord. in units 2 pi/alat)
               b(1) = (  1.000000  0.000000  0.000000 )
               b(2) = (  0.000000  1.000000  0.000000 )
               b(3) = (  0.000000  0.000000  1.551724 )

     PseudoPot. # 1 for Rh read from file:
     /home/camp/zhonxu/pseudo/rh_pbe_v1.uspp.F.UPF
     MD5 check sum: 37b626987ad0dd8ec6bf4cc9ef289918
     Pseudo is Ultrasoft + core correction, Zval = 15.0
     Generated by new atomic code, or converted to UPF format
     Using radial grid of  969 points,  7 beta functions with:
                l(1) =   0
                l(2) =   0
                l(3) =   1
                l(4) =   1
                l(5) =   2
                l(6) =   2
                l(7) =   2
     Q(r) pseudized with  6 coefficients,  rinner =    1.050   1.050   1.050
                                                       1.050   1.050

     PseudoPot. # 2 for O  read from file:
     /home/camp/zhonxu/pseudo/o_pbe_v1.01.uspp.F.UPF
     MD5 check sum: 2bcb18d16ea4b960afae9ec6d52f22d2
     Pseudo is Ultrasoft + core correction, Zval =  6.0
     Generated by new atomic code, or converted to UPF format
     Using radial grid of  737 points,  5 beta functions with:
                l(1) =   0
                l(2) =   0
                l(3) =   1
                l(4) =   1
                l(5) =   2
     Q(r) pseudized with  8 coefficients,  rinner =    0.900   0.900   0.900
                                                       0.900   0.900

     atomic species   valence    mass     pseudopotential
        Rh0           15.00   102.90550     Rh( 1.00)
        O1             6.00    15.99940     O ( 1.00)

     Starting magnetic structure
     atomic species   magnetization
        Rh0          0.000
        O1           0.000

      8 Sym. Ops., with inversion, found
          (note:  8 additional sym.ops. were found but ignored
           their fractional translations are incommensurate with FFT grid)

   Cartesian axes

     site n.     atom                  positions (alat units)
         1           Rh0 tau(   1) = (   0.0000000   0.0000000   0.0000000  )
         2           Rh0 tau(   2) = (   0.5000000   0.5000000   0.3222222  )
         3           O1  tau(   3) = (   0.3050000   0.3050000   0.0000000  )
         4           O1  tau(   4) = (  -0.3050000  -0.3050000   0.0000000  )
         5           O1  tau(   5) = (   0.8050000   0.1950000   0.3222222  )
         6           O1  tau(   6) = (   0.1950000   0.8050000   0.3222222  )

     number of k points=    54  Methfessel-Paxton smearing, width (Ry)=  0.0100
                       cart. coord. in units 2pi/alat
        k(    1) = (   0.0000000   0.0000000   0.0000000), wk =   0.0080000
        k(    2) = (   0.0000000   0.0000000   0.3103448), wk =   0.0160000
        k(    3) = (   0.0000000   0.0000000   0.6206897), wk =   0.0160000
        k(    4) = (   0.0000000   0.2000000   0.0000000), wk =   0.0320000
        k(    5) = (   0.0000000   0.2000000   0.3103448), wk =   0.0640000
        k(    6) = (   0.0000000   0.2000000   0.6206897), wk =   0.0640000
        k(    7) = (   0.0000000   0.4000000   0.0000000), wk =   0.0320000
        k(    8) = (   0.0000000   0.4000000   0.3103448), wk =   0.0640000
        k(    9) = (   0.0000000   0.4000000   0.6206897), wk =   0.0640000
        k(   10) = (   0.2000000   0.2000000   0.0000000), wk =   0.0160000
        k(   11) = (   0.2000000   0.2000000   0.3103448), wk =   0.0320000
        k(   12) = (   0.2000000   0.2000000   0.6206897), wk =   0.0320000
        k(   13) = (   0.2000000   0.4000000   0.0000000), wk =   0.0320000
        k(   14) = (   0.2000000   0.4000000   0.3103448), wk =   0.0640000
        k(   15) = (   0.2000000   0.4000000   0.6206897), wk =   0.0640000
        k(   16) = (   0.4000000   0.4000000   0.0000000), wk =   0.0160000
        k(   17) = (   0.4000000   0.4000000   0.3103448), wk =   0.0320000
        k(   18) = (   0.4000000   0.4000000   0.6206897), wk =   0.0320000
        k(   19) = (  -0.2000000   0.2000000   0.0000000), wk =   0.0160000
        k(   20) = (  -0.2000000   0.2000000  -0.3103448), wk =   0.0320000
        k(   21) = (  -0.2000000   0.2000000  -0.6206897), wk =   0.0320000
        k(   22) = (  -0.2000000   0.4000000   0.0000000), wk =   0.0320000
        k(   23) = (  -0.2000000   0.4000000  -0.3103448), wk =   0.0640000
        k(   24) = (  -0.2000000   0.4000000  -0.6206897), wk =   0.0640000
        k(   25) = (  -0.4000000   0.4000000   0.0000000), wk =   0.0160000
        k(   26) = (  -0.4000000   0.4000000  -0.3103448), wk =   0.0320000
        k(   27) = (  -0.4000000   0.4000000  -0.6206897), wk =   0.0320000
        k(   28) = (   0.0000000   0.0000000   0.0000000), wk =   0.0080000
        k(   29) = (   0.0000000   0.0000000   0.3103448), wk =   0.0160000
        k(   30) = (   0.0000000   0.0000000   0.6206897), wk =   0.0160000
        k(   31) = (   0.0000000   0.2000000   0.0000000), wk =   0.0320000
        k(   32) = (   0.0000000   0.2000000   0.3103448), wk =   0.0640000
        k(   33) = (   0.0000000   0.2000000   0.6206897), wk =   0.0640000
        k(   34) = (   0.0000000   0.4000000   0.0000000), wk =   0.0320000
        k(   35) = (   0.0000000   0.4000000   0.3103448), wk =   0.0640000
        k(   36) = (   0.0000000   0.4000000   0.6206897), wk =   0.0640000
        k(   37) = (   0.2000000   0.2000000   0.0000000), wk =   0.0160000
        k(   38) = (   0.2000000   0.2000000   0.3103448), wk =   0.0320000
        k(   39) = (   0.2000000   0.2000000   0.6206897), wk =   0.0320000
        k(   40) = (   0.2000000   0.4000000   0.0000000), wk =   0.0320000
        k(   41) = (   0.2000000   0.4000000   0.3103448), wk =   0.0640000
        k(   42) = (   0.2000000   0.4000000   0.6206897), wk =   0.0640000
        k(   43) = (   0.4000000   0.4000000   0.0000000), wk =   0.0160000
        k(   44) = (   0.4000000   0.4000000   0.3103448), wk =   0.0320000
        k(   45) = (   0.4000000   0.4000000   0.6206897), wk =   0.0320000
        k(   46) = (  -0.2000000   0.2000000   0.0000000), wk =   0.0160000
        k(   47) = (  -0.2000000   0.2000000  -0.3103448), wk =   0.0320000
        k(   48) = (  -0.2000000   0.2000000  -0.6206897), wk =   0.0320000
        k(   49) = (  -0.2000000   0.4000000   0.0000000), wk =   0.0320000
        k(   50) = (  -0.2000000   0.4000000  -0.3103448), wk =   0.0640000
        k(   51) = (  -0.2000000   0.4000000  -0.6206897), wk =   0.0640000
        k(   52) = (  -0.4000000   0.4000000   0.0000000), wk =   0.0160000
        k(   53) = (  -0.4000000   0.4000000  -0.3103448), wk =   0.0320000
        k(   54) = (  -0.4000000   0.4000000  -0.6206897), wk =   0.0320000

     Largest allocated arrays     est. size (Mb)     dimensions
     Largest temporary arrays     est. size (Mb)     dimensions

     Check: negative/imaginary core charge=   -0.000005    0.000000

     Initial potential from superposition of free atoms
     Check: negative starting charge=(component1):   -0.080428
     Check: negative starting charge=(component2):   -0.080428

     starting charge   52.99980, renormalised to   54.00000

     negative rho (up, down):  0.819E-01 0.819E-01
     Starting wfc are   40 randomized atomic wfcs

     Self-consistent Calculation

     iteration #  1     ecut=    40.00 Ry     beta=0.30
     Davidson diagonalization with overlap
     ethr =  1.00E-02,  avg # of iterations =  7.6

     negative rho (up, down):  0.829E-01 0.829E-01

     total energy              =    -468.98532460 Ry
     Harris-Foulkes estimate   =    -470.57051951 Ry
     estimated scf accuracy    <       3.43527084 Ry

     total magnetization       =    -0.00 Bohr mag/cell
     absolute magnetization    =     0.00 Bohr mag/cell

[...]

     End of self-consistent calculation

 ------ SPIN UP ------------

          k = 0.0000 0.0000 0.0000 (  1955 PWs)   bands (ev):

   -36.9966 -36.9963 -36.8761 -36.8758 -36.8362 -36.8270  -8.8061  -7.7921
    -7.1718  -7.1715   2.8305   2.8924   4.2578   4.2736   4.2738   6.7293
     6.7294   7.1703   8.1338   8.2467   8.3886   8.5776   8.5777   8.7312
     8.7978   8.7979   9.6179  10.5688  11.4067  13.9045  13.9046  14.8573
    16.3841  20.5600  20.5600  23.7999  23.9832  24.6442  26.0216  27.3671
    27.3671  28.7454  28.9182  31.3078  32.6318  32.6318  34.0142  34.0142
    34.6055  35.6095  35.9423  35.9423  36.7705  38.4814  38.6781  38.7458
    38.9772  39.0300  40.5637  41.0789  41.0790  41.2020  41.6284  41.6285
    43.5486  43.5487  44.5466  44.8691  47.2139  48.9417  48.9418  49.0472
    49.2664  49.2664  49.4847  50.3076  50.6199  50.6199  50.9960  51.0243
    51.6880

[...]

          k =-0.2000 0.2000 0.0000 (  1955 PWs)   bands (ev):

[...]

 ------ SPIN DOWN ----------

[...]

     the Fermi energy is    10.6383 ev

!    total energy              =    -469.80787891 Ry
     Harris-Foulkes estimate   =    -469.80787758 Ry
     estimated scf accuracy    <       0.00000050 Ry

     The total energy is the sum of the following terms:

     one-electron contribution =    -150.06357410 Ry
     hartree contribution      =     109.35802343 Ry
     xc contribution           =     -86.88233860 Ry
     ewald contribution        =    -342.21957757 Ry
     smearing contrib. (-TS)   =      -0.00041206 Ry

[...]

     convergence has been achieved in  10 iterations

     Forces acting on atoms (Ry/au):

     negative rho (up, down):  0.863E-01 0.863E-01
     atom    1 type  1   force =     0.00000000    0.00000000    0.00000000
[...]
        k(   10) = (   0.2034161   0.2034161   0.0000000), wk =   0.0160000
        k(   11) = (   0.2034161   0.2034161   0.2999979), wk =   0.0320000
        k(   12) = (   0.2034161   0.2034161   0.5999958), wk =   0.0320000
        k(   13) = (   0.2034125   0.4068359   0.0000000), wk =   0.0320000
        k(   14) = (   0.2034125   0.4068359   0.2999979), wk =   0.0640000
        k(   15) = (   0.2034125   0.4068359   0.5999958), wk =   0.0640000
        k(   16) = (   0.4068323   0.4068323   0.0000000), wk =   0.0160000
        k(   17) = (   0.4068323   0.4068323   0.2999979), wk =   0.0320000
        k(   18) = (   0.4068323   0.4068323   0.5999958), wk =   0.0320000
        k(   19) = (  -0.2034234   0.2034234   0.0000000), wk =   0.0160000
        k(   20) = (  -0.2034234   0.2034234  -0.2999979), wk =   0.0320000
        k(   21) = (  -0.2034234   0.2034234  -0.5999958), wk =   0.0320000
        k(   22) = (  -0.2034270   0.4068431   0.0000000), wk =   0.0320000
        k(   23) = (  -0.2034270   0.4068431  -0.2999979), wk =   0.0640000
        k(   24) = (  -0.2034270   0.4068431  -0.5999958), wk =   0.0640000
        k(   25) = (  -0.4068467   0.4068467   0.0000000), wk =   0.0160000
        k(   26) = (  -0.4068467   0.4068467  -0.2999979), wk =   0.0320000
        k(   27) = (  -0.4068467   0.4068467  -0.5999958), wk =   0.0320000
        k(   28) = (   0.0000000   0.0000000   0.0000000), wk =   0.0080000
        k(   29) = (   0.0000000   0.0000000   0.2999979), wk =   0.0160000
        k(   30) = (   0.0000000   0.0000000   0.5999958), wk =   0.0160000
        k(   31) = (  -0.0000036   0.2034198   0.0000000), wk =   0.0320000
        k(   32) = (  -0.0000036   0.2034198   0.2999979), wk =   0.0640000
        k(   33) = (  -0.0000036   0.2034198   0.5999958), wk =   0.0640000
        k(   34) = (  -0.0000072   0.4068395   0.0000000), wk =   0.0320000
        k(   35) = (  -0.0000072   0.4068395   0.2999979), wk =   0.0640000
        k(   36) = (  -0.0000072   0.4068395   0.5999958), wk =   0.0640000
        k(   37) = (   0.2034161   0.2034161   0.0000000), wk =   0.0160000
        k(   38) = (   0.2034161   0.2034161   0.2999979), wk =   0.0320000
        k(   39) = (   0.2034161   0.2034161   0.5999958), wk =   0.0320000
        k(   40) = (   0.2034125   0.4068359   0.0000000), wk =   0.0320000
        k(   41) = (   0.2034125   0.4068359   0.2999979), wk =   0.0640000
        k(   42) = (   0.2034125   0.4068359   0.5999958), wk =   0.0640000
        k(   43) = (   0.4068323   0.4068323   0.0000000), wk =   0.0160000
        k(   44) = (   0.4068323   0.4068323   0.2999979), wk =   0.0320000
        k(   45) = (   0.4068323   0.4068323   0.5999958), wk =   0.0320000
        k(   46) = (  -0.2034234   0.2034234   0.0000000), wk =   0.0160000
        k(   47) = (  -0.2034234   0.2034234  -0.2999979), wk =   0.0320000
        k(   48) = (  -0.2034234   0.2034234  -0.5999958), wk =   0.0320000
        k(   49) = (  -0.2034270   0.4068431   0.0000000), wk =   0.0320000
        k(   50) = (  -0.2034270   0.4068431  -0.2999979), wk =   0.0640000
        k(   51) = (  -0.2034270   0.4068431  -0.5999958), wk =   0.0640000
        k(   52) = (  -0.4068467   0.4068467   0.0000000), wk =   0.0160000
        k(   53) = (  -0.4068467   0.4068467  -0.2999979), wk =   0.0320000
        k(   54) = (  -0.4068467   0.4068467  -0.5999958), wk =   0.0320000

     Check: negative/imaginary core charge=   -0.000005    0.000000
     Check: negative starting charge=(component1):   -0.161903

[...]

     Threshold (ethr) on eigenvalues was too large:
     Diagonalizing with lowered threshold

     Davidson diagonalization with overlap
     ethr =  5.80E-10,  avg # of iterations =  2.0

[...]

     Total force =     0.000057     Total SCF correction =     0.000133
     SCF correction compared to forces is large: reduce conv_thr to get better values

[...]

     Volume is kept fixed: isostatic pressure set to zero

     bfgs converged in   6 scf cycles and   5 bfgs steps
     (criteria: energy < 0.10E-03, force < 0.10E-02, cell < 0.50E+00)

     End of BFGS Geometry Optimization

     Final enthalpy =    -469.8148412162 Ry
Begin final coordinates
     new unit-cell volume =    456.35781 a.u.^3 (    67.62525 Ang^3 )

CELL_PARAMETERS (alat=  8.91333033)
   0.983188664   0.000017461   0.000000000
   0.000017461   0.983188664   0.000000000
   0.000000000   0.000000000   0.666671299

ATOMIC_POSITIONS (crystal)
Rh0      0.000000000   0.000000000   0.000000000    0   0   0
Rh0      0.500000000   0.500000000   0.500000000    0   0   0
O1       0.307404457   0.307404457   0.000000000    1   1   0
O1      -0.307404457  -0.307404457   0.000000000    1   1   0
O1       0.807403621   0.192596379   0.500000000    1   1   0
O1       0.192596379   0.807403621   0.500000000    1   1   0
End final coordinates

     A final scf calculation at the relaxed structure.
     The G-vectors are recalculated for the final unit cell
     Results may differ from those at the preceding step.

     bravais-lattice index     =            0
     lattice parameter (alat)  =       8.9133  a.u.
     unit-cell volume          =     456.3578 (a.u.)^3
     number of atoms/cell      =            6
     number of atomic types    =            2
     number of electrons       =        54.00
     number of Kohn-Sham states=           81
     kinetic-energy cutoff     =      40.0000  Ry
     charge density cutoff     =     500.0000  Ry
     convergence threshold     =      1.0E-08
     mixing beta               =       0.3000
     number of iterations used =            8  plain     mixing
     Exchange-correlation      = SLA  PW   PBE  PBE ( 1 4 3 4 0)
     EXX-fraction              =        0.00

     celldm(1)=   8.913330  celldm(2)=   0.000000  celldm(3)=   0.000000
     celldm(4)=   0.000000  celldm(5)=   0.000000  celldm(6)=   0.000000

     crystal axes: (cart. coord. in units of alat)
               a(1) = (   0.983189   0.000017   0.000000 )
               a(2) = (   0.000017   0.983189   0.000000 )
               a(3) = (   0.000000   0.000000   0.666671 )

     reciprocal axes: (cart. coord. in units 2 pi/alat)
               b(1) = (  1.017099 -0.000018  0.000000 )
               b(2) = ( -0.000018  1.017099  0.000000 )
               b(3) = (  0.000000  0.000000  1.499990 )

     PseudoPot. # 1 for Rh read from file:
     /home/camp/zhonxu/pseudo/rh_pbe_v1.uspp.F.UPF
     MD5 check sum: 37b626987ad0dd8ec6bf4cc9ef289918
     Pseudo is Ultrasoft + core correction, Zval = 15.0
     Generated by new atomic code, or converted to UPF format
     Using radial grid of  969 points,  7 beta functions with:
                l(1) =   0
                l(2) =   0
                l(3) =   1
                l(4) =   1
                l(5) =   2
                l(6) =   2
                l(7) =   2
     Q(r) pseudized with  6 coefficients,  rinner =    1.050   1.050   1.050
                                                       1.050   1.050

     PseudoPot. # 2 for O  read from file:
     /home/camp/zhonxu/pseudo/o_pbe_v1.01.uspp.F.UPF
     MD5 check sum: 2bcb18d16ea4b960afae9ec6d52f22d2
     Pseudo is Ultrasoft + core correction, Zval =  6.0
     Generated by new atomic code, or converted to UPF format
     Using radial grid of  737 points,  5 beta functions with:
                l(1) =   0
                l(2) =   0
                l(3) =   1
                l(4) =   1
                l(5) =   2
     Q(r) pseudized with  8 coefficients,  rinner =    0.900   0.900   0.900
                                                       0.900   0.900

     atomic species   valence    mass     pseudopotential
        Rh0           15.00   102.90550     Rh( 1.00)
        O1             6.00    15.99940     O ( 1.00)

     Starting magnetic structure
     atomic species   magnetization
        Rh0          0.000
        O1           0.000

      8 Sym. Ops., with inversion, found
          (note:  8 additional sym.ops. were found but ignored
           their fractional translations are incommensurate with FFT grid)

   Cartesian axes

     site n.     atom                  positions (alat units)
         1           Rh0 tau(   1) = (   0.0000000   0.0000000   0.0000000  )
         2           Rh0 tau(   2) = (   0.4916031   0.4916031   0.3333356  )
         3           O1  tau(   3) = (   0.3022419   0.3022419   0.0000000  )
         4           O1  tau(   4) = (  -0.3022419  -0.3022419   0.0000000  )
         5           O1  tau(   5) = (   0.7938335   0.1893727   0.3333356  )
         6           O1  tau(   6) = (   0.1893727   0.7938335   0.3333356  )

     number of k points=    54  Methfessel-Paxton smearing, width (Ry)=  0.0100
                       cart. coord. in units 2pi/alat
        k(    1) = (   0.0000000   0.0000000   0.0000000), wk =   0.0080000
        k(    2) = (   0.0000000   0.0000000   0.2999979), wk =   0.0160000
        k(    3) = (   0.0000000   0.0000000   0.5999958), wk =   0.0160000
        k(    4) = (  -0.0000036   0.2034198   0.0000000), wk =   0.0320000
        k(    5) = (  -0.0000036   0.2034198   0.2999979), wk =   0.0640000
        k(    6) = (  -0.0000036   0.2034198   0.5999958), wk =   0.0640000
        k(    7) = (  -0.0000072   0.4068395   0.0000000), wk =   0.0320000
        k(    8) = (  -0.0000072   0.4068395   0.2999979), wk =   0.0640000
        k(    9) = (  -0.0000072   0.4068395   0.5999958), wk =   0.0640000
        k(   10) = (   0.2034161   0.2034161   0.0000000), wk =   0.0160000
        k(   11) = (   0.2034161   0.2034161   0.2999979), wk =   0.0320000
        k(   12) = (   0.2034161   0.2034161   0.5999958), wk =   0.0320000
        k(   13) = (   0.2034125   0.4068359   0.0000000), wk =   0.0320000
        k(   14) = (   0.2034125   0.4068359   0.2999979), wk =   0.0640000
        k(   15) = (   0.2034125   0.4068359   0.5999958), wk =   0.0640000
        k(   16) = (   0.4068323   0.4068323   0.0000000), wk =   0.0160000
        k(   17) = (   0.4068323   0.4068323   0.2999979), wk =   0.0320000
        k(   18) = (   0.4068323   0.4068323   0.5999958), wk =   0.0320000
        k(   19) = (  -0.2034234   0.2034234   0.0000000), wk =   0.0160000
        k(   20) = (  -0.2034234   0.2034234  -0.2999979), wk =   0.0320000
        k(   21) = (  -0.2034234   0.2034234  -0.5999958), wk =   0.0320000
        k(   22) = (  -0.2034270   0.4068431   0.0000000), wk =   0.0320000
        k(   23) = (  -0.2034270   0.4068431  -0.2999979), wk =   0.0640000
        k(   24) = (  -0.2034270   0.4068431  -0.5999958), wk =   0.0640000
        k(   25) = (  -0.4068467   0.4068467   0.0000000), wk =   0.0160000
        k(   26) = (  -0.4068467   0.4068467  -0.2999979), wk =   0.0320000
        k(   27) = (  -0.4068467   0.4068467  -0.5999958), wk =   0.0320000
        k(   28) = (   0.0000000   0.0000000   0.0000000), wk =   0.0080000
        k(   29) = (   0.0000000   0.0000000   0.2999979), wk =   0.0160000
        k(   30) = (   0.0000000   0.0000000   0.5999958), wk =   0.0160000
        k(   31) = (  -0.0000036   0.2034198   0.0000000), wk =   0.0320000
        k(   32) = (  -0.0000036   0.2034198   0.2999979), wk =   0.0640000
        k(   33) = (  -0.0000036   0.2034198   0.5999958), wk =   0.0640000
        k(   34) = (  -0.0000072   0.4068395   0.0000000), wk =   0.0320000
        k(   35) = (  -0.0000072   0.4068395   0.2999979), wk =   0.0640000
        k(   36) = (  -0.0000072   0.4068395   0.5999958), wk =   0.0640000
        k(   37) = (   0.2034161   0.2034161   0.0000000), wk =   0.0160000
        k(   38) = (   0.2034161   0.2034161   0.2999979), wk =   0.0320000
        k(   39) = (   0.2034161   0.2034161   0.5999958), wk =   0.0320000
        k(   40) = (   0.2034125   0.4068359   0.0000000), wk =   0.0320000
        k(   41) = (   0.2034125   0.4068359   0.2999979), wk =   0.0640000
        k(   42) = (   0.2034125   0.4068359   0.5999958), wk =   0.0640000
        k(   43) = (   0.4068323   0.4068323   0.0000000), wk =   0.0160000
        k(   44) = (   0.4068323   0.4068323   0.2999979), wk =   0.0320000
        k(   45) = (   0.4068323   0.4068323   0.5999958), wk =   0.0320000
        k(   46) = (  -0.2034234   0.2034234   0.0000000), wk =   0.0160000
        k(   47) = (  -0.2034234   0.2034234  -0.2999979), wk =   0.0320000
        k(   48) = (  -0.2034234   0.2034234  -0.5999958), wk =   0.0320000
        k(   49) = (  -0.2034270   0.4068431   0.0000000), wk =   0.0320000
        k(   50) = (  -0.2034270   0.4068431  -0.2999979), wk =   0.0640000
        k(   51) = (  -0.2034270   0.4068431  -0.5999958), wk =   0.0640000
        k(   52) = (  -0.4068467   0.4068467   0.0000000), wk =   0.0160000
        k(   53) = (  -0.4068467   0.4068467  -0.2999979), wk =   0.0320000
        k(   54) = (  -0.4068467   0.4068467  -0.5999958), wk =   0.0320000

     Largest allocated arrays     est. size (Mb)     dimensions
     Largest temporary arrays     est. size (Mb)     dimensions

     Check: negative/imaginary core charge=   -0.000005    0.000000

     Initial potential from superposition of free atoms
     Check: negative starting charge=(component1):   -0.080950
     Check: negative starting charge=(component2):   -0.080950

     starting charge   52.99980, renormalised to   54.00000

     negative rho (up, down):  0.825E-01 0.825E-01
     Starting wfc are   40 randomized atomic wfcs

     Self-consistent Calculation

[...]

     total energy              =    -469.81516821 Ry
     Harris-Foulkes estimate   =    -469.81516782 Ry
     estimated scf accuracy    <       0.00000011 Ry

[...]

     iteration # 12     ecut=    40.00 Ry     beta=0.30
     Davidson diagonalization with overlap
     ethr =  2.00E-10,  avg # of iterations =  1.0

     negative rho (up, down):  0.868E-01 0.868E-01

     End of self-consistent calculation

 ------ SPIN UP ------------

[...]

 ------ SPIN DOWN ----------

[...]

          k = 0.4068 0.4068 0.6000 (  1976 PWs)   bands (ev):

[...]

          k =-0.4068 0.4068-0.6000 (  1976 PWs)   bands (ev):

   -36.9986 -36.9972 -36.9676 -36.9664 -36.8020 -36.8019  -7.6906  -7.6371
    -7.5157  -7.4819   4.0233   4.1018   4.3350   4.3477   4.9202   5.2186
     6.0740   6.2206   7.0980   7.2680   8.0616   8.3846   9.0838   9.1486
     9.3309   9.9132  10.1719  10.6022  11.8829  12.5426  12.9757  13.5927
    20.8951  21.3435  22.1665  22.4789  23.5442  23.5478  24.5245  24.9422
    27.7547  27.8075  29.2813  29.7585  31.3975  32.7733  33.0256  33.0765
    33.5322  34.4456  37.5432  37.5622  37.7835  38.3984  38.9443  38.9524
    39.9459  40.5980  40.8302  41.8512  42.5723  43.0163  43.5911  43.9916
    44.3394  44.6764  45.6865  46.4284  46.8821  47.4462  47.7331  48.5224
    48.5668  49.2247  49.7224  50.1350  50.6523  50.8902  51.9597  52.6198
    53.7772

     the Fermi energy is    10.6361 ev

!    total energy              =    -469.81516862 Ry
     Harris-Foulkes estimate   =    -469.81516822 Ry
     estimated scf accuracy    <          3.4E-09 Ry

     The total energy is the sum of the following terms:

     one-electron contribution =    -147.02649064 Ry
     hartree contribution      =     107.85856155 Ry
     xc contribution           =     -86.84360497 Ry
     ewald contribution        =    -343.80313552 Ry
     smearing contrib. (-TS)   =      -0.00049903 Ry

     total magnetization       =     0.00 Bohr mag/cell
     absolute magnetization    =     0.00 Bohr mag/cell

     convergence has been achieved in  12 iterations

     Forces acting on atoms (Ry/au):

     negative rho (up, down):  0.868E-01 0.868E-01
     atom    1 type  1   force =     0.00000000    0.00000000    0.00000000
     atom    2 type  1   force =     0.00000000    0.00000000    0.00000000
     atom    3 type  2   force =     0.00001834    0.00001834    0.00000000
     atom    4 type  2   force =    -0.00001834   -0.00001834    0.00000000
     atom    5 type  2   force =     0.00002163   -0.00002163    0.00000000
     atom    6 type  2   force =    -0.00002163    0.00002163    0.00000000

     Total force =     0.000057     Total SCF correction =     0.000079
     SCF correction compared to forces is large: reduce conv_thr to get better values

     entering subroutine stress ...

     negative rho (up, down):  0.868E-01 0.868E-01
          total   stress  (Ry/bohr**3)                   (kbar)     P= -141.55
  -0.00097301  -0.00000035   0.00000000       -143.14     -0.05      0.00
  -0.00000035  -0.00097301   0.00000000         -0.05   -143.14      0.00
   0.00000000   0.00000000  -0.00094068          0.00      0.00   -138.38

     General routines

     Parallel routines

   This run was terminated on:  16:50:26  24Jan2014

   JOB DONE.