     Program PWSCF v.5.0.2 (svn rev. 9656) starts on 10May2014 at  1:56:39

     Current dimensions of program PWSCF are:
     Max number of different atomic species (ntypx) = 10
     Max number of k-points (npk) =  40000
     Max angular momentum in pseudopotentials (lmaxx) =  3
     Reading input from pwscf.in
Warning: card &CELL ignored
Warning: card / ignored

     Subspace diagonalization in iterative solution of the eigenvalue problem:
     a serial algorithm will be used

     bravais-lattice index     =            0
     lattice parameter (alat)  =      11.7919  a.u.
     unit-cell volume          =    7123.6633 (a.u.)^3
     number of atoms/cell      =           32
     number of atomic types    =            3
     number of electrons       =       247.00
     number of Kohn-Sham states=          358
     kinetic-energy cutoff     =      40.0000  Ry
     charge density cutoff     =     500.0000  Ry
     convergence threshold     =      1.0E-06
     mixing beta               =       0.3000
     number of iterations used =            8  plain     mixing
     Exchange-correlation      = SLA  PW   PBE  PBE ( 1 4 3 4 0)
     EXX-fraction              =        0.00
     nstep                     =           50

     celldm(1)=  11.791891  celldm(2)=   0.000000  celldm(3)=   0.000000
     celldm(4)=   0.000000  celldm(5)=   0.000000  celldm(6)=   0.000000

     crystal axes: (cart. coord. in units of alat)
               a(1) = (   1.000000   0.000000   0.000000 )
               a(2) = (   0.000000   1.026665   0.000000 )
               a(3) = (   0.000000   0.000000   4.231793 )

     reciprocal axes: (cart. coord. in units 2 pi/alat)
               b(1) = (  1.000000  0.000000  0.000000 )
               b(2) = (  0.000000  0.974028  0.000000 )
               b(3) = (  0.000000  0.000000  0.236306 )

     PseudoPot. # 1 for O  read from file:
     /home/camp/zhonxu/pseudo/o_pbe_v1.01.uspp.F.UPF
     MD5 check sum: 2bcb18d16ea4b960afae9ec6d52f22d2
     Pseudo is Ultrasoft + core correction, Zval =  6.0
     Generated by new atomic code, or converted to UPF format
     Using radial grid of  737 points,  5 beta functions with:
                l(1) =   0
                l(2) =   0
                l(3) =   1
                l(4) =   1
                l(5) =   2
     Q(r) pseudized with  8 coefficients,  rinner =    0.900   0.900   0.900
                                                       0.900   0.900

     PseudoPot. # 2 for Ru read from file:
     /home/camp/zhonxu/pseudo/ru_pbe_v1.uspp.F.UPF
     MD5 check sum: df00be1c11b23341d9806d8f1dfa10cf
     Pseudo is Ultrasoft + core correction, Zval = 16.0
     Generated by new atomic code, or converted to UPF format
     Using radial grid of  967 points,  6 beta functions with:
                l(1) =   0
                l(2) =   0
                l(3) =   1
                l(4) =   1
                l(5) =   2
                l(6) =   2
     Q(r) pseudized with  8 coefficients,  rinner =    1.300   1.300   1.300
                                                       1.300   1.300

     PseudoPot. # 3 for H  read from file:
     /home/camp/zhonxu/pseudo/h_pbe_v1.uspp.F.UPF
     MD5 check sum: 3408e3ff4ec8b0a4e358431e7e038a48
     Pseudo is Ultrasoft, Zval =  1.0
     Generated by new atomic code, or converted to UPF format
     Using radial grid of  615 points,  2 beta functions with:
                l(1) =   0
                l(2) =   0
     Q(r) pseudized with  8 coefficients,  rinner =    0.700

     atomic species   valence    mass     pseudopotential
        O0             6.00    15.99940     O ( 1.00)
        Ru1           16.00   101.07000     Ru( 1.00)
        H2             1.00     1.00794     H ( 1.00)

     Simplified LDA+U calculation (l_max = 2) with parameters (eV):
     atomic species    L          U    alpha       J0     beta
        Ru1            2     0.5000   0.0000   0.0000   0.0000

     No symmetry found

   Cartesian axes

     site n.     atom                  positions (alat units)
         1           O0  tau(   1) = (   0.0000000   0.0000000   1.6035109  )
         2           O0  tau(   2) = (   0.0000000   0.5133323   1.7058780  )
         3           Ru1 tau(   3) = (   0.2500000   0.5133323   1.9200491  )
         4           Ru1 tau(   4) = (   0.0000000   0.0000000   1.9171714  )
         5           O0  tau(   5) = (   0.2500000   0.8315984   1.9169175  )
         6           O0  tau(   6) = (   0.2500000   0.1950663   1.9164520  )
         7           O0  tau(   7) = (   0.0000000   0.5133323   2.1053593  )
         8           O0  tau(   8) = (   0.0000000   0.0000000   2.2310435  )
         9           Ru1 tau(   9) = (   0.2500000   0.0000000   2.4441566  )
        10           Ru1 tau(  10) = (   0.0000000   0.5133323   2.4052664  )
        11           O0  tau(  11) = (   0.2500000   0.7083986   2.4364547  )
        12           O0  tau(  12) = (   0.2500000   0.3182660   2.4361585  )
        13           O0  tau(  13) = (   0.0000000   0.0000000   2.6233307  )
        14           O0  tau(  14) = (   0.5000000   0.0000000   1.6045689  )
        15           O0  tau(  15) = (   0.5000000   0.5133323   1.7057934  )
        16           Ru1 tau(  16) = (   0.7500000   0.5133323   1.9200914  )
        17           Ru1 tau(  17) = (   0.5000000   0.0000000   1.9176369  )
        18           O0  tau(  18) = (   0.7500000   0.8315984   1.9167059  )
        19           O0  tau(  19) = (   0.7500000   0.1950663   1.9164520  )
        20           O0  tau(  20) = (   0.5000000   0.5133323   2.1229635  )
        21           O0  tau(  21) = (   0.5000000   0.0000000   2.2303664  )
        22           Ru1 tau(  22) = (   0.7500000   0.0000000   2.4441143  )
        23           Ru1 tau(  23) = (   0.5000000   0.5133323   2.4370472  )
        24           O0  tau(  24) = (   0.7500000   0.7083986   2.4343812  )
        25           O0  tau(  25) = (   0.7500000   0.3182660   2.4338310  )
        26           O0  tau(  26) = (   0.5000000   0.0000000   2.6134283  )
        27           H2  tau(  27) = (  -0.0002400   0.6455975   1.6183222  )
        28           H2  tau(  28) = (   0.4995500   0.6408954   1.6119322  )
        29           H2  tau(  29) = (   0.1457200   0.0328533   1.5514599  )
        30           H2  tau(  30) = (   0.6465200   0.0301223   1.5527294  )
        31           O0  tau(  31) = (   0.5138700   0.5107965   2.7447408  )
        32           H2  tau(  32) = (   0.3716000   0.5093694   2.8125765  )

     number of k points=    10  Methfessel-Paxton smearing, width (Ry)=  0.0100
                       cart. coord. in units 2pi/alat
        k(    1) = (   0.0000000   0.0000000   0.0000000), wk =   0.1250000
        k(    2) = (   0.0000000   0.2435070   0.0000000), wk =   0.2500000
        k(    3) = (   0.0000000  -0.4870139   0.0000000), wk =   0.1250000
        k(    4) = (   0.2500000   0.0000000   0.0000000), wk =   0.2500000
        k(    5) = (   0.2500000   0.2435070   0.0000000), wk =   0.2500000
        k(    6) = (   0.2500000  -0.4870139   0.0000000), wk =   0.2500000
        k(    7) = (  -0.5000000   0.0000000   0.0000000), wk =   0.1250000
        k(    8) = (  -0.5000000   0.2435070   0.0000000), wk =   0.2500000
        k(    9) = (  -0.5000000  -0.4870139   0.0000000), wk =   0.1250000
        k(   10) = (  -0.2500000   0.2435070   0.0000000), wk =   0.2500000

     Largest allocated arrays     est. size (Mb)     dimensions
     Largest temporary arrays     est. size (Mb)     dimensions

     Check: negative/imaginary core charge=   -0.000003    0.000000

     Initial potential from superposition of free atoms
     Check: negative starting charge=   -0.522051

     starting charge  238.99980, renormalised to  247.00000

     negative rho (up, down):  0.540E+00 0.000E+00
     Number of +U iterations with fixed ns =  0
     Starting occupations:
 --- enter write_ns ---
 LDA+U parameters:
U( 2)     =  0.50000000
alpha( 2) =  0.00000000
atom    3   Tr[ns(na)] =   6.00000
    eigenvalues:
  0.600  0.600  0.600  0.600  0.600
    eigenvectors:
  1.000  0.000  0.000  0.000  0.000
  0.000  1.000  0.000  0.000  0.000
  0.000  0.000  1.000  0.000  0.000
  0.000  0.000  0.000  1.000  0.000
  0.000  0.000  0.000  0.000  1.000
    occupations:
  0.600  0.000  0.000  0.000  0.000
  0.000  0.600  0.000  0.000  0.000
  0.000  0.000  0.600  0.000  0.000
  0.000  0.000  0.000  0.600  0.000
  0.000  0.000  0.000  0.000  0.600
atom    4   Tr[ns(na)] =   6.00000
    eigenvalues:
  0.600  0.600  0.600  0.600  0.600
    eigenvectors:
  1.000  0.000  0.000  0.000  0.000
  0.000  1.000  0.000  0.000  0.000
  0.000  0.000  1.000  0.000  0.000
  0.000  0.000  0.000  1.000  0.000
  0.000  0.000  0.000  0.000  1.000
    occupations:
  0.600  0.000  0.000  0.000  0.000
  0.000  0.600  0.000  0.000  0.000
  0.000  0.000  0.600  0.000  0.000
  0.000  0.000  0.000  0.600  0.000
  0.000  0.000  0.000  0.000  0.600
atom    9   Tr[ns(na)] =   6.00000
    eigenvalues:
  0.600  0.600  0.600  0.600  0.600
    eigenvectors:
  1.000  0.000  0.000  0.000  0.000
  0.000  1.000  0.000  0.000  0.000
  0.000  0.000  1.000  0.000  0.000
  0.000  0.000  0.000  1.000  0.000
  0.000  0.000  0.000  0.000  1.000
    occupations:
  0.600  0.000  0.000  0.000  0.000
  0.000  0.600  0.000  0.000  0.000
  0.000  0.000  0.600  0.000  0.000
  0.000  0.000  0.000  0.600  0.000
  0.000  0.000  0.000  0.000  0.600
atom   10   Tr[ns(na)] =   6.00000
    eigenvalues:
  0.600  0.600  0.600  0.600  0.600
    eigenvectors:
  1.000  0.000  0.000  0.000  0.000
  0.000  1.000  0.000  0.000  0.000
  0.000  0.000  1.000  0.000  0.000
  0.000  0.000  0.000  1.000  0.000
  0.000  0.000  0.000  0.000  1.000
    occupations:
  0.600  0.000  0.000  0.000  0.000
  0.000  0.600  0.000  0.000  0.000
  0.000  0.000  0.600  0.000  0.000
  0.000  0.000  0.000  0.600  0.000
  0.000  0.000  0.000  0.000  0.600
atom   16   Tr[ns(na)] =   6.00000
    eigenvalues:
  0.600  0.600  0.600  0.600  0.600
    eigenvectors:
  1.000  0.000  0.000  0.000  0.000
  0.000  1.000  0.000  0.000  0.000
  0.000  0.000  1.000  0.000  0.000
  0.000  0.000  0.000  1.000  0.000
  0.000  0.000  0.000  0.000  1.000
    occupations:
  0.600  0.000  0.000  0.000  0.000
  0.000  0.600  0.000  0.000  0.000
  0.000  0.000  0.600  0.000  0.000
  0.000  0.000  0.000  0.600  0.000
  0.000  0.000  0.000  0.000  0.600
atom   17   Tr[ns(na)] =   6.00000
    eigenvalues:
  0.600  0.600  0.600  0.600  0.600
    eigenvectors:
  1.000  0.000  0.000  0.000  0.000
  0.000  1.000  0.000  0.000  0.000
  0.000  0.000  1.000  0.000  0.000
  0.000  0.000  0.000  1.000  0.000
  0.000  0.000  0.000  0.000  1.000
    occupations:
  0.600  0.000  0.000  0.000  0.000
  0.000  0.600  0.000  0.000  0.000
  0.000  0.000  0.600  0.000  0.000
  0.000  0.000  0.000  0.600  0.000
  0.000  0.000  0.000  0.000  0.600
atom   22   Tr[ns(na)] =   6.00000
    eigenvalues:
  0.600  0.600  0.600  0.600  0.600
    eigenvectors:
  1.000  0.000  0.000  0.000  0.000
  0.000  1.000  0.000  0.000  0.000
  0.000  0.000  1.000  0.000  0.000
  0.000  0.000  0.000  1.000  0.000
  0.000  0.000  0.000  0.000  1.000
[...]
  0.604 -0.000 -0.001  0.033  0.001
 -0.000  0.766  0.013 -0.001 -0.001
 -0.001  0.013  0.697  0.001  0.000
  0.033 -0.001  0.001  0.949  0.000
  0.001 -0.001  0.000  0.000  0.557
atom    9   Tr[ns(na)] =   7.12760
    eigenvalues:
  0.585  0.604  0.757  0.805  0.812
    eigenvectors:
  0.000  0.151  0.000  0.053  0.796
  0.996  0.004  0.000  0.000  0.000
  0.000  0.000  0.999  0.001  0.000
  0.004  0.845  0.000  0.010  0.141
  0.000  0.000  0.001  0.937  0.063
    occupations:
  0.780 -0.003 -0.001 -0.074  0.002
 -0.003  0.585  0.001  0.002  0.000
 -0.001  0.001  0.757  0.000  0.001
 -0.074  0.002  0.000  0.635 -0.001
  0.002  0.000  0.001 -0.001  0.805
atom   10   Tr[ns(na)] =   7.16827
    eigenvalues:
  0.543  0.564  0.739  0.791  0.948
    eigenvectors:
  0.000  0.990  0.000  0.000  0.010
  0.000  0.000  0.000  1.000  0.000
  0.000  0.000  1.000  0.000  0.000
  0.000  0.010  0.000  0.000  0.990
  1.000  0.000  0.000  0.000  0.000
    occupations:
  0.568 -0.003 -0.002  0.038  0.000
 -0.003  0.791  0.000 -0.000  0.000
 -0.002  0.000  0.739  0.000  0.001
  0.038 -0.000  0.000  0.944  0.000
  0.000  0.000  0.001  0.000  0.543
atom   16   Tr[ns(na)] =   7.16987
    eigenvalues:
  0.530  0.570  0.725  0.820  0.941
    eigenvectors:
  0.000  0.193  0.007  0.003  0.796
  0.999  0.001  0.000  0.000  0.000
  0.000  0.000  0.971  0.016  0.013
  0.001  0.806  0.004  0.000  0.189
  0.000  0.000  0.017  0.981  0.002
    occupations:
  0.867 -0.000  0.022 -0.145  0.003
 -0.000  0.530 -0.001  0.001 -0.003
  0.022 -0.001  0.729 -0.008  0.013
 -0.145  0.001 -0.008  0.641 -0.003
  0.003 -0.003  0.013 -0.003  0.818
atom   17   Tr[ns(na)] =   7.14066
    eigenvalues:
  0.558  0.604  0.681  0.771  0.956
    eigenvectors:
  0.000  0.990  0.000  0.000  0.009
  0.000  0.000  0.016  0.984  0.000
  0.000  0.000  0.984  0.016  0.000
  0.000  0.009  0.000  0.000  0.991
  1.000  0.000  0.000  0.000  0.000
    occupations:
  0.608 -0.001  0.000  0.034  0.001
 -0.001  0.770  0.011 -0.001 -0.001
  0.000  0.011  0.683  0.001  0.000
  0.034 -0.001  0.001  0.952  0.000
  0.001 -0.001  0.000  0.000  0.558
atom   22   Tr[ns(na)] =   7.11682
    eigenvalues:
  0.585  0.605  0.753  0.805  0.811
    eigenvectors:
  0.000  0.151  0.000  0.001  0.848
  0.999  0.001  0.000  0.000  0.000
  0.000  0.000  0.999  0.001  0.000
  0.001  0.849  0.000  0.000  0.150
  0.000  0.000  0.001  0.998  0.001
    occupations:
  0.780  0.004 -0.000 -0.074  0.000
  0.004  0.585  0.000 -0.002  0.000
 -0.000  0.000  0.753  0.000 -0.001
 -0.074 -0.002  0.000  0.636 -0.000
  0.000  0.000 -0.001 -0.000  0.805
atom   23   Tr[ns(na)] =   7.13925
    eigenvalues:
  0.558  0.609  0.670  0.795  0.938
    eigenvectors:
  0.000  0.988  0.001  0.000  0.010
  0.000  0.000  0.000  1.000  0.000
  0.000  0.001  0.999  0.000  0.000
  0.000  0.010  0.000  0.000  0.990
  1.000  0.000  0.000  0.000  0.000
    occupations:
  0.612  0.004 -0.002  0.034  0.000
  0.004  0.795  0.001  0.000  0.001
 -0.002  0.001  0.670  0.001 -0.001
  0.034  0.000  0.001  0.935 -0.000
  0.000  0.001 -0.001 -0.000  0.558
N of occupied +U levels =  57.1783384
 --- exit write_ns ---

     Threshold (ethr) on eigenvalues was too large:
     Diagonalizing with lowered threshold

     Davidson diagonalization with overlap
     ethr =  6.21E-08,  avg # of iterations =  1.0

[...]

     total energy              =   -2164.45595046 Ry
     Harris-Foulkes estimate   =   -2164.45595046 Ry
     estimated scf accuracy    <       0.00000002 Ry

     iteration # 16     ecut=    40.00 Ry     beta=0.30
     Davidson diagonalization with overlap
     ethr =  5.82E-12,  avg # of iterations =  1.0

     negative rho (up, down):  0.581E+00 0.000E+00

     End of self-consistent calculation
 --- enter write_ns ---
 LDA+U parameters:
U( 2)     =  0.50000000
alpha( 2) =  0.00000000
atom    3   Tr[ns(na)] =   7.16263
    eigenvalues:
  0.529  0.570  0.724  0.819  0.940
    eigenvectors:
  0.000  0.193  0.008  0.004  0.795
  0.999  0.001  0.000  0.000  0.000
  0.000  0.000  0.974  0.013  0.013
  0.001  0.806  0.004  0.001  0.189
  0.000  0.000  0.014  0.983  0.003
    occupations:
  0.866  0.000  0.023 -0.145 -0.004
  0.000  0.529  0.001 -0.001 -0.003
  0.023  0.001  0.728 -0.008 -0.012
 -0.145 -0.001 -0.008  0.641  0.003
 -0.004 -0.003 -0.012  0.003  0.818
atom    4   Tr[ns(na)] =   7.15041
    eigenvalues:
  0.557  0.601  0.696  0.768  0.952
    eigenvectors:
  0.000  0.990  0.000  0.000  0.009
  0.000  0.000  0.031  0.969  0.000
  0.000  0.000  0.969  0.031  0.000
  0.000  0.009  0.000  0.000  0.991
  1.000  0.000  0.000  0.000  0.000
    occupations:
  0.605 -0.001 -0.001  0.033  0.001
 -0.001  0.766  0.013 -0.001 -0.001
 -0.001  0.013  0.698  0.001  0.000
  0.033 -0.001  0.001  0.949  0.000
  0.001 -0.001  0.000  0.000  0.557
atom    9   Tr[ns(na)] =   7.12333
    eigenvalues:
  0.585  0.604  0.757  0.804  0.811
    eigenvectors:
  0.000  0.151  0.000  0.060  0.789
  0.996  0.004  0.000  0.000  0.000
  0.000  0.000  0.999  0.001  0.000
  0.004  0.845  0.000  0.011  0.140
  0.000  0.000  0.000  0.928  0.071
    occupations:
  0.779 -0.003 -0.001 -0.074  0.002
 -0.003  0.585  0.001  0.002  0.000
 -0.001  0.001  0.757  0.000  0.001
 -0.074  0.002  0.000  0.635 -0.001
  0.002  0.000  0.001 -0.001  0.805
atom   10   Tr[ns(na)] =   7.17170
    eigenvalues:
  0.543  0.564  0.740  0.791  0.948
    eigenvectors:
  0.000  0.990  0.000  0.000  0.010
  0.000  0.000  0.000  1.000  0.000
  0.000  0.000  1.000  0.000  0.000
  0.000  0.010  0.000  0.000  0.990
  1.000  0.000  0.000  0.000  0.000
    occupations:
  0.568 -0.003 -0.002  0.038  0.000
 -0.003  0.791  0.000 -0.000  0.000
 -0.002  0.000  0.740  0.000  0.001
  0.038 -0.000  0.000  0.944  0.000
  0.000  0.000  0.001  0.000  0.543
atom   16   Tr[ns(na)] =   7.16305
    eigenvalues:
  0.529  0.570  0.723  0.818  0.941
    eigenvectors:
  0.000  0.193  0.008  0.003  0.796
  0.999  0.001  0.000  0.000  0.000
  0.000  0.000  0.972  0.015  0.013
  0.001  0.806  0.004  0.000  0.189
  0.000  0.000  0.017  0.981  0.002
    occupations:
  0.867  0.000  0.023 -0.145  0.003
  0.000  0.529 -0.001  0.001 -0.003
  0.023 -0.001  0.727 -0.008  0.013
 -0.145  0.001 -0.008  0.641 -0.003
  0.003 -0.003  0.013 -0.003  0.817
atom   17   Tr[ns(na)] =   7.14458
    eigenvalues:
  0.558  0.604  0.682  0.772  0.956
    eigenvectors:
  0.000  0.990  0.000  0.000  0.009
  0.000  0.000  0.016  0.984  0.000
  0.000  0.000  0.984  0.016  0.000
  0.000  0.009  0.000  0.000  0.991
  1.000  0.000  0.000  0.000  0.000
    occupations:
  0.608 -0.001  0.000  0.034  0.001
 -0.001  0.770  0.011 -0.001 -0.001
  0.000  0.011  0.683  0.001  0.000
  0.034 -0.001  0.001  0.953  0.000
  0.001 -0.001  0.000  0.000  0.558
atom   22   Tr[ns(na)] =   7.11916
    eigenvalues:
  0.585  0.605  0.754  0.805  0.811
    eigenvectors:
  0.000  0.151  0.000  0.001  0.848
  0.999  0.001  0.000  0.000  0.000
  0.000  0.000  0.999  0.001  0.000
  0.001  0.849  0.000  0.000  0.150
  0.000  0.000  0.001  0.998  0.001
    occupations:
  0.780  0.004 -0.000 -0.074  0.000
  0.004  0.585  0.000 -0.002  0.000
 -0.000  0.000  0.754  0.000 -0.001
 -0.074 -0.002  0.000  0.636 -0.000
  0.000  0.000 -0.001 -0.000  0.805
atom   23   Tr[ns(na)] =   7.14119
    eigenvalues:
  0.558  0.609  0.671  0.795  0.938
    eigenvectors:
  0.000  0.988  0.001  0.000  0.010
  0.000  0.000  0.000  1.000  0.000
  0.000  0.001  0.999  0.000  0.000
  0.000  0.010  0.000  0.000  0.990
  1.000  0.000  0.000  0.000  0.000
    occupations:
  0.612  0.004 -0.002  0.034  0.000
  0.004  0.795  0.001  0.000  0.001
 -0.002  0.001  0.671  0.001 -0.001
  0.034  0.000  0.001  0.935 -0.000
  0.000  0.001 -0.001 -0.000  0.558
N of occupied +U levels =  57.1760455
 --- exit write_ns ---

[...]

          k = 0.2500-0.4870 0.0000 ( 30468 PWs)   bands (ev):

[...]

          k =-0.2500 0.2435 0.0000 ( 30434 PWs)   bands (ev):

   -74.7606 -74.7528 -74.5338 -74.4564 -74.3994 -74.2356 -74.1211 -74.1123
   -44.8864 -44.7553 -44.7426 -44.7299 -44.7210 -44.7032 -44.6457 -44.6272
   -44.6188 -44.5584 -44.4042 -44.3990 -44.3958 -44.3056 -44.2854 -44.2778
   -44.2331 -44.1837 -44.1746 -44.1174 -44.0340 -44.0000 -43.9790 -43.9211
   -21.0282 -20.5120 -20.4922 -20.4180 -20.2259 -19.9532 -19.8789 -19.7842
   -19.7607 -19.6502 -19.5677 -19.5051 -19.4881 -19.4301 -19.2993 -19.2668
   -19.2388 -19.2098 -18.8595  -9.1249  -8.6123  -8.5857  -8.5489  -8.2327
    -8.1903  -8.1244  -8.0335  -7.8919  -7.8117  -7.7191  -7.6946  -7.5938
    -7.5547  -7.4706  -7.4023  -7.2991  -7.2041  -6.9240  -6.7948  -6.7433
    -6.5940  -6.5316  -6.4444  -6.0572  -5.9720  -5.9029  -5.7891  -5.5784
    -5.5134  -5.4781  -5.4601  -5.3672  -5.2676  -5.2021  -5.0703  -5.0318
    -5.0017  -4.9099  -4.8213  -4.7442  -4.5628  -4.4699  -4.3333  -4.1967
    -4.1506  -4.1166  -3.9909  -3.9404  -3.8155  -3.6467  -3.5546  -3.4706
    -3.1512  -3.1427  -3.0339  -2.7822  -2.1189  -2.0517  -1.9406  -1.8189
    -1.7455  -1.6645  -1.6151  -1.5218  -1.5015  -1.4413  -1.3960  -1.3508
    -1.3086  -1.2173  -1.1114  -1.0195  -0.7488  -0.5580  -0.4206  -0.3776
    -0.2958  -0.1806  -0.0627   0.1302   0.6749   1.3666   1.5297   1.5795
     1.7254   2.1615   2.4884   2.6087   2.9644   3.0249   3.1393   3.2061
     3.2657   3.3371   3.5808   3.8443   4.0322   4.3043   4.7820   5.2022
     5.6318   5.7686   5.8505   6.0969   6.3979   6.5557   6.6699   6.7167
     6.7916   7.0252   7.0932   7.3224   7.5514   7.7321   7.8451   7.9626
     8.1070   8.2808   8.3757   8.4416   8.5404   8.5717   8.7236   8.7804
     8.9514   9.1075   9.1921   9.3166   9.3839   9.4975   9.6812   9.8405
     9.9045  10.0033  10.0952  10.1794  10.2117  10.3196  10.3975  10.4558
    10.5779  10.6468  10.7068  10.8445  10.9074  10.9986  11.0923  11.2858
    11.3557  11.4056  11.5144  11.5630  11.6565  11.7596  11.7869  11.8422
    11.9201  11.9969  12.1182  12.1665  12.2202  12.3239  12.4301  12.4812
    12.5078  12.5967  12.6523  12.7069  12.7561  12.8214  12.9011  13.0051
    13.0639  13.1291  13.1996  13.2995  13.3883  13.4742  13.5413  13.5959
    13.7117  13.8037  13.8952  14.0025  14.0671  14.1460  14.1867  14.2535
    14.3521  14.4758  14.5410  14.5817  14.6087  14.6783  14.7974  14.8305
    14.8941  15.0137  15.0692  15.1571  15.2619  15.3517  15.5350  15.5616
    15.6266  15.6687  15.7776  15.8153  15.8496  15.8597  15.9651  16.0413
    16.0774  16.1367  16.1867  16.3092  16.3287  16.3564  16.4504  16.5330
    16.6156  16.7109  16.7626  16.7876  16.8375  16.8786  16.9746  17.0223
    17.1190  17.1947  17.2295  17.3307  17.4164  17.4714  17.4927  17.5607
    17.6002  17.6807  17.7228  17.8015  17.8423  17.9073  17.9943  18.0784
    18.1254  18.2082  18.2351  18.3036  18.3490  18.4290  18.5388  18.5915
    18.6856  18.7877  18.8394  18.9208  18.9780  19.0487  19.1263  19.1898
    19.2095  19.3060  19.3770  19.4556  19.4907  19.5521  19.6538  19.7491
    19.7803  19.8351  19.9019  19.9917  20.0635  20.1874  20.2676  20.3305
    20.3729  20.4827  20.5989  20.6599  20.7288  20.7939  20.8567  20.9337
    20.9524  21.0258  21.1182  21.1453  21.2135  21.2963  21.3543  21.4015
    21.4328  21.4811  21.5460  21.5772  21.6102  21.7078  21.7933  21.8223
    21.9497  21.9801  22.0209  22.0456  22.1308  22.2246

     the Fermi energy is    -0.9106 ev

!    total energy              =   -2164.45595046 Ry
     Harris-Foulkes estimate   =   -2164.45595046 Ry
     estimated scf accuracy    <          2.6E-09 Ry

     The total energy is the sum of the following terms:

     one-electron contribution =  -25192.27319287 Ry
     hartree contribution      =   12618.13226347 Ry
     xc contribution           =    -338.43333865 Ry
     ewald contribution        =   10747.84525524 Ry
     Hubbard energy            =       0.27274772 Ry
     smearing contrib. (-TS)   =       0.00031462 Ry

     convergence has been achieved in  16 iterations

     Forces acting on atoms (Ry/au):

     negative rho (up, down):  0.581E+00 0.000E+00
     atom    1 type  1   force =    -0.00527997   -0.01154349    0.00059779
     atom    2 type  1   force =     0.00057652    0.00985443    0.00023693
     atom    3 type  2   force =     0.03635614   -0.00197529    0.00070238
     atom    4 type  2   force =     0.00370704    0.00597323    0.00009684
     atom    5 type  1   force =     0.00139923   -0.02911735    0.00018265
     atom    6 type  1   force =     0.00000437    0.03077024    0.00008289
     atom    7 type  1   force =     0.00194409   -0.00365263   -0.00041702
     atom    8 type  1   force =     0.00012937   -0.00196696   -0.00032928
     atom    9 type  2   force =    -0.01668691    0.00231998   -0.00037061
     atom   10 type  2   force =    -0.00734133   -0.00017258    0.00064980
     atom   11 type  1   force =    -0.01027944    0.00354101   -0.00010640
     atom   12 type  1   force =    -0.01196646   -0.00432086   -0.00008490
     atom   13 type  1   force =    -0.00124394   -0.00090363   -0.00005029
     atom   14 type  1   force =    -0.00382357   -0.01025693    0.00040559
     atom   15 type  1   force =    -0.00005957    0.00678267    0.00078420
     atom   16 type  2   force =    -0.03771096   -0.00141777    0.00067056
     atom   17 type  2   force =     0.00272834    0.00601308    0.00007429
     atom   18 type  1   force =     0.00175023   -0.02955631    0.00019720
     atom   19 type  1   force =     0.00201480    0.03030653    0.00009046
     atom   20 type  1   force =    -0.00121908   -0.00098170    0.00020183
     atom   21 type  1   force =    -0.00052939   -0.00159658   -0.00032417
     atom   22 type  2   force =     0.01743569    0.00224654   -0.00074003
     atom   23 type  2   force =     0.00328251    0.00191469   -0.00065551
     atom   24 type  1   force =     0.01239449    0.00524588   -0.00068355
     atom   25 type  1   force =     0.01375461   -0.00602396   -0.00072756
     atom   26 type  1   force =    -0.00129168   -0.00098656   -0.00045892
     atom   27 type  3   force =    -0.00001940   -0.00005311    0.00013001
     atom   28 type  3   force =    -0.00000140   -0.00012727    0.00044354
     atom   29 type  3   force =    -0.00025743   -0.00007300   -0.00007185
     atom   30 type  3   force =    -0.00024166   -0.00014283   -0.00020014
     atom   31 type  1   force =    -0.00020306    0.00010996   -0.00003989
     atom   32 type  3   force =     0.00067783   -0.00020946   -0.00028683

     Total force =     0.002550     Total SCF correction =     0.000112

     bfgs converged in   3 scf cycles and   2 bfgs steps
     (criteria: energy < 0.10E-03, force < 0.10E-02)

     End of BFGS Geometry Optimization

     Final energy   =   -2164.4559504619 Ry
Begin final coordinates

ATOMIC_POSITIONS (crystal)
O0       0.000000000   0.000000000   0.378970780    0   0   1
O0       0.000000000   0.500000000   0.403125861    0   0   1
Ru1      0.250000000   0.500000000   0.453689516    0   0   1
Ru1      0.000000000   0.000000000   0.453074794    0   0   1
O0       0.250000000   0.810000000   0.452991013    0   0   1
O0       0.250000000   0.190000000   0.452874686    0   0   1
O0       0.000000000   0.500000000   0.497661881    0   0   1
O0       0.000000000   0.000000000   0.527128965    0   0   1
Ru1      0.250000000   0.000000000   0.577578737    0   0   1
Ru1      0.000000000   0.500000000   0.568314794    0   0   1
O0       0.250000000   0.690000000   0.575738850    0   0   1
O0       0.250000000   0.310000000   0.575669103    0   0   1
O0       0.000000000   0.000000000   0.619906565    0   0   1
O0       0.500000000   0.000000000   0.379214851    0   0   1
O0       0.500000000   0.500000000   0.403154221    0   0   1
Ru1      0.750000000   0.500000000   0.453692391    0   0   1
Ru1      0.500000000   0.000000000   0.453164436    0   0   1
O0       0.750000000   0.810000000   0.452942790    0   0   1
O0       0.750000000   0.190000000   0.452875825    0   0   1
O0       0.500000000   0.500000000   0.501724068    0   0   1
O0       0.500000000   0.000000000   0.526987371    0   0   1
Ru1      0.750000000   0.000000000   0.577541921    0   0   1
Ru1      0.500000000   0.500000000   0.575916270    0   0   1
O0       0.750000000   0.690000000   0.575211095    0   0   1
O0       0.750000000   0.310000000   0.575078233    0   0   1
O0       0.500000000   0.000000000   0.617538141    0   0   1
H2      -0.000245269   0.628778907   0.382433805
H2       0.499551116   0.624164113   0.380947416
H2       0.145659597   0.031987272   0.366610276
H2       0.646473391   0.029315094   0.366902495
O0       0.513844369   0.497559855   0.648538558
H2       0.371709825   0.496094483   0.664620291
End final coordinates

     General routines

     Parallel routines
     Hubbard U routines

   This run was terminated on:   5: 2:21  10May2014

   JOB DONE.