     Program PWSCF v.5.0.2 (svn rev. 9656) starts on 10May2014 at  4: 5:40

     Current dimensions of program PWSCF are:
     Max number of different atomic species (ntypx) = 10
     Max number of k-points (npk) =  40000
     Max angular momentum in pseudopotentials (lmaxx) =  3
     Reading input from pwscf.in
Warning: card &CELL ignored
Warning: card / ignored

     Subspace diagonalization in iterative solution of the eigenvalue problem:
     a serial algorithm will be used

     bravais-lattice index     =            0
     lattice parameter (alat)  =      11.2250  a.u.
     unit-cell volume          =    7005.5484 (a.u.)^3
     number of atoms/cell      =           32
     number of atomic types    =            3
     number of electrons       =       215.00
     number of Kohn-Sham states=          310
     kinetic-energy cutoff     =      40.0000  Ry
     charge density cutoff     =     500.0000  Ry
     convergence threshold     =      1.0E-06
     mixing beta               =       0.7000
     number of iterations used =            8  plain     mixing
     Exchange-correlation      = SLA  PW   PBE  PBE ( 1 4 3 4 0)
     EXX-fraction              =        0.00
     nstep                     =           50

     celldm(1)=  11.224973  celldm(2)=   0.000000  celldm(3)=   0.000000
     celldm(4)=   0.000000  celldm(5)=   0.000000  celldm(6)=   0.000000

     crystal axes: (cart. coord. in units of alat)
               a(1) = (   1.000000   0.000000   0.000000 )
               a(2) = (   0.000000   1.107086   0.000000 )
               a(3) = (   0.000000   0.000000   4.474090 )

     reciprocal axes: (cart. coord. in units 2 pi/alat)
               b(1) = (  1.000000  0.000000  0.000000 )
               b(2) = (  0.000000  0.903272  0.000000 )
               b(3) = (  0.000000  0.000000  0.223509 )

     PseudoPot. # 1 for O  read from file:
     /home/camp/zhonxu/pseudo/o_pbe_v1.01.uspp.F.UPF
     MD5 check sum: 2bcb18d16ea4b960afae9ec6d52f22d2
     Pseudo is Ultrasoft + core correction, Zval =  6.0
     Generated by new atomic code, or converted to UPF format
     Using radial grid of  737 points,  5 beta functions with:
                l(1) =   0
                l(2) =   0
                l(3) =   1
                l(4) =   1
                l(5) =   2
     Q(r) pseudized with  8 coefficients,  rinner =    0.900   0.900   0.900
                                                       0.900   0.900

     PseudoPot. # 2 for Ti read from file:
     /home/camp/zhonxu/pseudo/ti_pbe_v1.uspp.F.UPF
     MD5 check sum: bcc8f6961b3b91f0cac3ca967d22d0fb
     Pseudo is Ultrasoft + core correction, Zval = 12.0
     Generated by new atomic code, or converted to UPF format
     Using radial grid of  851 points,  6 beta functions with:
                l(1) =   0
                l(2) =   0
                l(3) =   1
                l(4) =   1
                l(5) =   2
                l(6) =   2
     Q(r) pseudized with  6 coefficients,  rinner =    1.000   1.000   1.000
                                                       1.000   1.000

     PseudoPot. # 3 for H  read from file:
     /home/camp/zhonxu/pseudo/h_pbe_v1.uspp.F.UPF
     MD5 check sum: 3408e3ff4ec8b0a4e358431e7e038a48
     Pseudo is Ultrasoft, Zval =  1.0
     Generated by new atomic code, or converted to UPF format
     Using radial grid of  615 points,  2 beta functions with:
                l(1) =   0
                l(2) =   0
     Q(r) pseudized with  8 coefficients,  rinner =    0.700

     atomic species   valence    mass     pseudopotential
        O0             6.00    15.99940     O ( 1.00)
        Ti1           12.00    47.88000     Ti( 1.00)
        H2             1.00     1.00794     H ( 1.00)

     Simplified LDA+U calculation (l_max = 2) with parameters (eV):
     atomic species    L          U    alpha       J0     beta
        Ti1            2     0.0000   0.0000   0.0000   0.0000

     No symmetry found

   Cartesian axes

     site n.     atom                  positions (alat units)
         1           O0  tau(   1) = (   0.0000000   0.0000000   1.6864186  )
         2           O0  tau(   2) = (   0.0000000   0.5535432   1.7740213  )
         3           Ti1 tau(   3) = (   0.2500000   0.5535432   2.0074793  )
         4           Ti1 tau(   4) = (   0.0000000   0.0000000   2.0324447  )
         5           O0  tau(   5) = (   0.2500000   0.8967400   2.0044817  )
         6           O0  tau(   6) = (   0.2500000   0.2103464   2.0092242  )
         7           O0  tau(   7) = (   0.0000000   0.5535432   2.2196854  )
         8           O0  tau(   8) = (   0.0000000   0.0000000   2.3507315  )
         9           Ti1 tau(   9) = (   0.2500000   0.0000000   2.6021753  )
        10           Ti1 tau(  10) = (   0.0000000   0.5535432   2.5345718  )
        11           O0  tau(  11) = (   0.2500000   0.7638896   2.5931377  )
        12           O0  tau(  12) = (   0.2500000   0.3431968   2.5930482  )
        13           O0  tau(  13) = (   0.0000000   0.0000000   2.7844945  )
        14           O0  tau(  14) = (   0.5000000   0.0000000   1.6873582  )
        15           O0  tau(  15) = (   0.5000000   0.5535432   1.7709789  )
        16           Ti1 tau(  16) = (   0.7500000   0.5535432   2.0079715  )
        17           Ti1 tau(  17) = (   0.5000000   0.0000000   2.0352187  )
        18           O0  tau(  18) = (   0.7500000   0.8967400   2.0040790  )
        19           O0  tau(  19) = (   0.7500000   0.2103464   2.0094479  )
        20           O0  tau(  20) = (   0.5000000   0.5535432   2.1971360  )
        21           O0  tau(  21) = (   0.5000000   0.0000000   2.3514026  )
        22           Ti1 tau(  22) = (   0.7500000   0.0000000   2.6024885  )
        23           Ti1 tau(  23) = (   0.5000000   0.5535432   2.6568935  )
        24           O0  tau(  24) = (   0.7500000   0.7638896   2.5904532  )
        25           O0  tau(  25) = (   0.7500000   0.3431968   2.5901848  )
        26           O0  tau(  26) = (   0.5000000   0.0000000   2.7844945  )
        27           H2  tau(  27) = (  -0.0007700   0.6889399   1.6773810  )
        28           H2  tau(  28) = (   0.4993300   0.6850208   1.6695513  )
        29           H2  tau(  29) = (   0.1496500   0.0435638   1.6275396  )
        30           H2  tau(  30) = (   0.6495100   0.0435638   1.6281213  )
        31           O0  tau(  31) = (   0.5047900   0.5534214   2.9586261  )
        32           H2  tau(  32) = (   0.3766100   0.5530007   3.0621118  )

     number of k points=    10  Methfessel-Paxton smearing, width (Ry)=  0.0100
                       cart. coord. in units 2pi/alat
        k(    1) = (   0.0000000   0.0000000   0.0000000), wk =   0.1250000
        k(    2) = (   0.0000000   0.2258180   0.0000000), wk =   0.2500000
        k(    3) = (   0.0000000  -0.4516359   0.0000000), wk =   0.1250000
        k(    4) = (   0.2500000   0.0000000   0.0000000), wk =   0.2500000
        k(    5) = (   0.2500000   0.2258180   0.0000000), wk =   0.2500000
        k(    6) = (   0.2500000  -0.4516359   0.0000000), wk =   0.2500000
        k(    7) = (  -0.5000000   0.0000000   0.0000000), wk =   0.1250000
        k(    8) = (  -0.5000000   0.2258180   0.0000000), wk =   0.2500000
        k(    9) = (  -0.5000000  -0.4516359   0.0000000), wk =   0.1250000
        k(   10) = (  -0.2500000   0.2258180   0.0000000), wk =   0.2500000

     Largest allocated arrays     est. size (Mb)     dimensions
     Largest temporary arrays     est. size (Mb)     dimensions

     Check: negative/imaginary core charge=   -0.000006    0.000000

     Initial potential from superposition of free atoms
     Check: negative starting charge=   -0.102331

     starting charge  206.99957, renormalised to  215.00000

     negative rho (up, down):  0.106E+00 0.000E+00
     Number of +U iterations with fixed ns =  0
     Starting occupations:
 --- enter write_ns ---
 LDA+U parameters:
U( 2)     =  0.00000000
alpha( 2) =  0.00000000
atom    3   Tr[ns(na)] =   2.00000
    eigenvalues:
  0.200  0.200  0.200  0.200  0.200
    eigenvectors:
  1.000  0.000  0.000  0.000  0.000
  0.000  1.000  0.000  0.000  0.000
  0.000  0.000  1.000  0.000  0.000
  0.000  0.000  0.000  1.000  0.000
  0.000  0.000  0.000  0.000  1.000
    occupations:
  0.200  0.000  0.000  0.000  0.000
  0.000  0.200  0.000  0.000  0.000
  0.000  0.000  0.200  0.000  0.000
  0.000  0.000  0.000  0.200  0.000
  0.000  0.000  0.000  0.000  0.200
atom    4   Tr[ns(na)] =   2.00000
    eigenvalues:
  0.200  0.200  0.200  0.200  0.200
    eigenvectors:
  1.000  0.000  0.000  0.000  0.000
  0.000  1.000  0.000  0.000  0.000
  0.000  0.000  1.000  0.000  0.000
  0.000  0.000  0.000  1.000  0.000
  0.000  0.000  0.000  0.000  1.000
    occupations:
  0.200  0.000  0.000  0.000  0.000
  0.000  0.200  0.000  0.000  0.000
  0.000  0.000  0.200  0.000  0.000
  0.000  0.000  0.000  0.200  0.000
  0.000  0.000  0.000  0.000  0.200
atom    9   Tr[ns(na)] =   2.00000
    eigenvalues:
  0.200  0.200  0.200  0.200  0.200
    eigenvectors:
  1.000  0.000  0.000  0.000  0.000
  0.000  1.000  0.000  0.000  0.000
  0.000  0.000  1.000  0.000  0.000
  0.000  0.000  0.000  1.000  0.000
  0.000  0.000  0.000  0.000  1.000
    occupations:
  0.200  0.000  0.000  0.000  0.000
  0.000  0.200  0.000  0.000  0.000
  0.000  0.000  0.200  0.000  0.000
  0.000  0.000  0.000  0.200  0.000
  0.000  0.000  0.000  0.000  0.200
atom   10   Tr[ns(na)] =   2.00000
    eigenvalues:
  0.200  0.200  0.200  0.200  0.200
    eigenvectors:
  1.000  0.000  0.000  0.000  0.000
  0.000  1.000  0.000  0.000  0.000
  0.000  0.000  1.000  0.000  0.000
  0.000  0.000  0.000  1.000  0.000
  0.000  0.000  0.000  0.000  1.000
    occupations:
  0.200  0.000  0.000  0.000  0.000
  0.000  0.200  0.000  0.000  0.000
  0.000  0.000  0.200  0.000  0.000
  0.000  0.000  0.000  0.200  0.000
  0.000  0.000  0.000  0.000  0.200
atom   16   Tr[ns(na)] =   2.00000
    eigenvalues:
  0.200  0.200  0.200  0.200  0.200
    eigenvectors:
  1.000  0.000  0.000  0.000  0.000
  0.000  1.000  0.000  0.000  0.000
  0.000  0.000  1.000  0.000  0.000
  0.000  0.000  0.000  1.000  0.000
  0.000  0.000  0.000  0.000  1.000
    occupations:
  0.200  0.000  0.000  0.000  0.000
  0.000  0.200  0.000  0.000  0.000
  0.000  0.000  0.200  0.000  0.000
  0.000  0.000  0.000  0.200  0.000
  0.000  0.000  0.000  0.000  0.200
atom   17   Tr[ns(na)] =   2.00000
    eigenvalues:
  0.200  0.200  0.200  0.200  0.200
    eigenvectors:
  1.000  0.000  0.000  0.000  0.000
  0.000  1.000  0.000  0.000  0.000
  0.000  0.000  1.000  0.000  0.000
  0.000  0.000  0.000  1.000  0.000
  0.000  0.000  0.000  0.000  1.000
    occupations:
  0.200  0.000  0.000  0.000  0.000
  0.000  0.200  0.000  0.000  0.000
  0.000  0.000  0.200  0.000  0.000
  0.000  0.000  0.000  0.200  0.000
  0.000  0.000  0.000  0.000  0.200
atom   22   Tr[ns(na)] =   2.00000
    eigenvalues:
  0.200  0.200  0.200  0.200  0.200
    eigenvectors:
  1.000  0.000  0.000  0.000  0.000
  0.000  1.000  0.000  0.000  0.000
  0.000  0.000  1.000  0.000  0.000
  0.000  0.000  0.000  1.000  0.000
  0.000  0.000  0.000  0.000  1.000
[...]
  0.009  0.412  0.003 -0.020  0.010
 -0.004  0.003  0.213  0.006 -0.015
  0.068 -0.020  0.006  0.358 -0.001
  0.002  0.010 -0.015 -0.001  0.217
atom    4   Tr[ns(na)] =   2.97336
    eigenvalues:
  0.186  0.226  0.241  0.411  0.422
    eigenvectors:
  0.006  0.002  0.000  0.000  0.992
  0.000  0.909  0.089  0.000  0.002
  0.000  0.088  0.911  0.000  0.000
  0.994  0.001  0.000  0.000  0.006
  0.000  0.000  0.000  1.000  0.000
    occupations:
  0.420  0.009  0.003 -0.018 -0.000
  0.009  0.228 -0.004 -0.000 -0.001
  0.003 -0.004  0.240  0.000 -0.000
 -0.018 -0.000  0.000  0.187 -0.000
 -0.000 -0.001 -0.000 -0.000  0.411
atom    9   Tr[ns(na)] =   2.95565
    eigenvalues:
  0.194  0.232  0.251  0.379  0.422
    eigenvectors:
  0.000  0.000  0.926  0.073  0.000
  0.000  0.000  0.000  0.000  1.000
  0.997  0.003  0.000  0.000  0.000
  0.000  0.000  0.073  0.927  0.000
  0.003  0.997  0.000  0.000  0.000
    occupations:
  0.260 -0.000 -0.000  0.033  0.000
 -0.000  0.422  0.000  0.000 -0.000
 -0.000  0.000  0.194  0.000  0.002
  0.033  0.000  0.000  0.369 -0.000
  0.000 -0.000  0.002 -0.000  0.232
atom   10   Tr[ns(na)] =   2.88786
    eigenvalues:
  0.190  0.247  0.249  0.336  0.421
    eigenvectors:
  0.016  0.000  0.000  0.984  0.000
  0.000  0.004  0.996  0.000  0.000
  0.000  0.996  0.004  0.000  0.000
  0.984  0.000  0.000  0.016  0.000
  0.000  0.000  0.000  0.000  1.000
    occupations:
  0.334  0.001 -0.000 -0.018 -0.000
  0.001  0.249 -0.000  0.000 -0.000
 -0.000 -0.000  0.247 -0.000 -0.000
 -0.018  0.000 -0.000  0.192  0.000
 -0.000 -0.000 -0.000  0.000  0.421
atom   16   Tr[ns(na)] =   2.88484
    eigenvalues:
  0.199  0.210  0.231  0.383  0.421
    eigenvectors:
  0.081  0.680  0.057  0.170  0.011
  0.004  0.003  0.003  0.170  0.820
  0.551  0.006  0.443  0.001  0.000
  0.023  0.143  0.009  0.658  0.167
  0.340  0.169  0.488  0.001  0.002
    occupations:
  0.242 -0.009 -0.004  0.067 -0.002
 -0.009  0.412 -0.003  0.020  0.010
 -0.004 -0.003  0.213  0.006  0.015
  0.067  0.020  0.006  0.359  0.001
 -0.002  0.010  0.015  0.001  0.217
atom   17   Tr[ns(na)] =   2.96599
    eigenvalues:
  0.186  0.225  0.241  0.408  0.423
    eigenvectors:
  0.006  0.002  0.000  0.000  0.992
  0.000  0.913  0.084  0.000  0.002
  0.000  0.084  0.916  0.000  0.000
  0.994  0.000  0.000  0.000  0.005
  0.000  0.000  0.000  1.000  0.000
    occupations:
  0.421  0.009  0.004 -0.017 -0.000
  0.009  0.227 -0.004 -0.000 -0.001
  0.004 -0.004  0.240  0.000 -0.000
 -0.017 -0.000  0.000  0.187 -0.000
 -0.000 -0.001 -0.000 -0.000  0.408
atom   22   Tr[ns(na)] =   2.95525
    eigenvalues:
  0.194  0.232  0.251  0.379  0.422
    eigenvectors:
  0.000  0.000  0.927  0.072  0.000
  0.000  0.000  0.000  0.000  1.000
  0.998  0.002  0.000  0.000  0.000
  0.000  0.000  0.072  0.928  0.000
  0.002  0.998  0.000  0.000  0.000
    occupations:
  0.260 -0.000 -0.000  0.033  0.000
 -0.000  0.422  0.000 -0.000 -0.000
 -0.000  0.000  0.194 -0.000 -0.002
  0.033 -0.000 -0.000  0.369 -0.000
  0.000 -0.000 -0.002 -0.000  0.232
atom   23   Tr[ns(na)] =   2.91987
    eigenvalues:
  0.172  0.241  0.272  0.376  0.400
    eigenvectors:
  0.011  0.042  0.000  0.947  0.000
  0.001  0.955  0.000  0.044  0.000
  0.000  0.000  1.000  0.000  0.000
  0.988  0.004  0.000  0.009  0.000
  0.000  0.000  0.000  0.000  1.000
    occupations:
  0.368  0.028  0.000 -0.020 -0.000
  0.028  0.247 -0.000  0.000 -0.000
  0.000 -0.000  0.272 -0.000 -0.000
 -0.020  0.000 -0.000  0.174 -0.000
 -0.000 -0.000 -0.000 -0.000  0.400
N of occupied +U levels =  23.4265178
 --- exit write_ns ---

     Threshold (ethr) on eigenvalues was too large:
     Diagonalizing with lowered threshold

     Davidson diagonalization with overlap
     ethr =  1.36E-08,  avg # of iterations =  2.0

[...]

     total energy              =   -1568.32758183 Ry
     Harris-Foulkes estimate   =   -1568.32758184 Ry
     estimated scf accuracy    <       0.00000004 Ry

     iteration # 10     ecut=    40.00 Ry     beta=0.70
     Davidson diagonalization with overlap
     ethr =  1.83E-11,  avg # of iterations =  1.0

     negative rho (up, down):  0.102E+00 0.000E+00

     End of self-consistent calculation
 --- enter write_ns ---
 LDA+U parameters:
U( 2)     =  0.00000000
alpha( 2) =  0.00000000
atom    3   Tr[ns(na)] =   2.88389
    eigenvalues:
  0.198  0.209  0.231  0.383  0.421
    eigenvectors:
  0.092  0.668  0.057  0.172  0.011
  0.004  0.003  0.003  0.167  0.823
  0.541  0.008  0.450  0.001  0.000
  0.026  0.142  0.009  0.660  0.164
  0.336  0.179  0.482  0.000  0.002
    occupations:
  0.242  0.009 -0.004  0.067  0.002
  0.009  0.412  0.003 -0.020  0.010
 -0.004  0.003  0.213  0.006 -0.015
  0.067 -0.020  0.006  0.358 -0.001
  0.002  0.010 -0.015 -0.001  0.217
atom    4   Tr[ns(na)] =   2.97428
    eigenvalues:
  0.186  0.226  0.241  0.411  0.422
    eigenvectors:
  0.006  0.002  0.000  0.000  0.992
  0.000  0.909  0.088  0.000  0.002
  0.000  0.088  0.911  0.000  0.000
  0.994  0.001  0.000  0.000  0.006
  0.000  0.000  0.000  1.000  0.000
    occupations:
  0.421  0.009  0.003 -0.018 -0.000
  0.009  0.228 -0.004 -0.000 -0.001
  0.003 -0.004  0.240  0.000 -0.000
 -0.018 -0.000  0.000  0.188 -0.000
 -0.000 -0.001 -0.000 -0.000  0.411
atom    9   Tr[ns(na)] =   2.95351
    eigenvalues:
  0.194  0.232  0.251  0.379  0.422
    eigenvectors:
  0.000  0.000  0.926  0.074  0.000
  0.000  0.000  0.000  0.000  1.000
  0.997  0.003  0.000  0.000  0.000
  0.000  0.000  0.074  0.926  0.000
  0.003  0.997  0.000  0.000  0.000
    occupations:
  0.260 -0.000 -0.000  0.033  0.000
 -0.000  0.422  0.000  0.000 -0.000
 -0.000  0.000  0.194  0.000  0.002
  0.033  0.000  0.000  0.369 -0.000
  0.000 -0.000  0.002 -0.000  0.232
atom   10   Tr[ns(na)] =   2.88702
    eigenvalues:
  0.190  0.247  0.249  0.336  0.421
    eigenvectors:
  0.016  0.000  0.000  0.984  0.000
  0.000  0.004  0.996  0.000  0.000
  0.000  0.996  0.004  0.000  0.000
  0.984  0.000  0.000  0.016  0.000
  0.000  0.000  0.000  0.000  1.000
    occupations:
  0.334  0.001 -0.000 -0.018 -0.000
  0.001  0.249 -0.000  0.000 -0.000
 -0.000 -0.000  0.247 -0.000 -0.000
 -0.018  0.000 -0.000  0.192  0.000
 -0.000 -0.000 -0.000  0.000  0.421
atom   16   Tr[ns(na)] =   2.88503
    eigenvalues:
  0.199  0.210  0.231  0.383  0.421
    eigenvectors:
  0.081  0.681  0.057  0.170  0.011
  0.004  0.003  0.003  0.170  0.820
  0.551  0.006  0.443  0.001  0.000
  0.023  0.143  0.009  0.658  0.167
  0.341  0.167  0.489  0.001  0.002
    occupations:
  0.242 -0.009 -0.004  0.067 -0.002
 -0.009  0.412 -0.003  0.020  0.010
 -0.004 -0.003  0.213  0.006  0.015
  0.067  0.020  0.006  0.359  0.001
 -0.002  0.010  0.015  0.001  0.217
atom   17   Tr[ns(na)] =   2.96718
    eigenvalues:
  0.186  0.225  0.241  0.408  0.423
    eigenvectors:
  0.006  0.002  0.000  0.000  0.992
  0.000  0.914  0.084  0.000  0.002
  0.000  0.084  0.916  0.000  0.000
  0.994  0.000  0.000  0.000  0.005
  0.000  0.000  0.000  1.000  0.000
    occupations:
  0.421  0.009  0.004 -0.017 -0.000
  0.009  0.227 -0.004 -0.000 -0.001
  0.004 -0.004  0.240  0.000 -0.000
 -0.017 -0.000  0.000  0.187 -0.000
 -0.000 -0.001 -0.000 -0.000  0.408
atom   22   Tr[ns(na)] =   2.95310
    eigenvalues:
  0.194  0.232  0.250  0.379  0.422
    eigenvectors:
  0.000  0.000  0.927  0.073  0.000
  0.000  0.000  0.000  0.000  1.000
  0.998  0.002  0.000  0.000  0.000
  0.000  0.000  0.073  0.927  0.000
  0.002  0.997  0.000  0.000  0.000
    occupations:
  0.260 -0.000 -0.000  0.033  0.000
 -0.000  0.422  0.000 -0.000 -0.000
 -0.000  0.000  0.194 -0.000 -0.002
  0.033 -0.000 -0.000  0.369 -0.000
  0.000 -0.000 -0.002 -0.000  0.232
atom   23   Tr[ns(na)] =   2.91913
    eigenvalues:
  0.172  0.241  0.271  0.375  0.400
    eigenvectors:
  0.011  0.042  0.000  0.947  0.000
  0.001  0.955  0.000  0.044  0.000
  0.000  0.000  1.000  0.000  0.000
  0.988  0.004  0.000  0.009  0.000
  0.000  0.000  0.000  0.000  1.000
    occupations:
  0.368  0.028  0.000 -0.020 -0.000
  0.028  0.247 -0.000  0.000 -0.000
  0.000 -0.000  0.271 -0.000 -0.000
 -0.020  0.000 -0.000  0.174 -0.000
 -0.000 -0.000 -0.000 -0.000  0.400
N of occupied +U levels =  23.4231505
 --- exit write_ns ---

[...]

          k = 0.2500-0.4516 0.0000 ( 29882 PWs)   bands (ev):

[...]

          k =-0.2500 0.2258 0.0000 ( 29912 PWs)   bands (ev):

   -59.9126 -59.8842 -59.6837 -59.3159 -58.9857 -58.9568 -58.6618 -58.6300
   -36.4168 -36.1829 -36.1274 -36.0831 -36.0697 -36.0589 -36.0418 -35.9647
   -35.8644 -35.6493 -35.5697 -35.5572 -35.5175 -35.3144 -35.2386 -35.2350
   -35.1391 -35.1314 -35.0952 -34.9569 -34.9290 -34.9264 -34.8495 -34.7844
   -21.3601 -21.1204 -20.4841 -20.4556 -20.0937 -19.7362 -19.5939 -19.5420
   -19.4821 -19.3586 -19.2731 -19.1547 -19.0814 -19.0588 -19.0318 -18.7233
   -18.4759 -18.1789 -18.1508  -9.1805  -8.8932  -8.4028  -7.8053  -7.6405
    -7.4547  -7.2797  -7.1995  -7.0785  -6.8882  -6.7180  -6.7027  -6.6783
    -6.6138  -6.4647  -6.4157  -6.3290  -6.2404  -6.1257  -6.0910  -5.9634
    -5.9398  -5.7425  -5.5962  -5.4530  -5.3684  -5.2887  -5.1914  -5.0788
    -5.0312  -4.9971  -4.8509  -4.8060  -4.7253  -4.7027  -4.6131  -4.5746
    -4.4702  -4.4143  -4.3405  -4.2537  -4.2047  -4.1195  -4.0368  -3.9009
    -3.7860  -3.7046  -3.5817  -3.5029  -3.4472  -3.3262  -3.2613  -3.1951
    -3.0848  -2.9535  -2.8281  -2.6909  -0.5453  -0.4726  -0.4191  -0.2432
    -0.0477   0.0157   0.1546   0.2469   0.2705   0.3999   0.5157   0.5628
     0.7005   0.8063   0.8346   0.9045   1.0541   1.1606   1.2353   1.3289
     1.4300   1.5656   1.5923   1.7073   1.8702   2.2368   2.3302   2.5048
     2.5299   2.7890   2.8767   3.2947   3.3326   3.3943   3.6079   3.6691
     3.8876   3.9219   3.9877   4.0832   4.2099   4.5011   4.5482   4.6617
     5.0188   5.2652   5.2853   5.5262   5.7944   5.8358   6.0534   6.1719
     6.3042   6.4226   6.5225   6.8322   6.9422   7.2672   7.3644   7.4565
     7.6086   7.8105   7.8741   8.0024   8.0839   8.1508   8.2196   8.3664
     8.5278   8.5733   8.7621   8.8423   8.9471   9.1411   9.2351   9.2932
     9.4154   9.5475   9.5921   9.6090   9.8042   9.9040  10.0270  10.0620
    10.1726  10.2660  10.3716  10.4988  10.6023  10.6566  10.7595  10.8055
    10.9669  10.9973  11.0552  11.1324  11.2949  11.3313  11.3932  11.4782
    11.4902  11.5805  11.6731  11.7608  11.8552  11.9898  12.0123  12.0724
    12.1570  12.2125  12.2408  12.3553  12.4121  12.4589  12.5336  12.6354
    12.7524  12.8385  12.8948  12.9148  12.9984  13.0190  13.0853  13.1719
    13.3697  13.3984  13.5428  13.6309  13.6795  13.7292  13.8617  13.8790
    13.9551  13.9945  14.1519  14.2120  14.2455  14.3049  14.4726  14.5231
    14.5578  14.5957  14.6605  14.7042  14.7869  14.9089  14.9953  15.0202
    15.1144  15.2276  15.2831  15.3346  15.3696  15.4345  15.5180  15.5932
    15.6552  15.6822  15.7910  15.8642  15.9072  15.9623  16.0700  16.1105
    16.2268  16.2992  16.3632  16.4016  16.4488  16.4804  16.6027  16.6982
    16.7442  16.7836  16.8148  16.8616  16.9887  17.0407  17.0783  17.1373
    17.2016  17.3256  17.3397  17.3905  17.4768  17.5066  17.6374  17.7636
    17.8338  17.8940  17.9432  17.9676  18.0965  18.1102  18.2444  18.2807
    18.3962  18.4281  18.4714  18.5483  18.6041  18.6933

     the Fermi energy is    -2.7098 ev

!    total energy              =   -1568.32758183 Ry
     Harris-Foulkes estimate   =   -1568.32758183 Ry
     estimated scf accuracy    <          7.9E-09 Ry

     The total energy is the sum of the following terms:

     one-electron contribution =  -18670.85371940 Ry
     hartree contribution      =    9355.66506160 Ry
     xc contribution           =    -277.61929122 Ry
     ewald contribution        =    8024.47998797 Ry
     Hubbard energy            =       0.00000000 Ry
     smearing contrib. (-TS)   =       0.00037922 Ry

     convergence has been achieved in  10 iterations

     Forces acting on atoms (Ry/au):

     negative rho (up, down):  0.102E+00 0.000E+00
     atom    1 type  1   force =    -0.00042297   -0.01043754    0.00024846
     atom    2 type  1   force =     0.00008225    0.01704049    0.00030186
     atom    3 type  2   force =     0.06190629   -0.01110940    0.00061186
     atom    4 type  2   force =    -0.00417650    0.00442000   -0.00051990
     atom    5 type  1   force =    -0.00272943   -0.06984105   -0.00071515
     atom    6 type  1   force =    -0.00509850    0.07200476   -0.00030708
     atom    7 type  1   force =     0.00129978    0.00091788   -0.00019440
     atom    8 type  1   force =     0.00277316   -0.00092314    0.00022059
     atom    9 type  2   force =     0.00074047   -0.00004619    0.00011503
     atom   10 type  2   force =    -0.00417930    0.00025773    0.00013663
     atom   11 type  1   force =    -0.01698343   -0.02376565   -0.00010955
     atom   12 type  1   force =    -0.01722961    0.02367158   -0.00010716
     atom   13 type  1   force =     0.00153681    0.00013345    0.00043985
     atom   14 type  1   force =    -0.00110388   -0.00992643   -0.00027688
     atom   15 type  1   force =     0.00010543    0.01372031    0.00046282
     atom   16 type  2   force =    -0.06188484   -0.01108875    0.00062146
     atom   17 type  2   force =    -0.00396372    0.00374471   -0.00025769
     atom   18 type  1   force =     0.00730218   -0.06934053   -0.00068284
     atom   19 type  1   force =     0.00553507    0.07213499   -0.00035300
     atom   20 type  1   force =    -0.00070024    0.00007747    0.00000170
     atom   21 type  1   force =     0.00180030   -0.00066816    0.00019605
     atom   22 type  2   force =    -0.00162931   -0.00006579    0.00007197
     atom   23 type  2   force =    -0.00167602    0.00014727   -0.00035745
     atom   24 type  1   force =     0.01953789   -0.02218883   -0.00029279
     atom   25 type  1   force =     0.01912552    0.02214180   -0.00028813
     atom   26 type  1   force =    -0.00091924    0.00007568    0.00043628
     atom   27 type  3   force =     0.00000585   -0.00007357    0.00056048
     atom   28 type  3   force =     0.00002413   -0.00011066    0.00057916
     atom   29 type  3   force =    -0.00004733   -0.00048658    0.00018113
     atom   30 type  3   force =     0.00006996   -0.00036919   -0.00005902
     atom   31 type  1   force =     0.00035837    0.00000280   -0.00095510
     atom   32 type  3   force =     0.00054085   -0.00004946    0.00029080

     Total force =     0.002471     Total SCF correction =     0.000114

     bfgs converged in  10 scf cycles and   9 bfgs steps
     (criteria: energy < 0.10E-03, force < 0.10E-02)

     End of BFGS Geometry Optimization

     Final energy   =   -1568.3275818271 Ry
Begin final coordinates

ATOMIC_POSITIONS (crystal)
O0       0.000000000   0.000000000   0.377809022    0   0   1
O0       0.000000000   0.500000000   0.396670855    0   0   1
Ti1      0.250000000   0.500000000   0.448764670    0   0   1
Ti1      0.000000000   0.000000000   0.452985363    0   0   1
O0       0.250000000   0.810000000   0.448878222    0   0   1
O0       0.250000000   0.190000000   0.449625635    0   0   1
O0       0.000000000   0.500000000   0.496244193    0   0   1
O0       0.000000000   0.000000000   0.525262213    0   0   1
Ti1      0.250000000   0.000000000   0.581110704    0   0   1
Ti1      0.000000000   0.500000000   0.566408900    0   0   1
O0       0.250000000   0.690000000   0.579226203    0   0   1
O0       0.250000000   0.310000000   0.579213596    0   0   1
O0       0.000000000   0.000000000   0.621985538    0   0   1
O0       0.500000000   0.000000000   0.378081426    0   0   1
O0       0.500000000   0.500000000   0.395984219    0   0   1
Ti1      0.750000000   0.500000000   0.448892156    0   0   1
Ti1      0.500000000   0.000000000   0.453202617    0   0   1
O0       0.750000000   0.810000000   0.448855830    0   0   1
O0       0.750000000   0.190000000   0.449635104    0   0   1
O0       0.500000000   0.500000000   0.491243951    0   0   1
O0       0.500000000   0.000000000   0.525358158    0   0   1
Ti1      0.750000000   0.000000000   0.581212720    0   0   1
Ti1      0.500000000   0.500000000   0.593540867    0   0   1
O0       0.750000000   0.690000000   0.578850837    0   0   1
O0       0.750000000   0.310000000   0.578748911    0   0   1
O0       0.500000000   0.000000000   0.621988442    0   0   1
H2      -0.000725127   0.623019420   0.375245317
H2       0.499529095   0.619458580   0.373449718
H2       0.148694705   0.038381996   0.364023092
H2       0.648199553   0.038698676   0.364137291
O0       0.505017286   0.499921873   0.660985118
H2       0.378773265   0.499422267   0.684629112
End final coordinates

     General routines

     Parallel routines
     Hubbard U routines

   This run was terminated on:  10:20:50  10May2014

   JOB DONE.