     Program PWSCF v.5.0.2 (svn rev. 9656) starts on  5Apr2014 at 22:36:40

     Current dimensions of program PWSCF are:
     Max number of different atomic species (ntypx) = 10
     Max number of k-points (npk) =  40000
     Max angular momentum in pseudopotentials (lmaxx) =  3
     Reading input from pwscf.in
Warning: card &CELL ignored
Warning: card / ignored

     Subspace diagonalization in iterative solution of the eigenvalue problem:
     a serial algorithm will be used

     bravais-lattice index     =            0
     lattice parameter (alat)  =      10.9604  a.u.
     unit-cell volume          =    8672.0454 (a.u.)^3
     number of atoms/cell      =           50
     number of atomic types    =            3
     number of electrons       =       423.00 (up: 227.00, down: 196.00)
     number of Kohn-Sham states=          610
     kinetic-energy cutoff     =      40.0000  Ry
     charge density cutoff     =     500.0000  Ry
     convergence threshold     =      1.0E-06
     mixing beta               =       0.3000
     number of iterations used =            8  plain     mixing
     Exchange-correlation      = SLA  PW   PBE  PBE ( 1 4 3 4 0)
     EXX-fraction              =        0.00
     nstep                     =           50

     celldm(1)=  10.960412  celldm(2)=   0.000000  celldm(3)=   0.000000
     celldm(4)=   0.000000  celldm(5)=   0.000000  celldm(6)=   0.000000

     crystal axes: (cart. coord. in units of alat)
               a(1) = (   1.000000   0.000000   0.000000 )
               a(2) = (   0.000000   1.067975   0.000000 )
               a(3) = (   0.000000   0.000000   6.167084 )

     reciprocal axes: (cart. coord. in units 2 pi/alat)
               b(1) = (  1.000000  0.000000  0.000000 )
               b(2) = (  0.000000  0.936351  0.000000 )
               b(3) = (  0.000000  0.000000  0.162151 )

     PseudoPot. # 1 for O  read from file:
     /home/camp/zhonxu/pseudo/o_pbe_v1.01.uspp.F.UPF
     MD5 check sum: 2bcb18d16ea4b960afae9ec6d52f22d2
     Pseudo is Ultrasoft + core correction, Zval =  6.0
     Generated by new atomic code, or converted to UPF format
     Using radial grid of  737 points,  5 beta functions with:
                l(1) =   0
                l(2) =   0
                l(3) =   1
                l(4) =   1
                l(5) =   2
     Q(r) pseudized with  8 coefficients,  rinner =    0.900   0.900   0.900
                                                       0.900   0.900

     PseudoPot. # 2 for Cr read from file:
     /home/camp/zhonxu/pseudo/cr_pbe_v1.uspp.F.UPF
     MD5 check sum: 68b6f918d1762dccfb11451fe85b0e0e
     Pseudo is Ultrasoft + core correction, Zval = 14.0
     Generated by new atomic code, or converted to UPF format
     Using radial grid of  857 points,  6 beta functions with:
                l(1) =   0
                l(2) =   0
                l(3) =   1
                l(4) =   1
                l(5) =   2
                l(6) =   2
     Q(r) pseudized with  6 coefficients,  rinner =    1.000   1.000   1.000
                                                       1.000   1.000

     PseudoPot. # 3 for H  read from file:
     /home/camp/zhonxu/pseudo/h_pbe_v1.uspp.F.UPF
     MD5 check sum: 3408e3ff4ec8b0a4e358431e7e038a48
     Pseudo is Ultrasoft, Zval =  1.0
     Generated by new atomic code, or converted to UPF format
     Using radial grid of  615 points,  2 beta functions with:
                l(1) =   0
                l(2) =   0
     Q(r) pseudized with  8 coefficients,  rinner =    0.700

     atomic species   valence    mass     pseudopotential
        O0             6.00    15.99940     O ( 1.00)
        Cr1           14.00    51.99600     Cr( 1.00)
        H2             1.00     1.00794     H ( 1.00)

     Starting magnetic structure
     atomic species   magnetization
        O0           0.000
        Cr1          0.600
        H2           0.000

      2 Sym. Ops. (no inversion) found

   Cartesian axes

     site n.     atom                  positions (alat units)
         1           O0  tau(   1) = (   0.0000000   0.5339875   2.0689949  )
         2           Cr1 tau(   2) = (   0.2500000   0.5339875   2.2825610  )
         3           Cr1 tau(   3) = (   0.0000000   0.0000000   2.2825610  )
         4           O0  tau(   4) = (   0.2500000   0.8543801   2.2825610  )
         5           O0  tau(   5) = (   0.2500000   0.2135950   2.2825610  )
         6           O0  tau(   6) = (   0.0000000   0.5339875   2.4961271  )
         7           O0  tau(   7) = (   0.0000000   0.0000000   2.6029410  )
         8           Cr1 tau(   8) = (   0.2500000   0.0000000   2.8165688  )
         9           Cr1 tau(   9) = (   0.0000000   0.5339875   2.8165688  )
        10           O0  tau(  10) = (   0.2500000   0.7475825   2.8165688  )
        11           O0  tau(  11) = (   0.2500000   0.3203925   2.8165688  )
        12           O0  tau(  12) = (   0.0000000   0.0000000   3.0301349  )
        13           O0  tau(  13) = (   0.0000000   0.5339875   3.1461377  )
        14           Cr1 tau(  14) = (   0.2500000   0.5339875   3.3524267  )
        15           Cr1 tau(  15) = (   0.0000000   0.0000000   3.3742582  )
        16           O0  tau(  16) = (   0.2500000   0.8575519   3.3646375  )
        17           O0  tau(  17) = (   0.2500000   0.2104231   3.3646375  )
        18           O0  tau(  18) = (   0.0000000   0.5339875   3.5754901  )
        19           O0  tau(  19) = (   0.0000000   0.0000000   3.6982767  )
        20           Cr1 tau(  20) = (   0.2500000   0.0000000   3.9359561  )
        21           Cr1 tau(  21) = (   0.0000000   0.5339875   3.8803907  )
        22           O0  tau(  22) = (   0.2500000   0.7373300   3.9313925  )
        23           O0  tau(  23) = (   0.2500000   0.3306451   3.9313925  )
        24           O0  tau(  24) = (   0.0000000   0.0000000   4.1178851  )
        25           O0  tau(  25) = (   0.5000000   0.5339875   2.0689949  )
        26           Cr1 tau(  26) = (   0.7500000   0.5339875   2.2825610  )
        27           Cr1 tau(  27) = (   0.5000000   0.0000000   2.2825610  )
        28           O0  tau(  28) = (   0.7500000   0.8543801   2.2825610  )
        29           O0  tau(  29) = (   0.7500000   0.2135950   2.2825610  )
        30           O0  tau(  30) = (   0.5000000   0.5339875   2.4961271  )
        31           O0  tau(  31) = (   0.5000000   0.0000000   2.6029410  )
        32           Cr1 tau(  32) = (   0.7500000   0.0000000   2.8165688  )
        33           Cr1 tau(  33) = (   0.5000000   0.5339875   2.8165688  )
        34           O0  tau(  34) = (   0.7500000   0.7475825   2.8165688  )
        35           O0  tau(  35) = (   0.7500000   0.3203925   2.8165688  )
        36           O0  tau(  36) = (   0.5000000   0.0000000   3.0301349  )
        37           O0  tau(  37) = (   0.5000000   0.5339875   3.1461377  )
        38           Cr1 tau(  38) = (   0.7500000   0.5339875   3.3524267  )
        39           Cr1 tau(  39) = (   0.5000000   0.0000000   3.3742582  )
        40           O0  tau(  40) = (   0.7500000   0.8575519   3.3646375  )
        41           O0  tau(  41) = (   0.7500000   0.2104231   3.3646375  )
        42           O0  tau(  42) = (   0.5000000   0.5339875   3.5754901  )
        43           O0  tau(  43) = (   0.5000000   0.0000000   3.6982767  )
        44           Cr1 tau(  44) = (   0.7500000   0.0000000   3.9359561  )
        45           Cr1 tau(  45) = (   0.5000000   0.5339875   3.8803907  )
        46           O0  tau(  46) = (   0.7500000   0.7373300   3.9313925  )
        47           O0  tau(  47) = (   0.7500000   0.3306451   3.9313925  )
        48           O0  tau(  48) = (   0.5000000   0.0000000   4.1178851  )
        49           O0  tau(  49) = (   0.5043000   0.5339875   4.2108847  )
        50           H2  tau(  50) = (   0.3481600   0.5339875   4.2758241  )

     number of k points=    18  Methfessel-Paxton smearing, width (Ry)=  0.0100
                       cart. coord. in units 2pi/alat
        k(    1) = (   0.0000000   0.0000000   0.0000000), wk =   0.0625000
        k(    2) = (   0.0000000   0.2340879   0.0000000), wk =   0.1250000
        k(    3) = (   0.0000000  -0.4681757   0.0000000), wk =   0.0625000
        k(    4) = (   0.2500000   0.0000000   0.0000000), wk =   0.1250000
        k(    5) = (   0.2500000   0.2340879   0.0000000), wk =   0.2500000
        k(    6) = (   0.2500000  -0.4681757   0.0000000), wk =   0.1250000
        k(    7) = (  -0.5000000   0.0000000   0.0000000), wk =   0.0625000
        k(    8) = (  -0.5000000   0.2340879   0.0000000), wk =   0.1250000
        k(    9) = (  -0.5000000  -0.4681757   0.0000000), wk =   0.0625000
        k(   10) = (   0.0000000   0.0000000   0.0000000), wk =   0.0625000
        k(   11) = (   0.0000000   0.2340879   0.0000000), wk =   0.1250000
        k(   12) = (   0.0000000  -0.4681757   0.0000000), wk =   0.0625000
        k(   13) = (   0.2500000   0.0000000   0.0000000), wk =   0.1250000
        k(   14) = (   0.2500000   0.2340879   0.0000000), wk =   0.2500000
        k(   15) = (   0.2500000  -0.4681757   0.0000000), wk =   0.1250000
        k(   16) = (  -0.5000000   0.0000000   0.0000000), wk =   0.0625000
        k(   17) = (  -0.5000000   0.2340879   0.0000000), wk =   0.1250000
        k(   18) = (  -0.5000000  -0.4681757   0.0000000), wk =   0.0625000

     Largest allocated arrays     est. size (Mb)     dimensions
     Largest temporary arrays     est. size (Mb)     dimensions

     Check: negative/imaginary core charge=   -0.000015    0.000000

     Initial potential from superposition of free atoms
     Check: negative starting charge=(component1):   -0.002158
     Check: negative starting charge=(component2):   -0.000551

     starting charge  406.99975, renormalised to  423.00000

     negative rho (up, down):  0.224E-02 0.573E-03
     Starting wfc are  293 randomized atomic wfcs

     Self-consistent Calculation

     iteration #  1     ecut=    40.00 Ry     beta=0.30
     Davidson diagonalization with overlap
     ethr =  1.00E-02,  avg # of iterations =  5.3

     negative rho (up, down):  0.266E-02 0.894E-03

     total energy              =   -3816.36754758 Ry
     Harris-Foulkes estimate   =   -3876.81450930 Ry
     estimated scf accuracy    <     142.95184717 Ry

     total magnetization       =    31.00 Bohr mag/cell
     absolute magnetization    =    51.66 Bohr mag/cell

[...]

     End of self-consistent calculation

 ------ SPIN UP ------------

          k = 0.0000 0.0000 0.0000 ( 36905 PWs)   bands (ev):

   -73.8664 -73.8508 -73.8180 -73.7748 -73.7509 -73.7363 -73.7237 -73.7087
   -73.6819 -73.6639 -73.6594 -73.6396 -73.6383 -73.6240 -73.6083 -73.5832
   -45.3022 -45.2781 -45.2071 -45.1626 -45.1421 -45.1372 -45.1246 -45.1241
   -45.1199 -45.1196 -45.1022 -45.1021 -45.0976 -45.0747 -45.0709 -45.0645
   -45.0563 -45.0504 -45.0503 -45.0495 -45.0466 -45.0319 -45.0304 -45.0283
   -45.0279 -45.0228 -45.0155 -45.0147 -45.0118 -44.9986 -44.9965 -44.9957
   -44.9608 -44.9513 -44.9509 -44.9455 -44.9431 -44.9288 -44.9145 -44.8953
[...]
Cr1      0.500000000   0.000000000   0.370120000    0   0   0
O0       0.750000000   0.800000000   0.370120000    0   0   0
O0       0.750000000   0.200000000   0.370120000    0   0   0
O0       0.500000000   0.500000000   0.404750000    0   0   0
O0       0.500000000   0.000000000   0.422070000    0   0   0
Cr1      0.750000000   0.000000000   0.456710000    0   0   0
Cr1      0.500000000   0.500000000   0.456710000    0   0   0
O0       0.750000000   0.700000000   0.456710000    0   0   0
O0       0.750000000   0.300000000   0.456710000    0   0   0
O0       0.500000000   0.000000000   0.491340000    0   0   0
O0       0.500000000   0.500000000   0.510150000    0   0   0
Cr1      0.750000000   0.500000000   0.543600000    0   0   0
Cr1      0.500000000   0.000000000   0.547140000    0   0   0
O0       0.750000000   0.802970000   0.545580000    0   0   0
O0       0.750000000   0.197030000   0.545580000    0   0   0
O0       0.500000000   0.500000000   0.579770000    0   0   0
O0       0.500000000   0.000000000   0.599680000    0   0   0
Cr1      0.750000000   0.000000000   0.638220000    0   0   0
Cr1      0.500000000   0.500000000   0.629210000    0   0   0
O0       0.750000000   0.690400000   0.637480000    0   0   0
O0       0.750000000   0.309600000   0.637480000    0   0   0
O0       0.500000000   0.000000000   0.667720000    0   0   0
O0       0.513268540   0.500000000   0.683168610
H2       0.359545895   0.500000000   0.694670422

     Check: negative starting charge=(component1):   -0.002683
     NEW-OLD atomic charge density approx. for the potential

     Check: negative/imaginary core charge=   -0.000015    0.000000
     Check: negative starting charge=(component1):   -0.002682

[...]

     Self-consistent Calculation

[...]

     Threshold (ethr) on eigenvalues was too large:
     Diagonalizing with lowered threshold

     Davidson diagonalization with overlap
     ethr =  2.02E-09,  avg # of iterations =  1.0

[...]

     total energy              =   -3882.34472001 Ry
     Harris-Foulkes estimate   =   -3882.34472002 Ry
     estimated scf accuracy    <       0.00000002 Ry

[...]

     iteration # 19     ecut=    40.00 Ry     beta=0.30
     Davidson diagonalization with overlap
     ethr =  2.90E-12,  avg # of iterations =  1.0

     negative rho (up, down):  0.622E-02 0.239E-02

     End of self-consistent calculation

 ------ SPIN UP ------------

[...]

 ------ SPIN DOWN ----------

[...]

          k = 0.2500-0.4682 0.0000 ( 37058 PWs)   bands (ev):

[...]

          k =-0.5000-0.4682 0.0000 ( 37080 PWs)   bands (ev):

   -71.8600 -71.8506 -71.7320 -71.6166 -71.6155 -71.5192 -71.4829 -71.4828
   -71.3341 -71.3219 -71.2981 -71.2733 -71.2699 -71.2647 -70.9360 -70.9084
   -43.3746 -43.3150 -43.3101 -43.1987 -43.1985 -43.1941 -43.1737 -43.1654
   -43.1416 -43.1320 -43.1099 -43.1096 -43.0139 -42.9422 -42.9312 -42.9149
   -42.9091 -42.8864 -42.8796 -42.8758 -42.8396 -42.8373 -42.8363 -42.8014
   -42.8001 -42.7721 -42.7719 -42.6645 -42.6512 -42.6509 -42.6073 -42.6028
   -42.5910 -42.5704 -42.5699 -42.5495 -42.5484 -42.5294 -42.5231 -42.4963
   -42.4909 -42.4908 -42.4772 -42.4609 -42.2392 -42.2060 -42.2054 -42.1922
   -19.2894 -19.2612 -19.1020 -19.0877 -19.0292 -19.0107 -18.8762 -18.8572
   -18.8232 -18.7202 -18.6825 -18.6654 -18.6114 -18.5941 -18.5450 -18.5429
   -18.3904 -18.3690 -18.2728 -18.2598 -18.2320 -18.2207 -18.2120 -18.2097
   -18.1186 -18.0761 -17.9790 -17.9789 -17.8902 -17.8763 -17.8367 -17.0711
   -17.0704  -6.6759  -6.6512  -6.3681  -6.3621  -6.2811  -6.1036  -6.0962
    -6.0775  -6.0672  -6.0514  -6.0407  -6.0141  -6.0137  -5.9857  -5.9267
    -5.9100  -5.9050  -5.9049  -5.8231  -5.8225  -5.7907  -5.7132  -5.6641
    -5.6298  -5.6262  -5.6057  -5.5919  -5.5486  -5.5463  -5.4597  -5.2654
    -5.2387  -5.2355  -5.2178  -5.2163  -5.1696  -5.1635  -5.1582  -5.1393
    -5.1391  -4.9495  -4.9461  -4.9191  -4.8106  -4.7536  -4.6270  -4.6057
    -4.5341  -4.4319  -4.4015  -4.3641  -4.3416  -4.2850  -4.2658  -4.2228
    -4.0935  -4.0886  -4.0500  -4.0231  -3.9953  -3.9496  -3.8560  -3.8538
    -3.7977  -3.6741  -3.6715  -3.6667  -3.6377  -3.6152  -3.4900  -3.3557
    -3.3041  -3.2748  -3.1754  -3.1618  -3.0586  -3.0445  -2.7980  -2.7804
    -2.5384  -2.4486  -2.4460  -2.3701  -2.3274  -2.3145  -2.3135  -2.2602
    -2.1969  -2.0742  -1.9987  -1.9884  -1.9394  -1.9118  -1.8081  -1.7962
    -1.6469  -1.6454  -1.5304  -0.9590   0.6084   0.6677   0.8328   0.8364
     0.9479   0.9492   0.9532   0.9606   1.0750   1.2123   1.2222   1.2646
     1.3119   1.3220   1.3625   1.3657   1.5713   1.5773   1.6158   1.6451
     1.6568   1.6746   1.7158   1.7612   1.8163   1.8219   1.8373   1.8455
     1.9077   1.9129   1.9642   1.9706   1.9791   1.9892   2.1628   2.1647
     2.1670   2.1815   2.1888   2.1942   2.2170   2.2298   2.2510   2.2570
     2.3067   2.3217   2.3555   2.3612   2.7162   2.7255   2.9003   3.0620
     3.1388   3.2553   3.2701   3.2963   3.3061   3.3634   3.3670   3.3851
     3.3956   3.4592   3.5359   3.8623   3.8835   3.8956   4.0159   4.2102
     4.2105   4.2406   4.4270   4.5652   4.6318   4.6608   4.8914   4.9329
     4.9549   4.9602   5.0735   5.0767   6.3755   6.3947   6.3996   7.3701
     7.3732   7.4197   7.4717   7.4974   7.5378   7.6188   7.6197   7.7245
     7.8641   7.9344   7.9440   8.0995   8.3163   8.3907   8.4079   8.5923
     8.8874   8.9744   8.9795   9.1757   9.5495   9.5997   9.6620   9.7748
    10.1470  10.2005  10.2611  10.2900  10.3591  10.4158  10.4657  10.4992
    10.9563  11.0007  11.0149  11.0306  11.1212  11.1991  11.3010  11.3300
    11.8359  11.8696  11.8716  11.8748  12.0994  12.1055  12.2743  12.3017
    12.7724  12.8902  12.9655  13.0617  13.3873  13.3917  13.4170  13.4331
    13.4700  13.6680  13.7722  13.8314  14.2144  14.2430  14.2701  14.2892
    14.3701  14.3864  14.3943  14.4160  14.4674  14.4826  14.5304  14.6111
    14.6141  14.6419  14.7359  14.7909  14.8646  14.8886  14.8973  14.9891
    15.0301  15.0329  15.0773  15.0805  15.1018  15.1021  15.1110  15.1661
    15.2753  15.2806  15.3277  15.3375  15.3399  15.3491  15.4258  15.4376
    15.4471  15.4493  15.4981  15.5537  15.6001  15.6280  15.6426  15.7921
    15.8783  15.9147  15.9212  15.9699  16.0315  16.0940  16.1711  16.1835
    16.2368  16.2706  16.2845  16.3542  16.3655  16.3783  16.3860  16.4154
    16.4410  16.4481  16.4809  16.5302  16.5843  16.5921  16.6049  16.6389
    16.6476  16.6548  16.7037  16.7311  16.8359  16.8762  16.8879  16.9291
    16.9418  16.9423  17.0084  17.0516  17.0672  17.0687  17.0985  17.1196
    17.1463  17.2231  17.2678  17.4553  17.5293  17.5485  17.5650  17.5697
    17.6102  17.6711  17.6890  17.7247  17.7383  17.7611  17.7639  17.8925
    17.9282  17.9985  18.0008  18.0519  18.1346  18.1602  18.1937  18.2269
    18.2837  18.2849  18.3117  18.4397  18.4474  18.4776  18.4834  18.5527
    18.6132  18.6414  18.7152  18.8273  18.8537  18.8695  18.8765  18.9621
    18.9907  19.0054  19.0348  19.1429  19.1783  19.1969  19.2044  19.2916
    19.3036  19.3520  19.3628  19.5268  19.6796  19.6922  19.7111  19.7387
[...]
    20.7564  20.8149  20.8315  20.8982  20.9096  20.9296  21.1086  21.1473
    21.2751  21.2882  21.3260  21.6532  21.6665  21.6723  21.7521  21.7555
    21.8468  22.0426  22.0745  22.0891  22.1365  22.1668  22.1806  22.2699
    22.3169  22.3204  22.5765  22.7863  22.8373  22.8856  22.8960  22.9739
    23.0724  23.1135  23.1510  23.2071  23.4465  23.5629  23.5859  23.6034
    23.6564  23.6980  23.8146  23.8942  23.9739  24.0528  24.0556  24.0935
    24.1456  24.1866  24.2053  24.2134  24.3180  24.3188  24.4011  24.4109
    24.4209  24.4329  24.4432  24.4721  24.5212  24.5332  24.5628  24.5832
    24.7186  24.7394  24.8249  24.8902  24.8977  24.9063  24.9882  25.0190
    25.1101  25.1572  25.1814  25.2167  25.3159  25.3310  25.3477  25.4189
    25.4637  25.4699  25.5105  25.5568  25.6400  25.6747  25.7518  25.7782
    25.7869  25.8261  25.8262  25.8422  25.8674  25.9604  25.9814  25.9934
    26.0245  26.0271  26.0965  26.1102  26.1330  26.2007  26.3259  26.3475
    26.3532  26.3731  26.3920  26.4116  26.4159  26.4582  26.4838  26.5888
    26.6294  26.6512

     the spin up/dw Fermi energies are    -0.0524   -0.8270 ev

!    total energy              =   -3882.34472000 Ry
     Harris-Foulkes estimate   =   -3882.34472001 Ry
     estimated scf accuracy    <          5.5E-09 Ry

     The total energy is the sum of the following terms:

     one-electron contribution =  -83965.95394516 Ry
     hartree contribution      =   42030.23478496 Ry
     xc contribution           =    -603.19809334 Ry
     ewald contribution        =   38656.57320695 Ry
     smearing contrib. (-TS)   =      -0.00067340 Ry

     total magnetization       =    31.00 Bohr mag/cell
     absolute magnetization    =    36.48 Bohr mag/cell

     convergence has been achieved in  19 iterations

     Forces acting on atoms (Ry/au):

     negative rho (up, down):  0.622E-02 0.239E-02
     atom    1 type  1   force =     0.00002268    0.00000000    0.07224191
     atom    2 type  2   force =    -0.00003706    0.00000000   -0.11919655
     atom    3 type  2   force =    -0.00000113    0.00000000    0.08152567
     atom    4 type  1   force =    -0.00039948    0.04242618   -0.03604537
     atom    5 type  1   force =    -0.00039948   -0.04242618   -0.03604537
     atom    6 type  1   force =     0.00004720    0.00000000    0.01749319
     atom    7 type  1   force =     0.00000249    0.00000000   -0.01130553
     atom    8 type  2   force =    -0.00087022    0.00000000    0.02400173
     atom    9 type  2   force =    -0.00001560    0.00000000   -0.00179878
     atom   10 type  1   force =     0.00008516   -0.01809594    0.00289164
     atom   11 type  1   force =     0.00008516    0.01809594    0.00289164
     atom   12 type  1   force =    -0.00000919    0.00000000    0.00478167
     atom   13 type  1   force =     0.00034787    0.00000000   -0.00341451
     atom   14 type  2   force =     0.00859674    0.00000000   -0.00275578
     atom   15 type  2   force =    -0.00004845    0.00000000    0.00118156
     atom   16 type  1   force =     0.00031433    0.00054077    0.00060741
     atom   17 type  1   force =     0.00031433   -0.00054077    0.00060741
     atom   18 type  1   force =     0.00060462    0.00000000    0.00150526
     atom   19 type  1   force =     0.00024992    0.00000000   -0.00377990
     atom   20 type  2   force =     0.00249459    0.00000000    0.01262944
     atom   21 type  2   force =    -0.00986125    0.00000000   -0.00239788
     atom   22 type  1   force =    -0.03223393    0.01456467   -0.02730802
     atom   23 type  1   force =    -0.03223393   -0.01456467   -0.02730802
     atom   24 type  1   force =     0.00102114    0.00000000   -0.00682244
     atom   25 type  1   force =    -0.00003117    0.00000000    0.07263401
     atom   26 type  2   force =     0.00002701    0.00000000   -0.11916539
     atom   27 type  2   force =     0.00000338    0.00000000    0.07948536
     atom   28 type  1   force =     0.00039886    0.04242253   -0.03603879
     atom   29 type  1   force =     0.00039886   -0.04242253   -0.03603879
     atom   30 type  1   force =    -0.00001705    0.00000000    0.01520712
     atom   31 type  1   force =     0.00000444    0.00000000   -0.01052754
     atom   32 type  2   force =     0.00087854    0.00000000    0.02405208
     atom   33 type  2   force =    -0.00001900    0.00000000   -0.00521164
     atom   34 type  1   force =    -0.00007181   -0.01812746    0.00289930
     atom   35 type  1   force =    -0.00007181    0.01812746    0.00289930
     atom   36 type  1   force =     0.00001091    0.00000000    0.00590730
     atom   37 type  1   force =    -0.00005238    0.00000000   -0.00290935
     atom   38 type  2   force =    -0.00911826    0.00000000   -0.00230108
     atom   39 type  2   force =     0.00000386    0.00000000    0.00113880
     atom   40 type  1   force =    -0.00034140    0.00053388    0.00062979
     atom   41 type  1   force =    -0.00034140   -0.00053388    0.00062979
     atom   42 type  1   force =    -0.00003386    0.00000000   -0.02152379
     atom   43 type  1   force =    -0.00016298    0.00000000    0.00008822
     atom   44 type  2   force =    -0.00311177    0.00000000    0.01562339
     atom   45 type  2   force =     0.00426393    0.00000000    0.15095434
     atom   46 type  1   force =     0.03480972    0.01733802   -0.03608330
     atom   47 type  1   force =     0.03480972   -0.01733802   -0.03608330
     atom   48 type  1   force =    -0.00058248    0.00000000   -0.01118033
     atom   49 type  1   force =    -0.00015492    0.00000000    0.00088961
     atom   50 type  3   force =     0.00042455    0.00000000   -0.00015549

     Total force =     0.001010     Total SCF correction =     0.000058

     bfgs converged in  13 scf cycles and  12 bfgs steps
     (criteria: energy < 0.10E-03, force < 0.10E-02)

     End of BFGS Geometry Optimization

     Final energy   =   -3882.3447199973 Ry
Begin final coordinates

ATOMIC_POSITIONS (crystal)
O0       0.000000000   0.500000000   0.335490000    0   0   0
Cr1      0.250000000   0.500000000   0.370120000    0   0   0
Cr1      0.000000000   0.000000000   0.370120000    0   0   0
O0       0.250000000   0.800000000   0.370120000    0   0   0
O0       0.250000000   0.200000000   0.370120000    0   0   0
O0       0.000000000   0.500000000   0.404750000    0   0   0
O0       0.000000000   0.000000000   0.422070000    0   0   0
Cr1      0.250000000   0.000000000   0.456710000    0   0   0
Cr1      0.000000000   0.500000000   0.456710000    0   0   0
O0       0.250000000   0.700000000   0.456710000    0   0   0
O0       0.250000000   0.300000000   0.456710000    0   0   0
O0       0.000000000   0.000000000   0.491340000    0   0   0
O0       0.000000000   0.500000000   0.510150000    0   0   0
Cr1      0.250000000   0.500000000   0.543600000    0   0   0
Cr1      0.000000000   0.000000000   0.547140000    0   0   0
O0       0.250000000   0.802970000   0.545580000    0   0   0
O0       0.250000000   0.197030000   0.545580000    0   0   0
O0       0.000000000   0.500000000   0.579770000    0   0   0
O0       0.000000000   0.000000000   0.599680000    0   0   0
Cr1      0.250000000   0.000000000   0.638220000    0   0   0
Cr1      0.000000000   0.500000000   0.629210000    0   0   0
O0       0.250000000   0.690400000   0.637480000    0   0   0
O0       0.250000000   0.309600000   0.637480000    0   0   0
O0       0.000000000   0.000000000   0.667720000    0   0   0
O0       0.500000000   0.500000000   0.335490000    0   0   0
Cr1      0.750000000   0.500000000   0.370120000    0   0   0
Cr1      0.500000000   0.000000000   0.370120000    0   0   0
O0       0.750000000   0.800000000   0.370120000    0   0   0
O0       0.750000000   0.200000000   0.370120000    0   0   0
O0       0.500000000   0.500000000   0.404750000    0   0   0
O0       0.500000000   0.000000000   0.422070000    0   0   0
Cr1      0.750000000   0.000000000   0.456710000    0   0   0
Cr1      0.500000000   0.500000000   0.456710000    0   0   0
O0       0.750000000   0.700000000   0.456710000    0   0   0
O0       0.750000000   0.300000000   0.456710000    0   0   0
O0       0.500000000   0.000000000   0.491340000    0   0   0
O0       0.500000000   0.500000000   0.510150000    0   0   0
Cr1      0.750000000   0.500000000   0.543600000    0   0   0
Cr1      0.500000000   0.000000000   0.547140000    0   0   0
O0       0.750000000   0.802970000   0.545580000    0   0   0
O0       0.750000000   0.197030000   0.545580000    0   0   0
O0       0.500000000   0.500000000   0.579770000    0   0   0
O0       0.500000000   0.000000000   0.599680000    0   0   0
Cr1      0.750000000   0.000000000   0.638220000    0   0   0
Cr1      0.500000000   0.500000000   0.629210000    0   0   0
O0       0.750000000   0.690400000   0.637480000    0   0   0
O0       0.750000000   0.309600000   0.637480000    0   0   0
O0       0.500000000   0.000000000   0.667720000    0   0   0
O0       0.513268540   0.500000000   0.683168610
H2       0.359545895   0.500000000   0.694670422
End final coordinates

     General routines

     Parallel routines

   This run was terminated on:   9:54:38   7Apr2014

   JOB DONE.
Running PBS batch system epilogue script
Job id: 320655.audhumbla.fysik.dtu.dk
Username: zhonxu
Groupname: campgst
Jobname: CrO2/Eads-4-layers/OH
Sessionid: 37086
Queuename: verylong
Accounting:
This job has allocated the following 32 nodes:
g016 g016 g016 g016 g016 g016 g016 g016 g016 g016 g016 g016 g016 g016 g016 g016 g009 g009 g009 g009 g009 g009 g009 g009 g009 g009 g009 g009 g009 g009 g009 g009
Finished epilogue job 320655.audhumbla.fysik.dtu.dk for zhonxu