     Program PWSCF v.5.0.2 (svn rev. 9656) starts on 24Jan2014 at 15:47:26

     Current dimensions of program PWSCF are:
     Max number of different atomic species (ntypx) = 10
     Max number of k-points (npk) =  40000
     Max angular momentum in pseudopotentials (lmaxx) =  3
     Reading input from RhO2-v-0.95.in

     Subspace diagonalization in iterative solution of the eigenvalue problem:
     a serial algorithm will be used

     bravais-lattice index     =            0
     lattice parameter (alat)  =       8.6209  a.u.
     unit-cell volume          =     412.8952 (a.u.)^3
     number of atoms/cell      =            6
     number of atomic types    =            2
     number of electrons       =        54.00
     number of Kohn-Sham states=           81
     kinetic-energy cutoff     =      40.0000  Ry
     charge density cutoff     =     500.0000  Ry
     convergence threshold     =      1.0E-06
     mixing beta               =       0.3000
     number of iterations used =            8  plain     mixing
     Exchange-correlation      = SLA  PW   PBE  PBE ( 1 4 3 4 0)
     EXX-fraction              =        0.00
     nstep                     =           50

     celldm(1)=   8.620877  celldm(2)=   0.000000  celldm(3)=   0.000000
     celldm(4)=   0.000000  celldm(5)=   0.000000  celldm(6)=   0.000000

     crystal axes: (cart. coord. in units of alat)
               a(1) = (   1.000000   0.000000   0.000000 )
               a(2) = (   0.000000   1.000000   0.000000 )
               a(3) = (   0.000000   0.000000   0.644444 )

     reciprocal axes: (cart. coord. in units 2 pi/alat)
               b(1) = (  1.000000  0.000000  0.000000 )
               b(2) = (  0.000000  1.000000  0.000000 )
               b(3) = (  0.000000  0.000000  1.551724 )

     PseudoPot. # 1 for Rh read from file:
     /home/camp/zhonxu/pseudo/rh_pbe_v1.uspp.F.UPF
     MD5 check sum: 37b626987ad0dd8ec6bf4cc9ef289918
     Pseudo is Ultrasoft + core correction, Zval = 15.0
     Generated by new atomic code, or converted to UPF format
     Using radial grid of  969 points,  7 beta functions with:
                l(1) =   0
                l(2) =   0
                l(3) =   1
                l(4) =   1
                l(5) =   2
                l(6) =   2
                l(7) =   2
     Q(r) pseudized with  6 coefficients,  rinner =    1.050   1.050   1.050
                                                       1.050   1.050

     PseudoPot. # 2 for O  read from file:
     /home/camp/zhonxu/pseudo/o_pbe_v1.01.uspp.F.UPF
     MD5 check sum: 2bcb18d16ea4b960afae9ec6d52f22d2
     Pseudo is Ultrasoft + core correction, Zval =  6.0
     Generated by new atomic code, or converted to UPF format
     Using radial grid of  737 points,  5 beta functions with:
                l(1) =   0
                l(2) =   0
                l(3) =   1
                l(4) =   1
                l(5) =   2
     Q(r) pseudized with  8 coefficients,  rinner =    0.900   0.900   0.900
                                                       0.900   0.900

     atomic species   valence    mass     pseudopotential
        Rh0           15.00   102.90550     Rh( 1.00)
        O1             6.00    15.99940     O ( 1.00)

     Starting magnetic structure
     atomic species   magnetization
        Rh0          0.600
        O1           0.000

     16 Sym. Ops., with inversion, found ( 8 have fractional translation)

   Cartesian axes

     site n.     atom                  positions (alat units)
         1           Rh0 tau(   1) = (   0.0000000   0.0000000   0.0000000  )
         2           Rh0 tau(   2) = (   0.5000000   0.5000000   0.3222222  )
         3           O1  tau(   3) = (   0.3050000   0.3050000   0.0000000  )
         4           O1  tau(   4) = (  -0.3050000  -0.3050000   0.0000000  )
         5           O1  tau(   5) = (   0.8050000   0.1950000   0.3222222  )
         6           O1  tau(   6) = (   0.1950000   0.8050000   0.3222222  )

     number of k points=    36  Methfessel-Paxton smearing, width (Ry)=  0.0100
                       cart. coord. in units 2pi/alat
        k(    1) = (   0.0000000   0.0000000   0.0000000), wk =   0.0080000
        k(    2) = (   0.0000000   0.0000000   0.3103448), wk =   0.0160000
        k(    3) = (   0.0000000   0.0000000   0.6206897), wk =   0.0160000
        k(    4) = (   0.0000000   0.2000000   0.0000000), wk =   0.0320000
        k(    5) = (   0.0000000   0.2000000   0.3103448), wk =   0.0640000
        k(    6) = (   0.0000000   0.2000000   0.6206897), wk =   0.0640000
        k(    7) = (   0.0000000   0.4000000   0.0000000), wk =   0.0320000
        k(    8) = (   0.0000000   0.4000000   0.3103448), wk =   0.0640000
        k(    9) = (   0.0000000   0.4000000   0.6206897), wk =   0.0640000
        k(   10) = (   0.2000000   0.2000000   0.0000000), wk =   0.0320000
        k(   11) = (   0.2000000   0.2000000   0.3103448), wk =   0.0640000
        k(   12) = (   0.2000000   0.2000000   0.6206897), wk =   0.0640000
        k(   13) = (   0.2000000   0.4000000   0.0000000), wk =   0.0640000
        k(   14) = (   0.2000000   0.4000000   0.3103448), wk =   0.1280000
        k(   15) = (   0.2000000   0.4000000   0.6206897), wk =   0.1280000
        k(   16) = (   0.4000000   0.4000000   0.0000000), wk =   0.0320000
        k(   17) = (   0.4000000   0.4000000   0.3103448), wk =   0.0640000
        k(   18) = (   0.4000000   0.4000000   0.6206897), wk =   0.0640000
        k(   19) = (   0.0000000   0.0000000   0.0000000), wk =   0.0080000
        k(   20) = (   0.0000000   0.0000000   0.3103448), wk =   0.0160000
        k(   21) = (   0.0000000   0.0000000   0.6206897), wk =   0.0160000
        k(   22) = (   0.0000000   0.2000000   0.0000000), wk =   0.0320000
        k(   23) = (   0.0000000   0.2000000   0.3103448), wk =   0.0640000
        k(   24) = (   0.0000000   0.2000000   0.6206897), wk =   0.0640000
        k(   25) = (   0.0000000   0.4000000   0.0000000), wk =   0.0320000
        k(   26) = (   0.0000000   0.4000000   0.3103448), wk =   0.0640000
        k(   27) = (   0.0000000   0.4000000   0.6206897), wk =   0.0640000
        k(   28) = (   0.2000000   0.2000000   0.0000000), wk =   0.0320000
        k(   29) = (   0.2000000   0.2000000   0.3103448), wk =   0.0640000
        k(   30) = (   0.2000000   0.2000000   0.6206897), wk =   0.0640000
        k(   31) = (   0.2000000   0.4000000   0.0000000), wk =   0.0640000
        k(   32) = (   0.2000000   0.4000000   0.3103448), wk =   0.1280000
        k(   33) = (   0.2000000   0.4000000   0.6206897), wk =   0.1280000
        k(   34) = (   0.4000000   0.4000000   0.0000000), wk =   0.0320000
        k(   35) = (   0.4000000   0.4000000   0.3103448), wk =   0.0640000
        k(   36) = (   0.4000000   0.4000000   0.6206897), wk =   0.0640000

     Largest allocated arrays     est. size (Mb)     dimensions
     Largest temporary arrays     est. size (Mb)     dimensions

     Check: negative/imaginary core charge=   -0.000004    0.000000

     Initial potential from superposition of free atoms
     Check: negative starting charge=(component1):   -0.130351
     Check: negative starting charge=(component2):   -0.032179

     starting charge   52.99980, renormalised to   54.00000

     negative rho (up, down):  0.133E+00 0.328E-01
     Starting wfc are   40 randomized atomic wfcs

     Self-consistent Calculation

     iteration #  1     ecut=    40.00 Ry     beta=0.30
     Davidson diagonalization with overlap
     ethr =  1.00E-02,  avg # of iterations =  6.8

     negative rho (up, down):  0.118E+00 0.513E-01

     total energy              =    -467.88433796 Ry
     Harris-Foulkes estimate   =    -469.46236496 Ry
     estimated scf accuracy    <       4.73688533 Ry

     total magnetization       =     8.33 Bohr mag/cell
     absolute magnetization    =     8.34 Bohr mag/cell

[...]

     End of self-consistent calculation

 ------ SPIN UP ------------

          k = 0.0000 0.0000 0.0000 (  1787 PWs)   bands (ev):

   -35.2892 -35.2892 -35.1551 -35.1551 -35.0926 -35.0797  -7.6575  -6.5030
    -5.6386  -5.6386   3.8277   3.9720   5.2600   5.4594   5.4594   8.2046
     8.2046   8.7366   9.8013   9.9114  10.0793  10.3295  10.3295  10.4541
    10.4541  10.5277  11.3799  12.8806  13.5496  16.4238  16.4238  17.5668
    18.9328  22.8404  22.8404  26.2386  27.0219  27.2464  28.8038  30.3838
    30.3838  30.9127  31.9466  34.3189  35.2604  35.2604  36.7831  36.7831
    37.3691  38.7103  39.1023  39.1023  40.0635  40.8645  40.8787  42.0847
    42.3420  42.7708  44.1936  44.2687  44.5018  44.5018  45.3420  45.3420
    47.4682  47.4682  47.8257  48.3246  51.6408  53.1231  53.2618  53.2618
    53.5229  53.5229  53.6957  54.4474  54.4474  54.7200  54.7596  55.0667
    55.4480

[...]

 ------ SPIN DOWN ----------

[...]

     the Fermi energy is    12.6547 ev

!    total energy              =    -469.79698127 Ry
     Harris-Foulkes estimate   =    -469.79698005 Ry
     estimated scf accuracy    <       0.00000084 Ry

     The total energy is the sum of the following terms:

     one-electron contribution =    -132.67852562 Ry
     hartree contribution      =     104.05799316 Ry
     xc contribution           =     -87.34699220 Ry
     ewald contribution        =    -353.82899222 Ry
     smearing contrib. (-TS)   =      -0.00046439 Ry

[...]

     convergence has been achieved in  13 iterations

     Forces acting on atoms (Ry/au):

     negative rho (up, down):  0.884E-01 0.886E-01
     atom    1 type  1   force =     0.00000000    0.00000000    0.00000000
     atom    2 type  1   force =     0.00000000    0.00000000   -0.00000000
     atom    3 type  2   force =    -0.01756012   -0.01756012    0.00000000
     atom    4 type  2   force =     0.01756012    0.01756012    0.00000000
     atom    5 type  2   force =    -0.01756012    0.01756012   -0.00000000
     atom    6 type  2   force =     0.01756012   -0.01756012   -0.00000000

     Total force =     0.049668     Total SCF correction =     0.000627

     entering subroutine stress ...

     negative rho (up, down):  0.884E-01 0.886E-01
          total   stress  (Ry/bohr**3)                   (kbar)     P=  128.16
   0.00029081   0.00000000   0.00000000         42.78      0.00      0.00
   0.00000000   0.00029081   0.00000000          0.00     42.78      0.00
   0.00000000   0.00000000   0.00203210          0.00      0.00    298.93

     Volume is kept fixed: isostatic pressure set to zero

     BFGS Geometry Optimization

     number of scf cycles    =   1
     number of bfgs steps    =   0

     enthalpy new            =    -469.7969812665 Ry

     new trust radius        =       0.1179423691 bohr
     new conv_thr            =       0.0000010000 Ry

     new unit-cell volume =    412.89516 a.u.^3 (    61.18475 Ang^3 )

CELL_PARAMETERS (alat=  8.62087678)
   0.985694831   0.000000000   0.000000000
   0.000000000   0.985694831   0.000000000
   0.000000000   0.000000000   0.663285534

ATOMIC_POSITIONS (crystal)
Rh0      0.000000000   0.000000000   0.000000000    0   0   0
Rh0      0.500000000   0.500000000   0.500000000    0   0   0
[...]
        k(   28) = (   0.2029026   0.2029026   0.0000000), wk =   0.0320000
        k(   29) = (   0.2029026   0.2029026   0.3015293), wk =   0.0640000
        k(   30) = (   0.2029026   0.2029026   0.6030585), wk =   0.0640000
        k(   31) = (   0.2029026   0.4058051   0.0000000), wk =   0.0640000
        k(   32) = (   0.2029026   0.4058051   0.3015293), wk =   0.1280000
        k(   33) = (   0.2029026   0.4058051   0.6030585), wk =   0.1280000
        k(   34) = (   0.4058051   0.4058051   0.0000000), wk =   0.0320000
        k(   35) = (   0.4058051   0.4058051   0.3015293), wk =   0.0640000
        k(   36) = (   0.4058051   0.4058051   0.6030585), wk =   0.0640000

     Check: negative/imaginary core charge=   -0.000004    0.000000
     Check: negative starting charge=(component1):   -0.162056

[...]

     enthalpy old            =    -469.7969812665 Ry
     enthalpy new            =    -469.8100797739 Ry

     CASE: enthalpy_new < enthalpy_old

[...]

     Threshold (ethr) on eigenvalues was too large:
     Diagonalizing with lowered threshold

     Davidson diagonalization with overlap
     ethr =  1.36E-08,  avg # of iterations =  1.0

[...]

     Total force =     0.001379     Total SCF correction =     0.000086

[...]

     number of scf cycles    =   5
     number of bfgs steps    =   4

     enthalpy old            =    -469.8131082875 Ry
     enthalpy new            =    -469.8131519673 Ry

     CASE: enthalpy_new < enthalpy_old

     new trust radius        =       0.0010605290 bohr
     new conv_thr            =       0.0000000100 Ry

     new unit-cell volume =    412.89516 a.u.^3 (    61.18475 Ang^3 )

[...]

ATOMIC_POSITIONS (crystal)
Rh0      0.000000000   0.000000000   0.000000000    0   0   0
Rh0      0.500000000   0.500000000   0.500000000    0   0   0
O1       0.307115939   0.307115939   0.000000000    1   1   0
O1      -0.307115939  -0.307115939   0.000000000    1   1   0
O1       0.807115939   0.192884061   0.500000000    1   1   0
O1       0.192884061   0.807115939   0.500000000    1   1   0

     Check: negative starting charge=(component1):   -0.161486
     NEW-OLD atomic charge density approx. for the potential
     NEW k-points:
        k(    1) = (   0.0000000   0.0000000   0.0000000), wk =   0.0080000
        k(    2) = (   0.0000000   0.0000000   0.2958617), wk =   0.0160000
        k(    3) = (   0.0000000   0.0000000   0.5917234), wk =   0.0160000
        k(    4) = (   0.0000000   0.2048368   0.0000000), wk =   0.0320000
        k(    5) = (   0.0000000   0.2048368   0.2958617), wk =   0.0640000
        k(    6) = (   0.0000000   0.2048368   0.5917234), wk =   0.0640000
        k(    7) = (   0.0000000   0.4096735   0.0000000), wk =   0.0320000
        k(    8) = (   0.0000000   0.4096735   0.2958617), wk =   0.0640000
        k(    9) = (   0.0000000   0.4096735   0.5917234), wk =   0.0640000
        k(   10) = (   0.2048368   0.2048368   0.0000000), wk =   0.0320000
        k(   11) = (   0.2048368   0.2048368   0.2958617), wk =   0.0640000
        k(   12) = (   0.2048368   0.2048368   0.5917234), wk =   0.0640000
        k(   13) = (   0.2048368   0.4096735   0.0000000), wk =   0.0640000
        k(   14) = (   0.2048368   0.4096735   0.2958617), wk =   0.1280000
        k(   15) = (   0.2048368   0.4096735   0.5917234), wk =   0.1280000
        k(   16) = (   0.4096735   0.4096735   0.0000000), wk =   0.0320000
        k(   17) = (   0.4096735   0.4096735   0.2958617), wk =   0.0640000
        k(   18) = (   0.4096735   0.4096735   0.5917234), wk =   0.0640000
        k(   19) = (   0.0000000   0.0000000   0.0000000), wk =   0.0080000
        k(   20) = (   0.0000000   0.0000000   0.2958617), wk =   0.0160000
        k(   21) = (   0.0000000   0.0000000   0.5917234), wk =   0.0160000
        k(   22) = (   0.0000000   0.2048368   0.0000000), wk =   0.0320000
        k(   23) = (   0.0000000   0.2048368   0.2958617), wk =   0.0640000
        k(   24) = (   0.0000000   0.2048368   0.5917234), wk =   0.0640000
        k(   25) = (   0.0000000   0.4096735   0.0000000), wk =   0.0320000
        k(   26) = (   0.0000000   0.4096735   0.2958617), wk =   0.0640000
        k(   27) = (   0.0000000   0.4096735   0.5917234), wk =   0.0640000
        k(   28) = (   0.2048368   0.2048368   0.0000000), wk =   0.0320000
        k(   29) = (   0.2048368   0.2048368   0.2958617), wk =   0.0640000
        k(   30) = (   0.2048368   0.2048368   0.5917234), wk =   0.0640000
        k(   31) = (   0.2048368   0.4096735   0.0000000), wk =   0.0640000
        k(   32) = (   0.2048368   0.4096735   0.2958617), wk =   0.1280000
        k(   33) = (   0.2048368   0.4096735   0.5917234), wk =   0.1280000
        k(   34) = (   0.4096735   0.4096735   0.0000000), wk =   0.0320000
        k(   35) = (   0.4096735   0.4096735   0.2958617), wk =   0.0640000
        k(   36) = (   0.4096735   0.4096735   0.5917234), wk =   0.0640000

     Check: negative/imaginary core charge=   -0.000004    0.000000
     Check: negative starting charge=(component1):   -0.161495

[...]

     Threshold (ethr) on eigenvalues was too large:
     Diagonalizing with lowered threshold

     Davidson diagonalization with overlap
     ethr =  6.46E-10,  avg # of iterations =  1.9

[...]

     Total force =     0.000005     Total SCF correction =     0.000013
     SCF correction compared to forces is large: reduce conv_thr to get better values

[...]

     Volume is kept fixed: isostatic pressure set to zero

     bfgs converged in   6 scf cycles and   5 bfgs steps
     (criteria: energy < 0.10E-03, force < 0.10E-02, cell < 0.50E+00)

     End of BFGS Geometry Optimization

     Final enthalpy =    -469.8131543344 Ry
Begin final coordinates
     new unit-cell volume =    412.89516 a.u.^3 (    61.18475 Ang^3 )

CELL_PARAMETERS (alat=  8.62087678)
   0.976387266   0.000000000   0.000000000
   0.000000000   0.976387266   0.000000000
   0.000000000   0.000000000   0.675991555

ATOMIC_POSITIONS (crystal)
Rh0      0.000000000   0.000000000   0.000000000    0   0   0
Rh0      0.500000000   0.500000000   0.500000000    0   0   0
O1       0.307115939   0.307115939   0.000000000    1   1   0
O1      -0.307115939  -0.307115939   0.000000000    1   1   0
O1       0.807115939   0.192884061   0.500000000    1   1   0
O1       0.192884061   0.807115939   0.500000000    1   1   0
End final coordinates

     A final scf calculation at the relaxed structure.
     The G-vectors are recalculated for the final unit cell
     Results may differ from those at the preceding step.

     bravais-lattice index     =            0
     lattice parameter (alat)  =       8.6209  a.u.
     unit-cell volume          =     412.8952 (a.u.)^3
     number of atoms/cell      =            6
     number of atomic types    =            2
     number of electrons       =        54.00
     number of Kohn-Sham states=           81
     kinetic-energy cutoff     =      40.0000  Ry
     charge density cutoff     =     500.0000  Ry
     convergence threshold     =      1.0E-08
     mixing beta               =       0.3000
     number of iterations used =            8  plain     mixing
     Exchange-correlation      = SLA  PW   PBE  PBE ( 1 4 3 4 0)
     EXX-fraction              =        0.00

     celldm(1)=   8.620877  celldm(2)=   0.000000  celldm(3)=   0.000000
     celldm(4)=   0.000000  celldm(5)=   0.000000  celldm(6)=   0.000000

     crystal axes: (cart. coord. in units of alat)
               a(1) = (   0.976387   0.000000   0.000000 )
               a(2) = (   0.000000   0.976387   0.000000 )
               a(3) = (   0.000000   0.000000   0.675992 )

     reciprocal axes: (cart. coord. in units 2 pi/alat)
               b(1) = (  1.024184  0.000000  0.000000 )
               b(2) = (  0.000000  1.024184  0.000000 )
               b(3) = (  0.000000  0.000000  1.479308 )

     PseudoPot. # 1 for Rh read from file:
     /home/camp/zhonxu/pseudo/rh_pbe_v1.uspp.F.UPF
     MD5 check sum: 37b626987ad0dd8ec6bf4cc9ef289918
     Pseudo is Ultrasoft + core correction, Zval = 15.0
     Generated by new atomic code, or converted to UPF format
     Using radial grid of  969 points,  7 beta functions with:
                l(1) =   0
                l(2) =   0
                l(3) =   1
                l(4) =   1
                l(5) =   2
                l(6) =   2
                l(7) =   2
     Q(r) pseudized with  6 coefficients,  rinner =    1.050   1.050   1.050
                                                       1.050   1.050

     PseudoPot. # 2 for O  read from file:
     /home/camp/zhonxu/pseudo/o_pbe_v1.01.uspp.F.UPF
     MD5 check sum: 2bcb18d16ea4b960afae9ec6d52f22d2
     Pseudo is Ultrasoft + core correction, Zval =  6.0
     Generated by new atomic code, or converted to UPF format
     Using radial grid of  737 points,  5 beta functions with:
                l(1) =   0
                l(2) =   0
                l(3) =   1
                l(4) =   1
                l(5) =   2
     Q(r) pseudized with  8 coefficients,  rinner =    0.900   0.900   0.900
                                                       0.900   0.900

     atomic species   valence    mass     pseudopotential
        Rh0           15.00   102.90550     Rh( 1.00)
        O1             6.00    15.99940     O ( 1.00)

     Starting magnetic structure
     atomic species   magnetization
        Rh0          0.600
        O1           0.000

     16 Sym. Ops., with inversion, found ( 8 have fractional translation)

   Cartesian axes

     site n.     atom                  positions (alat units)
         1           Rh0 tau(   1) = (   0.0000000   0.0000000   0.0000000  )
         2           Rh0 tau(   2) = (   0.4881936   0.4881936   0.3379958  )
         3           O1  tau(   3) = (   0.2998641   0.2998641   0.0000000  )
         4           O1  tau(   4) = (  -0.2998641  -0.2998641   0.0000000  )
         5           O1  tau(   5) = (   0.7880577   0.1883295   0.3379958  )
         6           O1  tau(   6) = (   0.1883295   0.7880577   0.3379958  )

     number of k points=    36  Methfessel-Paxton smearing, width (Ry)=  0.0100
                       cart. coord. in units 2pi/alat
        k(    1) = (   0.0000000   0.0000000   0.0000000), wk =   0.0080000
        k(    2) = (   0.0000000   0.0000000   0.2958617), wk =   0.0160000
        k(    3) = (   0.0000000   0.0000000   0.5917234), wk =   0.0160000
        k(    4) = (   0.0000000   0.2048368   0.0000000), wk =   0.0320000
        k(    5) = (   0.0000000   0.2048368   0.2958617), wk =   0.0640000
        k(    6) = (   0.0000000   0.2048368   0.5917234), wk =   0.0640000
        k(    7) = (   0.0000000   0.4096735   0.0000000), wk =   0.0320000
        k(    8) = (   0.0000000   0.4096735   0.2958617), wk =   0.0640000
        k(    9) = (   0.0000000   0.4096735   0.5917234), wk =   0.0640000
        k(   10) = (   0.2048368   0.2048368   0.0000000), wk =   0.0320000
        k(   11) = (   0.2048368   0.2048368   0.2958617), wk =   0.0640000
        k(   12) = (   0.2048368   0.2048368   0.5917234), wk =   0.0640000
        k(   13) = (   0.2048368   0.4096735   0.0000000), wk =   0.0640000
        k(   14) = (   0.2048368   0.4096735   0.2958617), wk =   0.1280000
        k(   15) = (   0.2048368   0.4096735   0.5917234), wk =   0.1280000
        k(   16) = (   0.4096735   0.4096735   0.0000000), wk =   0.0320000
        k(   17) = (   0.4096735   0.4096735   0.2958617), wk =   0.0640000
        k(   18) = (   0.4096735   0.4096735   0.5917234), wk =   0.0640000
        k(   19) = (   0.0000000   0.0000000   0.0000000), wk =   0.0080000
        k(   20) = (   0.0000000   0.0000000   0.2958617), wk =   0.0160000
        k(   21) = (   0.0000000   0.0000000   0.5917234), wk =   0.0160000
        k(   22) = (   0.0000000   0.2048368   0.0000000), wk =   0.0320000
        k(   23) = (   0.0000000   0.2048368   0.2958617), wk =   0.0640000
        k(   24) = (   0.0000000   0.2048368   0.5917234), wk =   0.0640000
        k(   25) = (   0.0000000   0.4096735   0.0000000), wk =   0.0320000
        k(   26) = (   0.0000000   0.4096735   0.2958617), wk =   0.0640000
        k(   27) = (   0.0000000   0.4096735   0.5917234), wk =   0.0640000
        k(   28) = (   0.2048368   0.2048368   0.0000000), wk =   0.0320000
        k(   29) = (   0.2048368   0.2048368   0.2958617), wk =   0.0640000
        k(   30) = (   0.2048368   0.2048368   0.5917234), wk =   0.0640000
        k(   31) = (   0.2048368   0.4096735   0.0000000), wk =   0.0640000
        k(   32) = (   0.2048368   0.4096735   0.2958617), wk =   0.1280000
        k(   33) = (   0.2048368   0.4096735   0.5917234), wk =   0.1280000
        k(   34) = (   0.4096735   0.4096735   0.0000000), wk =   0.0320000
        k(   35) = (   0.4096735   0.4096735   0.2958617), wk =   0.0640000
        k(   36) = (   0.4096735   0.4096735   0.5917234), wk =   0.0640000

     Largest allocated arrays     est. size (Mb)     dimensions
     Largest temporary arrays     est. size (Mb)     dimensions

     Check: negative/imaginary core charge=   -0.000004    0.000000

     Initial potential from superposition of free atoms
     Check: negative starting charge=(component1):   -0.128478
     Check: negative starting charge=(component2):   -0.031747

     starting charge   52.99980, renormalised to   54.00000

     negative rho (up, down):  0.131E+00 0.323E-01
     Starting wfc are   40 randomized atomic wfcs

     Self-consistent Calculation

[...]

     total energy              =    -469.81393212 Ry
     Harris-Foulkes estimate   =    -469.81393335 Ry
     estimated scf accuracy    <       0.00000001 Ry

[...]

     iteration # 17     ecut=    40.00 Ry     beta=0.30
     Davidson diagonalization with overlap
     ethr =  2.32E-11,  avg # of iterations =  3.0

     negative rho (up, down):  0.868E-01 0.870E-01

     End of self-consistent calculation

 ------ SPIN UP ------------

[...]

 ------ SPIN DOWN ----------

[...]

          k = 0.4097 0.4097 0.5917 (  1759 PWs)   bands (ev):

   -35.2547 -35.2479 -35.2389 -35.2323 -35.0095 -35.0091  -6.3009  -6.2299
    -6.0613  -6.0069   5.1837   5.3026   5.4732   5.5485   6.3069   6.6353
     7.6805   7.8041   8.5802   8.8015   9.8195  10.1645  10.8743  10.9521
    11.1574  11.8807  12.0753  12.6372  14.2124  14.8343  15.5356  16.1099
    23.1265  23.4898  24.8356  25.5120  25.9362  26.3361  27.2702  27.6956
    30.3319  30.4712  32.0602  32.5574  34.6369  35.7237  36.1891  36.4010
    36.7663  37.7567  40.8207  40.8283  40.9623  41.0294  41.0962  41.6877
    43.1296  43.5423  44.4964  45.3967  46.1534  46.5972  47.2801  47.6026
    47.9323  48.3207  49.6776  50.3104  50.9955  51.1634  51.2003  52.2105
    52.3435  53.4351  53.6962  54.1776  54.4327  55.1997  55.5714  56.3412
    57.8236

     the Fermi energy is    12.6488 ev

!    total energy              =    -469.81393358 Ry
     Harris-Foulkes estimate   =    -469.81393351 Ry
     estimated scf accuracy    <          2.3E-09 Ry

     The total energy is the sum of the following terms:

     one-electron contribution =    -128.02933789 Ry
     hartree contribution      =     101.75369096 Ry
     xc contribution           =     -87.27886140 Ry
     ewald contribution        =    -356.25888294 Ry
     smearing contrib. (-TS)   =      -0.00054232 Ry

     total magnetization       =     0.18 Bohr mag/cell
     absolute magnetization    =     0.19 Bohr mag/cell

     convergence has been achieved in  17 iterations

     Forces acting on atoms (Ry/au):

     negative rho (up, down):  0.868E-01 0.870E-01
     atom    1 type  1   force =     0.00000000    0.00000000    0.00000000
     atom    2 type  1   force =     0.00000000    0.00000000    0.00000000
     atom    3 type  2   force =    -0.00002868   -0.00002868   -0.00000000
     atom    4 type  2   force =     0.00002868    0.00002868    0.00000000
     atom    5 type  2   force =    -0.00002868    0.00002868    0.00000000
     atom    6 type  2   force =     0.00002868   -0.00002868   -0.00000000

     Total force =     0.000081     Total SCF correction =     0.000037
     SCF correction compared to forces is large: reduce conv_thr to get better values

     entering subroutine stress ...

     negative rho (up, down):  0.868E-01 0.870E-01
          total   stress  (Ry/bohr**3)                   (kbar)     P=   85.97
   0.00056955   0.00000000   0.00000000         83.78      0.00      0.00
   0.00000000   0.00056955   0.00000000          0.00     83.78      0.00
   0.00000000   0.00000000   0.00061422          0.00      0.00     90.36

     General routines

     Parallel routines

   This run was terminated on:  16:16:28  24Jan2014

   JOB DONE.