     Program PWSCF v.5.0.2 (svn rev. 9656) starts on 11Aug2014 at  8:48:58

     Current dimensions of program PWSCF are:
     Max number of different atomic species (ntypx) = 10
     Max number of k-points (npk) =  40000
     Max angular momentum in pseudopotentials (lmaxx) =  3
     Reading input from pwscf.in
Warning: card &CELL ignored
Warning: card / ignored

     Subspace diagonalization in iterative solution of the eigenvalue problem:
     a serial algorithm will be used

     bravais-lattice index     =            0
     lattice parameter (alat)  =      10.1289  a.u.
     unit-cell volume          =    6836.7721 (a.u.)^3
     number of atoms/cell      =           33
     number of atomic types    =            3
     number of electrons       =       245.00
     number of Kohn-Sham states=          367
     kinetic-energy cutoff     =      40.0000  Ry
     charge density cutoff     =     500.0000  Ry
     convergence threshold     =      1.0E-06
     mixing beta               =       0.7000
     number of iterations used =            8  plain     mixing
     Exchange-correlation      = SLA  PW   PBE  PBE ( 1 4 3 4 0)
     EXX-fraction              =        0.00
     nstep                     =           50

     celldm(1)=  10.128932  celldm(2)=   0.000000  celldm(3)=   0.000000
     celldm(4)=   0.000000  celldm(5)=   0.000000  celldm(6)=   0.000000

     crystal axes: (cart. coord. in units of alat)
               a(1) = (   1.000000   0.000000   0.000000 )
               a(2) = (   0.000000   1.306037   0.000000 )
               a(3) = (   0.000000   0.000000   5.037380 )

     reciprocal axes: (cart. coord. in units 2 pi/alat)
               b(1) = (  1.000000  0.000000  0.000000 )
               b(2) = (  0.000000  0.765675  0.000000 )
               b(3) = (  0.000000  0.000000  0.198516 )

     PseudoPot. # 1 for O  read from file:
     /home-research/zhongnanxu/gbrv_espresso_pseudo_v1.01/o_pbe_v1.01.uspp.F.UPF
     MD5 check sum: 2bcb18d16ea4b960afae9ec6d52f22d2
     Pseudo is Ultrasoft + core correction, Zval =  6.0
     Generated by new atomic code, or converted to UPF format
     Using radial grid of  737 points,  5 beta functions with:
                l(1) =   0
                l(2) =   0
                l(3) =   1
                l(4) =   1
                l(5) =   2
     Q(r) pseudized with  8 coefficients,  rinner =    0.900   0.900   0.900
                                                       0.900   0.900

     PseudoPot. # 2 for Re read from file:
     /home-research/zhongnanxu/gbrv_espresso_pseudo_v1.01/re_pbe_v1.uspp.F.UPF
     MD5 check sum: 6f5a5dcaf9c96c20d0ffdde0de57afc6
     Pseudo is Ultrasoft + core correction, Zval = 15.0
     Generated by new atomic code, or converted to UPF format
     Using radial grid of  981 points,  8 beta functions with:
                l(1) =   0
                l(2) =   0
                l(3) =   1
                l(4) =   1
                l(5) =   2
                l(6) =   2
                l(7) =   3
                l(8) =   3
     Q(r) pseudized with  8 coefficients,  rinner =    1.000   1.000   1.000
                                                       1.000   1.000   1.000
                                                       1.000

     PseudoPot. # 3 for H  read from file:
     /home-research/zhongnanxu/gbrv_espresso_pseudo_v1.01/h_pbe_v1.uspp.F.UPF
     MD5 check sum: 3408e3ff4ec8b0a4e358431e7e038a48
     Pseudo is Ultrasoft, Zval =  1.0
     Generated by new atomic code, or converted to UPF format
     Using radial grid of  615 points,  2 beta functions with:
                l(1) =   0
                l(2) =   0
     Q(r) pseudized with  8 coefficients,  rinner =    0.700

     atomic species   valence    mass     pseudopotential
        O0             6.00    15.99940     O ( 1.00)
        Re1           15.00   186.20700     Re( 1.00)
        H2             1.00     1.00794     H ( 1.00)

     Simplified LDA+U calculation (l_max = 2) with parameters (eV):
     atomic species    L          U    alpha       J0     beta
        Re1            2     7.0000   0.0000   0.0000   0.0000

     No symmetry found

   Cartesian axes

     site n.     atom                  positions (alat units)
         1           O0  tau(   1) = (   0.0000000   0.0000000   1.8751647  )
         2           O0  tau(   2) = (   0.0000000   0.6530184   1.9357644  )
         3           Re1 tau(   3) = (   0.2500000   0.6530184   2.2281339  )
         4           Re1 tau(   4) = (   0.0000000   0.0000000   2.2342292  )
         5           O0  tau(   5) = (   0.2500000   1.0187087   2.2209305  )
         6           O0  tau(   6) = (   0.2500000   0.2873281   2.2210312  )
         7           O0  tau(   7) = (   0.0000000   0.6530184   2.5089679  )
         8           O0  tau(   8) = (   0.0000000   0.0000000   2.5847805  )
         9           Re1 tau(   9) = (   0.2500000   0.0000000   2.8946801  )
        10           Re1 tau(  10) = (   0.0000000   0.6530184   2.8580583  )
        11           O0  tau(  11) = (   0.2500000   0.9403465   2.8746313  )
        12           O0  tau(  12) = (   0.2500000   0.3656903   2.8820866  )
        13           O0  tau(  13) = (   0.0000000   0.0000000   3.1487152  )
        14           O0  tau(  14) = (   0.5000000   0.0000000   1.8689688  )
        15           O0  tau(  15) = (   0.5000000   0.6530184   1.9253370  )
        16           Re1 tau(  16) = (   0.7500000   0.6530184   2.2279325  )
        17           Re1 tau(  17) = (   0.5000000   0.0000000   2.2299978  )
        18           O0  tau(  18) = (   0.7500000   1.0187087   2.2204268  )
        19           O0  tau(  19) = (   0.7500000   0.2873281   2.2220387  )
        20           O0  tau(  20) = (   0.5000000   0.6530184   2.5049380  )
        21           O0  tau(  21) = (   0.5000000   0.0000000   2.5872991  )
        22           Re1 tau(  22) = (   0.7500000   0.0000000   2.8821370  )
        23           Re1 tau(  23) = (   0.5000000   0.6530184   2.8981055  )
        24           O0  tau(  24) = (   0.7500000   0.9403465   2.8730697  )
        25           O0  tau(  25) = (   0.7500000   0.3656903   2.8820363  )
        26           O0  tau(  26) = (   0.5000000   0.0000000   3.1475062  )
        27           H2  tau(  27) = (  -0.0002400   0.8082409   1.8386941  )
        28           H2  tau(  28) = (   0.4995800   0.8172786   1.8420691  )
        29           H2  tau(  29) = (   0.1657400   0.0288765   1.7976898  )
        30           H2  tau(  30) = (   0.6681900   0.0287851   1.7957756  )
        31           O0  tau(  31) = (   0.4996300   0.6783163   3.2439216  )
        32           O0  tau(  32) = (   0.5002900   0.4408005   3.4069816  )
        33           H2  tau(  33) = (   0.4999500   0.5207560   3.5731648  )

     number of k points=    10  Methfessel-Paxton smearing, width (Ry)=  0.0100
                       cart. coord. in units 2pi/alat
        k(    1) = (   0.0000000   0.0000000   0.0000000), wk =   0.1250000
        k(    2) = (   0.0000000   0.1914188   0.0000000), wk =   0.2500000
        k(    3) = (   0.0000000  -0.3828376   0.0000000), wk =   0.1250000
        k(    4) = (   0.2500000   0.0000000   0.0000000), wk =   0.2500000
        k(    5) = (   0.2500000   0.1914188   0.0000000), wk =   0.2500000
        k(    6) = (   0.2500000  -0.3828376   0.0000000), wk =   0.2500000
        k(    7) = (  -0.5000000   0.0000000   0.0000000), wk =   0.1250000
        k(    8) = (  -0.5000000   0.1914188   0.0000000), wk =   0.2500000
        k(    9) = (  -0.5000000  -0.3828376   0.0000000), wk =   0.1250000
        k(   10) = (  -0.2500000   0.1914188   0.0000000), wk =   0.2500000

     Largest allocated arrays     est. size (Mb)     dimensions
     Largest temporary arrays     est. size (Mb)     dimensions

     Check: negative/imaginary core charge=   -0.000003    0.000000

     Initial potential from superposition of free atoms
     Check: negative starting charge=   -0.237062

     starting charge  240.99957, renormalised to  245.00000

     negative rho (up, down):  0.241E+00 0.000E+00
     Number of +U iterations with fixed ns =  0
     Starting occupations:
 --- enter write_ns ---
 LDA+U parameters:
U( 2)     =  7.00000000
alpha( 2) =  0.00000000
atom    3   Tr[ns(na)] =   5.00000
    eigenvalues:
  0.500  0.500  0.500  0.500  0.500
    eigenvectors:
  1.000  0.000  0.000  0.000  0.000
  0.000  1.000  0.000  0.000  0.000
  0.000  0.000  1.000  0.000  0.000
  0.000  0.000  0.000  1.000  0.000
  0.000  0.000  0.000  0.000  1.000
    occupations:
  0.500  0.000  0.000  0.000  0.000
  0.000  0.500  0.000  0.000  0.000
  0.000  0.000  0.500  0.000  0.000
  0.000  0.000  0.000  0.500  0.000
  0.000  0.000  0.000  0.000  0.500
atom    4   Tr[ns(na)] =   5.00000
    eigenvalues:
  0.500  0.500  0.500  0.500  0.500
    eigenvectors:
  1.000  0.000  0.000  0.000  0.000
  0.000  1.000  0.000  0.000  0.000
  0.000  0.000  1.000  0.000  0.000
  0.000  0.000  0.000  1.000  0.000
  0.000  0.000  0.000  0.000  1.000
    occupations:
  0.500  0.000  0.000  0.000  0.000
  0.000  0.500  0.000  0.000  0.000
  0.000  0.000  0.500  0.000  0.000
  0.000  0.000  0.000  0.500  0.000
  0.000  0.000  0.000  0.000  0.500
atom    9   Tr[ns(na)] =   5.00000
    eigenvalues:
  0.500  0.500  0.500  0.500  0.500
    eigenvectors:
  1.000  0.000  0.000  0.000  0.000
  0.000  1.000  0.000  0.000  0.000
  0.000  0.000  1.000  0.000  0.000
  0.000  0.000  0.000  1.000  0.000
  0.000  0.000  0.000  0.000  1.000
    occupations:
  0.500  0.000  0.000  0.000  0.000
  0.000  0.500  0.000  0.000  0.000
  0.000  0.000  0.500  0.000  0.000
  0.000  0.000  0.000  0.500  0.000
  0.000  0.000  0.000  0.000  0.500
atom   10   Tr[ns(na)] =   5.00000
    eigenvalues:
  0.500  0.500  0.500  0.500  0.500
    eigenvectors:
  1.000  0.000  0.000  0.000  0.000
  0.000  1.000  0.000  0.000  0.000
  0.000  0.000  1.000  0.000  0.000
  0.000  0.000  0.000  1.000  0.000
  0.000  0.000  0.000  0.000  1.000
    occupations:
  0.500  0.000  0.000  0.000  0.000
  0.000  0.500  0.000  0.000  0.000
  0.000  0.000  0.500  0.000  0.000
  0.000  0.000  0.000  0.500  0.000
  0.000  0.000  0.000  0.000  0.500
atom   16   Tr[ns(na)] =   5.00000
    eigenvalues:
  0.500  0.500  0.500  0.500  0.500
    eigenvectors:
  1.000  0.000  0.000  0.000  0.000
  0.000  1.000  0.000  0.000  0.000
  0.000  0.000  1.000  0.000  0.000
  0.000  0.000  0.000  1.000  0.000
  0.000  0.000  0.000  0.000  1.000
    occupations:
  0.500  0.000  0.000  0.000  0.000
  0.000  0.500  0.000  0.000  0.000
  0.000  0.000  0.500  0.000  0.000
  0.000  0.000  0.000  0.500  0.000
  0.000  0.000  0.000  0.000  0.500
atom   17   Tr[ns(na)] =   5.00000
    eigenvalues:
  0.500  0.500  0.500  0.500  0.500
    eigenvectors:
  1.000  0.000  0.000  0.000  0.000
  0.000  1.000  0.000  0.000  0.000
  0.000  0.000  1.000  0.000  0.000
  0.000  0.000  0.000  1.000  0.000
  0.000  0.000  0.000  0.000  1.000
    occupations:
  0.500  0.000  0.000  0.000  0.000
  0.000  0.500  0.000  0.000  0.000
  0.000  0.000  0.500  0.000  0.000
  0.000  0.000  0.000  0.500  0.000
  0.000  0.000  0.000  0.000  0.500
[...]
  0.978  0.000  0.000  0.000  0.021
  0.000  0.861  0.001  0.136  0.001
  0.021  0.000  0.000  0.004  0.974
    occupations:
  0.688  0.001  0.000 -0.037  0.007
  0.001  0.624 -0.001  0.000  0.000
  0.000 -0.001  0.557  0.001 -0.040
 -0.037  0.000  0.001  0.611 -0.005
  0.007  0.000 -0.040 -0.005  0.821
atom   10   Tr[ns(na)] =   6.52275
    eigenvalues:
  0.476  0.491  0.560  0.795  0.940
    eigenvectors:
  0.721  0.279  0.000  0.001  0.000
  0.000  0.000  0.000  0.000  1.000
  0.277  0.717  0.005  0.001  0.000
  0.001  0.000  0.000  0.999  0.000
  0.001  0.004  0.995  0.000  0.000
    occupations:
  0.480  0.001 -0.007  0.009  0.000
  0.001  0.940  0.000  0.000 -0.003
 -0.007  0.000  0.487  0.008 -0.005
  0.009  0.000  0.008  0.794  0.000
  0.000 -0.003 -0.005  0.000  0.559
atom   16   Tr[ns(na)] =   6.56182
    eigenvalues:
  0.432  0.540  0.578  0.792  0.939
    eigenvectors:
  0.006  0.021  0.246  0.727  0.000
  0.000  0.944  0.054  0.001  0.001
  0.940  0.000  0.001  0.006  0.053
  0.000  0.034  0.699  0.266  0.000
  0.053  0.001  0.000  0.000  0.946
    occupations:
  0.732  0.011  0.025 -0.095  0.006
  0.011  0.543  0.004  0.004 -0.008
  0.025  0.004  0.461 -0.011 -0.113
 -0.095  0.004 -0.011  0.634 -0.003
  0.006 -0.008 -0.113 -0.003  0.912
atom   17   Tr[ns(na)] =   6.60629
    eigenvalues:
  0.538  0.577  0.617  0.772  0.799
    eigenvectors:
  0.000  0.000  0.996  0.000  0.004
  0.004  0.000  0.000  0.996  0.000
  0.996  0.000  0.000  0.004  0.000
  0.000  0.000  0.004  0.000  0.996
  0.000  1.000  0.000  0.000  0.000
    occupations:
  0.617  0.002  0.001 -0.011  0.001
  0.002  0.771  0.014  0.000 -0.001
  0.001  0.014  0.539  0.001  0.000
 -0.011  0.000  0.001  0.799  0.000
  0.001 -0.001  0.000  0.000  0.577
atom   22   Tr[ns(na)] =   6.62829
    eigenvalues:
  0.490  0.582  0.588  0.810  0.844
    eigenvectors:
  0.000  0.036  0.198  0.745  0.021
  0.000  0.847  0.153  0.000  0.000
  0.966  0.000  0.000  0.001  0.032
  0.000  0.117  0.649  0.226  0.008
  0.033  0.000  0.000  0.028  0.939
    occupations:
  0.759 -0.001  0.000 -0.095  0.004
 -0.001  0.583  0.002 -0.002  0.000
  0.000  0.002  0.502  0.001  0.063
 -0.095 -0.002  0.001  0.639 -0.005
  0.004  0.000  0.063 -0.005  0.832
atom   23   Tr[ns(na)] =   6.61504
    eigenvalues:
  0.473  0.556  0.582  0.787  0.910
    eigenvectors:
  0.000  0.000  0.968  0.031  0.000
  0.996  0.004  0.000  0.000  0.000
  0.000  0.000  0.000  0.005  0.995
  0.000  0.000  0.032  0.963  0.005
  0.004  0.996  0.000  0.000  0.000
    occupations:
  0.589  0.001 -0.004 -0.036  0.000
  0.001  0.473 -0.002 -0.005 -0.005
 -0.004 -0.002  0.909  0.008 -0.002
 -0.036 -0.005  0.008  0.781  0.000
  0.000 -0.005 -0.002  0.000  0.556
N of occupied +U levels =  52.6966273
 --- exit write_ns ---

     Threshold (ethr) on eigenvalues was too large:
     Diagonalizing with lowered threshold

     Davidson diagonalization with overlap
     ethr =  8.08E-09,  avg # of iterations =  2.0

[...]

     total energy              =   -2204.16800227 Ry
     Harris-Foulkes estimate   =   -2204.16800228 Ry
     estimated scf accuracy    <       0.00000001 Ry

     iteration # 11     ecut=    40.00 Ry     beta=0.70
     Davidson diagonalization with overlap
     ethr =  5.41E-12,  avg # of iterations =  1.0

     negative rho (up, down):  0.236E+00 0.000E+00

     End of self-consistent calculation
 --- enter write_ns ---
 LDA+U parameters:
U( 2)     =  7.00000000
alpha( 2) =  0.00000000
atom    3   Tr[ns(na)] =   6.55491
    eigenvalues:
  0.423  0.541  0.579  0.793  0.942
    eigenvectors:
  0.006  0.020  0.245  0.729  0.000
  0.000  0.947  0.052  0.001  0.001
  0.946  0.000  0.001  0.006  0.048
  0.000  0.032  0.703  0.264  0.000
  0.047  0.001  0.000  0.000  0.952
    occupations:
  0.733 -0.011  0.026 -0.095 -0.006
 -0.011  0.543 -0.004 -0.003 -0.009
  0.026 -0.004  0.450 -0.012  0.110
 -0.095 -0.003 -0.012  0.634  0.003
 -0.006 -0.009  0.110  0.003  0.917
atom    4   Tr[ns(na)] =   6.60564
    eigenvalues:
  0.532  0.581  0.624  0.760  0.806
    eigenvectors:
  0.000  0.000  0.995  0.000  0.004
  0.001  0.000  0.000  0.998  0.000
  0.999  0.000  0.000  0.001  0.000
  0.000  0.000  0.004  0.000  0.996
  0.000  1.000  0.000  0.000  0.000
    occupations:
  0.625  0.003  0.001 -0.011  0.001
  0.003  0.759  0.008  0.000 -0.001
  0.001  0.008  0.533  0.001  0.000
 -0.011  0.000  0.001  0.805  0.000
  0.001 -0.001  0.000  0.000  0.581
atom    9   Tr[ns(na)] =   6.60233
    eigenvalues:
  0.551  0.596  0.624  0.702  0.828
    eigenvectors:
  0.000  0.137  0.000  0.860  0.003
  0.000  0.001  0.998  0.000  0.000
  0.978  0.000  0.000  0.000  0.021
  0.000  0.861  0.001  0.136  0.001
  0.021  0.000  0.000  0.004  0.975
    occupations:
  0.688  0.001  0.000 -0.037  0.007
  0.001  0.624 -0.001  0.000  0.000
  0.000 -0.001  0.557  0.001 -0.040
 -0.037  0.000  0.001  0.611 -0.005
  0.007  0.000 -0.040 -0.005  0.822
atom   10   Tr[ns(na)] =   6.52330
    eigenvalues:
  0.476  0.491  0.560  0.795  0.940
    eigenvectors:
  0.721  0.278  0.000  0.001  0.000
  0.000  0.000  0.000  0.000  1.000
  0.277  0.717  0.005  0.001  0.000
  0.001  0.000  0.000  0.999  0.000
  0.001  0.004  0.995  0.000  0.000
    occupations:
  0.481  0.001 -0.007  0.009  0.000
  0.001  0.940  0.000  0.000 -0.003
 -0.007  0.000  0.488  0.008 -0.005
  0.009  0.000  0.008  0.794  0.000
  0.000 -0.003 -0.005  0.000  0.559
atom   16   Tr[ns(na)] =   6.56145
    eigenvalues:
  0.432  0.540  0.578  0.792  0.939
    eigenvectors:
  0.006  0.021  0.246  0.727  0.000
  0.000  0.944  0.054  0.001  0.001
  0.940  0.000  0.001  0.006  0.053
  0.000  0.034  0.699  0.266  0.000
  0.053  0.001  0.000  0.000  0.946
    occupations:
  0.732  0.011  0.025 -0.095  0.006
  0.011  0.543  0.004  0.004 -0.008
  0.025  0.004  0.461 -0.011 -0.114
 -0.095  0.004 -0.011  0.634 -0.003
  0.006 -0.008 -0.114 -0.003  0.912
atom   17   Tr[ns(na)] =   6.60567
    eigenvalues:
  0.538  0.577  0.617  0.772  0.799
    eigenvectors:
  0.000  0.000  0.996  0.000  0.004
  0.004  0.000  0.000  0.996  0.000
  0.996  0.000  0.000  0.004  0.000
  0.000  0.000  0.004  0.000  0.996
  0.000  1.000  0.000  0.000  0.000
    occupations:
  0.617  0.002  0.001 -0.011  0.001
  0.002  0.771  0.014  0.000 -0.001
  0.001  0.014  0.539  0.001  0.000
 -0.011  0.000  0.001  0.799  0.000
  0.001 -0.001  0.000  0.000  0.577
atom   22   Tr[ns(na)] =   6.62784
    eigenvalues:
  0.490  0.582  0.588  0.810  0.844
    eigenvectors:
  0.000  0.036  0.198  0.745  0.021
  0.000  0.848  0.152  0.000  0.000
  0.966  0.000  0.000  0.001  0.032
  0.000  0.116  0.650  0.226  0.008
  0.033  0.000  0.000  0.027  0.940
    occupations:
  0.759 -0.001  0.000 -0.095  0.004
 -0.001  0.583  0.002 -0.002  0.000
  0.000  0.002  0.502  0.001  0.063
 -0.095 -0.002  0.001  0.639 -0.005
  0.004  0.000  0.063 -0.005  0.832
atom   23   Tr[ns(na)] =   6.61481
    eigenvalues:
  0.473  0.556  0.582  0.787  0.910
    eigenvectors:
  0.000  0.000  0.968  0.031  0.000
  0.996  0.004  0.000  0.000  0.000
  0.000  0.000  0.000  0.005  0.995
  0.000  0.000  0.032  0.963  0.005
  0.004  0.996  0.000  0.000  0.000
    occupations:
  0.589  0.001 -0.004 -0.036  0.000
  0.001  0.473 -0.002 -0.005 -0.005
 -0.004 -0.002  0.910  0.008 -0.002
 -0.036 -0.005  0.008  0.781  0.000
  0.000 -0.005 -0.002  0.000  0.556
N of occupied +U levels =  52.6959413
 --- exit write_ns ---

[...]

          k = 0.2500-0.3828 0.0000 ( 29202 PWs)   bands (ev):

[...]

          k =-0.2500 0.1914 0.0000 ( 29229 PWs)   bands (ev):

   -80.5937 -80.5078 -80.3047 -80.2153 -80.0530 -80.0111 -79.8963 -79.8832
   -42.6401 -42.5879 -42.5598 -42.5092 -42.4633 -42.4372 -42.4077 -42.3937
   -42.3726 -42.3041 -42.2878 -42.2354 -42.1898 -42.0097 -41.9625 -41.9491
   -41.9433 -41.9318 -41.8631 -41.8143 -41.6078 -41.4142 -41.3466 -41.2276
   -21.3990 -20.6049 -20.1252 -20.0211 -19.7422 -19.7058 -19.5732 -19.4995
   -19.4360 -19.3246 -19.2474 -18.9645 -18.9108 -18.8437 -18.8194 -18.6576
   -18.5630 -18.1380 -17.9310 -16.7221  -9.1658  -8.8943  -8.8104  -8.6708
    -8.6049  -8.4285  -8.1652  -8.1079  -7.8698  -7.8136  -7.7651  -7.6735
    -7.5970  -7.2974  -6.9921  -6.9334  -6.7857  -6.5745  -6.5301  -6.3854
    -6.2961  -6.1784  -6.1234  -5.8657  -5.6689  -5.5746  -5.5142  -5.3926
    -5.2935  -5.1767  -5.0811  -4.9481  -4.8086  -4.7220  -4.7005  -4.6113
    -4.5237  -4.4534  -4.3495  -4.3330  -4.2775  -4.1768  -3.9839  -3.8675
    -3.6959  -3.6266  -3.5222  -3.5097  -3.4476  -3.2357  -3.1378  -3.0399
    -2.9659  -2.8880  -2.7705  -2.5902  -2.5132  -2.4296  -2.1243  -2.0182
    -1.8946  -1.5520  -1.2315  -1.0031  -0.8946  -0.7719  -0.2193  -0.0849
     0.0169   0.3341   0.6750   0.9631   1.1978   1.3326   1.4627   1.5749
     1.7125   1.8266   1.8820   2.0556   2.1367   2.3000   2.4951   2.9136
     3.4844   3.9458   4.0842   4.2724   4.3091   4.5443   4.6848   4.8229
     4.9467   4.9767   5.0887   5.2094   5.3453   5.3897   5.4672   5.8639
     6.0870   6.1692   6.3362   6.6081   6.6606   6.7328   6.8329   7.0008
     7.0697   7.3180   7.4814   7.5549   7.6949   7.7923   8.0123   8.1142
     8.3847   8.5147   8.6716   8.7199   8.8814   8.9740   9.0829   9.1764
     9.2684   9.4378   9.5383   9.6288   9.8028   9.8151   9.8942  10.0089
    10.0831  10.1678  10.2197  10.3428  10.4270  10.5457  10.6805  10.7435
    10.8254  10.9034  10.9990  11.0751  11.2003  11.2473  11.4881  11.5340
    11.5841  11.7214  11.8146  11.8697  12.0597  12.1834  12.2712  12.3571
    12.5041  12.6098  12.6185  12.6935  12.7501  12.8677  12.9044  13.0130
    13.0671  13.1956  13.2469  13.3329  13.4166  13.6154  13.6518  13.7259
    13.8018  13.8992  13.9307  14.0056  14.0779  14.1263  14.2028  14.3230
    14.3786  14.4071  14.4547  14.5039  14.5629  14.6089  14.7051  14.7763
    14.8230  14.8671  14.9795  15.0100  15.0722  15.1113  15.2415  15.3097
    15.3334  15.4383  15.4714  15.4967  15.6359  15.7090  15.8699  15.9027
    16.0409  16.1011  16.1821  16.3014  16.3754  16.3856  16.4438  16.5209
    16.5816  16.7528  16.7958  16.8903  16.9364  16.9790  17.0835  17.1974
    17.2742  17.3382  17.3695  17.4138  17.5357  17.5919  17.6225  17.6818
    17.7733  17.8391  17.8927  18.0150  18.0687  18.1668  18.2632  18.3779
    18.4413  18.4866  18.5182  18.5989  18.7089  18.7485  18.7920  18.8639
    18.9002  18.9918  19.0991  19.1915  19.2473  19.3410  19.3847  19.4773
    19.5294  19.6454  19.7154  19.7870  19.8470  19.9587  20.0450  20.1392
    20.2548  20.3504  20.4035  20.5058  20.5568  20.5982  20.6697  20.7046
    20.7649  20.8436  20.8981  20.9299  20.9851  21.0693  21.1323  21.1790
    21.2278  21.3005  21.3961  21.4446  21.5246  21.5993  21.6397  21.7495
    21.7917  21.8689  21.9227  21.9665  22.0153  22.0609  22.1072  22.2216
    22.2455  22.3054  22.3581  22.4104  22.4607  22.5384  22.5701  22.6193
    22.6757  22.7257  22.7666  22.8244  22.8747  22.9143  23.0470  23.0879
    23.1134  23.1448  23.2010  23.2764  23.3141  23.3847  23.4274

     the Fermi energy is     0.5522 ev

!    total energy              =   -2204.16800227 Ry
     Harris-Foulkes estimate   =   -2204.16800228 Ry
     estimated scf accuracy    <          5.9E-09 Ry

     The total energy is the sum of the following terms:

     one-electron contribution =  -24731.11945644 Ry
     hartree contribution      =   12390.87511498 Ry
     xc contribution           =    -602.30932664 Ry
     ewald contribution        =   10734.21936292 Ry
     Hubbard energy            =       4.16534101 Ry
     smearing contrib. (-TS)   =       0.00096189 Ry

     convergence has been achieved in  11 iterations

     Forces acting on atoms (Ry/au):

     negative rho (up, down):  0.236E+00 0.000E+00
     atom    1 type  1   force =    -0.00145890   -0.00440338   -0.00046197
     atom    2 type  1   force =    -0.00058180    0.00261991    0.00011266
     atom    3 type  2   force =     0.04084790   -0.00013086    0.00022581
     atom    4 type  2   force =    -0.00303822    0.00513388   -0.00045811
     atom    5 type  1   force =     0.00273370    0.01781284   -0.00010065
     atom    6 type  1   force =     0.00264351   -0.02018861   -0.00022458
     atom    7 type  1   force =     0.00009885   -0.00549783   -0.00053985
     atom    8 type  1   force =     0.01637502    0.00151337    0.00064380
     atom    9 type  2   force =    -0.01336060   -0.00254768   -0.00012484
     atom   10 type  2   force =    -0.00215800    0.00227279   -0.00005329
     atom   11 type  1   force =    -0.01921045    0.00369019    0.00021897
     atom   12 type  1   force =    -0.01282362    0.00708871   -0.00000122
     atom   13 type  1   force =     0.00817658   -0.00470758    0.00012095
     atom   14 type  1   force =    -0.00537617   -0.00556463   -0.00038930
     atom   15 type  1   force =    -0.00010244    0.00582091   -0.00034158
     atom   16 type  2   force =    -0.04186291   -0.00159856    0.00028952
     atom   17 type  2   force =     0.00660573    0.00641348   -0.00024956
     atom   18 type  1   force =    -0.00034333    0.01921623   -0.00003972
     atom   19 type  1   force =    -0.00048169   -0.01897136   -0.00015822
     atom   20 type  1   force =    -0.00002318    0.00001603    0.00030606
     atom   21 type  1   force =    -0.00924890    0.00142141   -0.00035776
     atom   22 type  2   force =     0.00950577   -0.00089854   -0.00036264
     atom   23 type  2   force =     0.00368901   -0.00651876    0.00039762
     atom   24 type  1   force =     0.01815689   -0.00600232    0.00025862
     atom   25 type  1   force =     0.01402099    0.01362621    0.00007028
     atom   26 type  1   force =    -0.01284962   -0.01039202    0.00049381
     atom   27 type  3   force =     0.00002457   -0.00044060    0.00000677
     atom   28 type  3   force =    -0.00001453    0.00005621   -0.00054526
     atom   29 type  3   force =    -0.00049588    0.00004773    0.00031422
     atom   30 type  3   force =    -0.00015713    0.00002748    0.00026170
     atom   31 type  1   force =     0.00065042    0.00049569    0.00043433
     atom   32 type  1   force =     0.00004997   -0.00007037    0.00052469
     atom   33 type  3   force =     0.00000844    0.00066006   -0.00027124

     Total force =     0.002182     Total SCF correction =     0.000257
     SCF correction compared to forces is large: reduce conv_thr to get better values

     bfgs converged in  18 scf cycles and  17 bfgs steps
     (criteria: energy < 0.10E-03, force < 0.10E-02)

     End of BFGS Geometry Optimization

     Final energy   =   -2204.1680022749 Ry
Begin final coordinates

ATOMIC_POSITIONS (crystal)
O0       0.000000000   0.000000000   0.372152689    0   0   1
O0       0.000000000   0.500000000   0.383517361    0   0   1
Re1      0.250000000   0.500000000   0.441680433    0   0   1
Re1      0.000000000   0.000000000   0.443918408    0   0   1
O0       0.250000000   0.780000000   0.441336000    0   0   1
O0       0.250000000   0.220000000   0.441391054    0   0   1
O0       0.000000000   0.500000000   0.497882315    0   0   1
O0       0.000000000   0.000000000   0.513767690    0   0   1
Re1      0.250000000   0.000000000   0.576823142    0   0   1
Re1      0.000000000   0.500000000   0.567055840    0   0   1
O0       0.250000000   0.720000000   0.571395692    0   0   1
O0       0.250000000   0.280000000   0.573266388    0   0   1
O0       0.000000000   0.000000000   0.626188842    0   0   1
O0       0.500000000   0.000000000   0.371456143    0   0   1
O0       0.500000000   0.500000000   0.382012196    0   0   1
Re1      0.750000000   0.500000000   0.441751764    0   0   1
Re1      0.500000000   0.000000000   0.443260997    0   0   1
O0       0.750000000   0.780000000   0.441421381    0   0   1
O0       0.750000000   0.220000000   0.441544448    0   0   1
O0       0.500000000   0.500000000   0.496591118    0   0   1
O0       0.500000000   0.000000000   0.514049402    0   0   1
Re1      0.750000000   0.000000000   0.572215607    0   0   1
Re1      0.500000000   0.500000000   0.574149242    0   0   1
O0       0.750000000   0.720000000   0.570268240    0   0   1
O0       0.750000000   0.280000000   0.572114326    0   0   1
O0       0.500000000   0.000000000   0.626104953    0   0   1
H2      -0.000570963   0.616980722   0.363284032
H2       0.499598827   0.627135186   0.366292338
H2       0.170000729   0.019162145   0.357493284
H2       0.669592210   0.021278722   0.356982439
O0       0.499630000   0.525789989   0.642074290    0   1   1
O0       0.500290000   0.344181282   0.674324796    0   1   1
H2       0.499950000   0.407802674   0.706943148    0   1   1
End final coordinates

     General routines

     Parallel routines
     Hubbard U routines

   This run was terminated on:  11:49:18  12Aug2014

   JOB DONE.