     Program PWSCF v.5.0.2 (svn rev. 9656) starts on  1May2014 at  6:16: 8

     Current dimensions of program PWSCF are:
     Max number of different atomic species (ntypx) = 10
     Max number of k-points (npk) =  40000
     Max angular momentum in pseudopotentials (lmaxx) =  3
     Reading input from pwscf.in
Warning: card &CELL ignored
Warning: card / ignored

     Subspace diagonalization in iterative solution of the eigenvalue problem:
     a serial algorithm will be used

     bravais-lattice index     =            0
     lattice parameter (alat)  =      12.0187  a.u.
     unit-cell volume          =    7280.5819 (a.u.)^3
     number of atoms/cell      =           33
     number of atomic types    =            3
     number of electrons       =       245.00
     number of Kohn-Sham states=          367
     kinetic-energy cutoff     =      40.0000  Ry
     charge density cutoff     =     500.0000  Ry
     convergence threshold     =      1.0E-06
     mixing beta               =       0.3000
     number of iterations used =            8  plain     mixing
     Exchange-correlation      = SLA  PW   PBE  PBE ( 1 4 3 4 0)
     EXX-fraction              =        0.00
     nstep                     =           50

     celldm(1)=  12.018658  celldm(2)=   0.000000  celldm(3)=   0.000000
     celldm(4)=   0.000000  celldm(5)=   0.000000  celldm(6)=   0.000000

     crystal axes: (cart. coord. in units of alat)
               a(1) = (   1.000000   0.000000   0.000000 )
               a(2) = (   0.000000   1.009517   0.000000 )
               a(3) = (   0.000000   0.000000   4.154171 )

     reciprocal axes: (cart. coord. in units 2 pi/alat)
               b(1) = (  1.000000  0.000000  0.000000 )
               b(2) = (  0.000000  0.990572  0.000000 )
               b(3) = (  0.000000  0.000000  0.240722 )

     PseudoPot. # 1 for O  read from file:
     /home/camp/zhonxu/pseudo/o_pbe_v1.01.uspp.F.UPF
     MD5 check sum: 2bcb18d16ea4b960afae9ec6d52f22d2
     Pseudo is Ultrasoft + core correction, Zval =  6.0
     Generated by new atomic code, or converted to UPF format
     Using radial grid of  737 points,  5 beta functions with:
                l(1) =   0
                l(2) =   0
                l(3) =   1
                l(4) =   1
                l(5) =   2
     Q(r) pseudized with  8 coefficients,  rinner =    0.900   0.900   0.900
                                                       0.900   0.900

     PseudoPot. # 2 for Ir read from file:
     /home/camp/zhonxu/pseudo/ir_pbe_v1.uspp.F.UPF
     MD5 check sum: abf987a9674477536ede83817f8f8b70
     Pseudo is Ultrasoft + core correction, Zval = 15.0
     Generated by new atomic code, or converted to UPF format
     Using radial grid of  983 points,  7 beta functions with:
                l(1) =   0
                l(2) =   0
                l(3) =   1
                l(4) =   1
                l(5) =   1
                l(6) =   2
                l(7) =   2
     Q(r) pseudized with  8 coefficients,  rinner =    1.350   1.350   1.350
                                                       1.350   1.350

     PseudoPot. # 3 for H  read from file:
     /home/camp/zhonxu/pseudo/h_pbe_v1.uspp.F.UPF
     MD5 check sum: 3408e3ff4ec8b0a4e358431e7e038a48
     Pseudo is Ultrasoft, Zval =  1.0
     Generated by new atomic code, or converted to UPF format
     Using radial grid of  615 points,  2 beta functions with:
                l(1) =   0
                l(2) =   0
     Q(r) pseudized with  8 coefficients,  rinner =    0.700

     atomic species   valence    mass     pseudopotential
        O0             6.00    15.99940     O ( 1.00)
        Ir1           15.00   192.22000     Ir( 1.00)
        H2             1.00     1.00794     H ( 1.00)

     No symmetry found

   Cartesian axes

     site n.     atom                  positions (alat units)
         1           O0  tau(   1) = (   0.0000000   0.0000000   1.5730185  )
         2           O0  tau(   2) = (   0.0000000   0.5047586   1.6673182  )
         3           Ir1 tau(   3) = (   0.2500000   0.5047586   1.8780178  )
         4           Ir1 tau(   4) = (   0.0000000   0.0000000   1.8842906  )
         5           O0  tau(   5) = (   0.2500000   0.8177090   1.8825458  )
         6           O0  tau(   6) = (   0.2500000   0.1918083   1.8810503  )
         7           O0  tau(   7) = (   0.0000000   0.5047586   2.0695666  )
         8           O0  tau(   8) = (   0.0000000   0.0000000   2.1991352  )
         9           Ir1 tau(   9) = (   0.2500000   0.0000000   2.3955860  )
        10           Ir1 tau(  10) = (   0.0000000   0.5047586   2.3764768  )
        11           O0  tau(  11) = (   0.2500000   0.6965669   2.3975800  )
        12           O0  tau(  12) = (   0.2500000   0.3129503   2.3977461  )
        13           O0  tau(  13) = (   0.0000000   0.0000000   2.5806958  )
        14           O0  tau(  14) = (   0.5000000   0.0000000   1.5730185  )
        15           O0  tau(  15) = (   0.5000000   0.5047586   1.6673182  )
        16           Ir1 tau(  16) = (   0.7500000   0.5047586   1.8780178  )
        17           Ir1 tau(  17) = (   0.5000000   0.0000000   1.8842906  )
        18           O0  tau(  18) = (   0.7500000   0.8177090   1.8825458  )
        19           O0  tau(  19) = (   0.7500000   0.1918083   1.8810503  )
        20           O0  tau(  20) = (   0.5000000   0.5047586   2.0695666  )
        21           O0  tau(  21) = (   0.5000000   0.0000000   2.1991352  )
        22           Ir1 tau(  22) = (   0.7500000   0.0000000   2.3955860  )
        23           Ir1 tau(  23) = (   0.5000000   0.5047586   2.3764768  )
        24           O0  tau(  24) = (   0.7500000   0.6965669   2.3975800  )
        25           O0  tau(  25) = (   0.7500000   0.3129503   2.3977461  )
        26           O0  tau(  26) = (   0.5000000   0.0000000   2.5807374  )
        27           H2  tau(  27) = (  -0.0000500   0.6423962   1.5933324  )
        28           H2  tau(  28) = (   0.4999500   0.6423962   1.5933324  )
        29           H2  tau(  29) = (   0.1436500   0.0338188   1.5249132  )
        30           H2  tau(  30) = (   0.6436500   0.0338188   1.5249132  )
        31           O0  tau(  31) = (   0.5000000   0.5047586   2.6909476  )
        32           O0  tau(  32) = (   0.5000000   0.3215817   2.7987898  )
        33           H2  tau(  33) = (   0.5000000   0.3681406   2.9477169  )

     number of k points=    10  Methfessel-Paxton smearing, width (Ry)=  0.0100
                       cart. coord. in units 2pi/alat
        k(    1) = (   0.0000000   0.0000000   0.0000000), wk =   0.1250000
        k(    2) = (   0.0000000   0.2476431   0.0000000), wk =   0.2500000
        k(    3) = (   0.0000000  -0.4952862   0.0000000), wk =   0.1250000
        k(    4) = (   0.2500000   0.0000000   0.0000000), wk =   0.2500000
        k(    5) = (   0.2500000   0.2476431   0.0000000), wk =   0.2500000
        k(    6) = (   0.2500000  -0.4952862   0.0000000), wk =   0.2500000
        k(    7) = (  -0.5000000   0.0000000   0.0000000), wk =   0.1250000
        k(    8) = (  -0.5000000   0.2476431   0.0000000), wk =   0.2500000
        k(    9) = (  -0.5000000  -0.4952862   0.0000000), wk =   0.1250000
        k(   10) = (  -0.2500000   0.2476431   0.0000000), wk =   0.2500000

     Largest allocated arrays     est. size (Mb)     dimensions
     Largest temporary arrays     est. size (Mb)     dimensions

     Check: negative/imaginary core charge=   -0.000003    0.000000

     Initial potential from superposition of free atoms
     Check: negative starting charge=   -3.334094

     starting charge  240.99967, renormalised to  245.00000

     negative rho (up, down):  0.339E+01 0.000E+00
     Starting wfc are  181 randomized atomic wfcs

     Self-consistent Calculation

     iteration #  1     ecut=    40.00 Ry     beta=0.30
     Davidson diagonalization with overlap
     ethr =  1.00E-02,  avg # of iterations = 10.1

     negative rho (up, down):  0.319E+01 0.000E+00

     total energy              =   -2135.45642241 Ry
     Harris-Foulkes estimate   =   -2144.37208876 Ry
     estimated scf accuracy    <      19.47675001 Ry

[...]

     End of self-consistent calculation

          k = 0.0000 0.0000 0.0000 ( 31045 PWs)   bands (ev):

   -50.6852 -50.6793 -50.6720 -50.6454 -50.6256 -50.5718 -50.5643 -50.5303
   -50.5239 -50.4305 -50.4091 -50.3875 -50.3556 -50.3531 -50.3384 -50.3107
   -50.2972 -50.2811 -50.2426 -50.2379 -50.2275 -50.1806 -50.1658 -49.9943
   -24.3920 -21.1517 -20.6790 -20.5783 -20.5480 -19.9466 -19.8713 -19.7602
   -19.7555 -19.6868 -19.6789 -19.5595 -19.4054 -19.2500 -19.1744 -19.0592
   -18.9813 -18.1021 -17.9903 -16.5392  -9.7143  -9.6447  -9.3489  -8.9069
    -8.4312  -8.1953  -8.1637  -8.1536  -8.1254  -8.0777  -8.0147  -7.9932
    -7.9684  -7.7911  -7.7167  -7.6871  -7.5014  -7.4204  -7.3181  -7.2826
    -6.9454  -6.7632  -6.6937  -6.5827  -6.4843  -6.4094  -5.8535  -5.7919
    -5.6862  -5.6659  -5.3845  -5.1753  -5.1270  -4.9744  -4.8880  -4.8035
    -4.7810  -4.7136  -4.6769  -4.5721  -4.4913  -4.3602  -4.3112  -4.2099
    -4.1576  -4.0104  -3.9340  -3.8694  -3.6940  -3.5616  -3.4846  -3.4033
    -3.2928  -2.9631  -2.8824  -2.8009  -2.6213  -2.6088  -2.5109  -2.4685
    -2.3636  -2.3118  -2.1752  -2.0806  -2.0474  -1.9140  -1.7960  -1.7626
    -1.7465  -1.5799  -1.3012  -1.2812  -1.0701  -1.0312  -0.8888  -0.7843
    -0.4260  -0.4078  -0.2039  -0.0727   0.1127   0.1333   0.4450   0.7098
     1.2613   1.7808   1.9239   1.9569   2.0621   2.1398   2.5505   2.8764
     3.0415   3.0933   3.4664   3.6789   3.7802   3.8532   3.8635   4.1714
     4.2733   4.3703   4.8588   4.9578   5.6304   6.1175   6.1425   6.5559
     6.7557   6.7822   7.2633   7.3338   7.5812   7.5896   7.6147   7.7413
     7.8061   8.0307   8.0910   8.1237   8.1463   8.2135   8.2886   8.4094
     8.4496   8.4571   8.4826   8.6028   8.6455   8.7411   8.7991   8.8334
     9.0343   9.0455   9.2788   9.3120   9.3217   9.3344   9.3376   9.3640
     9.4050   9.4064   9.4759   9.5052   9.5150   9.5159   9.5837   9.7649
     9.9463  10.0138  10.0814  10.1955  10.2687  10.4143  10.5304  10.5677
    10.6662  10.7106  10.7702  10.8796  11.1174  11.1699  11.2124  11.2736
    11.3150  11.4013  11.4389  11.4722  11.5597  11.5910  11.5913  11.7514
    11.7652  11.8070  11.8113  11.8908  11.9686  12.0281  12.2058  12.2341
    12.2395  12.3285  12.3701  12.4814  12.5360  12.6057  12.6397  12.7175
    12.8238  12.8429  12.8756  12.9088  13.0304  13.1022  13.3239  13.3856
    13.6103  13.6393  13.7585  13.8070  13.8827  13.9842  14.0467  14.1539
    14.2123  14.4099  14.4312  14.4771  14.5769  14.6552  14.8504  14.8798
    14.9402  15.0827  15.3732  15.4388  15.5209  15.5436  15.5805  15.6814
    15.7408  15.7663  15.8280  15.9390  16.0683  16.0984  16.2668  16.3089
    16.4557  16.5238  16.5938  16.7363  16.8985  16.9161  17.0472  17.1163
    17.2452  17.3365  17.3984  17.4172  17.4923  17.5038  17.6094  17.7994
    17.8256  17.8619  17.9262  18.0997  18.1811  18.2454  18.2694  18.3295
    18.4087  18.5016  18.5352  18.6707  18.7228  18.8079  18.9253  18.9570
[...]
     atom   22 type  2   force =    -0.00897712    0.00255711    0.00368468
     atom   23 type  2   force =     0.00006930   -0.03005741    0.13075253
     atom   24 type  1   force =     0.00952892    0.00983347   -0.02302542
     atom   25 type  1   force =     0.00894742   -0.01076863   -0.02487229
     atom   26 type  1   force =    -0.00108883   -0.02192597   -0.01767528
     atom   27 type  3   force =     0.00000389   -0.00026992    0.00065353
     atom   28 type  3   force =    -0.00000505    0.00018591    0.00087577
     atom   29 type  3   force =    -0.00003124    0.00026569    0.00040951
     atom   30 type  3   force =    -0.00003310    0.00019015    0.00043268
     atom   31 type  1   force =    -0.00015226    0.12394061   -0.04556778
     atom   32 type  1   force =     0.00011247   -0.08677680    0.04170415
     atom   33 type  3   force =    -0.00000345    0.00609608   -0.00867514

     Total force =     0.062378     Total SCF correction =     0.000314

     BFGS Geometry Optimization

     number of scf cycles    =   1
     number of bfgs steps    =   0

     energy   new            =   -2139.4360992436 Ry

     new trust radius        =       0.0455680327 bohr
     new conv_thr            =       0.0000010000 Ry

ATOMIC_POSITIONS (crystal)
O0       0.000000000   0.000000000   0.378660000    0   0   0
O0       0.000000000   0.500000000   0.401360000    0   0   0
Ir1      0.250000000   0.500000000   0.452080000    0   0   0
Ir1      0.000000000   0.000000000   0.453590000    0   0   0
O0       0.250000000   0.810000000   0.453170000    0   0   0
O0       0.250000000   0.190000000   0.452810000    0   0   0
O0       0.000000000   0.500000000   0.498190000    0   0   0
O0       0.000000000   0.000000000   0.529380000    0   0   0
Ir1      0.250000000   0.000000000   0.576670000    0   0   0
Ir1      0.000000000   0.500000000   0.572070000    0   0   0
O0       0.250000000   0.690000000   0.577150000    0   0   0
O0       0.250000000   0.310000000   0.577190000    0   0   0
O0       0.000000000   0.000000000   0.621230000    0   0   0
O0       0.500000000   0.000000000   0.378660000    0   0   0
O0       0.500000000   0.500000000   0.401360000    0   0   0
Ir1      0.750000000   0.500000000   0.452080000    0   0   0
Ir1      0.500000000   0.000000000   0.453590000    0   0   0
O0       0.750000000   0.810000000   0.453170000    0   0   0
O0       0.750000000   0.190000000   0.452810000    0   0   0
O0       0.500000000   0.500000000   0.498190000    0   0   0
O0       0.500000000   0.000000000   0.529380000    0   0   0
Ir1      0.750000000   0.000000000   0.576670000    0   0   0
Ir1      0.500000000   0.500000000   0.572070000    0   0   0
O0       0.750000000   0.690000000   0.577150000    0   0   0
O0       0.750000000   0.310000000   0.577190000    0   0   0
O0       0.500000000   0.000000000   0.621240000    0   0   0
H2      -0.000050000   0.636340000   0.383550000    0   0   0
H2       0.499950000   0.636340000   0.383550000    0   0   0
H2       0.143650000   0.033500000   0.367080000    0   0   0
H2       0.643650000   0.033500000   0.367080000    0   0   0
O0       0.499987331   0.500000000   0.646857322    1   0   1
O0       0.500009358   0.318550000   0.674565293    1   0   1
H2       0.499999713   0.364670000   0.709406246    1   0   1

     Check: negative starting charge=   -3.334094
     NEW-OLD atomic charge density approx. for the potential

     Check: negative/imaginary core charge=   -0.000003    0.000000
     Check: negative starting charge=   -3.334077

[...]

     energy   old            =   -2139.4360992436 Ry
     energy   new            =   -2139.4376259713 Ry

     CASE: energy  _new < energy  _old

[...]

     Total force =     0.002267     Total SCF correction =     0.000240
     SCF correction compared to forces is large: reduce conv_thr to get better values

[...]

     Threshold (ethr) on eigenvalues was too large:
     Diagonalizing with lowered threshold

     Davidson diagonalization with overlap
     ethr =  7.40E-08,  avg # of iterations =  1.0

[...]

     WARNING: bfgs curvature condition failed, Theta= 0.878
     new trust radius        =       0.0017904519 bohr
     new conv_thr            =       0.0000000100 Ry

[...]

     number of scf cycles    =   6
     number of bfgs steps    =   5

     energy   old            =   -2139.4383269467 Ry
     energy   new            =   -2139.4383339159 Ry

     CASE: energy  _new < energy  _old

     new trust radius        =       0.0040285168 bohr
     new conv_thr            =       0.0000000100 Ry

ATOMIC_POSITIONS (crystal)
O0       0.000000000   0.000000000   0.378660000    0   0   0
O0       0.000000000   0.500000000   0.401360000    0   0   0
Ir1      0.250000000   0.500000000   0.452080000    0   0   0
Ir1      0.000000000   0.000000000   0.453590000    0   0   0
O0       0.250000000   0.810000000   0.453170000    0   0   0
O0       0.250000000   0.190000000   0.452810000    0   0   0
O0       0.000000000   0.500000000   0.498190000    0   0   0
O0       0.000000000   0.000000000   0.529380000    0   0   0
Ir1      0.250000000   0.000000000   0.576670000    0   0   0
Ir1      0.000000000   0.500000000   0.572070000    0   0   0
O0       0.250000000   0.690000000   0.577150000    0   0   0
O0       0.250000000   0.310000000   0.577190000    0   0   0
O0       0.000000000   0.000000000   0.621230000    0   0   0
O0       0.500000000   0.000000000   0.378660000    0   0   0
O0       0.500000000   0.500000000   0.401360000    0   0   0
Ir1      0.750000000   0.500000000   0.452080000    0   0   0
Ir1      0.500000000   0.000000000   0.453590000    0   0   0
O0       0.750000000   0.810000000   0.453170000    0   0   0
O0       0.750000000   0.190000000   0.452810000    0   0   0
O0       0.500000000   0.500000000   0.498190000    0   0   0
O0       0.500000000   0.000000000   0.529380000    0   0   0
Ir1      0.750000000   0.000000000   0.576670000    0   0   0
Ir1      0.500000000   0.500000000   0.572070000    0   0   0
O0       0.750000000   0.690000000   0.577150000    0   0   0
O0       0.750000000   0.310000000   0.577190000    0   0   0
O0       0.500000000   0.000000000   0.621240000    0   0   0
H2      -0.000050000   0.636340000   0.383550000    0   0   0
H2       0.499950000   0.636340000   0.383550000    0   0   0
H2       0.143650000   0.033500000   0.367080000    0   0   0
H2       0.643650000   0.033500000   0.367080000    0   0   0
O0       0.499793562   0.500000000   0.646481908    1   0   1
O0       0.500179615   0.318550000   0.674593071    1   0   1
H2       0.499976418   0.364670000   0.710117112    1   0   1

     Check: negative starting charge=   -3.334065
     NEW-OLD atomic charge density approx. for the potential

     Check: negative/imaginary core charge=   -0.000003    0.000000
     Check: negative starting charge=   -3.334065

[...]

     Self-consistent Calculation

[...]

     Threshold (ethr) on eigenvalues was too large:
     Diagonalizing with lowered threshold

     Davidson diagonalization with overlap
     ethr =  7.95E-09,  avg # of iterations =  1.0

[...]

     total energy              =   -2139.43834237 Ry
     Harris-Foulkes estimate   =   -2139.43834238 Ry
     estimated scf accuracy    <       0.00000001 Ry

     iteration # 11     ecut=    40.00 Ry     beta=0.30
     Davidson diagonalization with overlap
     ethr =  5.98E-12,  avg # of iterations =  1.0

     negative rho (up, down):  0.312E+01 0.000E+00

     End of self-consistent calculation

[...]

          k = 0.2500-0.4953 0.0000 ( 31088 PWs)   bands (ev):

[...]

          k =-0.2500 0.2476 0.0000 ( 31099 PWs)   bands (ev):

   -50.7401 -50.7190 -50.7046 -50.6987 -50.6376 -50.5969 -50.5904 -50.5638
   -50.5431 -50.4722 -50.4292 -50.4161 -50.3830 -50.3823 -50.3504 -50.3361
   -50.3347 -50.3260 -50.2796 -50.2631 -50.2540 -50.2048 -50.1944 -50.0189
   -23.8915 -20.9964 -20.6130 -20.5167 -20.4226 -20.1057 -19.9497 -19.9063
   -19.7941 -19.6894 -19.6833 -19.5341 -19.4150 -19.4134 -19.3118 -19.1984
   -19.0370 -18.1679 -18.0662 -16.7321  -9.2871  -9.0862  -9.0223  -8.8666
    -8.6860  -8.3153  -8.2618  -8.1704  -8.0799  -8.0331  -7.9299  -7.8970
    -7.8544  -7.8017  -7.7549  -7.5066  -7.4131  -7.3234  -7.1442  -6.9512
    -6.9076  -6.7620  -6.6249  -6.5528  -6.5045  -6.2932  -5.9412  -5.8805
    -5.7405  -5.6423  -5.6220  -5.5571  -5.4933  -5.4061  -5.3705  -5.3269
    -5.2260  -5.1823  -4.9668  -4.8572  -4.8182  -4.6412  -4.5166  -4.4203
    -4.2199  -4.1737  -4.0865  -3.9871  -3.9130  -3.7269  -3.6052  -3.5185
    -3.2346  -3.1414  -2.9544  -2.8017  -2.6483  -2.5621  -2.3408  -2.1910
    -1.9992  -1.9619  -1.8985  -1.8719  -1.7662  -1.7287  -1.6438  -1.6046
    -1.5686  -1.5127  -1.3796  -1.1914  -1.1238  -0.9562  -0.5903  -0.5352
    -0.4889  -0.4161  -0.2835  -0.1557  -0.0368   0.1138   0.2762   0.5128
     1.3833   1.4996   1.6668   2.0909   2.1331   2.5888   2.6711   2.9895
     3.0745   3.2595   3.2910   3.5964   3.6553   3.7647   4.0540   4.1333
     4.2544   4.8377   5.0857   5.3540   5.6367   5.9470   5.9983   6.0901
     6.3736   6.4962   6.5988   6.7234   6.8361   7.0855   7.2545   7.3278
     7.5315   7.6341   7.7947   7.8629   8.0179   8.1265   8.2278   8.3594
     8.4144   8.5346   8.7366   8.7938   8.8748   8.9959   9.0712   9.1743
     9.1972   9.2607   9.3096   9.3117   9.3757   9.3785   9.3916   9.4772
     9.4893   9.5014   9.5426   9.5610   9.6533   9.7728   9.8268   9.9253
     9.9844  10.1286  10.2017  10.2501  10.3416  10.3865  10.5354  10.6007
    10.6858  10.7388  10.8220  10.8739  10.9612  11.0419  11.1474  11.1995
    11.3189  11.3877  11.4686  11.5675  11.6245  11.7592  11.8117  11.9220
    11.9631  12.0958  12.1958  12.2616  12.3396  12.4628  12.4918  12.5406
    12.6097  12.6849  12.7550  12.8511  12.9371  13.0385  13.0671  13.1483
    13.2151  13.3178  13.3695  13.4437  13.5395  13.6290  13.6746  13.7441
    13.9210  13.9776  14.0226  14.0966  14.1633  14.2138  14.2774  14.3737
    14.4944  14.5094  14.5997  14.7198  14.8418  14.9118  15.0203  15.0848
    15.1115  15.1982  15.4054  15.4637  15.4977  15.5992  15.6605  15.7094
    15.7398  15.7836  15.8605  15.9072  15.9745  16.0349  16.0686  16.1051
    16.2172  16.2768  16.3341  16.3575  16.4680  16.4956  16.5595  16.6155
    16.6671  16.7223  16.7710  16.8574  16.8916  16.9649  17.1794  17.2577
    17.2962  17.3702  17.4001  17.5009  17.5470  17.6010  17.6170  17.7060
    17.7480  17.8286  17.8660  17.9065  17.9249  18.0014  18.0581  18.1697
    18.2790  18.3420  18.3746  18.5279  18.6495  18.7258  18.7653  18.8233
    18.8545  18.9063  18.9974  19.0441  19.0961  19.2096  19.2413  19.3338
    19.3676  19.4012  19.5601  19.6677  19.6975  19.7686  19.8199  19.9077
    19.9332  20.0612  20.1353  20.1977  20.2555  20.3651  20.4462  20.4902
    20.5712  20.6371  20.7360  20.7770  20.8491  20.8820  20.9393  21.0374
    21.0918  21.1458  21.1640  21.2146  21.2674  21.2901  21.3439  21.4047
    21.5141  21.5330  21.6239  21.6574  21.7478  21.7934  21.8783  21.9077
    21.9453  21.9775  22.0690  22.1344  22.1949  22.2703  22.3682

     the Fermi energy is    -0.3136 ev

!    total energy              =   -2139.43834237 Ry
     Harris-Foulkes estimate   =   -2139.43834238 Ry
     estimated scf accuracy    <          4.9E-09 Ry

     The total energy is the sum of the following terms:

     one-electron contribution =  -23140.88172995 Ry
     hartree contribution      =   11619.92914380 Ry
     xc contribution           =    -584.17698102 Ry
     ewald contribution        =    9965.69092863 Ry
     smearing contrib. (-TS)   =       0.00029618 Ry

     convergence has been achieved in  11 iterations

     Forces acting on atoms (Ry/au):

     negative rho (up, down):  0.312E+01 0.000E+00
     atom    1 type  1   force =    -0.00752269   -0.01432040   -0.00065147
     atom    2 type  1   force =     0.00013799    0.00717930    0.00606193
     atom    3 type  2   force =     0.01594809    0.00585361   -0.00350853
     atom    4 type  2   force =     0.00941390    0.00753508   -0.00054456
     atom    5 type  1   force =    -0.00238224   -0.01989588   -0.00093576
     atom    6 type  1   force =     0.00277752    0.01768536   -0.00083682
     atom    7 type  1   force =    -0.00030685   -0.00326531    0.00095009
     atom    8 type  1   force =    -0.00317141   -0.00256526    0.00015965
     atom    9 type  2   force =     0.01162488    0.00291578    0.00455792
     atom   10 type  2   force =     0.00002312    0.00281231    0.00824522
     atom   11 type  1   force =    -0.00973330    0.00965426   -0.02393392
     atom   12 type  1   force =    -0.00891075   -0.01101176   -0.02627274
     atom   13 type  1   force =    -0.00085234    0.00038886    0.00112177
     atom   14 type  1   force =    -0.00755032   -0.01447302   -0.00065218
     atom   15 type  1   force =     0.00016185    0.00627441   -0.00105956
     atom   16 type  2   force =    -0.01602426    0.00576896   -0.00354970
     atom   17 type  2   force =     0.00942964    0.00809595   -0.00074066
     atom   18 type  1   force =    -0.00113174   -0.01998418   -0.00090691
     atom   19 type  1   force =     0.00309176    0.01755474   -0.00083823
     atom   20 type  1   force =    -0.00037283    0.00166496   -0.02009204
     atom   21 type  1   force =    -0.00327499    0.00000741    0.00154636
     atom   22 type  2   force =    -0.00908700    0.00302090    0.00449526
     atom   23 type  2   force =     0.00010185   -0.03672644    0.12105475
     atom   24 type  1   force =     0.00953071    0.00970074   -0.02391964
     atom   25 type  1   force =     0.00936029   -0.01101958   -0.02626390
     atom   26 type  1   force =    -0.00112453   -0.02132684   -0.01765465
     atom   27 type  3   force =     0.00000544   -0.00030415    0.00064718
     atom   28 type  3   force =    -0.00001141    0.00014513    0.00087761
     atom   29 type  3   force =    -0.00004856    0.00026709    0.00039760
     atom   30 type  3   force =    -0.00004827    0.00018619    0.00042379
     atom   31 type  1   force =    -0.00047240    0.09948113    0.00054524
     atom   32 type  1   force =     0.00052027   -0.07339872    0.00036550
     atom   33 type  3   force =    -0.00010144    0.02209936    0.00091141

     Total force =     0.001329     Total SCF correction =     0.000047

     bfgs converged in   7 scf cycles and   6 bfgs steps
     (criteria: energy < 0.10E-03, force < 0.10E-02)

     End of BFGS Geometry Optimization

     Final energy   =   -2139.4383423731 Ry
Begin final coordinates

ATOMIC_POSITIONS (crystal)
O0       0.000000000   0.000000000   0.378660000    0   0   0
O0       0.000000000   0.500000000   0.401360000    0   0   0
Ir1      0.250000000   0.500000000   0.452080000    0   0   0
Ir1      0.000000000   0.000000000   0.453590000    0   0   0
O0       0.250000000   0.810000000   0.453170000    0   0   0
O0       0.250000000   0.190000000   0.452810000    0   0   0
O0       0.000000000   0.500000000   0.498190000    0   0   0
O0       0.000000000   0.000000000   0.529380000    0   0   0
Ir1      0.250000000   0.000000000   0.576670000    0   0   0
Ir1      0.000000000   0.500000000   0.572070000    0   0   0
O0       0.250000000   0.690000000   0.577150000    0   0   0
O0       0.250000000   0.310000000   0.577190000    0   0   0
O0       0.000000000   0.000000000   0.621230000    0   0   0
O0       0.500000000   0.000000000   0.378660000    0   0   0
O0       0.500000000   0.500000000   0.401360000    0   0   0
Ir1      0.750000000   0.500000000   0.452080000    0   0   0
Ir1      0.500000000   0.000000000   0.453590000    0   0   0
O0       0.750000000   0.810000000   0.453170000    0   0   0
O0       0.750000000   0.190000000   0.452810000    0   0   0
O0       0.500000000   0.500000000   0.498190000    0   0   0
O0       0.500000000   0.000000000   0.529380000    0   0   0
Ir1      0.750000000   0.000000000   0.576670000    0   0   0
Ir1      0.500000000   0.500000000   0.572070000    0   0   0
O0       0.750000000   0.690000000   0.577150000    0   0   0
O0       0.750000000   0.310000000   0.577190000    0   0   0
O0       0.500000000   0.000000000   0.621240000    0   0   0
H2      -0.000050000   0.636340000   0.383550000    0   0   0
H2       0.499950000   0.636340000   0.383550000    0   0   0
H2       0.143650000   0.033500000   0.367080000    0   0   0
H2       0.643650000   0.033500000   0.367080000    0   0   0
O0       0.499793562   0.500000000   0.646481908    1   0   1
O0       0.500179615   0.318550000   0.674593071    1   0   1
H2       0.499976418   0.364670000   0.710117112    1   0   1
End final coordinates

     General routines

     Parallel routines

   This run was terminated on:  11:42:45   1May2014

   JOB DONE.