     Program PWSCF v.5.0.2 (svn rev. 9656) starts on 12May2014 at 23:22:16

     Current dimensions of program PWSCF are:
     Max number of different atomic species (ntypx) = 10
     Max number of k-points (npk) =  40000
     Max angular momentum in pseudopotentials (lmaxx) =  3
     Reading input from pwscf.in
Warning: card &CELL ignored
Warning: card / ignored

     Subspace diagonalization in iterative solution of the eigenvalue problem:
     a serial algorithm will be used

     bravais-lattice index     =            0
     lattice parameter (alat)  =      11.7541  a.u.
     unit-cell volume          =    7139.8207 (a.u.)^3
     number of atoms/cell      =           32
     number of atomic types    =            3
     number of electrons       =       239.00
     number of Kohn-Sham states=          358
     kinetic-energy cutoff     =      40.0000  Ry
     charge density cutoff     =     500.0000  Ry
     convergence threshold     =      1.0E-06
     mixing beta               =       0.3000
     number of iterations used =            8  plain     mixing
     Exchange-correlation      = SLA  PW   PBE  PBE ( 1 4 3 4 0)
     EXX-fraction              =        0.00
     nstep                     =           50

     celldm(1)=  11.754097  celldm(2)=   0.000000  celldm(3)=   0.000000
     celldm(4)=   0.000000  celldm(5)=   0.000000  celldm(6)=   0.000000

     crystal axes: (cart. coord. in units of alat)
               a(1) = (   1.000000   0.000000   0.000000 )
               a(2) = (   0.000000   1.034513   0.000000 )
               a(3) = (   0.000000   0.000000   4.249947 )

     reciprocal axes: (cart. coord. in units 2 pi/alat)
               b(1) = (  1.000000  0.000000  0.000000 )
               b(2) = (  0.000000  0.966638  0.000000 )
               b(3) = (  0.000000  0.000000  0.235297 )

     PseudoPot. # 1 for O  read from file:
     /home/camp/zhonxu/pseudo/o_pbe_v1.01.uspp.F.UPF
     MD5 check sum: 2bcb18d16ea4b960afae9ec6d52f22d2
     Pseudo is Ultrasoft + core correction, Zval =  6.0
     Generated by new atomic code, or converted to UPF format
     Using radial grid of  737 points,  5 beta functions with:
                l(1) =   0
                l(2) =   0
                l(3) =   1
                l(4) =   1
                l(5) =   2
     Q(r) pseudized with  8 coefficients,  rinner =    0.900   0.900   0.900
                                                       0.900   0.900

     PseudoPot. # 2 for Rh read from file:
     /home/camp/zhonxu/pseudo/rh_pbe_v1.uspp.F.UPF
     MD5 check sum: 37b626987ad0dd8ec6bf4cc9ef289918
     Pseudo is Ultrasoft + core correction, Zval = 15.0
     Generated by new atomic code, or converted to UPF format
     Using radial grid of  969 points,  7 beta functions with:
                l(1) =   0
                l(2) =   0
                l(3) =   1
                l(4) =   1
                l(5) =   2
                l(6) =   2
                l(7) =   2
     Q(r) pseudized with  6 coefficients,  rinner =    1.050   1.050   1.050
                                                       1.050   1.050

     PseudoPot. # 3 for H  read from file:
     /home/camp/zhonxu/pseudo/h_pbe_v1.uspp.F.UPF
     MD5 check sum: 3408e3ff4ec8b0a4e358431e7e038a48
     Pseudo is Ultrasoft, Zval =  1.0
     Generated by new atomic code, or converted to UPF format
     Using radial grid of  615 points,  2 beta functions with:
                l(1) =   0
                l(2) =   0
     Q(r) pseudized with  8 coefficients,  rinner =    0.700

     atomic species   valence    mass     pseudopotential
        O0             6.00    15.99940     O ( 1.00)
        Rh1           15.00   102.90550     Rh( 1.00)
        H2             1.00     1.00794     H ( 1.00)

     Simplified LDA+U calculation (l_max = 2) with parameters (eV):
     atomic species    L          U    alpha       J0     beta
        Rh1            2     7.0000   0.0000   0.0000   0.0000

     No symmetry found

   Cartesian axes

     site n.     atom                  positions (alat units)
         1           O0  tau(   1) = (   0.0000000   0.0000000   1.6077125  )
         2           O0  tau(   2) = (   0.0000000   0.5172566   1.7060138  )
         3           Rh1 tau(   3) = (   0.2500000   0.5172566   1.9233561  )
         4           Rh1 tau(   4) = (   0.0000000   0.0000000   1.9242061  )
         5           O0  tau(   5) = (   0.2500000   0.8379556   1.9221236  )
         6           O0  tau(   6) = (   0.2500000   0.1965575   1.9218261  )
         7           O0  tau(   7) = (   0.0000000   0.5172566   2.1180887  )
         8           O0  tau(   8) = (   0.0000000   0.0000000   2.2452046  )
         9           Rh1 tau(   9) = (   0.2500000   0.0000000   2.4467796  )
        10           Rh1 tau(  10) = (   0.0000000   0.5172566   2.4248074  )
        11           O0  tau(  11) = (   0.2500000   0.7138141   2.4490746  )
        12           O0  tau(  12) = (   0.2500000   0.3206991   2.4494996  )
        13           O0  tau(  13) = (   0.0000000   0.0000000   2.6392597  )
        14           O0  tau(  14) = (   0.5000000   0.0000000   1.6071175  )
        15           O0  tau(  15) = (   0.5000000   0.5172566   1.7046963  )
        16           Rh1 tau(  16) = (   0.7500000   0.5172566   1.9233561  )
        17           Rh1 tau(  17) = (   0.5000000   0.0000000   1.9236961  )
        18           O0  tau(  18) = (   0.7500000   0.8379556   1.9222086  )
        19           O0  tau(  19) = (   0.7500000   0.1965575   1.9219111  )
        20           O0  tau(  20) = (   0.5000000   0.5172566   2.1234861  )
        21           O0  tau(  21) = (   0.5000000   0.0000000   2.2446521  )
        22           Rh1 tau(  22) = (   0.7500000   0.0000000   2.4466946  )
        23           Rh1 tau(  23) = (   0.5000000   0.5172566   2.4467371  )
        24           O0  tau(  24) = (   0.7500000   0.7138141   2.4449521  )
        25           O0  tau(  25) = (   0.7500000   0.3206991   2.4452921  )
        26           O0  tau(  26) = (   0.5000000   0.0000000   2.6379847  )
        27           H2  tau(  27) = (  -0.0000100   0.6596573   1.6332972  )
        28           H2  tau(  28) = (   0.4999400   0.6612505   1.6349547  )
        29           H2  tau(  29) = (   0.1484100   0.0351631   1.5627056  )
        30           H2  tau(  30) = (   0.6482100   0.0356700   1.5619406  )
        31           O0  tau(  31) = (   0.5154200   0.5168841   2.7565583  )
        32           H2  tau(  32) = (   0.3686900   0.5167083   2.8162275  )

     number of k points=    10  Methfessel-Paxton smearing, width (Ry)=  0.0100
                       cart. coord. in units 2pi/alat
        k(    1) = (   0.0000000   0.0000000   0.0000000), wk =   0.1250000
        k(    2) = (   0.0000000   0.2416596   0.0000000), wk =   0.2500000
        k(    3) = (   0.0000000  -0.4833191   0.0000000), wk =   0.1250000
        k(    4) = (   0.2500000   0.0000000   0.0000000), wk =   0.2500000
        k(    5) = (   0.2500000   0.2416596   0.0000000), wk =   0.2500000
        k(    6) = (   0.2500000  -0.4833191   0.0000000), wk =   0.2500000
        k(    7) = (  -0.5000000   0.0000000   0.0000000), wk =   0.1250000
        k(    8) = (  -0.5000000   0.2416596   0.0000000), wk =   0.2500000
        k(    9) = (  -0.5000000  -0.4833191   0.0000000), wk =   0.1250000
        k(   10) = (  -0.2500000   0.2416596   0.0000000), wk =   0.2500000

     Largest allocated arrays     est. size (Mb)     dimensions
     Largest temporary arrays     est. size (Mb)     dimensions

     Check: negative/imaginary core charge=   -0.000003    0.000000

     Initial potential from superposition of free atoms
     Check: negative starting charge=   -0.644969

     starting charge  234.99914, renormalised to  239.00000

     negative rho (up, down):  0.656E+00 0.000E+00
     Number of +U iterations with fixed ns =  0
     Starting occupations:
 --- enter write_ns ---
 LDA+U parameters:
U( 2)     =  7.00000000
alpha( 2) =  0.00000000
atom    3   Tr[ns(na)] =   7.00000
    eigenvalues:
  0.700  0.700  0.700  0.700  0.700
    eigenvectors:
  1.000  0.000  0.000  0.000  0.000
  0.000  1.000  0.000  0.000  0.000
  0.000  0.000  1.000  0.000  0.000
  0.000  0.000  0.000  1.000  0.000
  0.000  0.000  0.000  0.000  1.000
    occupations:
  0.700  0.000  0.000  0.000  0.000
  0.000  0.700  0.000  0.000  0.000
  0.000  0.000  0.700  0.000  0.000
  0.000  0.000  0.000  0.700  0.000
  0.000  0.000  0.000  0.000  0.700
atom    4   Tr[ns(na)] =   7.00000
    eigenvalues:
  0.700  0.700  0.700  0.700  0.700
    eigenvectors:
  1.000  0.000  0.000  0.000  0.000
  0.000  1.000  0.000  0.000  0.000
  0.000  0.000  1.000  0.000  0.000
  0.000  0.000  0.000  1.000  0.000
  0.000  0.000  0.000  0.000  1.000
    occupations:
  0.700  0.000  0.000  0.000  0.000
  0.000  0.700  0.000  0.000  0.000
  0.000  0.000  0.700  0.000  0.000
  0.000  0.000  0.000  0.700  0.000
  0.000  0.000  0.000  0.000  0.700
atom    9   Tr[ns(na)] =   7.00000
    eigenvalues:
  0.700  0.700  0.700  0.700  0.700
    eigenvectors:
  1.000  0.000  0.000  0.000  0.000
  0.000  1.000  0.000  0.000  0.000
  0.000  0.000  1.000  0.000  0.000
  0.000  0.000  0.000  1.000  0.000
  0.000  0.000  0.000  0.000  1.000
    occupations:
  0.700  0.000  0.000  0.000  0.000
  0.000  0.700  0.000  0.000  0.000
  0.000  0.000  0.700  0.000  0.000
  0.000  0.000  0.000  0.700  0.000
  0.000  0.000  0.000  0.000  0.700
atom   10   Tr[ns(na)] =   7.00000
    eigenvalues:
  0.700  0.700  0.700  0.700  0.700
    eigenvectors:
  1.000  0.000  0.000  0.000  0.000
  0.000  1.000  0.000  0.000  0.000
  0.000  0.000  1.000  0.000  0.000
  0.000  0.000  0.000  1.000  0.000
  0.000  0.000  0.000  0.000  1.000
    occupations:
  0.700  0.000  0.000  0.000  0.000
  0.000  0.700  0.000  0.000  0.000
  0.000  0.000  0.700  0.000  0.000
  0.000  0.000  0.000  0.700  0.000
  0.000  0.000  0.000  0.000  0.700
atom   16   Tr[ns(na)] =   7.00000
    eigenvalues:
  0.700  0.700  0.700  0.700  0.700
    eigenvectors:
  1.000  0.000  0.000  0.000  0.000
  0.000  1.000  0.000  0.000  0.000
  0.000  0.000  1.000  0.000  0.000
  0.000  0.000  0.000  1.000  0.000
  0.000  0.000  0.000  0.000  1.000
    occupations:
  0.700  0.000  0.000  0.000  0.000
  0.000  0.700  0.000  0.000  0.000
  0.000  0.000  0.700  0.000  0.000
  0.000  0.000  0.000  0.700  0.000
  0.000  0.000  0.000  0.000  0.700
atom   17   Tr[ns(na)] =   7.00000
    eigenvalues:
  0.700  0.700  0.700  0.700  0.700
    eigenvectors:
  1.000  0.000  0.000  0.000  0.000
  0.000  1.000  0.000  0.000  0.000
  0.000  0.000  1.000  0.000  0.000
  0.000  0.000  0.000  1.000  0.000
  0.000  0.000  0.000  0.000  1.000
    occupations:
  0.700  0.000  0.000  0.000  0.000
  0.000  0.700  0.000  0.000  0.000
  0.000  0.000  0.700  0.000  0.000
  0.000  0.000  0.000  0.700  0.000
  0.000  0.000  0.000  0.000  0.700
atom   22   Tr[ns(na)] =   7.00000
    eigenvalues:
  0.700  0.700  0.700  0.700  0.700
    eigenvectors:
  1.000  0.000  0.000  0.000  0.000
  0.000  1.000  0.000  0.000  0.000
  0.000  0.000  1.000  0.000  0.000
  0.000  0.000  0.000  1.000  0.000
[...]
  0.652 -0.004 -0.001  0.029  0.001
 -0.004  0.935  0.011  0.001 -0.001
 -0.001  0.011  0.897 -0.000  0.001
  0.029  0.001 -0.000  0.979  0.000
  0.001 -0.001  0.001  0.000  0.596
atom    9   Tr[ns(na)] =   8.12128
    eigenvalues:
  0.634  0.640  0.887  0.918  0.982
    eigenvectors:
  0.005  0.148  0.000  0.000  0.847
  0.966  0.034  0.000  0.000  0.000
  0.000  0.000  0.992  0.008  0.000
  0.029  0.818  0.000  0.000  0.153
  0.000  0.000  0.008  0.992  0.000
    occupations:
  0.930  0.001 -0.000 -0.123 -0.000
  0.001  0.634  0.001  0.001 -0.000
 -0.000  0.001  0.887 -0.000 -0.003
 -0.123  0.001 -0.000  0.693  0.001
 -0.000 -0.000 -0.003  0.001  0.917
atom   10   Tr[ns(na)] =   8.09413
    eigenvalues:
  0.589  0.593  0.939  0.944  0.982
    eigenvectors:
  0.992  0.000  0.000  0.000  0.008
  0.000  0.000  1.000  0.000  0.000
  0.000  0.000  0.000  1.000  0.000
  0.008  0.000  0.000  0.000  0.992
  0.000  1.000  0.000  0.000  0.000
    occupations:
  0.592 -0.003  0.001  0.036 -0.000
 -0.003  0.939  0.000  0.000 -0.000
  0.001  0.000  0.944  0.000  0.003
  0.036  0.000  0.000  0.979  0.000
 -0.000 -0.000  0.003  0.000  0.593
atom   16   Tr[ns(na)] =   8.10350
    eigenvalues:
  0.578  0.600  0.923  0.970  0.981
    eigenvectors:
  0.007  0.194  0.003  0.001  0.796
  0.973  0.027  0.000  0.000  0.000
  0.000  0.000  0.971  0.027  0.002
  0.020  0.779  0.000  0.000  0.200
  0.000  0.000  0.027  0.972  0.001
    occupations:
  0.904  0.006  0.001 -0.153  0.001
  0.006  0.578  0.001  0.001 -0.006
  0.001  0.001  0.925 -0.004 -0.007
 -0.153  0.001 -0.004  0.676  0.000
  0.001 -0.006 -0.007  0.000  0.968
atom   17   Tr[ns(na)] =   8.11874
    eigenvalues:
  0.595  0.648  0.897  0.938  0.982
    eigenvectors:
  0.001  0.991  0.000  0.000  0.008
  0.000  0.000  0.094  0.905  0.000
  0.000  0.000  0.906  0.094  0.000
  0.000  0.008  0.000  0.000  0.992
  0.999  0.001  0.000  0.000  0.000
    occupations:
  0.651 -0.004 -0.001  0.029  0.002
 -0.004  0.934  0.012  0.001 -0.001
 -0.001  0.012  0.901 -0.000  0.001
  0.029  0.001 -0.000  0.979  0.000
  0.002 -0.001  0.001  0.000  0.595
atom   22   Tr[ns(na)] =   8.11817
    eigenvalues:
  0.635  0.642  0.880  0.920  0.982
    eigenvectors:
  0.000  0.151  0.000  0.000  0.848
  0.998  0.002  0.000  0.000  0.000
  0.000  0.000  0.995  0.005  0.000
  0.002  0.846  0.000  0.000  0.152
  0.000  0.000  0.005  0.995  0.000
    occupations:
  0.931  0.000 -0.000 -0.122 -0.000
  0.000  0.635  0.001 -0.000 -0.000
 -0.000  0.001  0.880 -0.000  0.003
 -0.122 -0.000 -0.000  0.694  0.001
 -0.000 -0.000  0.003  0.001  0.920
atom   23   Tr[ns(na)] =   8.10871
    eigenvalues:
  0.602  0.653  0.875  0.944  0.981
    eigenvectors:
  0.000  0.991  0.000  0.000  0.009
  0.000  0.000  0.000  0.999  0.000
  0.000  0.000  1.000  0.000  0.000
  0.000  0.009  0.000  0.000  0.991
  1.000  0.000  0.000  0.000  0.000
    occupations:
  0.656  0.006 -0.000  0.030 -0.000
  0.006  0.944 -0.000 -0.000 -0.000
 -0.000 -0.000  0.875  0.000 -0.002
  0.030 -0.000  0.000  0.978  0.000
 -0.000 -0.000 -0.002  0.000  0.602
N of occupied +U levels =  64.8870494
 --- exit write_ns ---

     Threshold (ethr) on eigenvalues was too large:
     Diagonalizing with lowered threshold

     Davidson diagonalization with overlap
     ethr =  5.71E-08,  avg # of iterations =  1.6

[...]

     total energy              =   -1978.88051266 Ry
     Harris-Foulkes estimate   =   -1978.88051266 Ry
     estimated scf accuracy    <       0.00000004 Ry

     iteration # 14     ecut=    40.00 Ry     beta=0.30
     Davidson diagonalization with overlap
     ethr =  1.03E-11,  avg # of iterations =  1.0

     negative rho (up, down):  0.689E+00 0.000E+00

     End of self-consistent calculation
 --- enter write_ns ---
 LDA+U parameters:
U( 2)     =  7.00000000
alpha( 2) =  0.00000000
atom    3   Tr[ns(na)] =   8.10283
    eigenvalues:
  0.577  0.600  0.923  0.970  0.982
    eigenvectors:
  0.006  0.195  0.003  0.000  0.796
  0.976  0.023  0.000  0.000  0.000
  0.000  0.000  0.965  0.033  0.002
  0.017  0.782  0.000  0.000  0.200
  0.000  0.000  0.032  0.966  0.001
    occupations:
  0.904 -0.006  0.001 -0.153 -0.001
 -0.006  0.578 -0.002 -0.001 -0.005
  0.001 -0.002  0.925 -0.004  0.008
 -0.153 -0.001 -0.004  0.676 -0.001
 -0.001 -0.005  0.008 -0.001  0.968
atom    4   Tr[ns(na)] =   8.11769
    eigenvalues:
  0.596  0.649  0.894  0.938  0.981
    eigenvectors:
  0.001  0.991  0.000  0.000  0.008
  0.000  0.000  0.063  0.936  0.000
  0.000  0.000  0.937  0.063  0.000
  0.000  0.008  0.000  0.000  0.992
  0.999  0.001  0.000  0.000  0.000
    occupations:
  0.652 -0.004 -0.001  0.029  0.001
 -0.004  0.935  0.011  0.001 -0.001
 -0.001  0.011  0.897 -0.000  0.001
  0.029  0.001 -0.000  0.979  0.000
  0.001 -0.001  0.001  0.000  0.596
atom    9   Tr[ns(na)] =   8.12162
    eigenvalues:
  0.634  0.640  0.887  0.918  0.982
    eigenvectors:
  0.005  0.148  0.000  0.000  0.847
  0.966  0.034  0.000  0.000  0.000
  0.000  0.000  0.992  0.008  0.000
  0.028  0.818  0.000  0.000  0.153
  0.000  0.000  0.008  0.992  0.000
    occupations:
  0.930  0.001 -0.000 -0.123 -0.000
  0.001  0.634  0.001  0.001 -0.000
 -0.000  0.001  0.887 -0.000 -0.003
 -0.123  0.001 -0.000  0.693  0.001
 -0.000 -0.000 -0.003  0.001  0.917
atom   10   Tr[ns(na)] =   8.09470
    eigenvalues:
  0.589  0.593  0.940  0.944  0.982
    eigenvectors:
  0.992  0.000  0.000  0.000  0.008
  0.000  0.000  1.000  0.000  0.000
  0.000  0.000  0.000  1.000  0.000
  0.008  0.000  0.000  0.000  0.992
  0.000  1.000  0.000  0.000  0.000
    occupations:
  0.592 -0.003  0.001  0.036 -0.000
 -0.003  0.939  0.000  0.000 -0.000
  0.001  0.000  0.944  0.000  0.003
  0.036  0.000  0.000  0.979  0.000
 -0.000 -0.000  0.003  0.000  0.593
atom   16   Tr[ns(na)] =   8.10288
    eigenvalues:
  0.578  0.600  0.923  0.970  0.981
    eigenvectors:
  0.007  0.194  0.003  0.001  0.796
  0.973  0.026  0.000  0.000  0.000
  0.000  0.000  0.971  0.027  0.002
  0.020  0.779  0.000  0.000  0.200
  0.000  0.000  0.026  0.972  0.001
    occupations:
  0.904  0.006  0.001 -0.153  0.001
  0.006  0.578  0.001  0.001 -0.006
  0.001  0.001  0.924 -0.004 -0.007
 -0.153  0.001 -0.004  0.676  0.000
  0.001 -0.006 -0.007  0.000  0.968
atom   17   Tr[ns(na)] =   8.11780
    eigenvalues:
  0.595  0.648  0.897  0.937  0.982
    eigenvectors:
  0.001  0.991  0.000  0.000  0.008
  0.000  0.000  0.094  0.906  0.000
  0.000  0.000  0.906  0.094  0.000
  0.000  0.008  0.000  0.000  0.992
  0.999  0.001  0.000  0.000  0.000
    occupations:
  0.651 -0.004 -0.001  0.029  0.002
 -0.004  0.934  0.012  0.001 -0.001
 -0.001  0.012  0.901 -0.000  0.001
  0.029  0.001 -0.000  0.979  0.000
  0.002 -0.001  0.001  0.000  0.595
atom   22   Tr[ns(na)] =   8.11862
    eigenvalues:
  0.635  0.642  0.880  0.920  0.982
    eigenvectors:
  0.000  0.151  0.000  0.000  0.848
  0.998  0.002  0.000  0.000  0.000
  0.000  0.000  0.995  0.005  0.000
  0.002  0.846  0.000  0.000  0.152
  0.000  0.000  0.005  0.995  0.000
    occupations:
  0.931  0.000 -0.000 -0.122 -0.000
  0.000  0.635  0.001 -0.000 -0.000
 -0.000  0.001  0.880 -0.000  0.003
 -0.122 -0.000 -0.000  0.694  0.001
 -0.000 -0.000  0.003  0.001  0.920
atom   23   Tr[ns(na)] =   8.11071
    eigenvalues:
  0.602  0.653  0.875  0.944  0.981
    eigenvectors:
  0.000  0.991  0.000  0.000  0.009
  0.000  0.000  0.000  0.999  0.000
  0.000  0.000  1.000  0.000  0.000
  0.000  0.009  0.000  0.000  0.991
  1.000  0.000  0.000  0.000  0.000
    occupations:
  0.656  0.006 -0.000  0.030 -0.000
  0.006  0.944 -0.000 -0.000 -0.000
 -0.000 -0.000  0.875  0.000 -0.002
  0.030 -0.000  0.000  0.978  0.000
 -0.000 -0.000 -0.002  0.000  0.602
N of occupied +U levels =  64.8868462
 --- exit write_ns ---

[...]

          k = 0.2500-0.4833 0.0000 ( 30510 PWs)   bands (ev):

[...]

          k =-0.2500 0.2417 0.0000 ( 30481 PWs)   bands (ev):

   -48.5057 -48.4985 -48.4469 -48.4108 -48.4082 -48.4038 -48.3820 -48.3552
   -48.3294 -48.3115 -48.2956 -48.2859 -48.2106 -48.2071 -48.1819 -48.1162
   -48.0979 -48.0866 -48.0820 -48.0203 -48.0046 -47.9887 -47.9743 -47.9648
   -21.2668 -20.9863 -20.9573 -20.8482 -20.5580 -20.4652 -20.4333 -20.3939
   -20.3350 -20.2408 -20.1173 -20.1023 -20.0487 -20.0364 -19.8591 -19.8426
   -19.8054 -19.1386 -18.9923 -10.4577 -10.3636 -10.1519 -10.0286  -9.8885
    -9.7480  -9.6639  -9.6260  -9.3258  -8.8953  -8.8288  -8.7475  -8.7082
    -8.6136  -8.5209  -8.3340  -8.2468  -8.2270  -8.0650  -7.8568  -7.7565
    -7.6852  -7.5680  -7.4888  -7.3094  -7.2506  -7.1495  -7.0791  -6.9878
    -6.8807  -6.8351  -6.7831  -6.7037  -6.6599  -6.5812  -6.4742  -6.4276
    -6.3569  -6.2838  -6.2008  -6.1190  -5.8943  -5.6318  -5.4789  -5.2651
    -5.1430  -5.1112  -4.9382  -4.8589  -4.7984  -4.6182  -4.6008  -4.5091
    -4.4420  -4.4004  -4.1903  -4.1176  -3.9866  -3.9156  -3.7453  -3.7285
    -3.6478  -3.5680  -3.5095  -3.4925  -3.4212  -3.3752  -3.2822  -3.1852
    -3.1484  -3.0579  -2.7383  -2.5400  -2.4687  -2.2853  -2.1583  -2.1166
    -2.0984  -1.9100  -1.8084  -1.7186  -0.7300  -0.1663  -0.0701   0.2046
     0.4604   0.7471   1.0061   1.2427   1.4935   1.5657   1.7269   1.7810
     1.8852   1.9567   2.0516   2.3963   3.6955   3.8629   4.5504   4.9411
     5.3455   5.5156   5.5552   5.8506   6.1142   6.3181   6.4393   6.4658
     6.5228   6.7560   6.8474   7.0549   7.2553   7.4337   7.5495   7.7030
     7.8679   8.0027   8.0809   8.1761   8.2928   8.3102   8.4525   8.5563
     8.7178   8.8629   8.9476   9.0214   9.1117   9.2408   9.4488   9.5966
     9.6591   9.7403   9.8321   9.9046   9.9621  10.0273  10.1868  10.2214
    10.3379  10.3658  10.4604  10.6024  10.6939  10.7356  10.8495  10.9651
    11.0679  11.1217  11.2253  11.2732  11.3780  11.4517  11.5126  11.5458
    11.6093  11.6993  11.8027  11.8639  11.9277  12.0340  12.1730  12.2062
    12.2528  12.3104  12.4178  12.4842  12.5135  12.5463  12.6518  12.7072
    12.7851  12.8407  12.9301  13.0133  13.1533  13.2039  13.2727  13.3029
    13.4293  13.5049  13.5664  13.6216  13.7675  13.8093  13.8892  13.9559
    14.0733  14.1164  14.1985  14.2839  14.3074  14.3584  14.4316  14.4886
    14.6134  14.7189  14.7408  14.8425  15.0027  15.0801  15.2259  15.3454
    15.3779  15.4176  15.5013  15.5449  15.5984  15.6202  15.7010  15.7832
    15.8199  15.8678  15.9097  16.0335  16.0922  16.1508  16.1829  16.3244
    16.3860  16.4402  16.4938  16.5193  16.5626  16.6000  16.6555  16.7407
    16.8219  16.9100  16.9615  17.0502  17.0965  17.1981  17.2324  17.2543
    17.3566  17.4010  17.4533  17.5246  17.5932  17.6595  17.7406  17.8235
    17.8886  17.9532  18.0228  18.0703  18.0959  18.2209  18.2983  18.3327
    18.4485  18.5280  18.5969  18.6597  18.7358  18.8260  18.8758  18.9297
    18.9776  19.0456  19.1475  19.1758  19.2692  19.2950  19.3780  19.4762
    19.5350  19.6434  19.6815  19.7843  19.8162  19.9313  19.9678  20.0593
    20.1855  20.2337  20.3459  20.4077  20.4992  20.5352  20.6311  20.6679
    20.7528  20.7954  20.8653  20.9277  20.9706  21.0887  21.1617  21.1920
    21.2416  21.2767  21.3495  21.4059  21.4789  21.5077  21.5720  21.6647
    21.7149  21.7774  21.8141  21.8617  21.9665  21.9951  22.0824  22.1346
    22.2422  22.2865  22.3864  22.4070  22.5109  22.5917

     the Fermi energy is    -2.1539 ev

!    total energy              =   -1978.88051266 Ry
     Harris-Foulkes estimate   =   -1978.88051266 Ry
     estimated scf accuracy    <          4.5E-09 Ry

     The total energy is the sum of the following terms:

     one-electron contribution =  -23374.57964343 Ry
     hartree contribution      =   11738.74028128 Ry
     xc contribution           =    -373.11972932 Ry
     ewald contribution        =   10027.48021961 Ry
     Hubbard energy            =       2.60020900 Ry
     smearing contrib. (-TS)   =      -0.00184980 Ry

     convergence has been achieved in  14 iterations

     Forces acting on atoms (Ry/au):

     negative rho (up, down):  0.689E+00 0.000E+00
     atom    1 type  1   force =    -0.00671416   -0.01172403    0.00015324
     atom    2 type  1   force =     0.00025743    0.00236733   -0.00051157
     atom    3 type  2   force =     0.02869188    0.00871571    0.00035295
     atom    4 type  2   force =     0.00803258    0.00852734    0.00000020
     atom    5 type  1   force =    -0.00420805   -0.02667965   -0.00008392
     atom    6 type  1   force =     0.00337196    0.02313323    0.00004145
     atom    7 type  1   force =     0.00196789   -0.00215333   -0.00016468
     atom    8 type  1   force =    -0.00172280   -0.00093091   -0.00029523
     atom    9 type  2   force =     0.00299555   -0.00008872   -0.00006258
     atom   10 type  2   force =    -0.00612640   -0.00135813   -0.00001611
     atom   11 type  1   force =    -0.00725917    0.01652526    0.00017495
     atom   12 type  1   force =    -0.00749127   -0.01646003    0.00012539
     atom   13 type  1   force =    -0.00124103   -0.00005148   -0.00016745
     atom   14 type  1   force =    -0.00662092   -0.01197147    0.00016643
     atom   15 type  1   force =     0.00025540    0.00250812   -0.00039316
     atom   16 type  2   force =    -0.02960775    0.00706561    0.00035541
     atom   17 type  2   force =     0.00802055    0.00862554    0.00014108
     atom   18 type  1   force =    -0.00191084   -0.02640273   -0.00006205
     atom   19 type  1   force =     0.00528146    0.02406936    0.00004003
     atom   20 type  1   force =    -0.00170690   -0.00541742    0.00036777
     atom   21 type  1   force =    -0.00377527   -0.00056726   -0.00031805
     atom   22 type  2   force =    -0.00003142    0.00070017   -0.00011455
     atom   23 type  2   force =     0.00247953    0.00071538    0.00033659
     atom   24 type  1   force =     0.00787597    0.02157446   -0.00009516
     atom   25 type  1   force =     0.00910108   -0.02192750   -0.00013048
     atom   26 type  1   force =    -0.00053885   -0.00017624    0.00009437
     atom   27 type  3   force =     0.00000145    0.00056230    0.00007334
     atom   28 type  3   force =     0.00001542    0.00059485    0.00026668
     atom   29 type  3   force =    -0.00008188    0.00016124    0.00006053
     atom   30 type  3   force =    -0.00015055    0.00032371   -0.00006690
     atom   31 type  1   force =     0.00059650   -0.00015898   -0.00016727
     atom   32 type  3   force =     0.00024262   -0.00010171   -0.00010125

     Total force =     0.001657     Total SCF correction =     0.000149

     bfgs converged in  10 scf cycles and   9 bfgs steps
     (criteria: energy < 0.10E-03, force < 0.10E-02)

     End of BFGS Geometry Optimization

     Final energy   =   -1978.8805126603 Ry
Begin final coordinates

ATOMIC_POSITIONS (crystal)
O0       0.000000000   0.000000000   0.378515545    0   0   1
O0       0.000000000   0.500000000   0.402202048    0   0   1
Rh1      0.250000000   0.500000000   0.452769010    0   0   1
Rh1      0.000000000   0.000000000   0.452750387    0   0   1
O0       0.250000000   0.810000000   0.452490542    0   0   1
O0       0.250000000   0.190000000   0.452239239    0   0   1
O0       0.000000000   0.500000000   0.499412646    0   0   1
O0       0.000000000   0.000000000   0.528090404    0   0   1
Rh1      0.250000000   0.000000000   0.575365067    0   0   1
Rh1      0.000000000   0.500000000   0.570912139    0   0   1
O0       0.250000000   0.690000000   0.575692459    0   0   1
O0       0.250000000   0.310000000   0.575754873    0   0   1
O0       0.000000000   0.000000000   0.620816442    0   0   1
O0       0.500000000   0.000000000   0.378222495    0   0   1
O0       0.500000000   0.500000000   0.401736198    0   0   1
Rh1      0.750000000   0.500000000   0.452763394    0   0   1
Rh1      0.500000000   0.000000000   0.452438632    0   0   1
O0       0.750000000   0.810000000   0.452490899    0   0   1
O0       0.750000000   0.190000000   0.452249628    0   0   1
O0       0.500000000   0.500000000   0.500272907    0   0   1
O0       0.500000000   0.000000000   0.527993769    0   0   1
Rh1      0.750000000   0.000000000   0.575300253    0   0   1
Rh1      0.500000000   0.500000000   0.575119348    0   0   1
O0       0.750000000   0.690000000   0.574715489    0   0   1
O0       0.750000000   0.310000000   0.574778863    0   0   1
O0       0.500000000   0.000000000   0.620688316    0   0   1
H2      -0.000231389   0.635844003   0.384535304
H2       0.499759613   0.637948235   0.385016126
H2       0.148201383   0.034543426   0.367823592
H2       0.648027305   0.035468479   0.367586388
O0       0.516619511   0.499140594   0.647967255
H2       0.370561052   0.499289307   0.662410346
End final coordinates

     General routines

     Parallel routines
     Hubbard U routines

   This run was terminated on:  11:20:20  13May2014

   JOB DONE.