     Program PWSCF v.5.0.2 (svn rev. 9656) starts on  9May2014 at 23:48:30

     Current dimensions of program PWSCF are:
     Max number of different atomic species (ntypx) = 10
     Max number of k-points (npk) =  40000
     Max angular momentum in pseudopotentials (lmaxx) =  3
     Reading input from pwscf.in
Warning: card &CELL ignored
Warning: card / ignored

     Subspace diagonalization in iterative solution of the eigenvalue problem:
     a serial algorithm will be used

     bravais-lattice index     =            0
     lattice parameter (alat)  =      10.3179  a.u.
     unit-cell volume          =    6964.3238 (a.u.)^3
     number of atoms/cell      =           31
     number of atomic types    =            3
     number of electrons       =       230.00
     number of Kohn-Sham states=          345
     kinetic-energy cutoff     =      40.0000  Ry
     charge density cutoff     =     500.0000  Ry
     convergence threshold     =      1.0E-06
     mixing beta               =       0.7000
     number of iterations used =            8  plain     mixing
     Exchange-correlation      = SLA  PW   PBE  PBE ( 1 4 3 4 0)
     EXX-fraction              =        0.00
     nstep                     =           50

     celldm(1)=  10.317905  celldm(2)=   0.000000  celldm(3)=   0.000000
     celldm(4)=   0.000000  celldm(5)=   0.000000  celldm(6)=   0.000000

     crystal axes: (cart. coord. in units of alat)
               a(1) = (   1.000000   0.000000   0.000000 )
               a(2) = (   0.000000   1.282117   0.000000 )
               a(3) = (   0.000000   0.000000   4.945120 )

     reciprocal axes: (cart. coord. in units 2 pi/alat)
               b(1) = (  1.000000  0.000000  0.000000 )
               b(2) = (  0.000000  0.779960  0.000000 )
               b(3) = (  0.000000  0.000000  0.202220 )

     PseudoPot. # 1 for O  read from file:
     /home/camp/zhonxu/pseudo/o_pbe_v1.01.uspp.F.UPF
     MD5 check sum: 2bcb18d16ea4b960afae9ec6d52f22d2
     Pseudo is Ultrasoft + core correction, Zval =  6.0
     Generated by new atomic code, or converted to UPF format
     Using radial grid of  737 points,  5 beta functions with:
                l(1) =   0
                l(2) =   0
                l(3) =   1
                l(4) =   1
                l(5) =   2
     Q(r) pseudized with  8 coefficients,  rinner =    0.900   0.900   0.900
                                                       0.900   0.900

     PseudoPot. # 2 for Mo read from file:
     /home/camp/zhonxu/pseudo/mo_pbe_v1.uspp.F.UPF
     MD5 check sum: 30c4dcd161f5d35cd49bb5239c51a633
     Pseudo is Ultrasoft + core correction, Zval = 14.0
     Generated by new atomic code, or converted to UPF format
     Using radial grid of  889 points,  6 beta functions with:
                l(1) =   0
                l(2) =   0
                l(3) =   1
                l(4) =   1
                l(5) =   2
                l(6) =   2
     Q(r) pseudized with  6 coefficients,  rinner =    1.000   1.000   1.000
                                                       1.000   1.000

     PseudoPot. # 3 for H  read from file:
     /home/camp/zhonxu/pseudo/h_pbe_v1.uspp.F.UPF
     MD5 check sum: 3408e3ff4ec8b0a4e358431e7e038a48
     Pseudo is Ultrasoft, Zval =  1.0
     Generated by new atomic code, or converted to UPF format
     Using radial grid of  615 points,  2 beta functions with:
                l(1) =   0
                l(2) =   0
     Q(r) pseudized with  8 coefficients,  rinner =    0.700

     atomic species   valence    mass     pseudopotential
        O0             6.00    15.99940     O ( 1.00)
        Mo1           14.00    95.94000     Mo( 1.00)
        H2             1.00     1.00794     H ( 1.00)

     Simplified LDA+U calculation (l_max = 2) with parameters (eV):
     atomic species    L          U    alpha       J0     beta
        Mo1            2     0.0000   0.0000   0.0000   0.0000

     No symmetry found

   Cartesian axes

     site n.     atom                  positions (alat units)
         1           O0  tau(   1) = (   0.0000000   0.0000000   1.8298429  )
         2           O0  tau(   2) = (   0.0000000   0.6410583   1.8994207  )
         3           Mo1 tau(   3) = (   0.2500000   0.6410583   2.1871278  )
         4           Mo1 tau(   4) = (   0.0000000   0.0000000   2.1851992  )
         5           O0  tau(   5) = (   0.2500000   1.0000510   2.1890070  )
         6           O0  tau(   6) = (   0.2500000   0.2820657   2.1893531  )
         7           O0  tau(   7) = (   0.0000000   0.6410583   2.4671700  )
         8           O0  tau(   8) = (   0.0000000   0.0000000   2.5523250  )
         9           Mo1 tau(   9) = (   0.2500000   0.0000000   2.8391419  )
        10           Mo1 tau(  10) = (   0.0000000   0.6410583   2.8013612  )
        11           O0  tau(  11) = (   0.2500000   0.9231240   2.8197571  )
        12           O0  tau(  12) = (   0.2500000   0.3589927   2.8195593  )
        13           O0  tau(  13) = (   0.0000000   0.0000000   3.0891672  )
        14           O0  tau(  14) = (   0.5000000   0.0000000   1.8327111  )
        15           O0  tau(  15) = (   0.5000000   0.6410583   1.8997669  )
        16           Mo1 tau(  16) = (   0.7500000   0.6410583   2.1871773  )
        17           Mo1 tau(  17) = (   0.5000000   0.0000000   2.1922708  )
        18           O0  tau(  18) = (   0.7500000   1.0000510   2.1898476  )
        19           O0  tau(  19) = (   0.7500000   0.2820657   2.1889575  )
        20           O0  tau(  20) = (   0.5000000   0.6410583   2.4516918  )
        21           O0  tau(  21) = (   0.5000000   0.0000000   2.5499019  )
        22           Mo1 tau(  22) = (   0.7500000   0.0000000   2.8391419  )
        23           Mo1 tau(  23) = (   0.5000000   0.6410583   2.8716808  )
        24           O0  tau(  24) = (   0.7500000   0.9231240   2.8197571  )
        25           O0  tau(  25) = (   0.7500000   0.3589927   2.8196582  )
        26           O0  tau(  26) = (   0.5000000   0.0000000   3.0881782  )
        27           H2  tau(  27) = (  -0.0006600   0.7686802   1.7727267  )
        28           H2  tau(  28) = (   0.4996400   0.7964252   1.8076887  )
        29           H2  tau(  29) = (   0.1674000   0.0210652   1.7585342  )
        30           H2  tau(  30) = (   0.6637700   0.0258988   1.7570507  )
        31           O0  tau(  31) = (   0.5000200   0.6407506   3.1806520  )

     number of k points=    10  Methfessel-Paxton smearing, width (Ry)=  0.0100
                       cart. coord. in units 2pi/alat
        k(    1) = (   0.0000000   0.0000000   0.0000000), wk =   0.1250000
        k(    2) = (   0.0000000   0.1949901   0.0000000), wk =   0.2500000
        k(    3) = (   0.0000000  -0.3899801   0.0000000), wk =   0.1250000
        k(    4) = (   0.2500000   0.0000000   0.0000000), wk =   0.2500000
        k(    5) = (   0.2500000   0.1949901   0.0000000), wk =   0.2500000
        k(    6) = (   0.2500000  -0.3899801   0.0000000), wk =   0.2500000
        k(    7) = (  -0.5000000   0.0000000   0.0000000), wk =   0.1250000
        k(    8) = (  -0.5000000   0.1949901   0.0000000), wk =   0.2500000
        k(    9) = (  -0.5000000  -0.3899801   0.0000000), wk =   0.1250000
        k(   10) = (  -0.2500000   0.1949901   0.0000000), wk =   0.2500000

     Largest allocated arrays     est. size (Mb)     dimensions
     Largest temporary arrays     est. size (Mb)     dimensions

     Check: negative/imaginary core charge=   -0.000003    0.000000

     Initial potential from superposition of free atoms
     Check: negative starting charge=   -0.002499

     starting charge  229.99143, renormalised to  230.00000

     negative rho (up, down):  0.250E-02 0.000E+00
     Number of +U iterations with fixed ns =  0
     Starting occupations:
 --- enter write_ns ---
 LDA+U parameters:
U( 2)     =  0.00000000
alpha( 2) =  0.00000000
atom    3   Tr[ns(na)] =   5.00000
    eigenvalues:
  0.500  0.500  0.500  0.500  0.500
    eigenvectors:
  1.000  0.000  0.000  0.000  0.000
  0.000  1.000  0.000  0.000  0.000
  0.000  0.000  1.000  0.000  0.000
  0.000  0.000  0.000  1.000  0.000
  0.000  0.000  0.000  0.000  1.000
    occupations:
  0.500  0.000  0.000  0.000  0.000
  0.000  0.500  0.000  0.000  0.000
  0.000  0.000  0.500  0.000  0.000
  0.000  0.000  0.000  0.500  0.000
  0.000  0.000  0.000  0.000  0.500
atom    4   Tr[ns(na)] =   5.00000
    eigenvalues:
  0.500  0.500  0.500  0.500  0.500
    eigenvectors:
  1.000  0.000  0.000  0.000  0.000
  0.000  1.000  0.000  0.000  0.000
  0.000  0.000  1.000  0.000  0.000
  0.000  0.000  0.000  1.000  0.000
  0.000  0.000  0.000  0.000  1.000
    occupations:
  0.500  0.000  0.000  0.000  0.000
  0.000  0.500  0.000  0.000  0.000
  0.000  0.000  0.500  0.000  0.000
  0.000  0.000  0.000  0.500  0.000
  0.000  0.000  0.000  0.000  0.500
atom    9   Tr[ns(na)] =   5.00000
    eigenvalues:
  0.500  0.500  0.500  0.500  0.500
    eigenvectors:
  1.000  0.000  0.000  0.000  0.000
  0.000  1.000  0.000  0.000  0.000
  0.000  0.000  1.000  0.000  0.000
  0.000  0.000  0.000  1.000  0.000
  0.000  0.000  0.000  0.000  1.000
    occupations:
  0.500  0.000  0.000  0.000  0.000
  0.000  0.500  0.000  0.000  0.000
  0.000  0.000  0.500  0.000  0.000
  0.000  0.000  0.000  0.500  0.000
  0.000  0.000  0.000  0.000  0.500
atom   10   Tr[ns(na)] =   5.00000
    eigenvalues:
  0.500  0.500  0.500  0.500  0.500
    eigenvectors:
  1.000  0.000  0.000  0.000  0.000
  0.000  1.000  0.000  0.000  0.000
  0.000  0.000  1.000  0.000  0.000
  0.000  0.000  0.000  1.000  0.000
  0.000  0.000  0.000  0.000  1.000
    occupations:
  0.500  0.000  0.000  0.000  0.000
  0.000  0.500  0.000  0.000  0.000
  0.000  0.000  0.500  0.000  0.000
  0.000  0.000  0.000  0.500  0.000
  0.000  0.000  0.000  0.000  0.500
atom   16   Tr[ns(na)] =   5.00000
    eigenvalues:
  0.500  0.500  0.500  0.500  0.500
    eigenvectors:
  1.000  0.000  0.000  0.000  0.000
  0.000  1.000  0.000  0.000  0.000
  0.000  0.000  1.000  0.000  0.000
  0.000  0.000  0.000  1.000  0.000
  0.000  0.000  0.000  0.000  1.000
    occupations:
  0.500  0.000  0.000  0.000  0.000
  0.000  0.500  0.000  0.000  0.000
  0.000  0.000  0.500  0.000  0.000
  0.000  0.000  0.000  0.500  0.000
  0.000  0.000  0.000  0.000  0.500
atom   17   Tr[ns(na)] =   5.00000
    eigenvalues:
  0.500  0.500  0.500  0.500  0.500
    eigenvectors:
  1.000  0.000  0.000  0.000  0.000
  0.000  1.000  0.000  0.000  0.000
  0.000  0.000  1.000  0.000  0.000
  0.000  0.000  0.000  1.000  0.000
  0.000  0.000  0.000  0.000  1.000
    occupations:
  0.500  0.000  0.000  0.000  0.000
  0.000  0.500  0.000  0.000  0.000
  0.000  0.000  0.500  0.000  0.000
  0.000  0.000  0.000  0.500  0.000
  0.000  0.000  0.000  0.000  0.500
atom   22   Tr[ns(na)] =   5.00000
    eigenvalues:
  0.500  0.500  0.500  0.500  0.500
    eigenvectors:
  1.000  0.000  0.000  0.000  0.000
  0.000  1.000  0.000  0.000  0.000
  0.000  0.000  1.000  0.000  0.000
  0.000  0.000  0.000  1.000  0.000
  0.000  0.000  0.000  0.000  1.000
    occupations:
  0.500  0.000  0.000  0.000  0.000
  0.000  0.500  0.000  0.000  0.000
[...]

     negative rho (up, down):  0.352E-02 0.000E+00

     End of self-consistent calculation
 --- enter write_ns ---
 LDA+U parameters:
U( 2)     =  0.00000000
alpha( 2) =  0.00000000
atom    3   Tr[ns(na)] =   5.81032
    eigenvalues:
  0.507  0.531  0.571  0.603  0.693
    eigenvectors:
  0.014  0.039  0.333  0.000  0.614
  0.000  0.927  0.068  0.002  0.002
  0.809  0.000  0.001  0.177  0.013
  0.000  0.033  0.590  0.006  0.371
  0.177  0.001  0.008  0.814  0.000
    occupations:
  0.644 -0.012  0.017 -0.060 -0.003
 -0.012  0.534 -0.003 -0.004 -0.002
  0.017 -0.003  0.527 -0.008  0.036
 -0.060 -0.004 -0.008  0.615  0.002
 -0.003 -0.002  0.036  0.002  0.586
atom    4   Tr[ns(na)] =   5.79150
    eigenvalues:
  0.472  0.524  0.576  0.611  0.713
    eigenvectors:
  0.000  0.000  0.989  0.009  0.002
  0.001  0.000  0.009  0.989  0.000
  0.999  0.000  0.000  0.001  0.000
  0.000  0.000  0.002  0.000  0.998
  0.000  1.000  0.000  0.000  0.000
    occupations:
  0.576  0.003  0.001 -0.006  0.000
  0.003  0.611  0.004 -0.001 -0.002
  0.001  0.004  0.472 -0.001  0.000
 -0.006 -0.001 -0.001  0.712  0.000
  0.000 -0.002  0.000  0.000  0.524
atom    9   Tr[ns(na)] =   5.80688
    eigenvalues:
  0.515  0.543  0.584  0.591  0.671
    eigenvectors:
  0.000  0.000  0.204  0.009  0.787
  0.000  0.000  0.046  0.954  0.000
  0.394  0.606  0.000  0.000  0.000
  0.000  0.000  0.750  0.037  0.213
  0.606  0.393  0.000  0.000  0.000
    occupations:
  0.653 -0.001  0.000 -0.036 -0.001
 -0.001  0.590 -0.000 -0.001 -0.001
  0.000 -0.000  0.532 -0.000  0.014
 -0.036 -0.001 -0.000  0.603  0.001
 -0.001 -0.001  0.014  0.001  0.526
atom   10   Tr[ns(na)] =   5.75257
    eigenvalues:
  0.503  0.524  0.528  0.625  0.696
    eigenvectors:
  0.996  0.000  0.004  0.000  0.000
  0.000  0.000  0.000  1.000  0.000
  0.004  0.000  0.996  0.000  0.000
  0.000  0.000  0.000  0.000  1.000
  0.000  1.000  0.000  0.000  0.000
    occupations:
  0.503  0.000 -0.002  0.003  0.000
  0.000  0.625  0.000 -0.000 -0.000
 -0.002  0.000  0.528  0.000 -0.000
  0.003 -0.000  0.000  0.696  0.000
  0.000 -0.000 -0.000  0.000  0.524
atom   16   Tr[ns(na)] =   5.81106
    eigenvalues:
  0.506  0.531  0.571  0.604  0.694
    eigenvectors:
  0.013  0.039  0.332  0.000  0.615
  0.000  0.926  0.069  0.002  0.002
  0.810  0.000  0.001  0.176  0.013
  0.000  0.033  0.591  0.006  0.370
  0.176  0.001  0.007  0.816  0.000
    occupations:
  0.645  0.012  0.017 -0.060  0.003
  0.012  0.534  0.003  0.003 -0.002
  0.017  0.003  0.525 -0.008 -0.037
 -0.060  0.003 -0.008  0.616 -0.002
  0.003 -0.002 -0.037 -0.002  0.586
atom   17   Tr[ns(na)] =   5.81006
    eigenvalues:
  0.483  0.524  0.578  0.599  0.721
    eigenvectors:
  0.000  0.000  0.954  0.041  0.005
  0.001  0.000  0.042  0.956  0.000
  0.999  0.000  0.000  0.001  0.000
  0.000  0.000  0.004  0.001  0.995
  0.000  1.000  0.000  0.000  0.000
    occupations:
  0.579  0.004  0.000 -0.010  0.000
  0.004  0.598  0.004 -0.002 -0.001
  0.000  0.004  0.483 -0.000  0.000
 -0.010 -0.002 -0.000  0.720  0.000
  0.000 -0.001  0.000  0.000  0.524
atom   22   Tr[ns(na)] =   5.80640
    eigenvalues:
  0.515  0.543  0.584  0.591  0.670
    eigenvectors:
  0.000  0.000  0.202  0.012  0.786
  0.000  0.000  0.057  0.943  0.000
  0.389  0.611  0.000  0.000  0.000
  0.000  0.000  0.741  0.045  0.214
  0.611  0.389  0.000  0.000  0.000
    occupations:
  0.652  0.001  0.000 -0.035 -0.001
  0.001  0.591 -0.000  0.001 -0.000
  0.000 -0.000  0.532 -0.000 -0.014
 -0.035  0.001 -0.000  0.603  0.000
 -0.001 -0.000 -0.014  0.000  0.526
atom   23   Tr[ns(na)] =   5.85902
    eigenvalues:
  0.520  0.532  0.543  0.615  0.719
    eigenvectors:
  0.000  0.000  0.000  0.967  0.033
  0.000  0.000  1.000  0.000  0.000
  0.000  1.000  0.000  0.000  0.000
  0.000  0.000  0.000  0.033  0.967
  1.000  0.000  0.000  0.000  0.000
    occupations:
  0.618  0.000 -0.000 -0.019 -0.000
  0.000  0.543 -0.000  0.000  0.000
 -0.000 -0.000  0.532  0.000 -0.000
 -0.019  0.000  0.000  0.716  0.000
 -0.000  0.000 -0.000  0.000  0.520
N of occupied +U levels =  46.4478008
 --- exit write_ns ---

          k = 0.0000 0.0000 0.0000 ( 29769 PWs)   bands (ev):

   -63.0375 -62.8215 -62.6993 -62.6085 -62.5969 -62.5411 -62.4901 -62.4648
   -37.6530 -37.5406 -37.3573 -37.1830 -37.1658 -37.0740 -37.0315 -36.9931
   -36.9506 -36.9071 -36.8535 -36.7647 -36.7582 -36.7297 -36.7219 -36.6996
   -36.5568 -36.5470 -36.5297 -36.5243 -36.4357 -36.3167 -36.1187 -36.0384
   -20.9433 -20.5513 -20.2921 -20.1534 -19.9752 -19.8617 -19.4062 -19.3617
   -19.3491 -19.2864 -19.1936 -19.0694 -19.0189 -19.0172 -18.9289 -18.8739
   -18.3582 -18.2937 -18.0725  -9.0187  -8.7451  -8.7090  -8.5562  -8.4711
    -7.7182  -7.6931  -7.6179  -7.3844  -7.3476  -7.1878  -7.1301  -7.0970
    -6.9451  -6.8090  -6.6585  -6.5680  -6.4784  -6.4562  -6.3825  -6.3024
    -6.1609  -6.1050  -5.5758  -5.5450  -5.5269  -5.4219  -5.4045  -5.2697
    -5.2076  -5.0124  -4.9332  -4.7990  -4.7039  -4.6007  -4.5876  -4.4875
    -4.3950  -4.3537  -4.3080  -4.1156  -4.0430  -3.8604  -3.8257  -3.8013
    -3.5123  -3.4387  -3.3788  -3.3745  -3.3308  -3.3147  -3.2634  -3.1825
    -3.1041  -3.0307  -2.7622  -2.7346  -2.6438  -2.5852  -2.0760  -0.7830
    -0.5469  -0.2830  -0.0604   0.0226   0.0781   0.3613   0.3677   0.4623
     0.5036   0.7951   1.0094   1.1343   1.2007   1.4607   1.5622   1.8909
     2.4068   2.4470   2.7800   2.8348   2.8557   2.8961   3.3735   3.7727
     3.8345   3.8974   4.0418   4.1743   4.3115   4.3279   4.4372   4.5550
     4.6288   4.6978   4.8183   4.9255   5.0763   5.1707   5.2890   5.6619
     5.9082   6.0681   6.3369   6.5952   6.8728   7.1201   7.4339   7.6076
     7.6822   7.7076   7.7520   7.8785   8.0005   8.2050   8.3688   8.5833
     8.6013   8.7201   8.7948   9.1004   9.1506   9.1828   9.2290   9.4365
     9.4458   9.5156   9.7071   9.7467   9.7740   9.8134   9.8863   9.9274
    10.0251  10.0784  10.2242  10.3004  10.3562  10.4250  10.6045  10.6357
    10.7598  10.9035  10.9219  11.2622  11.3073  11.3555  11.5586  11.6025
    11.6700  11.6964  11.7283  11.7546  11.9148  11.9916  12.2416  12.3272
    12.3672  12.4926  12.5129  12.5328  12.5960  12.6152  12.7617  12.7642
    12.8045  12.8908  12.9231  13.0510  13.0800  13.1802  13.2228  13.2880
    13.3315  13.4801  13.4821  13.5119  13.6077  13.6791  13.7794  13.8264
    13.8601  13.9418  13.9577  14.0880  14.1069  14.2909  14.3533  14.4273
    14.5473  14.6507  14.7758  14.8155  14.8549  14.8864  15.0193  15.0817
    15.1474  15.2151  15.2944  15.4183  15.5297  15.5851  15.6642  15.7023
    15.7137  15.7965  15.8745  15.9022  16.0098  16.0496  16.1604  16.1855
    16.2944  16.4251  16.5433  16.6664  16.6752  16.7624  16.7795  16.8174
    16.8444  16.8516  17.0269  17.0934  17.1677  17.2239  17.2337  17.3333
    17.4091  17.5129  17.6582  17.8059  17.9341  18.0148  18.0284  18.1185
    18.2641  18.3133  18.3855  18.4363  18.4466  18.5099  18.5503  18.6313
    18.7487  18.9769  19.0436  19.0788  19.1337  19.1565  19.2774  19.2965
    19.3585  19.4968  19.5441  19.6017  19.6763  19.7209  19.7680  19.8726
    19.9245  20.0331  20.1341  20.2472  20.3314  20.3325  20.4068  20.4674
    20.5375  20.6034  20.6702  20.8406  20.9229  21.1018  21.1287  21.1843
    21.2511  21.4072  21.4416  21.4711  21.5582  21.5989  21.6101  21.7042
    21.7529  21.8076  21.8371  21.8908  21.9709  21.9867  22.0458  22.0675
    22.1383

[...]

          k = 0.2500-0.3900 0.0000 ( 29726 PWs)   bands (ev):

[...]

          k =-0.5000 0.0000 0.0000 ( 29752 PWs)   bands (ev):

[...]

          k =-0.2500 0.1950 0.0000 ( 29746 PWs)   bands (ev):

   -63.0349 -62.8038 -62.7174 -62.5913 -62.5832 -62.5440 -62.5075 -62.4791
   -37.6555 -37.3899 -37.2544 -37.1362 -37.0471 -37.0429 -36.9823 -36.9517
   -36.9378 -36.8697 -36.8344 -36.7698 -36.7489 -36.7296 -36.7056 -36.6896
   -36.6185 -36.5691 -36.5635 -36.5632 -36.5496 -36.4381 -36.2787 -36.1979
   -20.8393 -20.5500 -20.1103 -20.0110 -19.8905 -19.7044 -19.6345 -19.5492
   -19.4636 -19.2867 -19.1516 -19.0825 -19.0247 -18.9913 -18.9174 -18.8560
   -18.3785 -18.3474 -18.2203  -8.8581  -8.7397  -8.3882  -8.0438  -7.9066
    -7.8819  -7.8023  -7.6247  -7.5181  -7.4358  -7.3004  -7.1349  -7.0405
    -6.9091  -6.7342  -6.5867  -6.5173  -6.4668  -6.3435  -6.2773  -6.0543
    -5.9904  -5.9486  -5.8304  -5.6692  -5.5629  -5.4794  -5.3546  -5.2239
    -5.1818  -5.0818  -4.9457  -4.8221  -4.7604  -4.7265  -4.6111  -4.5936
    -4.5054  -4.3597  -4.2805  -4.2586  -4.1847  -3.9925  -3.9702  -3.8693
    -3.8385  -3.7738  -3.6544  -3.5706  -3.4997  -3.4411  -3.4172  -3.2755
    -3.1221  -3.0354  -2.9810  -2.7311  -1.7113  -1.5708  -1.4766  -0.7357
    -0.6584  -0.5238  -0.4585   0.0388   0.1242   0.4719   0.4956   0.6094
     0.8038   0.8384   0.9701   1.1440   1.2646   1.4357   1.5444   1.5897
     1.7226   1.7563   1.8004   2.0342   2.2029   3.1677   3.2313   3.4656
     3.5255   3.6607   3.8565   4.0696   4.1447   4.2966   4.5286   4.5947
     4.7171   4.9604   5.2577   5.2978   5.5653   5.6463   5.7567   5.8184
     5.9399   6.0510   6.3081   6.5150   6.7707   6.9560   7.1512   7.2171
     7.2624   7.5928   7.6290   7.8048   8.0382   8.0988   8.2809   8.3488
     8.5135   8.5864   8.6691   8.7946   9.0069   9.1230   9.1931   9.3501
     9.4804   9.5262   9.6257   9.6349   9.6810   9.7368   9.9537  10.0870
    10.1287  10.2309  10.3110  10.3671  10.5306  10.5770  10.6748  10.7400
    10.8559  10.9658  11.0305  11.2003  11.3702  11.4588  11.5917  11.6617
    11.7546  11.8073  11.9216  11.9687  12.0457  12.2749  12.3319  12.4051
    12.4390  12.4812  12.5438  12.5861  12.6529  12.8307  12.9030  12.9147
    13.0295  13.1723  13.2454  13.2590  13.3295  13.4114  13.4644  13.5310
    13.5807  13.6592  13.6995  13.7600  13.8715  13.9290  14.0272  14.1129
    14.1662  14.2085  14.3299  14.4072  14.4348  14.5453  14.6084  14.6700
    14.6979  14.7555  14.8586  14.9100  14.9332  15.0113  15.1714  15.2104
    15.3395  15.3663  15.4516  15.5514  15.6042  15.7155  15.7820  15.8581
    15.9344  15.9703  16.0544  16.1433  16.1913  16.2283  16.3001  16.3662
    16.4298  16.4550  16.5706  16.6337  16.7490  16.8472  16.8835  16.9530
    17.0678  17.1192  17.2440  17.2698  17.3062  17.3929  17.4592  17.5595
    17.5902  17.6895  17.7214  17.7881  17.8987  17.9750  18.0178  18.1053
    18.1362  18.2220  18.2636  18.3463  18.3986  18.4758  18.5749  18.6280
    18.7691  18.8174  18.9144  18.9625  19.0788  19.1081  19.1569  19.2312
    19.4149  19.4479  19.5691  19.6690  19.6941  19.8081  19.8390  19.8933
    19.9609  20.0344  20.1089  20.1978  20.2511  20.3011  20.3552  20.4240
    20.4417  20.5065  20.5855  20.6588  20.6716  20.7097  20.7795  20.8814
    20.9141  20.9947  21.0508  21.1275  21.1865  21.2460  21.3017  21.3800
    21.4863  21.5362  21.5985  21.6750  21.7464  21.7720  21.8167  21.8596
    21.8873

     the Fermi energy is    -0.1757 ev

!    total energy              =   -1732.52351840 Ry
     Harris-Foulkes estimate   =   -1732.52351906 Ry
     estimated scf accuracy    <       0.00000073 Ry

     The total energy is the sum of the following terms:

     one-electron contribution =  -22102.56447952 Ry
     hartree contribution      =   11072.65368558 Ry
     xc contribution           =    -293.69630239 Ry
     ewald contribution        =    9591.08335746 Ry
     Hubbard energy            =       0.00000000 Ry
     smearing contrib. (-TS)   =       0.00022047 Ry

     convergence has been achieved in  24 iterations

     Forces acting on atoms (Ry/au):

     negative rho (up, down):  0.352E-02 0.000E+00
     atom    1 type  1   force =     0.00109475   -0.00341669    0.00003078
     atom    2 type  1   force =    -0.00018871    0.00621244    0.00046467
     atom    3 type  2   force =    -0.05919090   -0.00953290    0.00005541
     atom    4 type  2   force =     0.00101787    0.00483942   -0.00004193
     atom    5 type  1   force =    -0.00314597    0.00665965   -0.00015433
     atom    6 type  1   force =    -0.00477876   -0.00727514   -0.00016365
     atom    7 type  1   force =     0.00027582    0.00051587   -0.00031675
     atom    8 type  1   force =     0.00315735    0.00038710    0.00011646
     atom    9 type  2   force =     0.00132211   -0.00027690   -0.00000119
     atom   10 type  2   force =    -0.00011629    0.00024591   -0.00032237
     atom   11 type  1   force =    -0.01081023   -0.04271615   -0.00012450
     atom   12 type  1   force =    -0.01119792    0.04287300   -0.00010908
     atom   13 type  1   force =    -0.00002526    0.00022234    0.00019456
     atom   14 type  1   force =    -0.00561577   -0.00631623   -0.00000947
     atom   15 type  1   force =     0.00000396    0.01111998    0.00040186
     atom   16 type  2   force =     0.05853416   -0.01012015    0.00005688
     atom   17 type  2   force =    -0.00194027    0.00256283    0.00011475
     atom   18 type  1   force =     0.00569497    0.00755441   -0.00021331
     atom   19 type  1   force =     0.00523564   -0.00748857   -0.00025139
     atom   20 type  1   force =     0.00016488    0.00395040   -0.00022984
     atom   21 type  1   force =     0.00311844    0.00046590   -0.00040355
     atom   22 type  2   force =    -0.00526178   -0.00090528    0.00004037
     atom   23 type  2   force =     0.00014920    0.00024354   -0.00049293
     atom   24 type  1   force =     0.01110994   -0.04255081   -0.00011031
     atom   25 type  1   force =     0.01098551    0.04294799   -0.00006452
     atom   26 type  1   force =     0.00006802    0.00036410    0.00031462
     atom   27 type  3   force =    -0.00000500   -0.00045337    0.00040051
     atom   28 type  3   force =    -0.00000424   -0.00008044    0.00021308
     atom   29 type  3   force =     0.00004945   -0.00000672    0.00019079
     atom   30 type  3   force =     0.00031412   -0.00001601    0.00014138
     atom   31 type  1   force =    -0.00001511   -0.00000949    0.00027302

     Total force =     0.001438     Total SCF correction =     0.001509
     SCF correction compared to forces is large: reduce conv_thr to get better values

     BFGS Geometry Optimization

     bfgs converged in   1 scf cycles and   0 bfgs steps
     (criteria: energy < 0.10E-03, force < 0.10E-02)

     End of BFGS Geometry Optimization

     Final energy   =   -1732.5235183960 Ry
Begin final coordinates

ATOMIC_POSITIONS (crystal)
O0       0.000000000   0.000000000   0.370030000    0   0   1
O0       0.000000000   0.500000000   0.384100000    0   0   1
Mo1      0.250000000   0.500000000   0.442280000    0   0   1
Mo1      0.000000000   0.000000000   0.441890000    0   0   1
O0       0.250000000   0.780000000   0.442660000    0   0   1
O0       0.250000000   0.220000000   0.442730000    0   0   1
O0       0.000000000   0.500000000   0.498910000    0   0   1
O0       0.000000000   0.000000000   0.516130000    0   0   1
Mo1      0.250000000   0.000000000   0.574130000    0   0   1
Mo1      0.000000000   0.500000000   0.566490000    0   0   1
O0       0.250000000   0.720000000   0.570210000    0   0   1
O0       0.250000000   0.280000000   0.570170000    0   0   1
O0       0.000000000   0.000000000   0.624690000    0   0   1
O0       0.500000000   0.000000000   0.370610000    0   0   1
O0       0.500000000   0.500000000   0.384170000    0   0   1
Mo1      0.750000000   0.500000000   0.442290000    0   0   1
Mo1      0.500000000   0.000000000   0.443320000    0   0   1
O0       0.750000000   0.780000000   0.442830000    0   0   1
O0       0.750000000   0.220000000   0.442650000    0   0   1
O0       0.500000000   0.500000000   0.495780000    0   0   1
O0       0.500000000   0.000000000   0.515640000    0   0   1
Mo1      0.750000000   0.000000000   0.574130000    0   0   1
Mo1      0.500000000   0.500000000   0.580710000    0   0   1
O0       0.750000000   0.720000000   0.570210000    0   0   1
O0       0.750000000   0.280000000   0.570190000    0   0   1
O0       0.500000000   0.000000000   0.624490000    0   0   1
H2      -0.000660000   0.599540000   0.358480000
H2       0.499640000   0.621180000   0.365550000
H2       0.167400000   0.016430000   0.355610000
H2       0.663770000   0.020200000   0.355310000
O0       0.500020000   0.499760000   0.643190000
End final coordinates

     General routines

     Parallel routines
     Hubbard U routines

   This run was terminated on:   1:16:14  10May2014

   JOB DONE.
Running PBS batch system epilogue script
Job id: 351051.audhumbla.fysik.dtu.dk
Username: zhonxu
Groupname: campgst
Jobname: MoO2/Eads-2-layers/O-U-0.0
Sessionid: 29879
Queuename: verylong
Accounting:
This job has allocated the following 16 nodes:
c054 c054 c054 c054 c054 c054 c054 c054 c023 c023 c023 c023 c023 c023 c023 c023
Finished epilogue job 351051.audhumbla.fysik.dtu.dk for zhonxu