     Program PWSCF v.5.0.2 (svn rev. 9656) starts on  1May2014 at  5:53:22

     Current dimensions of program PWSCF are:
     Max number of different atomic species (ntypx) = 10
     Max number of k-points (npk) =  40000
     Max angular momentum in pseudopotentials (lmaxx) =  3
     Reading input from pwscf.in
Warning: card &CELL ignored
Warning: card / ignored

     Subspace diagonalization in iterative solution of the eigenvalue problem:
     a serial algorithm will be used

     bravais-lattice index     =            0
     lattice parameter (alat)  =      11.1872  a.u.
     unit-cell volume          =    7531.8600 (a.u.)^3
     number of atoms/cell      =           32
     number of atomic types    =            3
     number of electrons       =       223.00
     number of Kohn-Sham states=          334
     kinetic-energy cutoff     =      40.0000  Ry
     charge density cutoff     =     500.0000  Ry
     convergence threshold     =      1.0E-06
     mixing beta               =       0.7000
     number of iterations used =            8  plain     mixing
     Exchange-correlation      = SLA  PW   PBE  PBE ( 1 4 3 4 0)
     EXX-fraction              =        0.00
     nstep                     =           50

     celldm(1)=  11.187179  celldm(2)=   0.000000  celldm(3)=   0.000000
     celldm(4)=   0.000000  celldm(5)=   0.000000  celldm(6)=   0.000000

     crystal axes: (cart. coord. in units of alat)
               a(1) = (   1.000000   0.000000   0.000000 )
               a(2) = (   0.000000   1.180104   0.000000 )
               a(3) = (   0.000000   0.000000   4.558482 )

     reciprocal axes: (cart. coord. in units 2 pi/alat)
               b(1) = (  1.000000  0.000000  0.000000 )
               b(2) = (  0.000000  0.847383  0.000000 )
               b(3) = (  0.000000  0.000000  0.219371 )

     PseudoPot. # 1 for O  read from file:
     /home/camp/zhonxu/pseudo/o_pbe_v1.01.uspp.F.UPF
     MD5 check sum: 2bcb18d16ea4b960afae9ec6d52f22d2
     Pseudo is Ultrasoft + core correction, Zval =  6.0
     Generated by new atomic code, or converted to UPF format
     Using radial grid of  737 points,  5 beta functions with:
                l(1) =   0
                l(2) =   0
                l(3) =   1
                l(4) =   1
                l(5) =   2
     Q(r) pseudized with  8 coefficients,  rinner =    0.900   0.900   0.900
                                                       0.900   0.900

     PseudoPot. # 2 for Nb read from file:
     /home/camp/zhonxu/pseudo/nb_pbe_v1.uspp.F.UPF
     MD5 check sum: 573aab8a2fa660278ed4a62cd769473f
     Pseudo is Ultrasoft + core correction, Zval = 13.0
     Generated by new atomic code, or converted to UPF format
     Using radial grid of  887 points,  6 beta functions with:
                l(1) =   0
                l(2) =   0
                l(3) =   1
                l(4) =   1
                l(5) =   2
                l(6) =   2
     Q(r) pseudized with  6 coefficients,  rinner =    1.000   1.000   1.000
                                                       1.000   1.000

     PseudoPot. # 3 for H  read from file:
     /home/camp/zhonxu/pseudo/h_pbe_v1.uspp.F.UPF
     MD5 check sum: 3408e3ff4ec8b0a4e358431e7e038a48
     Pseudo is Ultrasoft, Zval =  1.0
     Generated by new atomic code, or converted to UPF format
     Using radial grid of  615 points,  2 beta functions with:
                l(1) =   0
                l(2) =   0
     Q(r) pseudized with  8 coefficients,  rinner =    0.700

     atomic species   valence    mass     pseudopotential
        O0             6.00    15.99940     O ( 1.00)
        Nb1           13.00    92.90640     Nb( 1.00)
        H2             1.00     1.00794     H ( 1.00)

     Simplified LDA+U calculation (l_max = 2) with parameters (eV):
     atomic species    L          U    alpha       J0     beta
        Nb1            2     7.0000   0.0000   0.0000   0.0000

     No symmetry found

   Cartesian axes

     site n.     atom                  positions (alat units)
         1           O0  tau(   1) = (   0.0000000   0.0000000   1.6962568  )
         2           O0  tau(   2) = (   0.0000000   0.5900519   1.7738878  )
         3           Nb1 tau(   3) = (   0.2500000   0.5900519   2.0270203  )
         4           Nb1 tau(   4) = (   0.0000000   0.0000000   2.0275217  )
         5           O0  tau(   5) = (   0.2500000   0.9322821   2.0383253  )
         6           O0  tau(   6) = (   0.2500000   0.2478218   2.0383253  )
         7           O0  tau(   7) = (   0.0000000   0.5900519   2.2801984  )
         8           O0  tau(   8) = (   0.0000000   0.0000000   2.3861375  )
         9           Nb1 tau(   9) = (   0.2500000   0.0000000   2.6321588  )
        10           Nb1 tau(  10) = (   0.0000000   0.5900519   2.5957821  )
        11           O0  tau(  11) = (   0.2500000   0.8378738   2.6252299  )
        12           O0  tau(  12) = (   0.2500000   0.3422301   2.6252299  )
        13           O0  tau(  13) = (   0.0000000   0.0000000   2.8359230  )
        14           O0  tau(  14) = (   0.5000000   0.0000000   1.6977155  )
        15           O0  tau(  15) = (   0.5000000   0.5900519   1.7812725  )
        16           Nb1 tau(  16) = (   0.7500000   0.5900519   2.0271571  )
        17           Nb1 tau(  17) = (   0.5000000   0.0000000   2.0300745  )
        18           O0  tau(  18) = (   0.7500000   0.9322821   2.0383253  )
        19           O0  tau(  19) = (   0.7500000   0.2478218   2.0383709  )
        20           O0  tau(  20) = (   0.5000000   0.5900519   2.2745003  )
        21           O0  tau(  21) = (   0.5000000   0.0000000   2.3862287  )
        22           Nb1 tau(  22) = (   0.7500000   0.0000000   2.6327514  )
        23           Nb1 tau(  23) = (   0.5000000   0.5900519   2.6327970  )
        24           O0  tau(  24) = (   0.7500000   0.8378738   2.6254579  )
        25           O0  tau(  25) = (   0.7500000   0.3422301   2.6255034  )
        26           O0  tau(  26) = (   0.5000000   0.0000000   2.8354216  )
        27           H2  tau(  27) = (  -0.0004800   0.5922115   1.6084605  )
        28           H2  tau(  28) = (   0.4995300   0.5922233   1.6161643  )
        29           H2  tau(  29) = (   0.1505800   0.0006019   1.6239593  )
        30           H2  tau(  30) = (   0.6505400   0.0006019   1.6254180  )
        31           O0  tau(  31) = (   0.5024200   0.5900519   2.9584550  )
        32           H2  tau(  32) = (   0.3976800   0.5901109   3.0854543  )

     number of k points=    10  Methfessel-Paxton smearing, width (Ry)=  0.0100
                       cart. coord. in units 2pi/alat
        k(    1) = (   0.0000000   0.0000000   0.0000000), wk =   0.1250000
        k(    2) = (   0.0000000   0.2118458   0.0000000), wk =   0.2500000
        k(    3) = (   0.0000000  -0.4236915   0.0000000), wk =   0.1250000
        k(    4) = (   0.2500000   0.0000000   0.0000000), wk =   0.2500000
        k(    5) = (   0.2500000   0.2118458   0.0000000), wk =   0.2500000
        k(    6) = (   0.2500000  -0.4236915   0.0000000), wk =   0.2500000
        k(    7) = (  -0.5000000   0.0000000   0.0000000), wk =   0.1250000
        k(    8) = (  -0.5000000   0.2118458   0.0000000), wk =   0.2500000
        k(    9) = (  -0.5000000  -0.4236915   0.0000000), wk =   0.1250000
        k(   10) = (  -0.2500000   0.2118458   0.0000000), wk =   0.2500000

     Largest allocated arrays     est. size (Mb)     dimensions
     Largest temporary arrays     est. size (Mb)     dimensions

     Check: negative/imaginary core charge=   -0.000003    0.000000

     Initial potential from superposition of free atoms
     Check: negative starting charge=   -0.003641

     starting charge  222.97806, renormalised to  223.00000

     negative rho (up, down):  0.364E-02 0.000E+00
     Number of +U iterations with fixed ns =  0
     Starting occupations:
 --- enter write_ns ---
 LDA+U parameters:
U( 2)     =  7.00000000
alpha( 2) =  0.00000000
atom    3   Tr[ns(na)] =   3.00000
    eigenvalues:
  0.300  0.300  0.300  0.300  0.300
    eigenvectors:
  1.000  0.000  0.000  0.000  0.000
  0.000  1.000  0.000  0.000  0.000
  0.000  0.000  1.000  0.000  0.000
  0.000  0.000  0.000  1.000  0.000
  0.000  0.000  0.000  0.000  1.000
    occupations:
  0.300  0.000  0.000  0.000  0.000
  0.000  0.300  0.000  0.000  0.000
  0.000  0.000  0.300  0.000  0.000
  0.000  0.000  0.000  0.300  0.000
  0.000  0.000  0.000  0.000  0.300
atom    4   Tr[ns(na)] =   3.00000
    eigenvalues:
  0.300  0.300  0.300  0.300  0.300
    eigenvectors:
  1.000  0.000  0.000  0.000  0.000
  0.000  1.000  0.000  0.000  0.000
  0.000  0.000  1.000  0.000  0.000
  0.000  0.000  0.000  1.000  0.000
  0.000  0.000  0.000  0.000  1.000
    occupations:
  0.300  0.000  0.000  0.000  0.000
  0.000  0.300  0.000  0.000  0.000
  0.000  0.000  0.300  0.000  0.000
  0.000  0.000  0.000  0.300  0.000
  0.000  0.000  0.000  0.000  0.300
atom    9   Tr[ns(na)] =   3.00000
    eigenvalues:
  0.300  0.300  0.300  0.300  0.300
    eigenvectors:
  1.000  0.000  0.000  0.000  0.000
  0.000  1.000  0.000  0.000  0.000
  0.000  0.000  1.000  0.000  0.000
  0.000  0.000  0.000  1.000  0.000
  0.000  0.000  0.000  0.000  1.000
    occupations:
  0.300  0.000  0.000  0.000  0.000
  0.000  0.300  0.000  0.000  0.000
  0.000  0.000  0.300  0.000  0.000
  0.000  0.000  0.000  0.300  0.000
  0.000  0.000  0.000  0.000  0.300
atom   10   Tr[ns(na)] =   3.00000
    eigenvalues:
  0.300  0.300  0.300  0.300  0.300
    eigenvectors:
  1.000  0.000  0.000  0.000  0.000
  0.000  1.000  0.000  0.000  0.000
  0.000  0.000  1.000  0.000  0.000
  0.000  0.000  0.000  1.000  0.000
  0.000  0.000  0.000  0.000  1.000
    occupations:
  0.300  0.000  0.000  0.000  0.000
  0.000  0.300  0.000  0.000  0.000
  0.000  0.000  0.300  0.000  0.000
  0.000  0.000  0.000  0.300  0.000
  0.000  0.000  0.000  0.000  0.300
atom   16   Tr[ns(na)] =   3.00000
    eigenvalues:
  0.300  0.300  0.300  0.300  0.300
    eigenvectors:
  1.000  0.000  0.000  0.000  0.000
  0.000  1.000  0.000  0.000  0.000
  0.000  0.000  1.000  0.000  0.000
  0.000  0.000  0.000  1.000  0.000
  0.000  0.000  0.000  0.000  1.000
    occupations:
  0.300  0.000  0.000  0.000  0.000
  0.000  0.300  0.000  0.000  0.000
  0.000  0.000  0.300  0.000  0.000
  0.000  0.000  0.000  0.300  0.000
  0.000  0.000  0.000  0.000  0.300
atom   17   Tr[ns(na)] =   3.00000
    eigenvalues:
  0.300  0.300  0.300  0.300  0.300
    eigenvectors:
  1.000  0.000  0.000  0.000  0.000
  0.000  1.000  0.000  0.000  0.000
  0.000  0.000  1.000  0.000  0.000
  0.000  0.000  0.000  1.000  0.000
  0.000  0.000  0.000  0.000  1.000
    occupations:
  0.300  0.000  0.000  0.000  0.000
  0.000  0.300  0.000  0.000  0.000
  0.000  0.000  0.300  0.000  0.000
  0.000  0.000  0.000  0.300  0.000
  0.000  0.000  0.000  0.000  0.300
atom   22   Tr[ns(na)] =   3.00000
    eigenvalues:
  0.300  0.300  0.300  0.300  0.300
    eigenvectors:
  1.000  0.000  0.000  0.000  0.000
  0.000  1.000  0.000  0.000  0.000
  0.000  0.000  1.000  0.000  0.000
  0.000  0.000  0.000  1.000  0.000
  0.000  0.000  0.000  0.000  1.000
[...]
atom    9   Tr[ns(na)] =   5.22963
    eigenvalues:
  0.428  0.447  0.471  0.630  0.638
    eigenvectors:
  0.000  0.871  0.000  0.129  0.000
  0.000  0.000  0.000  0.000  1.000
  0.985  0.000  0.015  0.000  0.000
  0.000  0.129  0.000  0.871  0.000
  0.015  0.000  0.985  0.000  0.000
    occupations:
  0.471  0.000 -0.000  0.061  0.000
  0.000  0.638 -0.000 -0.000  0.000
 -0.000 -0.000  0.429 -0.000  0.005
  0.061 -0.000 -0.000  0.607  0.000
  0.000  0.000  0.005  0.000  0.470
atom   10   Tr[ns(na)] =   4.99679
    eigenvalues:
  0.302  0.323  0.507  0.544  0.822
    eigenvectors:
  0.000  0.000  1.000  0.000  0.000
  0.000  0.939  0.000  0.000  0.060
  0.982  0.000  0.000  0.018  0.000
  0.000  0.061  0.000  0.000  0.939
  0.018  0.000  0.000  0.982  0.000
    occupations:
  0.507  0.001 -0.000 -0.005  0.000
  0.001  0.353 -0.000  0.119 -0.000
 -0.000 -0.000  0.306 -0.000 -0.032
 -0.005  0.119 -0.000  0.792  0.000
  0.000 -0.000 -0.032  0.000  0.540
atom   16   Tr[ns(na)] =   5.08001
    eigenvalues:
  0.314  0.321  0.519  0.604  0.782
    eigenvectors:
  0.000  0.000  0.001  0.328  0.670
  0.000  0.000  0.999  0.001  0.001
  0.640  0.360  0.000  0.000  0.000
  0.000  0.000  0.000  0.671  0.329
  0.360  0.640  0.000  0.000  0.000
    occupations:
  0.723  0.007  0.001 -0.084 -0.000
  0.007  0.519  0.000 -0.002  0.000
  0.001  0.000  0.317 -0.000  0.004
 -0.084 -0.002 -0.000  0.662  0.000
 -0.000  0.000  0.004  0.000  0.319
atom   17   Tr[ns(na)] =   5.11659
    eigenvalues:
  0.314  0.341  0.557  0.588  0.759
    eigenvectors:
  0.003  0.000  0.000  0.997  0.000
  0.995  0.000  0.000  0.003  0.002
  0.000  1.000  0.000  0.000  0.000
  0.002  0.000  0.000  0.000  0.998
  0.000  0.000  1.000  0.000  0.000
    occupations:
  0.587  0.015  0.000  0.000 -0.000
  0.015  0.315 -0.000 -0.019  0.000
  0.000 -0.000  0.341 -0.000  0.003
  0.000 -0.019 -0.000  0.758  0.000
 -0.000  0.000  0.003  0.000  0.557
atom   22   Tr[ns(na)] =   5.24012
    eigenvalues:
  0.422  0.454  0.473  0.634  0.637
    eigenvectors:
  0.000  0.890  0.000  0.109  0.001
  0.000  0.000  0.000  0.007  0.993
  0.999  0.000  0.001  0.000  0.000
  0.000  0.110  0.000  0.883  0.007
  0.001  0.000  0.999  0.000  0.000
    occupations:
  0.474 -0.000  0.000  0.056 -0.000
 -0.000  0.637 -0.000  0.000  0.000
  0.000 -0.000  0.422  0.000  0.002
  0.056  0.000  0.000  0.614  0.000
 -0.000  0.000  0.002  0.000  0.473
atom   23   Tr[ns(na)] =   5.19059
    eigenvalues:
  0.362  0.389  0.561  0.614  0.670
    eigenvectors:
  0.002  0.000  0.000  0.998  0.001
  0.942  0.000  0.000  0.002  0.056
  0.000  0.987  0.013  0.000  0.000
  0.056  0.000  0.000  0.000  0.944
  0.000  0.013  0.987  0.000  0.000
    occupations:
  0.613 -0.009 -0.000 -0.004  0.000
 -0.009  0.379  0.000 -0.071 -0.000
 -0.000  0.000  0.391  0.000  0.019
 -0.004 -0.071  0.000  0.653 -0.000
  0.000 -0.000  0.019 -0.000  0.558
N of occupied +U levels =  41.0575697
 --- exit write_ns ---

     Threshold (ethr) on eigenvalues was too large:
     Diagonalizing with lowered threshold

     Davidson diagonalization with overlap
     ethr =  4.09E-09,  avg # of iterations =  3.0

[...]

     total energy              =   -1558.83274959 Ry
     Harris-Foulkes estimate   =   -1558.83274960 Ry
     estimated scf accuracy    <       0.00000002 Ry

     iteration # 11     ecut=    40.00 Ry     beta=0.70
     Davidson diagonalization with overlap
     ethr =  9.71E-12,  avg # of iterations =  2.0

     negative rho (up, down):  0.355E-02 0.000E+00

     End of self-consistent calculation
 --- enter write_ns ---
 LDA+U parameters:
U( 2)     =  7.00000000
alpha( 2) =  0.00000000
atom    3   Tr[ns(na)] =   5.08375
    eigenvalues:
  0.316  0.322  0.519  0.603  0.783
    eigenvectors:
  0.000  0.000  0.001  0.329  0.670
  0.000  0.000  0.999  0.001  0.001
  0.499  0.501  0.000  0.000  0.000
  0.000  0.000  0.000  0.670  0.330
  0.501  0.499  0.000  0.000  0.000
    occupations:
  0.723 -0.007  0.001 -0.085  0.000
 -0.007  0.519  0.000  0.002  0.000
  0.001  0.000  0.319 -0.000 -0.003
 -0.085  0.002 -0.000  0.662 -0.000
  0.000  0.000 -0.003 -0.000  0.319
atom    4   Tr[ns(na)] =   5.11988
    eigenvalues:
  0.313  0.342  0.557  0.587  0.761
    eigenvectors:
  0.003  0.000  0.000  0.997  0.000
  0.996  0.000  0.000  0.003  0.000
  0.000  1.000  0.000  0.000  0.000
  0.000  0.000  0.000  0.000  1.000
  0.000  0.000  1.000  0.000  0.000
    occupations:
  0.586  0.015  0.000 -0.000 -0.000
  0.015  0.314 -0.000 -0.008  0.000
  0.000 -0.000  0.342 -0.000 -0.001
 -0.000 -0.008 -0.000  0.761  0.000
 -0.000  0.000 -0.001  0.000  0.557
atom    9   Tr[ns(na)] =   5.22992
    eigenvalues:
  0.428  0.447  0.471  0.631  0.638
    eigenvectors:
  0.000  0.871  0.000  0.129  0.000
  0.000  0.000  0.000  0.000  1.000
  0.985  0.000  0.015  0.000  0.000
  0.000  0.129  0.000  0.871  0.000
  0.015  0.000  0.985  0.000  0.000
    occupations:
  0.471  0.000 -0.000  0.062  0.000
  0.000  0.638 -0.000 -0.000  0.000
 -0.000 -0.000  0.429 -0.000  0.005
  0.062 -0.000 -0.000  0.607  0.000
  0.000  0.000  0.005  0.000  0.470
atom   10   Tr[ns(na)] =   4.99715
    eigenvalues:
  0.302  0.323  0.507  0.544  0.822
    eigenvectors:
  0.000  0.000  1.000  0.000  0.000
  0.000  0.940  0.000  0.000  0.060
  0.982  0.000  0.000  0.018  0.000
  0.000  0.060  0.000  0.000  0.940
  0.018  0.000  0.000  0.982  0.000
    occupations:
  0.507  0.001 -0.000 -0.005  0.000
  0.001  0.353 -0.000  0.119 -0.000
 -0.000 -0.000  0.306 -0.000 -0.032
 -0.005  0.119 -0.000  0.792  0.000
  0.000 -0.000 -0.032  0.000  0.540
atom   16   Tr[ns(na)] =   5.08005
    eigenvalues:
  0.314  0.321  0.519  0.604  0.782
    eigenvectors:
  0.000  0.000  0.001  0.328  0.670
  0.000  0.000  0.999  0.001  0.001
  0.642  0.358  0.000  0.000  0.000
  0.000  0.000  0.000  0.671  0.329
  0.358  0.642  0.000  0.000  0.000
    occupations:
  0.723  0.007  0.001 -0.084 -0.000
  0.007  0.519  0.000 -0.002  0.000
  0.001  0.000  0.317 -0.000  0.004
 -0.084 -0.002 -0.000  0.662  0.000
 -0.000  0.000  0.004  0.000  0.319
atom   17   Tr[ns(na)] =   5.11607
    eigenvalues:
  0.314  0.341  0.557  0.588  0.759
    eigenvectors:
  0.003  0.000  0.000  0.997  0.000
  0.995  0.000  0.000  0.003  0.002
  0.000  1.000  0.000  0.000  0.000
  0.002  0.000  0.000  0.000  0.998
  0.000  0.000  1.000  0.000  0.000
    occupations:
  0.587  0.015  0.000  0.000 -0.000
  0.015  0.315 -0.000 -0.019  0.000
  0.000 -0.000  0.341 -0.000  0.003
  0.000 -0.019 -0.000  0.758  0.000
 -0.000  0.000  0.003  0.000  0.557
atom   22   Tr[ns(na)] =   5.23996
    eigenvalues:
  0.422  0.454  0.473  0.634  0.637
    eigenvectors:
  0.000  0.890  0.000  0.109  0.001
  0.000  0.000  0.000  0.007  0.993
  0.999  0.000  0.001  0.000  0.000
  0.000  0.110  0.000  0.883  0.007
  0.001  0.000  0.999  0.000  0.000
    occupations:
  0.474 -0.000  0.000  0.056 -0.000
 -0.000  0.637 -0.000  0.000  0.000
  0.000 -0.000  0.422  0.000  0.002
  0.056  0.000  0.000  0.614  0.000
 -0.000  0.000  0.002  0.000  0.473
atom   23   Tr[ns(na)] =   5.19135
    eigenvalues:
  0.362  0.389  0.561  0.614  0.670
    eigenvectors:
  0.002  0.000  0.000  0.998  0.001
  0.943  0.000  0.000  0.002  0.055
  0.000  0.987  0.012  0.000  0.000
  0.056  0.000  0.000  0.000  0.944
  0.000  0.012  0.988  0.000  0.000
    occupations:
  0.613 -0.009 -0.000 -0.004  0.000
 -0.009  0.380  0.000 -0.070 -0.000
 -0.000  0.000  0.391  0.000  0.019
 -0.004 -0.070  0.000  0.653 -0.000
  0.000 -0.000  0.019 -0.000  0.559
N of occupied +U levels =  41.0581325
 --- exit write_ns ---

[...]

          k = 0.2500-0.4237 0.0000 ( 32188 PWs)   bands (ev):

[...]

          k =-0.2500 0.2118 0.0000 ( 32165 PWs)   bands (ev):

   -56.6622 -56.5087 -55.9625 -55.9117 -55.8999 -55.8011 -55.7636 -55.7005
   -33.3302 -32.8603 -32.7422 -32.6361 -32.6259 -32.5916 -32.5865 -32.4320
   -32.3825 -32.2739 -32.2447 -32.2162 -32.1943 -32.1489 -32.0864 -31.8242
   -31.8213 -31.7114 -31.6391 -31.6166 -31.5914 -31.5466 -31.5032 -31.4699
   -20.2273 -20.0759 -19.4169 -19.3763 -19.0511 -18.9872 -18.9685 -18.9107
   -18.9028 -18.8639 -18.8153 -18.7737 -18.1125 -18.0732 -18.0090 -17.9714
   -17.8974 -17.8650 -17.8585  -8.9889  -8.4363  -7.3901  -7.3772  -7.3183
    -7.1973  -7.0311  -6.7311  -6.5400  -6.4695  -6.3427  -6.3106  -6.2069
    -6.0475  -5.9918  -5.9180  -5.6857  -5.5450  -5.5108  -5.4867  -5.2109
    -5.0370  -4.8699  -4.7150  -4.5978  -4.4842  -4.4462  -4.3345  -4.2495
    -4.2007  -4.1043  -4.0484  -4.0213  -3.9385  -3.8936  -3.8257  -3.7547
    -3.7232  -3.5601  -3.5117  -3.4568  -3.4151  -3.3546  -3.2128  -3.1719
    -3.1129  -3.0404  -3.0015  -2.9357  -2.7743  -2.6945  -2.6486  -2.4790
    -2.4354  -2.4197  -2.1671  -1.9561  -1.2724  -0.4496  -0.2823   1.3836
     1.5524   1.6186   1.6799   1.7486   1.8877   1.9496   2.1618   2.2192
     2.3752   2.5395   2.5739   2.6188   2.6557   2.8108   2.9183   2.9484
     3.0044   3.1703   3.2028   3.3111   3.4418   3.8933   4.2040   4.3355
     4.5402   4.6283   4.7654   4.8218   4.9347   4.9999   5.0600   5.1523
     5.2230   5.4927   5.5611   5.6168   5.7989   5.8644   5.9677   6.0690
     6.1866   6.3646   6.4335   6.4950   6.6061   6.6638   6.7036   6.8227
     6.9198   7.1143   7.2224   7.2907   7.3390   7.7012   7.8422   7.9322
     7.9691   8.0886   8.1992   8.2653   8.4232   8.4577   8.6584   8.7309
     8.8126   8.9191   9.0059   9.1267   9.1999   9.3064   9.3748   9.5202
     9.5993   9.6951   9.7679   9.8325   9.9968  10.0709  10.1026  10.2511
    10.3253  10.3854  10.5562  10.7380  10.8274  10.8636  10.9973  11.0582
    11.0859  11.1240  11.2239  11.3012  11.3610  11.4770  11.5301  11.5592
    11.6159  11.7228  11.8876  11.9134  12.0324  12.0970  12.2113  12.2915
    12.3827  12.4469  12.5008  12.5607  12.6439  12.6849  12.7726  12.8165
    12.8758  12.9213  12.9706  13.0249  13.0952  13.1810  13.2945  13.3938
    13.4743  13.5195  13.5743  13.6064  13.7111  13.7640  13.8367  13.9212
    13.9872  14.0378  14.0821  14.1071  14.2188  14.2883  14.3731  14.4583
    14.5383  14.6322  14.7004  14.7542  14.8714  14.9118  15.0090  15.0791
    15.1990  15.2723  15.3279  15.3678  15.3924  15.4666  15.5211  15.6396
    15.6564  15.7777  15.8168  15.8738  15.9108  15.9516  16.0378  16.1354
    16.2098  16.2585  16.2964  16.3745  16.4662  16.5851  16.6304  16.6836
    16.7211  16.8092  16.8781  16.9479  17.0320  17.0582  17.1713  17.2010
    17.2806  17.3075  17.3455  17.4150  17.4641  17.5510  17.6110  17.7428
    17.7790  17.8554  17.9252  18.0232  18.0652  18.0964  18.1468  18.2297
    18.3776  18.3967  18.5479  18.5661  18.6164  18.6443  18.7670  18.8382
    18.8715  18.9645  18.9937  19.0798  19.1792  19.1862  19.2385  19.2842
    19.3423  19.3883  19.4431  19.4984  19.6195  19.6583  19.6976  19.7481
    19.7977  19.8394  19.8977  19.9326  20.0141  20.0885

     the Fermi energy is     0.8364 ev

!    total energy              =   -1558.83274961 Ry
     Harris-Foulkes estimate   =   -1558.83274961 Ry
     estimated scf accuracy    <          7.6E-09 Ry

     The total energy is the sum of the following terms:

     one-electron contribution =  -18936.70655431 Ry
     hartree contribution      =    9497.82289771 Ry
     xc contribution           =    -287.73781508 Ry
     ewald contribution        =    8163.12506676 Ry
     Hubbard energy            =       4.66389913 Ry
     smearing contrib. (-TS)   =      -0.00024381 Ry

     convergence has been achieved in  11 iterations

     Forces acting on atoms (Ry/au):

     negative rho (up, down):  0.355E-02 0.000E+00
     atom    1 type  1   force =     0.00026843   -0.00006196    0.00013957
     atom    2 type  1   force =     0.00035625    0.00010158   -0.00021298
     atom    3 type  2   force =     0.03142440   -0.00007641    0.00025307
     atom    4 type  2   force =     0.00057451    0.00000469    0.00025853
     atom    5 type  1   force =    -0.00154901   -0.02231204    0.00035816
     atom    6 type  1   force =    -0.00156586    0.02233486    0.00034795
     atom    7 type  1   force =     0.00067248    0.00000613   -0.00059714
     atom    8 type  1   force =     0.01257834    0.00000280   -0.00016939
     atom    9 type  2   force =     0.00426760    0.00002795   -0.00062110
     atom   10 type  2   force =     0.02145052    0.00000423   -0.00064364
     atom   11 type  1   force =    -0.00536034    0.00382109    0.00001604
     atom   12 type  1   force =    -0.00536711   -0.00387781    0.00001233
     atom   13 type  1   force =    -0.00588299    0.00000125   -0.00074988
     atom   14 type  1   force =    -0.00063837   -0.00006016   -0.00012574
     atom   15 type  1   force =    -0.00056854    0.00011753    0.00016477
     atom   16 type  2   force =    -0.03180764   -0.00007191   -0.00020222
     atom   17 type  2   force =    -0.00232733    0.00000486    0.00017787
     atom   18 type  1   force =     0.00179209   -0.02061221    0.00031190
     atom   19 type  1   force =     0.00178258    0.02063503    0.00029902
     atom   20 type  1   force =    -0.00393485    0.00002098    0.00020016
     atom   21 type  1   force =    -0.01191631    0.00000179   -0.00022866
     atom   22 type  2   force =    -0.00082453   -0.00001343   -0.00014852
     atom   23 type  2   force =    -0.00838232   -0.00002549    0.00073469
     atom   24 type  1   force =     0.00034320    0.02002509   -0.00006052
     atom   25 type  1   force =     0.00034393   -0.01999452   -0.00006391
     atom   26 type  1   force =     0.00380862   -0.00000440   -0.00075504
     atom   27 type  3   force =    -0.00001718   -0.00000301   -0.00030178
     atom   28 type  3   force =     0.00000466   -0.00000887    0.00025533
     atom   29 type  3   force =     0.00005849   -0.00000700    0.00004708
     atom   30 type  3   force =     0.00022785   -0.00000607    0.00009330
     atom   31 type  1   force =    -0.00005698   -0.00001009    0.00053508
     atom   32 type  3   force =     0.00024540    0.00003551    0.00067568

     Total force =     0.002181     Total SCF correction =     0.000141

     bfgs converged in  39 scf cycles and  38 bfgs steps
     (criteria: energy < 0.10E-03, force < 0.10E-02)

     End of BFGS Geometry Optimization

     Final energy   =   -1558.8327496053 Ry
Begin final coordinates

ATOMIC_POSITIONS (crystal)
O0       0.000000000   0.000000000   0.370802674    0   0   1
O0       0.000000000   0.500000000   0.387958294    0   0   1
Nb1      0.250000000   0.500000000   0.443626135    0   0   1
Nb1      0.000000000   0.000000000   0.443779830    0   0   1
O0       0.250000000   0.790000000   0.447600348    0   0   1
O0       0.250000000   0.210000000   0.447594525    0   0   1
O0       0.000000000   0.500000000   0.499605905    0   0   1
O0       0.000000000   0.000000000   0.525118128    0   0   1
Nb1      0.250000000   0.000000000   0.576820630    0   0   1
Nb1      0.000000000   0.500000000   0.569385488    0   0   1
O0       0.250000000   0.710000000   0.583238177    0   0   1
O0       0.250000000   0.290000000   0.583225727    0   0   1
O0       0.000000000   0.000000000   0.622733413    0   0   1
O0       0.500000000   0.000000000   0.371055721    0   0   1
O0       0.500000000   0.500000000   0.388049143    0   0   1
Nb1      0.750000000   0.500000000   0.443763941    0   0   1
Nb1      0.500000000   0.000000000   0.444034997    0   0   1
O0       0.750000000   0.790000000   0.447044671    0   0   1
O0       0.750000000   0.210000000   0.447041072    0   0   1
O0       0.500000000   0.500000000   0.501104922    0   0   1
O0       0.500000000   0.000000000   0.525202359    0   0   1
Nb1      0.750000000   0.000000000   0.579196735    0   0   1
Nb1      0.500000000   0.500000000   0.576790587    0   0   1
O0       0.750000000   0.710000000   0.573170218    0   0   1
O0       0.750000000   0.290000000   0.573175499    0   0   1
O0       0.500000000   0.000000000   0.622540497    0   0   1
H2      -0.000294970   0.501642677   0.351826180
H2       0.499473750   0.501658494   0.351892379
H2       0.152400885   0.000616271   0.356000126
H2       0.651984188   0.000616930   0.356068809
O0       0.542357400   0.499948924   0.648635999
H2       0.437381976   0.500334040   0.676426872
End final coordinates

     General routines

     Parallel routines
     Hubbard U routines

   This run was terminated on:  14:25:34   2May2014

   JOB DONE.
Running PBS batch system epilogue script
Job id: 340600.audhumbla.fysik.dtu.dk
Username: zhonxu
Groupname: campgst
Jobname: NbO2/Eads-2-layers/OH-U-7.0
Sessionid: 17317
Queuename: verylong
Accounting:
This job has allocated the following 16 nodes:
c134 c134 c134 c134 c134 c134 c134 c134 c035 c035 c035 c035 c035 c035 c035 c035
Finished epilogue job 340600.audhumbla.fysik.dtu.dk for zhonxu