     Program PWSCF v.5.0.2 (svn rev. 9656) starts on  9May2014 at  7:52:32

     Current dimensions of program PWSCF are:
     Max number of different atomic species (ntypx) = 10
     Max number of k-points (npk) =  40000
     Max angular momentum in pseudopotentials (lmaxx) =  3
     Reading input from pwscf.in
Warning: card &CELL ignored
Warning: card / ignored

     Subspace diagonalization in iterative solution of the eigenvalue problem:
     a serial algorithm will be used

     bravais-lattice index     =            0
     lattice parameter (alat)  =      10.1289  a.u.
     unit-cell volume          =    6836.7721 (a.u.)^3
     number of atoms/cell      =           30
     number of atomic types    =            3
     number of electrons       =       232.00
     number of Kohn-Sham states=          348
     kinetic-energy cutoff     =      40.0000  Ry
     charge density cutoff     =     500.0000  Ry
     convergence threshold     =      1.0E-06
     mixing beta               =       0.7000
     number of iterations used =            8  plain     mixing
     Exchange-correlation      = SLA  PW   PBE  PBE ( 1 4 3 4 0)
     EXX-fraction              =        0.00
     nstep                     =           50

     celldm(1)=  10.128932  celldm(2)=   0.000000  celldm(3)=   0.000000
     celldm(4)=   0.000000  celldm(5)=   0.000000  celldm(6)=   0.000000

     crystal axes: (cart. coord. in units of alat)
               a(1) = (   1.000000   0.000000   0.000000 )
               a(2) = (   0.000000   1.306037   0.000000 )
               a(3) = (   0.000000   0.000000   5.037380 )

     reciprocal axes: (cart. coord. in units 2 pi/alat)
               b(1) = (  1.000000  0.000000  0.000000 )
               b(2) = (  0.000000  0.765675  0.000000 )
               b(3) = (  0.000000  0.000000  0.198516 )

     PseudoPot. # 1 for O  read from file:
     /home/camp/zhonxu/pseudo/o_pbe_v1.01.uspp.F.UPF
     MD5 check sum: 2bcb18d16ea4b960afae9ec6d52f22d2
     Pseudo is Ultrasoft + core correction, Zval =  6.0
     Generated by new atomic code, or converted to UPF format
     Using radial grid of  737 points,  5 beta functions with:
                l(1) =   0
                l(2) =   0
                l(3) =   1
                l(4) =   1
                l(5) =   2
     Q(r) pseudized with  8 coefficients,  rinner =    0.900   0.900   0.900
                                                       0.900   0.900

     PseudoPot. # 2 for Re read from file:
     /home/camp/zhonxu/pseudo/re_pbe_v1.uspp.F.UPF
     MD5 check sum: 6f5a5dcaf9c96c20d0ffdde0de57afc6
     Pseudo is Ultrasoft + core correction, Zval = 15.0
     Generated by new atomic code, or converted to UPF format
     Using radial grid of  981 points,  8 beta functions with:
                l(1) =   0
                l(2) =   0
                l(3) =   1
                l(4) =   1
                l(5) =   2
                l(6) =   2
                l(7) =   3
                l(8) =   3
     Q(r) pseudized with  8 coefficients,  rinner =    1.000   1.000   1.000
                                                       1.000   1.000   1.000
                                                       1.000

     PseudoPot. # 3 for H  read from file:
     /home/camp/zhonxu/pseudo/h_pbe_v1.uspp.F.UPF
     MD5 check sum: 3408e3ff4ec8b0a4e358431e7e038a48
     Pseudo is Ultrasoft, Zval =  1.0
     Generated by new atomic code, or converted to UPF format
     Using radial grid of  615 points,  2 beta functions with:
                l(1) =   0
                l(2) =   0
     Q(r) pseudized with  8 coefficients,  rinner =    0.700

     atomic species   valence    mass     pseudopotential
        O0             6.00    15.99940     O ( 1.00)
        Re1           15.00   186.20700     Re( 1.00)
        H2             1.00     1.00794     H ( 1.00)

     Simplified LDA+U calculation (l_max = 2) with parameters (eV):
     atomic species    L          U    alpha       J0     beta
        Re1            2     4.5000   0.0000   0.0000   0.0000

     No symmetry found

   Cartesian axes

     site n.     atom                  positions (alat units)
         1           O0  tau(   1) = (   0.0000000   0.0000000   1.8688176  )
         2           O0  tau(   2) = (   0.0000000   0.6530184   1.9243296  )
         3           Re1 tau(   3) = (   0.2500000   0.6530184   2.2228951  )
         4           Re1 tau(   4) = (   0.0000000   0.0000000   2.2352367  )
         5           O0  tau(   5) = (   0.2500000   1.0187087   2.2249100  )
         6           O0  tau(   6) = (   0.2500000   0.2873281   2.2250611  )
         7           O0  tau(   7) = (   0.0000000   0.6530184   2.5071041  )
         8           O0  tau(   8) = (   0.0000000   0.0000000   2.5966183  )
         9           Re1 tau(   9) = (   0.2500000   0.0000000   2.8989619  )
        10           Re1 tau(  10) = (   0.0000000   0.6530184   2.8608793  )
        11           O0  tau(  11) = (   0.2500000   0.9403465   2.8908013  )
        12           O0  tau(  12) = (   0.2500000   0.3656903   2.8907005  )
        13           O0  tau(  13) = (   0.0000000   0.0000000   3.1620138  )
        14           O0  tau(  14) = (   0.5000000   0.0000000   1.8688176  )
        15           O0  tau(  15) = (   0.5000000   0.6530184   1.9243296  )
        16           Re1 tau(  16) = (   0.7500000   0.6530184   2.2228951  )
        17           Re1 tau(  17) = (   0.5000000   0.0000000   2.2352367  )
        18           O0  tau(  18) = (   0.7500000   1.0187087   2.2249604  )
        19           O0  tau(  19) = (   0.7500000   0.2873281   2.2250611  )
        20           O0  tau(  20) = (   0.5000000   0.6530184   2.5071041  )
        21           O0  tau(  21) = (   0.5000000   0.0000000   2.5966183  )
        22           Re1 tau(  22) = (   0.7500000   0.0000000   2.8989619  )
        23           Re1 tau(  23) = (   0.5000000   0.6530184   2.8609296  )
        24           O0  tau(  24) = (   0.7500000   0.9403465   2.8908013  )
        25           O0  tau(  25) = (   0.7500000   0.3656903   2.8907005  )
        26           O0  tau(  26) = (   0.5000000   0.0000000   3.1620138  )
        27           H2  tau(  27) = (  -0.0003800   0.8172395   1.8403061  )
        28           H2  tau(  28) = (   0.4996200   0.8172395   1.8403061  )
        29           H2  tau(  29) = (   0.1698700   0.0284977   1.7974380  )
        30           H2  tau(  30) = (   0.6698800   0.0284977   1.7974380  )

     number of k points=    10  Methfessel-Paxton smearing, width (Ry)=  0.0100
                       cart. coord. in units 2pi/alat
        k(    1) = (   0.0000000   0.0000000   0.0000000), wk =   0.1250000
        k(    2) = (   0.0000000   0.1914188   0.0000000), wk =   0.2500000
        k(    3) = (   0.0000000  -0.3828376   0.0000000), wk =   0.1250000
        k(    4) = (   0.2500000   0.0000000   0.0000000), wk =   0.2500000
        k(    5) = (   0.2500000   0.1914188   0.0000000), wk =   0.2500000
        k(    6) = (   0.2500000  -0.3828376   0.0000000), wk =   0.2500000
        k(    7) = (  -0.5000000   0.0000000   0.0000000), wk =   0.1250000
        k(    8) = (  -0.5000000   0.1914188   0.0000000), wk =   0.2500000
        k(    9) = (  -0.5000000  -0.3828376   0.0000000), wk =   0.1250000
        k(   10) = (  -0.2500000   0.1914188   0.0000000), wk =   0.2500000

     Largest allocated arrays     est. size (Mb)     dimensions
     Largest temporary arrays     est. size (Mb)     dimensions

     Check: negative/imaginary core charge=   -0.000003    0.000000

     Initial potential from superposition of free atoms
     Check: negative starting charge=   -0.237311

     starting charge  227.99958, renormalised to  232.00000

     negative rho (up, down):  0.241E+00 0.000E+00
     Number of +U iterations with fixed ns =  0
     Starting occupations:
 --- enter write_ns ---
 LDA+U parameters:
U( 2)     =  4.50000000
alpha( 2) =  0.00000000
atom    3   Tr[ns(na)] =   5.00000
    eigenvalues:
  0.500  0.500  0.500  0.500  0.500
    eigenvectors:
  1.000  0.000  0.000  0.000  0.000
  0.000  1.000  0.000  0.000  0.000
  0.000  0.000  1.000  0.000  0.000
  0.000  0.000  0.000  1.000  0.000
  0.000  0.000  0.000  0.000  1.000
    occupations:
  0.500  0.000  0.000  0.000  0.000
  0.000  0.500  0.000  0.000  0.000
  0.000  0.000  0.500  0.000  0.000
  0.000  0.000  0.000  0.500  0.000
  0.000  0.000  0.000  0.000  0.500
atom    4   Tr[ns(na)] =   5.00000
    eigenvalues:
  0.500  0.500  0.500  0.500  0.500
    eigenvectors:
  1.000  0.000  0.000  0.000  0.000
  0.000  1.000  0.000  0.000  0.000
  0.000  0.000  1.000  0.000  0.000
  0.000  0.000  0.000  1.000  0.000
  0.000  0.000  0.000  0.000  1.000
    occupations:
  0.500  0.000  0.000  0.000  0.000
  0.000  0.500  0.000  0.000  0.000
  0.000  0.000  0.500  0.000  0.000
  0.000  0.000  0.000  0.500  0.000
  0.000  0.000  0.000  0.000  0.500
atom    9   Tr[ns(na)] =   5.00000
    eigenvalues:
  0.500  0.500  0.500  0.500  0.500
    eigenvectors:
  1.000  0.000  0.000  0.000  0.000
  0.000  1.000  0.000  0.000  0.000
  0.000  0.000  1.000  0.000  0.000
  0.000  0.000  0.000  1.000  0.000
  0.000  0.000  0.000  0.000  1.000
    occupations:
  0.500  0.000  0.000  0.000  0.000
  0.000  0.500  0.000  0.000  0.000
  0.000  0.000  0.500  0.000  0.000
  0.000  0.000  0.000  0.500  0.000
  0.000  0.000  0.000  0.000  0.500
atom   10   Tr[ns(na)] =   5.00000
    eigenvalues:
  0.500  0.500  0.500  0.500  0.500
    eigenvectors:
  1.000  0.000  0.000  0.000  0.000
  0.000  1.000  0.000  0.000  0.000
  0.000  0.000  1.000  0.000  0.000
  0.000  0.000  0.000  1.000  0.000
  0.000  0.000  0.000  0.000  1.000
    occupations:
  0.500  0.000  0.000  0.000  0.000
  0.000  0.500  0.000  0.000  0.000
  0.000  0.000  0.500  0.000  0.000
  0.000  0.000  0.000  0.500  0.000
  0.000  0.000  0.000  0.000  0.500
atom   16   Tr[ns(na)] =   5.00000
    eigenvalues:
  0.500  0.500  0.500  0.500  0.500
    eigenvectors:
  1.000  0.000  0.000  0.000  0.000
  0.000  1.000  0.000  0.000  0.000
  0.000  0.000  1.000  0.000  0.000
  0.000  0.000  0.000  1.000  0.000
  0.000  0.000  0.000  0.000  1.000
    occupations:
  0.500  0.000  0.000  0.000  0.000
  0.000  0.500  0.000  0.000  0.000
  0.000  0.000  0.500  0.000  0.000
  0.000  0.000  0.000  0.500  0.000
  0.000  0.000  0.000  0.000  0.500
atom   17   Tr[ns(na)] =   5.00000
    eigenvalues:
  0.500  0.500  0.500  0.500  0.500
    eigenvectors:
  1.000  0.000  0.000  0.000  0.000
  0.000  1.000  0.000  0.000  0.000
  0.000  0.000  1.000  0.000  0.000
  0.000  0.000  0.000  1.000  0.000
  0.000  0.000  0.000  0.000  1.000
    occupations:
  0.500  0.000  0.000  0.000  0.000
  0.000  0.500  0.000  0.000  0.000
  0.000  0.000  0.500  0.000  0.000
  0.000  0.000  0.000  0.500  0.000
  0.000  0.000  0.000  0.000  0.500
atom   22   Tr[ns(na)] =   5.00000
    eigenvalues:
  0.500  0.500  0.500  0.500  0.500
    eigenvectors:
  1.000  0.000  0.000  0.000  0.000
  0.000  1.000  0.000  0.000  0.000
  0.000  0.000  1.000  0.000  0.000
  0.000  0.000  0.000  1.000  0.000
  0.000  0.000  0.000  0.000  1.000
    occupations:
[...]
  0.001 -0.002 -0.000 -0.000  0.571
atom    9   Tr[ns(na)] =   6.58431
    eigenvalues:
  0.591  0.598  0.604  0.740  0.759
    eigenvectors:
  0.240  0.000  0.000  0.019  0.741
  0.000  0.002  0.998  0.000  0.000
  0.000  0.998  0.002  0.000  0.000
  0.760  0.000  0.000  0.005  0.235
  0.000  0.000  0.000  0.976  0.024
    occupations:
  0.718  0.000 -0.001 -0.072  0.002
  0.000  0.604  0.000  0.000  0.000
 -0.001  0.000  0.598  0.001 -0.000
 -0.072  0.000  0.001  0.631 -0.002
  0.002  0.000 -0.000 -0.002  0.740
atom   10   Tr[ns(na)] =   6.57899
    eigenvalues:
  0.466  0.532  0.691  0.767  0.834
    eigenvectors:
  0.998  0.000  0.000  0.002  0.000
  0.000  0.000  0.000  0.000  1.000
  0.000  0.000  1.000  0.000  0.000
  0.002  0.000  0.000  0.998  0.000
  0.000  1.000  0.000  0.000  0.000
    occupations:
  0.467  0.000 -0.000 -0.014  0.000
  0.000  0.834  0.001 -0.000  0.001
 -0.000  0.001  0.691  0.000  0.000
 -0.014 -0.000  0.000  0.767 -0.000
  0.000  0.001  0.000 -0.000  0.532
atom   16   Tr[ns(na)] =   6.61586
    eigenvalues:
  0.531  0.567  0.601  0.768  0.841
    eigenvectors:
  0.000  0.340  0.002  0.658  0.000
  0.999  0.000  0.000  0.000  0.001
  0.000  0.003  0.988  0.009  0.000
  0.000  0.656  0.010  0.334  0.000
  0.001  0.000  0.000  0.000  0.999
    occupations:
  0.699  0.000  0.014 -0.094  0.000
  0.000  0.531 -0.000 -0.000 -0.009
  0.014 -0.000  0.602 -0.007  0.000
 -0.094 -0.000 -0.007  0.634  0.000
  0.000 -0.009  0.000  0.000  0.841
atom   17   Tr[ns(na)] =   6.58122
    eigenvalues:
  0.571  0.601  0.609  0.722  0.788
    eigenvectors:
  0.000  0.002  0.987  0.001  0.010
  0.000  0.006  0.001  0.993  0.000
  0.000  0.992  0.002  0.006  0.000
  0.000  0.000  0.010  0.000  0.990
  0.999  0.000  0.000  0.000  0.000
    occupations:
  0.611  0.003  0.001 -0.018  0.001
  0.003  0.721  0.009 -0.000 -0.002
  0.001  0.009  0.601  0.001 -0.000
 -0.018 -0.000  0.001  0.786 -0.000
  0.001 -0.002 -0.000 -0.000  0.571
atom   22   Tr[ns(na)] =   6.58431
    eigenvalues:
  0.591  0.598  0.604  0.740  0.759
    eigenvectors:
  0.240  0.000  0.000  0.019  0.741
  0.000  0.002  0.998  0.000  0.000
  0.000  0.998  0.002  0.000  0.000
  0.760  0.000  0.000  0.005  0.235
  0.000  0.000  0.000  0.976  0.024
    occupations:
  0.718  0.000 -0.001 -0.072  0.002
  0.000  0.604  0.000  0.000  0.000
 -0.001  0.000  0.598  0.001 -0.000
 -0.072  0.000  0.001  0.631 -0.002
  0.002  0.000 -0.000 -0.002  0.740
atom   23   Tr[ns(na)] =   6.57886
    eigenvalues:
  0.466  0.532  0.691  0.767  0.834
    eigenvectors:
  0.998  0.000  0.000  0.002  0.000
  0.000  0.000  0.000  0.000  1.000
  0.000  0.000  1.000  0.000  0.000
  0.002  0.000  0.000  0.998  0.000
  0.000  1.000  0.000  0.000  0.000
    occupations:
  0.467  0.000 -0.000 -0.014  0.000
  0.000  0.834  0.001 -0.000  0.001
 -0.000  0.001  0.691  0.000  0.000
 -0.014 -0.000  0.000  0.767 -0.000
  0.000  0.001  0.000 -0.000  0.532
N of occupied +U levels =  52.7206702
 --- exit write_ns ---

     Threshold (ethr) on eigenvalues was too large:
     Diagonalizing with lowered threshold

     Davidson diagonalization with overlap
     ethr =  2.90E-09,  avg # of iterations =  2.2

[...]

     total energy              =   -2140.17646348 Ry
     Harris-Foulkes estimate   =   -2140.17646348 Ry
     estimated scf accuracy    <       0.00000002 Ry

     iteration # 11     ecut=    40.00 Ry     beta=0.70
     Davidson diagonalization with overlap
     ethr =  6.68E-12,  avg # of iterations =  1.0

     negative rho (up, down):  0.236E+00 0.000E+00

     End of self-consistent calculation
 --- enter write_ns ---
 LDA+U parameters:
U( 2)     =  4.50000000
alpha( 2) =  0.00000000
atom    3   Tr[ns(na)] =   6.61630
    eigenvalues:
  0.531  0.567  0.601  0.768  0.841
    eigenvectors:
  0.000  0.340  0.002  0.658  0.000
  0.999  0.000  0.000  0.000  0.001
  0.000  0.003  0.988  0.009  0.000
  0.000  0.656  0.010  0.334  0.000
  0.001  0.000  0.000  0.000  0.999
    occupations:
  0.699  0.000  0.014 -0.094  0.000
  0.000  0.531 -0.000 -0.000 -0.009
  0.014 -0.000  0.603 -0.007  0.001
 -0.094 -0.000 -0.007  0.634  0.000
  0.000 -0.009  0.001  0.000  0.841
atom    4   Tr[ns(na)] =   6.58111
    eigenvalues:
  0.571  0.601  0.609  0.722  0.788
    eigenvectors:
  0.000  0.002  0.987  0.001  0.010
  0.000  0.006  0.001  0.993  0.000
  0.000  0.992  0.002  0.006  0.000
  0.000  0.000  0.010  0.000  0.990
  0.999  0.000  0.000  0.000  0.000
    occupations:
  0.611  0.003  0.001 -0.018  0.001
  0.003  0.721  0.009 -0.000 -0.002
  0.001  0.009  0.601  0.001 -0.000
 -0.018 -0.000  0.001  0.786 -0.000
  0.001 -0.002 -0.000 -0.000  0.571
atom    9   Tr[ns(na)] =   6.58463
    eigenvalues:
  0.591  0.598  0.604  0.740  0.759
    eigenvectors:
  0.240  0.000  0.000  0.019  0.741
  0.000  0.002  0.998  0.000  0.000
  0.000  0.998  0.002  0.000  0.000
  0.760  0.000  0.000  0.005  0.235
  0.000  0.000  0.000  0.976  0.024
    occupations:
  0.718  0.000 -0.001 -0.072  0.002
  0.000  0.604  0.000  0.000  0.000
 -0.001  0.000  0.598  0.001 -0.000
 -0.072  0.000  0.001  0.631 -0.002
  0.002  0.000 -0.000 -0.002  0.740
atom   10   Tr[ns(na)] =   6.57823
    eigenvalues:
  0.466  0.532  0.690  0.767  0.834
    eigenvectors:
  0.998  0.000  0.000  0.002  0.000
  0.000  0.000  0.000  0.000  1.000
  0.000  0.000  1.000  0.000  0.000
  0.002  0.000  0.000  0.998  0.000
  0.000  1.000  0.000  0.000  0.000
    occupations:
  0.467  0.000 -0.000 -0.014  0.000
  0.000  0.834  0.001 -0.000  0.001
 -0.000  0.001  0.690  0.000  0.000
 -0.014 -0.000  0.000  0.767 -0.000
  0.000  0.001  0.000 -0.000  0.532
atom   16   Tr[ns(na)] =   6.61633
    eigenvalues:
  0.531  0.567  0.601  0.768  0.841
    eigenvectors:
  0.000  0.340  0.002  0.658  0.000
  0.999  0.000  0.000  0.000  0.001
  0.000  0.003  0.988  0.009  0.000
  0.000  0.656  0.010  0.334  0.000
  0.001  0.000  0.000  0.000  0.999
    occupations:
  0.699  0.000  0.014 -0.094  0.000
  0.000  0.531 -0.000 -0.000 -0.009
  0.014 -0.000  0.603 -0.007  0.000
 -0.094 -0.000 -0.007  0.634  0.000
  0.000 -0.009  0.000  0.000  0.841
atom   17   Tr[ns(na)] =   6.58114
    eigenvalues:
  0.571  0.601  0.609  0.722  0.788
    eigenvectors:
  0.000  0.002  0.987  0.001  0.010
  0.000  0.006  0.001  0.993  0.000
  0.000  0.992  0.002  0.006  0.000
  0.000  0.000  0.010  0.000  0.990
  0.999  0.000  0.000  0.000  0.000
    occupations:
  0.611  0.003  0.001 -0.018  0.001
  0.003  0.721  0.009 -0.000 -0.002
  0.001  0.009  0.601  0.001 -0.000
 -0.018 -0.000  0.001  0.786 -0.000
  0.001 -0.002 -0.000 -0.000  0.571
atom   22   Tr[ns(na)] =   6.58461
    eigenvalues:
  0.591  0.598  0.604  0.740  0.759
    eigenvectors:
  0.240  0.000  0.000  0.019  0.741
  0.000  0.002  0.998  0.000  0.000
  0.000  0.998  0.002  0.000  0.000
  0.760  0.000  0.000  0.005  0.235
  0.000  0.000  0.000  0.976  0.024
    occupations:
  0.718  0.000 -0.001 -0.072  0.002
  0.000  0.604  0.000  0.000  0.000
 -0.001  0.000  0.598  0.001 -0.000
 -0.072  0.000  0.001  0.631 -0.002
  0.002  0.000 -0.000 -0.002  0.740
atom   23   Tr[ns(na)] =   6.57830
    eigenvalues:
  0.466  0.532  0.690  0.767  0.834
    eigenvectors:
  0.998  0.000  0.000  0.002  0.000
  0.000  0.000  0.000  0.000  1.000
  0.000  0.000  1.000  0.000  0.000
  0.002  0.000  0.000  0.998  0.000
  0.000  1.000  0.000  0.000  0.000
    occupations:
  0.467  0.000 -0.000 -0.014  0.000
  0.000  0.834  0.001 -0.000  0.001
 -0.000  0.001  0.690  0.000  0.000
 -0.014 -0.000  0.000  0.767 -0.000
  0.000  0.001  0.000 -0.000  0.532
N of occupied +U levels =  52.7206475
 --- exit write_ns ---

[...]

          k = 0.2500-0.3828 0.0000 ( 29202 PWs)   bands (ev):

[...]

          k =-0.2500 0.1914 0.0000 ( 29229 PWs)   bands (ev):

   -81.0459 -81.0069 -80.7857 -80.7456 -80.4437 -80.4050 -80.3286 -80.2891
   -43.1284 -43.0175 -42.9816 -42.9562 -42.9176 -42.8779 -42.8000 -42.7367
   -42.6772 -42.6082 -42.5697 -42.5078 -42.5069 -42.4850 -42.4557 -42.3440
   -42.3414 -42.3382 -42.2830 -42.2808 -42.2783 -42.2380 -41.8606 -41.8294
   -20.8201 -20.3868 -20.3406 -20.1989 -20.0466 -19.9284 -19.8500 -19.7750
   -19.7370 -19.6620 -19.4925 -19.3646 -19.3157 -19.1136 -19.0594 -18.9903
   -18.3282 -18.1395  -9.0547  -8.9091  -8.8310  -8.7131  -8.6694  -8.4216
    -8.3471  -8.2697  -8.0933  -7.9215  -7.8856  -7.8687  -7.6954  -7.4335
    -7.3513  -7.1123  -6.8290  -6.7198  -6.6238  -6.5825  -6.4722  -6.2261
    -6.1031  -6.0941  -5.8378  -5.8078  -5.5771  -5.5702  -5.5365  -5.3209
    -5.1797  -5.0450  -4.9194  -4.8965  -4.8393  -4.7649  -4.7060  -4.6418
    -4.5852  -4.5449  -4.2370  -4.0587  -4.0058  -3.8913  -3.7863  -3.6810
    -3.6670  -3.4353  -3.3616  -3.2439  -3.1762  -2.9170  -2.8562  -2.7132
    -2.4087  -2.2921  -2.1139  -1.5908  -1.2901  -1.1220  -1.0212  -0.3775
    -0.2346   0.0948   0.2235   0.2820   0.5363   0.7226   0.7497   1.0939
     1.2022   1.2788   1.3840   1.4479   1.5886   1.7366   1.8078   1.8230
     2.4169   2.4271   3.6972   3.7664   3.9604   3.9654   4.1770   4.3500
     4.5914   4.6052   4.8316   4.9014   4.9332   4.9768   5.2259   5.4131
     5.7907   5.9162   5.9940   6.2327   6.2932   6.5178   6.6834   6.7035
     6.8462   6.9860   7.2482   7.3795   7.4187   7.6659   7.7705   7.9901
     8.1490   8.3051   8.3423   8.4719   8.6036   8.6347   8.7742   8.8806
     9.0963   9.3379   9.3901   9.4149   9.6052   9.6801   9.7629   9.7651
     9.8376   9.9266   9.9573  10.1504  10.1758  10.3000  10.3278  10.4467
    10.4559  10.6512  10.7568  10.7974  10.9364  11.0485  11.0509  11.2469
    11.3944  11.4368  11.4676  11.7031  11.7940  11.9077  11.9568  12.0995
    12.3031  12.4408  12.4934  12.4952  12.6401  12.6782  12.7006  12.8401
    12.8456  12.9626  13.0327  13.1971  13.2316  13.3266  13.4966  13.5500
    13.6213  13.6756  13.7958  13.8001  13.9063  13.9143  13.9666  14.0535
    14.1387  14.2517  14.2807  14.3332  14.4122  14.5294  14.5551  14.5990
    14.7604  14.7735  14.8131  14.8589  14.8840  14.9384  15.0236  15.0428
    15.1006  15.2310  15.3084  15.3881  15.5035  15.5756  15.6556  15.7200
    15.8912  15.9495  16.0996  16.1171  16.1904  16.2276  16.2767  16.4216
    16.5165  16.5782  16.6377  16.6900  16.7787  16.8543  16.9026  17.0071
    17.1197  17.1225  17.1974  17.3327  17.3458  17.4972  17.5382  17.6549
    17.7067  17.7236  17.7752  17.8940  17.9739  18.0389  18.1255  18.1941
    18.2268  18.3216  18.3336  18.4009  18.5210  18.5539  18.6659  18.6671
    18.7798  18.8902  18.8914  18.9744  19.0712  19.0846  19.1773  19.3153
    19.4518  19.5209  19.5713  19.6625  19.7797  19.9418  19.9733  19.9966
    20.0740  20.1504  20.2392  20.2440  20.4599  20.4851  20.5384  20.5965
    20.6434  20.7612  20.7840  20.8116  20.8698  20.8900  20.9659  21.0427
    21.1387  21.1729  21.2722  21.3069  21.4200  21.4508  21.5109  21.5314
    21.6552  21.6630  21.7589  21.8284  21.9184  21.9466  22.1011  22.1397
    22.1851  22.2420  22.2730  22.3414  22.3534  22.4183  22.4675  22.5437
    22.5478  22.6094  22.6264  22.7173

     the Fermi energy is     0.3370 ev

!    total energy              =   -2140.17646347 Ry
     Harris-Foulkes estimate   =   -2140.17646348 Ry
     estimated scf accuracy    <          9.3E-09 Ry

     The total energy is the sum of the following terms:

     one-electron contribution =  -23546.59025195 Ry
     hartree contribution      =   11789.59714316 Ry
     xc contribution           =    -587.27521177 Ry
     ewald contribution        =   10201.27257025 Ry
     Hubbard energy            =       2.81949719 Ry
     smearing contrib. (-TS)   =      -0.00021035 Ry

     convergence has been achieved in  11 iterations

     Forces acting on atoms (Ry/au):

     negative rho (up, down):  0.236E+00 0.000E+00
     atom    1 type  1   force =    -0.00448205   -0.00638671   -0.00003118
     atom    2 type  1   force =     0.00004619    0.00508711   -0.00070791
     atom    3 type  2   force =    -0.00015130   -0.00351971   -0.00014607
     atom    4 type  2   force =     0.00151782    0.00721206   -0.00009278
     atom    5 type  1   force =     0.00166589    0.00831944    0.00007797
     atom    6 type  1   force =     0.00026322   -0.00919475    0.00022564
     atom    7 type  1   force =    -0.00009358   -0.00062750    0.00007429
     atom    8 type  1   force =     0.00277973   -0.00107637   -0.00037833
     atom    9 type  2   force =    -0.00165201    0.00054786    0.00030967
     atom   10 type  2   force =     0.00006538   -0.00150145   -0.00000722
     atom   11 type  1   force =     0.00030351    0.00106506    0.00009956
     atom   12 type  1   force =    -0.00038530   -0.00040671    0.00010866
     atom   13 type  1   force =    -0.00041179    0.00014127    0.00035952
     atom   14 type  1   force =    -0.00447430   -0.00637991   -0.00003314
     atom   15 type  1   force =     0.00003803    0.00507825   -0.00070982
     atom   16 type  2   force =    -0.00015126   -0.00351970   -0.00014765
     atom   17 type  2   force =     0.00152113    0.00721213   -0.00009160
     atom   18 type  1   force =     0.00167319    0.00832468    0.00009224
     atom   19 type  1   force =     0.00026836   -0.00919909    0.00022697
     atom   20 type  1   force =    -0.00009856   -0.00062594    0.00009291
     atom   21 type  1   force =     0.00278648   -0.00107650   -0.00037717
     atom   22 type  2   force =    -0.00167850    0.00054907    0.00031181
     atom   23 type  2   force =     0.00006622   -0.00150146    0.00000269
     atom   24 type  1   force =     0.00031546    0.00106649    0.00009533
     atom   25 type  1   force =    -0.00037534   -0.00040949    0.00010602
     atom   26 type  1   force =    -0.00040885    0.00014345    0.00035693
     atom   27 type  3   force =    -0.00000328    0.00015490   -0.00053010
     atom   28 type  3   force =    -0.00000278    0.00015410   -0.00052962
     atom   29 type  3   force =     0.00053049    0.00018568    0.00062037
     atom   30 type  3   force =     0.00052781    0.00018372    0.00062199

     Total force =     0.001996     Total SCF correction =     0.000287
     SCF correction compared to forces is large: reduce conv_thr to get better values

     bfgs converged in   8 scf cycles and   7 bfgs steps
     (criteria: energy < 0.10E-03, force < 0.10E-02)

     End of BFGS Geometry Optimization

     Final energy   =   -2140.1764634710 Ry
Begin final coordinates

ATOMIC_POSITIONS (crystal)
O0       0.000000000   0.000000000   0.371809076    0   0   1
O0       0.000000000   0.500000000   0.382333512    0   0   1
Re1      0.250000000   0.500000000   0.441464006    0   0   1
Re1      0.000000000   0.000000000   0.444032103    0   0   1
O0       0.250000000   0.780000000   0.442117908    0   0   1
O0       0.250000000   0.220000000   0.441983594    0   0   1
O0       0.000000000   0.500000000   0.497503400    0   0   1
O0       0.000000000   0.000000000   0.515067390    0   0   1
Re1      0.250000000   0.000000000   0.575299408    0   0   1
Re1      0.000000000   0.500000000   0.567525424    0   0   1
O0       0.250000000   0.720000000   0.573305346    0   0   1
O0       0.250000000   0.280000000   0.573356555    0   0   1
O0       0.000000000   0.000000000   0.627376635    0   0   1
O0       0.500000000   0.000000000   0.371809064    0   0   1
O0       0.500000000   0.500000000   0.382333324    0   0   1
Re1      0.750000000   0.500000000   0.441463844    0   0   1
Re1      0.500000000   0.000000000   0.444032004    0   0   1
O0       0.750000000   0.780000000   0.442115876    0   0   1
O0       0.750000000   0.220000000   0.441983402    0   0   1
O0       0.500000000   0.500000000   0.497502118    0   0   1
O0       0.500000000   0.000000000   0.515067151    0   0   1
Re1      0.750000000   0.000000000   0.575300278    0   0   1
Re1      0.500000000   0.500000000   0.567524761    0   0   1
O0       0.750000000   0.720000000   0.573306543    0   0   1
O0       0.750000000   0.280000000   0.573357564    0   0   1
O0       0.500000000   0.000000000   0.627376950    0   0   1
H2      -0.000385865   0.624289425   0.365132188
H2       0.499613841   0.624290033   0.365132266
H2       0.169113497   0.021903224   0.357274087
H2       0.669114394   0.021903359   0.357274223
End final coordinates

     General routines

     Parallel routines
     Hubbard U routines

   This run was terminated on:  17:23:25   9May2014

   JOB DONE.
Running PBS batch system epilogue script
Job id: 340868.audhumbla.fysik.dtu.dk
Username: zhonxu
Groupname: campgst
Jobname: ReO2/Eads-2-layers/bare-U-4.5
Sessionid: 14540
Queuename: verylong
Accounting:
This job has allocated the following 16 nodes:
b115 b115 b115 b115 b115 b115 b115 b115 b102 b102 b102 b102 b102 b102 b102 b102
Finished epilogue job 340868.audhumbla.fysik.dtu.dk for zhonxu