     Program PWSCF v.5.0.2 (svn rev. 9656) starts on 10May2014 at 18:24:44

     Current dimensions of program PWSCF are:
     Max number of different atomic species (ntypx) = 10
     Max number of k-points (npk) =  40000
     Max angular momentum in pseudopotentials (lmaxx) =  3
     Reading input from pwscf.in
Warning: card &CELL ignored
Warning: card / ignored

     Subspace diagonalization in iterative solution of the eigenvalue problem:
     a serial algorithm will be used

     bravais-lattice index     =            0
     lattice parameter (alat)  =      10.9604  a.u.
     unit-cell volume          =    8672.0454 (a.u.)^3
     number of atoms/cell      =           49
     number of atomic types    =            2
     number of electrons       =       422.00 (up: 226.00, down: 196.00)
     number of Kohn-Sham states=          609
     kinetic-energy cutoff     =      40.0000  Ry
     charge density cutoff     =     500.0000  Ry
     convergence threshold     =      1.0E-06
     mixing beta               =       0.3000
     number of iterations used =            8  plain     mixing
     Exchange-correlation      = SLA  PW   PBE  PBE ( 1 4 3 4 0)
     EXX-fraction              =        0.00
     nstep                     =           50

     celldm(1)=  10.960412  celldm(2)=   0.000000  celldm(3)=   0.000000
     celldm(4)=   0.000000  celldm(5)=   0.000000  celldm(6)=   0.000000

     crystal axes: (cart. coord. in units of alat)
               a(1) = (   1.000000   0.000000   0.000000 )
               a(2) = (   0.000000   1.067975   0.000000 )
               a(3) = (   0.000000   0.000000   6.167084 )

     reciprocal axes: (cart. coord. in units 2 pi/alat)
               b(1) = (  1.000000  0.000000  0.000000 )
               b(2) = (  0.000000  0.936351  0.000000 )
               b(3) = (  0.000000  0.000000  0.162151 )

     PseudoPot. # 1 for O  read from file:
     /home/camp/zhonxu/pseudo/o_pbe_v1.01.uspp.F.UPF
     MD5 check sum: 2bcb18d16ea4b960afae9ec6d52f22d2
     Pseudo is Ultrasoft + core correction, Zval =  6.0
     Generated by new atomic code, or converted to UPF format
     Using radial grid of  737 points,  5 beta functions with:
                l(1) =   0
                l(2) =   0
                l(3) =   1
                l(4) =   1
                l(5) =   2
     Q(r) pseudized with  8 coefficients,  rinner =    0.900   0.900   0.900
                                                       0.900   0.900

     PseudoPot. # 2 for Cr read from file:
     /home/camp/zhonxu/pseudo/cr_pbe_v1.uspp.F.UPF
     MD5 check sum: 68b6f918d1762dccfb11451fe85b0e0e
     Pseudo is Ultrasoft + core correction, Zval = 14.0
     Generated by new atomic code, or converted to UPF format
     Using radial grid of  857 points,  6 beta functions with:
                l(1) =   0
                l(2) =   0
                l(3) =   1
                l(4) =   1
                l(5) =   2
                l(6) =   2
     Q(r) pseudized with  6 coefficients,  rinner =    1.000   1.000   1.000
                                                       1.000   1.000

     atomic species   valence    mass     pseudopotential
        O0             6.00    15.99940     O ( 1.00)
        Cr1           14.00    51.99600     Cr( 1.00)

     Starting magnetic structure
     atomic species   magnetization
        O0           0.000
        Cr1          0.600

      4 Sym. Ops. (no inversion) found

   Cartesian axes

     site n.     atom                  positions (alat units)
         1           O0  tau(   1) = (   0.0000000   0.5339875   2.0689949  )
         2           Cr1 tau(   2) = (   0.2500000   0.5339875   2.2825610  )
         3           Cr1 tau(   3) = (   0.0000000   0.0000000   2.2825610  )
         4           O0  tau(   4) = (   0.2500000   0.8543801   2.2825610  )
         5           O0  tau(   5) = (   0.2500000   0.2135950   2.2825610  )
         6           O0  tau(   6) = (   0.0000000   0.5339875   2.4961271  )
         7           O0  tau(   7) = (   0.0000000   0.0000000   2.6029410  )
         8           Cr1 tau(   8) = (   0.2500000   0.0000000   2.8165688  )
         9           Cr1 tau(   9) = (   0.0000000   0.5339875   2.8165688  )
        10           O0  tau(  10) = (   0.2500000   0.7475825   2.8165688  )
        11           O0  tau(  11) = (   0.2500000   0.3203925   2.8165688  )
        12           O0  tau(  12) = (   0.0000000   0.0000000   3.0301349  )
        13           O0  tau(  13) = (   0.0000000   0.5339875   3.1455210  )
        14           Cr1 tau(  14) = (   0.2589800   0.5339875   3.3570520  )
        15           Cr1 tau(  15) = (   0.0000000   0.0000000   3.3665493  )
        16           O0  tau(  16) = (   0.2498800   0.8581180   3.3631574  )
        17           O0  tau(  17) = (   0.2498800   0.2098571   3.3631574  )
        18           O0  tau(  18) = (   0.0000000   0.5339875   3.5722215  )
        19           O0  tau(  19) = (   0.0000000   0.0000000   3.6990168  )
        20           Cr1 tau(  20) = (   0.2457400   0.0000000   3.9332426  )
        21           Cr1 tau(  21) = (   0.0000000   0.5339875   3.8697217  )
        22           O0  tau(  22) = (   0.2479400   0.7357280   3.9308991  )
        23           O0  tau(  23) = (   0.2479400   0.3322470   3.9308991  )
        24           O0  tau(  24) = (   0.0000000   0.0000000   4.1217087  )
        25           O0  tau(  25) = (   0.5000000   0.5339875   2.0689949  )
        26           Cr1 tau(  26) = (   0.7500000   0.5339875   2.2825610  )
        27           Cr1 tau(  27) = (   0.5000000   0.0000000   2.2825610  )
        28           O0  tau(  28) = (   0.7500000   0.8543801   2.2825610  )
        29           O0  tau(  29) = (   0.7500000   0.2135950   2.2825610  )
        30           O0  tau(  30) = (   0.5000000   0.5339875   2.4961271  )
        31           O0  tau(  31) = (   0.5000000   0.0000000   2.6029410  )
        32           Cr1 tau(  32) = (   0.7500000   0.0000000   2.8165688  )
        33           Cr1 tau(  33) = (   0.5000000   0.5339875   2.8165688  )
        34           O0  tau(  34) = (   0.7500000   0.7475825   2.8165688  )
        35           O0  tau(  35) = (   0.7500000   0.3203925   2.8165688  )
        36           O0  tau(  36) = (   0.5000000   0.0000000   3.0301349  )
        37           O0  tau(  37) = (   0.5000000   0.5339875   3.1432392  )
        38           Cr1 tau(  38) = (   0.7410200   0.5339875   3.3570520  )
        39           Cr1 tau(  39) = (   0.5000000   0.0000000   3.3785751  )
        40           O0  tau(  40) = (   0.7501200   0.8581180   3.3631574  )
        41           O0  tau(  41) = (   0.7501200   0.2098571   3.3631574  )
        42           O0  tau(  42) = (   0.5000000   0.5339875   3.5636493  )
        43           O0  tau(  43) = (   0.5000000   0.0000000   3.6946998  )
        44           Cr1 tau(  44) = (   0.7542600   0.0000000   3.9332426  )
        45           Cr1 tau(  45) = (   0.5000000   0.5339875   4.0027457  )
        46           O0  tau(  46) = (   0.7520600   0.7357280   3.9308991  )
        47           O0  tau(  47) = (   0.7520600   0.3322470   3.9308991  )
        48           O0  tau(  48) = (   0.5000000   0.0000000   4.1085728  )
        49           O0  tau(  49) = (   0.5000000   0.5339875   4.2725556  )

     number of k points=    18  Methfessel-Paxton smearing, width (Ry)=  0.0100
                       cart. coord. in units 2pi/alat
        k(    1) = (   0.0000000   0.0000000   0.0000000), wk =   0.0625000
        k(    2) = (   0.0000000   0.2340879   0.0000000), wk =   0.1250000
        k(    3) = (   0.0000000  -0.4681757   0.0000000), wk =   0.0625000
        k(    4) = (   0.2500000   0.0000000   0.0000000), wk =   0.1250000
        k(    5) = (   0.2500000   0.2340879   0.0000000), wk =   0.2500000
        k(    6) = (   0.2500000  -0.4681757   0.0000000), wk =   0.1250000
        k(    7) = (  -0.5000000   0.0000000   0.0000000), wk =   0.0625000
        k(    8) = (  -0.5000000   0.2340879   0.0000000), wk =   0.1250000
        k(    9) = (  -0.5000000  -0.4681757   0.0000000), wk =   0.0625000
        k(   10) = (   0.0000000   0.0000000   0.0000000), wk =   0.0625000
        k(   11) = (   0.0000000   0.2340879   0.0000000), wk =   0.1250000
        k(   12) = (   0.0000000  -0.4681757   0.0000000), wk =   0.0625000
        k(   13) = (   0.2500000   0.0000000   0.0000000), wk =   0.1250000
        k(   14) = (   0.2500000   0.2340879   0.0000000), wk =   0.2500000
        k(   15) = (   0.2500000  -0.4681757   0.0000000), wk =   0.1250000
        k(   16) = (  -0.5000000   0.0000000   0.0000000), wk =   0.0625000
        k(   17) = (  -0.5000000   0.2340879   0.0000000), wk =   0.1250000
        k(   18) = (  -0.5000000  -0.4681757   0.0000000), wk =   0.0625000

     Largest allocated arrays     est. size (Mb)     dimensions
     Largest temporary arrays     est. size (Mb)     dimensions

     Check: negative/imaginary core charge=   -0.000015    0.000000

     Initial potential from superposition of free atoms
     Check: negative starting charge=(component1):   -0.002268
     Check: negative starting charge=(component2):   -0.000542

     starting charge  405.99976, renormalised to  422.00000

     negative rho (up, down):  0.236E-02 0.563E-03
     Starting wfc are  292 randomized atomic wfcs

     Self-consistent Calculation

     iteration #  1     ecut=    40.00 Ry     beta=0.30
     Davidson diagonalization with overlap
     ethr =  1.00E-02,  avg # of iterations =  5.3

     negative rho (up, down):  0.265E-02 0.906E-03

     total energy              =   -3838.56552982 Ry
     Harris-Foulkes estimate   =   -3874.57320387 Ry
     estimated scf accuracy    <      95.67647807 Ry

     total magnetization       =    30.00 Bohr mag/cell
     absolute magnetization    =    46.83 Bohr mag/cell

[...]

     End of self-consistent calculation

 ------ SPIN UP ------------

          k = 0.0000 0.0000 0.0000 ( 36905 PWs)   bands (ev):

   -74.1058 -73.9376 -73.8773 -73.8614 -73.7588 -73.7442 -73.6980 -73.6729
   -73.6564 -73.6508 -73.6466 -73.6425 -73.6363 -73.6230 -73.6124 -73.5952
   -45.6610 -45.4234 -45.3931 -45.3141 -45.3117 -45.2043 -45.1916 -45.1733
   -45.1399 -45.1362 -45.1347 -45.1251 -45.1238 -45.1079 -45.1049 -45.0796
   -45.0678 -45.0662 -45.0631 -45.0592 -45.0580 -45.0516 -45.0417 -45.0411
   -45.0301 -45.0252 -45.0193 -45.0027 -44.9909 -44.9803 -44.9675 -44.9626
   -44.9609 -44.9496 -44.9410 -44.9279 -44.9097 -44.9024 -44.9023 -44.8841
   -44.8771 -44.8750 -44.8592 -44.8463 -44.8327 -44.8317 -44.7994 -44.7893
   -19.9808 -19.7816 -19.5166 -19.2775 -19.0580 -18.8382 -18.6674 -18.5778
   -18.5503 -18.5410 -18.4978 -18.4441 -18.3726 -18.3480 -18.3056 -18.2814
   -18.2577 -18.2094 -18.1810 -18.1532 -18.1070 -18.0988 -18.0913 -18.0353
   -18.0125 -17.9925 -17.9127 -17.9115 -17.7963 -17.6945 -17.5538 -16.9057
   -16.8181  -7.7960  -7.6980  -7.6325  -7.5999  -7.2813  -7.1289  -6.9212
    -6.7968  -6.6855  -6.6356  -6.6007  -6.5946  -6.5837  -6.4734  -6.4581
    -6.4561  -6.4534  -6.3647  -6.3583  -6.2768  -6.2752  -6.2085  -6.1939
[...]
Cr1      0.000000000   0.000000000   0.370120000    0   0   0
O0       0.250000000   0.800000000   0.370120000    0   0   0
O0       0.250000000   0.200000000   0.370120000    0   0   0
O0       0.000000000   0.500000000   0.404750000    0   0   0
O0       0.000000000   0.000000000   0.422070000    0   0   0
Cr1      0.250000000   0.000000000   0.456710000    0   0   0
Cr1      0.000000000   0.500000000   0.456710000    0   0   0
O0       0.250000000   0.700000000   0.456710000    0   0   0
O0       0.250000000   0.300000000   0.456710000    0   0   0
O0       0.000000000   0.000000000   0.491340000    0   0   0
O0       0.000000000   0.500000000   0.510042205
Cr1      0.258955490   0.500000000   0.544340217
Cr1      0.000000000   0.000000000   0.545870053
O0       0.249846625   0.803487346   0.545339724
O0       0.249846625   0.196512654   0.545339724
O0       0.000000000   0.500000000   0.579276325
O0       0.000000000   0.000000000   0.599820825
Cr1      0.245706145   0.000000000   0.637790280
Cr1      0.000000000   0.500000000   0.627513275
O0       0.247999990   0.688810291   0.637417085
O0       0.247999990   0.311189709   0.637417085
O0       0.000000000   0.000000000   0.668387923
O0       0.500000000   0.500000000   0.335490000    0   0   0
Cr1      0.750000000   0.500000000   0.370120000    0   0   0
Cr1      0.500000000   0.000000000   0.370120000    0   0   0
O0       0.750000000   0.800000000   0.370120000    0   0   0
O0       0.750000000   0.200000000   0.370120000    0   0   0
O0       0.500000000   0.500000000   0.404750000    0   0   0
O0       0.500000000   0.000000000   0.422070000    0   0   0
Cr1      0.750000000   0.000000000   0.456710000    0   0   0
Cr1      0.500000000   0.500000000   0.456710000    0   0   0
O0       0.750000000   0.700000000   0.456710000    0   0   0
O0       0.750000000   0.300000000   0.456710000    0   0   0
O0       0.500000000   0.000000000   0.491340000    0   0   0
O0       0.500000000   0.500000000   0.509669864
Cr1      0.741044510   0.500000000   0.544340217
Cr1      0.500000000   0.000000000   0.547855186
O0       0.750153375   0.803487346   0.545339724
O0       0.750153375   0.196512654   0.545339724
O0       0.500000000   0.500000000   0.577837270
O0       0.500000000   0.000000000   0.599105633
Cr1      0.754293855  -0.000000000   0.637790280
Cr1      0.500000000   0.500000000   0.649012064
O0       0.752000010   0.688810291   0.637417085
O0       0.752000010   0.311189709   0.637417085
O0       0.500000000   0.000000000   0.666235569
O0       0.500000000   0.500000000   0.692753532

     Check: negative starting charge=(component1):   -0.002791
     NEW-OLD atomic charge density approx. for the potential

     Check: negative/imaginary core charge=   -0.000015    0.000000
     Check: negative starting charge=(component1):   -0.002791

[...]

     Self-consistent Calculation

[...]

     total energy              =   -3881.17746837 Ry
     Harris-Foulkes estimate   =   -3881.17746838 Ry
     estimated scf accuracy    <       0.00000002 Ry

[...]

     iteration # 17     ecut=    40.00 Ry     beta=0.30
     Davidson diagonalization with overlap
     ethr =  5.88E-12,  avg # of iterations =  1.0

     negative rho (up, down):  0.619E-02 0.241E-02

     End of self-consistent calculation

 ------ SPIN UP ------------

[...]

 ------ SPIN DOWN ----------

[...]

          k = 0.2500-0.4682 0.0000 ( 37058 PWs)   bands (ev):

[...]

          k =-0.5000-0.4682 0.0000 ( 37080 PWs)   bands (ev):

   -72.7866 -71.8098 -71.8065 -71.7494 -71.6372 -71.6372 -71.4993 -71.4992
   -71.4291 -71.4002 -71.3923 -71.3009 -71.2876 -71.2764 -70.9413 -70.9295
   -44.8997 -43.8490 -43.7202 -43.5059 -43.3104 -43.2786 -43.2128 -43.2128
   -43.1489 -43.1487 -43.1255 -43.1255 -43.0740 -43.0472 -43.0418 -43.0335
   -43.0280 -43.0174 -42.9411 -42.9407 -42.9009 -42.9005 -42.8678 -42.8410
   -42.8258 -42.8256 -42.7845 -42.7832 -42.6801 -42.6713 -42.6711 -42.6636
   -42.6558 -42.6271 -42.6203 -42.5525 -42.5517 -42.5486 -42.5311 -42.5283
   -42.5268 -42.5137 -42.5040 -42.4754 -42.2439 -42.2335 -42.2141 -42.2038
   -19.3738 -19.1460 -19.1229 -19.0988 -19.0006 -18.9344 -18.9239 -18.8807
   -18.8355 -18.8091 -18.7101 -18.6851 -18.5912 -18.5511 -18.5507 -18.5042
   -18.3624 -18.2777 -18.2724 -18.2699 -18.2582 -18.2229 -18.2149 -18.1820
   -18.0966 -18.0635 -17.9458 -17.9307 -17.9275 -17.8945 -17.7638 -17.0920
   -17.0813  -6.6369  -6.4166  -6.4043  -6.3632  -6.2788  -6.2016  -6.0996
    -6.0911  -6.0613  -6.0576  -6.0512  -6.0061  -5.9681  -5.9463  -5.9053
    -5.9018  -5.8970  -5.8408  -5.8377  -5.8235  -5.7394  -5.7138  -5.6663
    -5.6513  -5.6241  -5.6140  -5.5596  -5.5217  -5.4671  -5.4195  -5.2876
    -5.2390  -5.2389  -5.2363  -5.1873  -5.1677  -5.1641  -5.1620  -5.1224
    -5.1030  -5.0781  -4.8691  -4.8344  -4.7311  -4.6282  -4.5961  -4.5614
    -4.4729  -4.4170  -4.4166  -4.3822  -4.3621  -4.3468  -4.2836  -4.2355
    -4.2297  -4.1139  -4.0640  -4.0585  -4.0107  -4.0085  -3.9828  -3.9209
    -3.7343  -3.7320  -3.6954  -3.6774  -3.6297  -3.6174  -3.6158  -3.6117
    -3.3557  -3.2836  -3.2164  -3.2087  -3.0593  -2.9723  -2.9560  -2.8211
    -2.8037  -2.5736  -2.5625  -2.5196  -2.4836  -2.3359  -2.3193  -2.3176
    -2.2527  -2.1534  -2.0949  -2.0817  -1.9336  -1.9272  -1.9168  -1.8595
    -1.8145  -1.7565  -1.6613  -1.6514   0.5938   0.7538   0.8443   0.8511
     0.8587   0.9187   0.9565   0.9715   1.0599   1.0927   1.1617   1.2800
     1.3193   1.3442   1.3484   1.3543   1.5009   1.5165   1.5343   1.5753
     1.5801   1.6737   1.6956   1.7267   1.7498   1.8154   1.8188   1.8529
     1.8802   1.9420   1.9541   1.9607   1.9800   1.9831   1.9925   2.0979
     2.1036   2.1220   2.1474   2.1628   2.1758   2.1774   2.2167   2.2258
     2.2904   2.2969   2.3030   2.3263   2.3289   2.7068   2.7127   2.8532
     2.9769   3.2230   3.2538   3.2559   3.3342   3.3468   3.3721   3.3795
     3.3813   3.4018   3.5713   3.6043   3.8539   3.8965   3.9864   4.0992
     4.0997   4.1939   4.3799   4.5571   4.5580   4.5683   4.8229   4.9363
     4.9440   4.9514   5.0557   5.0968   6.3801   6.3836   7.0354   7.3600
     7.3620   7.4366   7.4539   7.5255   7.5451   7.5765   7.6292   7.7531
     7.8666   7.8961   7.9632   8.1359   8.3155   8.3567   8.4226   8.6396
     8.8824   8.9377   8.9800   9.2258   9.5407   9.5935   9.6128   9.7951
    10.1918  10.2241  10.3060  10.3449  10.4133  10.4309  10.4790  10.5752
    10.9998  11.0482  11.0805  11.1309  11.1852  11.1858  11.2561  11.3663
    11.8838  11.8860  11.9293  12.0472  12.0845  12.1167  12.1480  12.3769
    12.8393  12.8758  12.9208  12.9908  13.3972  13.4147  13.4661  13.4731
    13.6312  13.6618  13.7121  13.7691  13.9566  14.2040  14.2248  14.3202
    14.3802  14.4063  14.4484  14.4608  14.4673  14.4818  14.4819  14.6160
    14.6264  14.6562  14.7491  14.7929  14.8050  14.9245  14.9525  14.9740
    15.0584  15.0722  15.0870  15.1061  15.1331  15.1341  15.1927  15.2023
    15.2881  15.2973  15.3315  15.3326  15.3371  15.3545  15.4034  15.4592
    15.4605  15.4636  15.5362  15.5425  15.5829  15.6094  15.7521  15.7870
    15.8035  15.8397  15.9765  16.0133  16.0469  16.1023  16.1315  16.1374
    16.2246  16.2484  16.2893  16.3372  16.3511  16.3525  16.3575  16.3791
    16.4134  16.4188  16.4611  16.5209  16.5495  16.5812  16.5894  16.6028
    16.6654  16.6858  16.7247  16.7258  16.8245  16.8386  16.8769  16.8858
    16.8954  16.9361  16.9497  17.0163  17.0548  17.0706  17.0735  17.1125
    17.1468  17.1981  17.2075  17.3434  17.4684  17.4856  17.5293  17.5370
    17.6404  17.6410  17.6853  17.7036  17.7141  17.7171  17.7665  17.7679
    17.9070  17.9284  17.9464  18.0405  18.0630  18.1341  18.1426  18.2170
    18.2767  18.3558  18.3882  18.4077  18.4541  18.4553  18.5073  18.5194
    18.5619  18.6091  18.6096  18.7658  18.8134  18.8326  18.9258  18.9403
    18.9656  18.9800  18.9947  19.1788  19.1815  19.2018  19.2955  19.3432
    19.3459  19.3539  19.4562  19.4994  19.6112  19.7015  19.7214  19.7694
[...]
    20.8122  20.8273  20.8419  20.8513  20.9610  20.9844  21.0984  21.1436
    21.2558  21.3136  21.4586  21.6389  21.6559  21.6818  21.7215  21.9288
    22.0134  22.0427  22.0443  22.0584  22.1748  22.2072  22.2506  22.2904
    22.3526  22.4642  22.6085  22.8112  22.8199  22.8726  22.8787  23.0526
    23.1001  23.1125  23.1752  23.3195  23.5607  23.5925  23.6460  23.6764
    23.7303  23.7808  23.8139  23.9118  23.9944  23.9958  24.0885  24.1626
    24.1812  24.1971  24.2160  24.3161  24.3653  24.3839  24.3941  24.4275
    24.4319  24.4374  24.4915  24.5099  24.5125  24.5261  24.5528  24.6003
    24.6959  24.7726  24.8037  24.8985  24.8997  24.9253  24.9483  24.9872
    25.0986  25.1387  25.2151  25.2401  25.3192  25.3210  25.3224  25.3695
    25.4238  25.4696  25.5204  25.6412  25.6414  25.7341  25.7595  25.8124
    25.8285  25.8618  25.9122  25.9148  25.9733  25.9768  26.0172  26.0305
    26.0826  26.0896  26.1933  26.2072  26.2193  26.2400  26.3045  26.3250
    26.3726  26.4185  26.4318  26.4411  26.4472  26.4565  26.5941  26.6351
    26.6492

     the spin up/dw Fermi energies are    -0.0637    0.3578 ev

!    total energy              =   -3881.17746834 Ry
     Harris-Foulkes estimate   =   -3881.17746837 Ry
     estimated scf accuracy    <          8.4E-09 Ry

     The total energy is the sum of the following terms:

     one-electron contribution =  -83050.26721653 Ry
     hartree contribution      =   41571.25266497 Ry
     xc contribution           =    -602.16725313 Ry
     ewald contribution        =   38200.00474709 Ry
     smearing contrib. (-TS)   =      -0.00041074 Ry

     total magnetization       =    30.00 Bohr mag/cell
     absolute magnetization    =    35.34 Bohr mag/cell

     convergence has been achieved in  17 iterations

     Forces acting on atoms (Ry/au):

     negative rho (up, down):  0.619E-02 0.241E-02
     atom    1 type  1   force =     0.00000000    0.00000000    0.07337231
     atom    2 type  2   force =     0.00034311    0.00000000   -0.11964208
     atom    3 type  2   force =     0.00000000    0.00000000    0.08097189
     atom    4 type  1   force =    -0.00028063    0.04250706   -0.03613074
     atom    5 type  1   force =    -0.00028063   -0.04250706   -0.03613074
     atom    6 type  1   force =     0.00000000    0.00000000    0.01256315
     atom    7 type  1   force =     0.00000000    0.00000000   -0.01095447
     atom    8 type  2   force =     0.00677293    0.00000000    0.02293038
     atom    9 type  2   force =     0.00000000    0.00000000    0.01926775
     atom   10 type  1   force =    -0.00004671   -0.01729514    0.00148356
     atom   11 type  1   force =    -0.00004671    0.01729514    0.00148356
     atom   12 type  1   force =     0.00000000    0.00000000    0.00356624
     atom   13 type  1   force =     0.00000000    0.00000000    0.00000657
     atom   14 type  2   force =    -0.00008269    0.00000000   -0.00005887
     atom   15 type  2   force =     0.00000000    0.00000000   -0.00032357
     atom   16 type  1   force =    -0.00008235    0.00000466    0.00002709
     atom   17 type  1   force =    -0.00008235   -0.00000466    0.00002709
     atom   18 type  1   force =     0.00000000    0.00000000    0.00060986
     atom   19 type  1   force =     0.00000000    0.00000000    0.00058563
     atom   20 type  2   force =    -0.00025140    0.00000000    0.00066133
     atom   21 type  2   force =     0.00000000    0.00000000    0.00064822
     atom   22 type  1   force =     0.00001298    0.00018206    0.00029532
     atom   23 type  1   force =     0.00001298   -0.00018206    0.00029532
     atom   24 type  1   force =     0.00000000    0.00000000    0.00070070
     atom   25 type  1   force =     0.00000000    0.00000000    0.07267397
     atom   26 type  2   force =    -0.00034311    0.00000000   -0.11964208
     atom   27 type  2   force =     0.00000000    0.00000000    0.08035870
     atom   28 type  1   force =     0.00028063    0.04250706   -0.03613074
     atom   29 type  1   force =     0.00028063   -0.04250706   -0.03613074
     atom   30 type  1   force =     0.00000000    0.00000000    0.01457435
     atom   31 type  1   force =     0.00000000    0.00000000   -0.01030227
     atom   32 type  2   force =    -0.00677293    0.00000000    0.02293038
     atom   33 type  2   force =     0.00000000    0.00000000   -0.00862056
     atom   34 type  1   force =     0.00004671   -0.01729514    0.00148356
     atom   35 type  1   force =     0.00004671    0.01729514    0.00148356
     atom   36 type  1   force =     0.00000000    0.00000000    0.00088791
     atom   37 type  1   force =     0.00000000    0.00000000   -0.00006352
     atom   38 type  2   force =     0.00008269   -0.00000000   -0.00005887
     atom   39 type  2   force =     0.00000000    0.00000000    0.00047890
     atom   40 type  1   force =     0.00008235    0.00000466    0.00002709
     atom   41 type  1   force =     0.00008235   -0.00000466    0.00002709
     atom   42 type  1   force =     0.00000000    0.00000000   -0.00026673
     atom   43 type  1   force =     0.00000000    0.00000000    0.00028775
     atom   44 type  2   force =     0.00025140    0.00000000    0.00066133
     atom   45 type  2   force =     0.00000000    0.00000000   -0.00068716
     atom   46 type  1   force =    -0.00001298    0.00018206    0.00029532
     atom   47 type  1   force =    -0.00001298   -0.00018206    0.00029532
     atom   48 type  1   force =     0.00000000    0.00000000    0.00010339
     atom   49 type  1   force =     0.00000000    0.00000000   -0.00092141

     Total force =     0.002232     Total SCF correction =     0.000208

     bfgs converged in   3 scf cycles and   2 bfgs steps
     (criteria: energy < 0.10E-03, force < 0.10E-02)

     End of BFGS Geometry Optimization

     Final energy   =   -3881.1774683415 Ry
Begin final coordinates

ATOMIC_POSITIONS (crystal)
O0       0.000000000   0.500000000   0.335490000    0   0   0
Cr1      0.250000000   0.500000000   0.370120000    0   0   0
Cr1      0.000000000   0.000000000   0.370120000    0   0   0
O0       0.250000000   0.800000000   0.370120000    0   0   0
O0       0.250000000   0.200000000   0.370120000    0   0   0
O0       0.000000000   0.500000000   0.404750000    0   0   0
O0       0.000000000   0.000000000   0.422070000    0   0   0
Cr1      0.250000000   0.000000000   0.456710000    0   0   0
Cr1      0.000000000   0.500000000   0.456710000    0   0   0
O0       0.250000000   0.700000000   0.456710000    0   0   0
O0       0.250000000   0.300000000   0.456710000    0   0   0
O0       0.000000000   0.000000000   0.491340000    0   0   0
O0       0.000000000   0.500000000   0.510042205
Cr1      0.258955490   0.500000000   0.544340217
Cr1      0.000000000   0.000000000   0.545870053
O0       0.249846625   0.803487346   0.545339724
O0       0.249846625   0.196512654   0.545339724
O0       0.000000000   0.500000000   0.579276325
O0       0.000000000   0.000000000   0.599820825
Cr1      0.245706145   0.000000000   0.637790280
Cr1      0.000000000   0.500000000   0.627513275
O0       0.247999990   0.688810291   0.637417085
O0       0.247999990   0.311189709   0.637417085
O0       0.000000000   0.000000000   0.668387923
O0       0.500000000   0.500000000   0.335490000    0   0   0
Cr1      0.750000000   0.500000000   0.370120000    0   0   0
Cr1      0.500000000   0.000000000   0.370120000    0   0   0
O0       0.750000000   0.800000000   0.370120000    0   0   0
O0       0.750000000   0.200000000   0.370120000    0   0   0
O0       0.500000000   0.500000000   0.404750000    0   0   0
O0       0.500000000   0.000000000   0.422070000    0   0   0
Cr1      0.750000000   0.000000000   0.456710000    0   0   0
Cr1      0.500000000   0.500000000   0.456710000    0   0   0
O0       0.750000000   0.700000000   0.456710000    0   0   0
O0       0.750000000   0.300000000   0.456710000    0   0   0
O0       0.500000000   0.000000000   0.491340000    0   0   0
O0       0.500000000   0.500000000   0.509669864
Cr1      0.741044510   0.500000000   0.544340217
Cr1      0.500000000   0.000000000   0.547855186
O0       0.750153375   0.803487346   0.545339724
O0       0.750153375   0.196512654   0.545339724
O0       0.500000000   0.500000000   0.577837270
O0       0.500000000   0.000000000   0.599105633
Cr1      0.754293855  -0.000000000   0.637790280
Cr1      0.500000000   0.500000000   0.649012064
O0       0.752000010   0.688810291   0.637417085
O0       0.752000010   0.311189709   0.637417085
O0       0.500000000   0.000000000   0.666235569
O0       0.500000000   0.500000000   0.692753532
End final coordinates

     General routines

     Parallel routines

   This run was terminated on:   2:45:31  11May2014

   JOB DONE.