     Program PWSCF v.5.0.2 (svn rev. 9656) starts on 24Jan2014 at 15:47: 5

     Current dimensions of program PWSCF are:
     Max number of different atomic species (ntypx) = 10
     Max number of k-points (npk) =  40000
     Max angular momentum in pseudopotentials (lmaxx) =  3
     Reading input from MoO2-v-1.00.in

     Subspace diagonalization in iterative solution of the eigenvalue problem:
     a serial algorithm will be used

     bravais-lattice index     =            0
     lattice parameter (alat)  =       8.8435  a.u.
     unit-cell volume          =     445.7140 (a.u.)^3
     number of atoms/cell      =            6
     number of atomic types    =            2
     number of electrons       =        52.00
     number of Kohn-Sham states=           78
     kinetic-energy cutoff     =      40.0000  Ry
     charge density cutoff     =     500.0000  Ry
     convergence threshold     =      1.0E-06
     mixing beta               =       0.3000
     number of iterations used =            8  plain     mixing
     Exchange-correlation      = SLA  PW   PBE  PBE ( 1 4 3 4 0)
     EXX-fraction              =        0.00
     nstep                     =           50

     celldm(1)=   8.843488  celldm(2)=   0.000000  celldm(3)=   0.000000
     celldm(4)=   0.000000  celldm(5)=   0.000000  celldm(6)=   0.000000

     crystal axes: (cart. coord. in units of alat)
               a(1) = (   1.000000   0.000000   0.000000 )
               a(2) = (   0.000000   1.000000   0.000000 )
               a(3) = (   0.000000   0.000000   0.644444 )

     reciprocal axes: (cart. coord. in units 2 pi/alat)
               b(1) = (  1.000000  0.000000  0.000000 )
               b(2) = (  0.000000  1.000000  0.000000 )
               b(3) = (  0.000000  0.000000  1.551724 )

     PseudoPot. # 1 for Mo read from file:
     /home/camp/zhonxu/pseudo/mo_pbe_v1.uspp.F.UPF
     MD5 check sum: 30c4dcd161f5d35cd49bb5239c51a633
     Pseudo is Ultrasoft + core correction, Zval = 14.0
     Generated by new atomic code, or converted to UPF format
     Using radial grid of  889 points,  6 beta functions with:
                l(1) =   0
                l(2) =   0
                l(3) =   1
                l(4) =   1
                l(5) =   2
                l(6) =   2
     Q(r) pseudized with  6 coefficients,  rinner =    1.000   1.000   1.000
                                                       1.000   1.000

     PseudoPot. # 2 for O  read from file:
     /home/camp/zhonxu/pseudo/o_pbe_v1.01.uspp.F.UPF
     MD5 check sum: 2bcb18d16ea4b960afae9ec6d52f22d2
     Pseudo is Ultrasoft + core correction, Zval =  6.0
     Generated by new atomic code, or converted to UPF format
     Using radial grid of  737 points,  5 beta functions with:
                l(1) =   0
                l(2) =   0
                l(3) =   1
                l(4) =   1
                l(5) =   2
     Q(r) pseudized with  8 coefficients,  rinner =    0.900   0.900   0.900
                                                       0.900   0.900

     atomic species   valence    mass     pseudopotential
        Mo0           14.00    95.94000     Mo( 1.00)
        O1             6.00    15.99940     O ( 1.00)

     Starting magnetic structure
     atomic species   magnetization
        Mo0          0.000
        O1           0.000

      8 Sym. Ops., with inversion, found
          (note:  8 additional sym.ops. were found but ignored
           their fractional translations are incommensurate with FFT grid)

   Cartesian axes

     site n.     atom                  positions (alat units)
         1           Mo0 tau(   1) = (   0.0000000   0.0000000   0.0000000  )
         2           Mo0 tau(   2) = (   0.5000000   0.5000000   0.3222222  )
         3           O1  tau(   3) = (   0.3050000   0.3050000   0.0000000  )
         4           O1  tau(   4) = (  -0.3050000  -0.3050000   0.0000000  )
         5           O1  tau(   5) = (   0.8050000   0.1950000   0.3222222  )
         6           O1  tau(   6) = (   0.1950000   0.8050000   0.3222222  )

     number of k points=    54  Methfessel-Paxton smearing, width (Ry)=  0.0100
                       cart. coord. in units 2pi/alat
        k(    1) = (   0.0000000   0.0000000   0.0000000), wk =   0.0080000
        k(    2) = (   0.0000000   0.0000000   0.3103448), wk =   0.0160000
        k(    3) = (   0.0000000   0.0000000   0.6206897), wk =   0.0160000
        k(    4) = (   0.0000000   0.2000000   0.0000000), wk =   0.0320000
        k(    5) = (   0.0000000   0.2000000   0.3103448), wk =   0.0640000
        k(    6) = (   0.0000000   0.2000000   0.6206897), wk =   0.0640000
        k(    7) = (   0.0000000   0.4000000   0.0000000), wk =   0.0320000
        k(    8) = (   0.0000000   0.4000000   0.3103448), wk =   0.0640000
        k(    9) = (   0.0000000   0.4000000   0.6206897), wk =   0.0640000
        k(   10) = (   0.2000000   0.2000000   0.0000000), wk =   0.0160000
        k(   11) = (   0.2000000   0.2000000   0.3103448), wk =   0.0320000
        k(   12) = (   0.2000000   0.2000000   0.6206897), wk =   0.0320000
        k(   13) = (   0.2000000   0.4000000   0.0000000), wk =   0.0320000
        k(   14) = (   0.2000000   0.4000000   0.3103448), wk =   0.0640000
        k(   15) = (   0.2000000   0.4000000   0.6206897), wk =   0.0640000
        k(   16) = (   0.4000000   0.4000000   0.0000000), wk =   0.0160000
        k(   17) = (   0.4000000   0.4000000   0.3103448), wk =   0.0320000
        k(   18) = (   0.4000000   0.4000000   0.6206897), wk =   0.0320000
        k(   19) = (  -0.2000000   0.2000000   0.0000000), wk =   0.0160000
        k(   20) = (  -0.2000000   0.2000000  -0.3103448), wk =   0.0320000
        k(   21) = (  -0.2000000   0.2000000  -0.6206897), wk =   0.0320000
        k(   22) = (  -0.2000000   0.4000000   0.0000000), wk =   0.0320000
        k(   23) = (  -0.2000000   0.4000000  -0.3103448), wk =   0.0640000
        k(   24) = (  -0.2000000   0.4000000  -0.6206897), wk =   0.0640000
        k(   25) = (  -0.4000000   0.4000000   0.0000000), wk =   0.0160000
        k(   26) = (  -0.4000000   0.4000000  -0.3103448), wk =   0.0320000
        k(   27) = (  -0.4000000   0.4000000  -0.6206897), wk =   0.0320000
        k(   28) = (   0.0000000   0.0000000   0.0000000), wk =   0.0080000
        k(   29) = (   0.0000000   0.0000000   0.3103448), wk =   0.0160000
        k(   30) = (   0.0000000   0.0000000   0.6206897), wk =   0.0160000
        k(   31) = (   0.0000000   0.2000000   0.0000000), wk =   0.0320000
        k(   32) = (   0.0000000   0.2000000   0.3103448), wk =   0.0640000
        k(   33) = (   0.0000000   0.2000000   0.6206897), wk =   0.0640000
        k(   34) = (   0.0000000   0.4000000   0.0000000), wk =   0.0320000
        k(   35) = (   0.0000000   0.4000000   0.3103448), wk =   0.0640000
        k(   36) = (   0.0000000   0.4000000   0.6206897), wk =   0.0640000
        k(   37) = (   0.2000000   0.2000000   0.0000000), wk =   0.0160000
        k(   38) = (   0.2000000   0.2000000   0.3103448), wk =   0.0320000
        k(   39) = (   0.2000000   0.2000000   0.6206897), wk =   0.0320000
        k(   40) = (   0.2000000   0.4000000   0.0000000), wk =   0.0320000
        k(   41) = (   0.2000000   0.4000000   0.3103448), wk =   0.0640000
        k(   42) = (   0.2000000   0.4000000   0.6206897), wk =   0.0640000
        k(   43) = (   0.4000000   0.4000000   0.0000000), wk =   0.0160000
        k(   44) = (   0.4000000   0.4000000   0.3103448), wk =   0.0320000
        k(   45) = (   0.4000000   0.4000000   0.6206897), wk =   0.0320000
        k(   46) = (  -0.2000000   0.2000000   0.0000000), wk =   0.0160000
        k(   47) = (  -0.2000000   0.2000000  -0.3103448), wk =   0.0320000
        k(   48) = (  -0.2000000   0.2000000  -0.6206897), wk =   0.0320000
        k(   49) = (  -0.2000000   0.4000000   0.0000000), wk =   0.0320000
        k(   50) = (  -0.2000000   0.4000000  -0.3103448), wk =   0.0640000
        k(   51) = (  -0.2000000   0.4000000  -0.6206897), wk =   0.0640000
        k(   52) = (  -0.4000000   0.4000000   0.0000000), wk =   0.0160000
        k(   53) = (  -0.4000000   0.4000000  -0.3103448), wk =   0.0320000
        k(   54) = (  -0.4000000   0.4000000  -0.6206897), wk =   0.0320000

     Largest allocated arrays     est. size (Mb)     dimensions
     Largest temporary arrays     est. size (Mb)     dimensions

     Check: negative/imaginary core charge=   -0.000007    0.000000

     Initial potential from superposition of free atoms

     starting charge   51.99787, renormalised to   52.00000
     Starting wfc are   42 randomized atomic wfcs

     Self-consistent Calculation

     iteration #  1     ecut=    40.00 Ry     beta=0.30
     Davidson diagonalization with overlap
     ethr =  1.00E-02,  avg # of iterations =  5.2

     total energy              =    -407.42468843 Ry
     Harris-Foulkes estimate   =    -408.13663822 Ry
     estimated scf accuracy    <       1.63999312 Ry

     total magnetization       =    -0.00 Bohr mag/cell
     absolute magnetization    =     0.00 Bohr mag/cell

[...]

     End of self-consistent calculation

 ------ SPIN UP ------------

          k = 0.0000 0.0000 0.0000 (  1899 PWs)   bands (ev):

   -48.6520 -48.6361 -22.8406 -22.8406 -22.7434 -22.6988 -22.6496 -22.6496
    -7.1468  -6.3829  -5.2145  -5.2145   4.7266   4.8450   5.8343   6.4639
     6.4640   8.5776   8.5776   9.0798  10.0356  10.1964  10.1964  10.7930
    12.7184  13.0309  13.4862  13.5691  13.5691  16.4303  16.5635  18.3063
    19.3700  19.3700  20.7132  22.2610  22.2610  25.6130  27.5679  28.0853
    28.5529  29.2275  29.9605  29.9605  32.4921  32.7326  33.5665  33.5665
    34.4526  34.4526  35.7135  39.0666  39.0666  39.2345  40.0103  40.2328
    41.8530  42.7956  42.7956  43.1064  43.2863  43.4109  43.4109  43.4702
    44.3958  45.2506  45.2506  46.1395  47.5345  49.6548  49.6548  49.8304
    50.2657  50.8985  50.8985  51.1659  51.7189  52.2096

[...]

          k =-0.2000 0.2000 0.0000 (  1915 PWs)   bands (ev):

[...]

 ------ SPIN DOWN ----------

[...]

     the Fermi energy is    13.8450 ev

!    total energy              =    -407.75741500 Ry
     Harris-Foulkes estimate   =    -407.75741211 Ry
     estimated scf accuracy    <       0.00000015 Ry

     The total energy is the sum of the following terms:

     one-electron contribution =    -110.46921843 Ry
     hartree contribution      =      84.79542548 Ry
     xc contribution           =     -67.54919448 Ry
     ewald contribution        =    -314.53399948 Ry
     smearing contrib. (-TS)   =      -0.00042809 Ry

[...]

     convergence has been achieved in   9 iterations

     Forces acting on atoms (Ry/au):

     atom    1 type  1   force =     0.00000000    0.00000000    0.00000000
     atom    2 type  1   force =     0.00000000    0.00000000    0.00000000
     atom    3 type  2   force =    -0.04519488   -0.04519488    0.00000000
     atom    4 type  2   force =     0.04519488    0.04519488    0.00000000
     atom    5 type  2   force =    -0.04519536    0.04519536    0.00000000
     atom    6 type  2   force =     0.04519536   -0.04519536    0.00000000

[...]
        k(   14) = (   0.1897353   0.3794707   0.3448325), wk =   0.0640000
        k(   15) = (   0.1897353   0.3794707   0.6896649), wk =   0.0640000
        k(   16) = (   0.3794707   0.3794707   0.0000000), wk =   0.0160000
        k(   17) = (   0.3794707   0.3794707   0.3448325), wk =   0.0320000
        k(   18) = (   0.3794707   0.3794707   0.6896649), wk =   0.0320000
        k(   19) = (  -0.1897353   0.1897353   0.0000000), wk =   0.0160000
        k(   20) = (  -0.1897353   0.1897353  -0.3448325), wk =   0.0320000
        k(   21) = (  -0.1897353   0.1897353  -0.6896649), wk =   0.0320000
        k(   22) = (  -0.1897353   0.3794706   0.0000000), wk =   0.0320000
        k(   23) = (  -0.1897353   0.3794706  -0.3448325), wk =   0.0640000
        k(   24) = (  -0.1897353   0.3794706  -0.6896649), wk =   0.0640000
        k(   25) = (  -0.3794706   0.3794706   0.0000000), wk =   0.0160000
        k(   26) = (  -0.3794706   0.3794706  -0.3448325), wk =   0.0320000
        k(   27) = (  -0.3794706   0.3794706  -0.6896649), wk =   0.0320000
        k(   28) = (   0.0000000   0.0000000   0.0000000), wk =   0.0080000
        k(   29) = (   0.0000000   0.0000000   0.3448325), wk =   0.0160000
        k(   30) = (   0.0000000   0.0000000   0.6896649), wk =   0.0160000
        k(   31) = (   0.0000000   0.1897353   0.0000000), wk =   0.0320000
        k(   32) = (   0.0000000   0.1897353   0.3448325), wk =   0.0640000
        k(   33) = (   0.0000000   0.1897353   0.6896649), wk =   0.0640000
        k(   34) = (   0.0000000   0.3794706   0.0000000), wk =   0.0320000
        k(   35) = (   0.0000000   0.3794706   0.3448325), wk =   0.0640000
        k(   36) = (   0.0000000   0.3794706   0.6896649), wk =   0.0640000
        k(   37) = (   0.1897353   0.1897353   0.0000000), wk =   0.0160000
        k(   38) = (   0.1897353   0.1897353   0.3448325), wk =   0.0320000
        k(   39) = (   0.1897353   0.1897353   0.6896649), wk =   0.0320000
        k(   40) = (   0.1897353   0.3794707   0.0000000), wk =   0.0320000
        k(   41) = (   0.1897353   0.3794707   0.3448325), wk =   0.0640000
        k(   42) = (   0.1897353   0.3794707   0.6896649), wk =   0.0640000
        k(   43) = (   0.3794707   0.3794707   0.0000000), wk =   0.0160000
        k(   44) = (   0.3794707   0.3794707   0.3448325), wk =   0.0320000
        k(   45) = (   0.3794707   0.3794707   0.6896649), wk =   0.0320000
        k(   46) = (  -0.1897353   0.1897353   0.0000000), wk =   0.0160000
        k(   47) = (  -0.1897353   0.1897353  -0.3448325), wk =   0.0320000
        k(   48) = (  -0.1897353   0.1897353  -0.6896649), wk =   0.0320000
        k(   49) = (  -0.1897353   0.3794706   0.0000000), wk =   0.0320000
        k(   50) = (  -0.1897353   0.3794706  -0.3448325), wk =   0.0640000
        k(   51) = (  -0.1897353   0.3794706  -0.6896649), wk =   0.0640000
        k(   52) = (  -0.3794706   0.3794706   0.0000000), wk =   0.0160000
        k(   53) = (  -0.3794706   0.3794706  -0.3448325), wk =   0.0320000
        k(   54) = (  -0.3794706   0.3794706  -0.6896649), wk =   0.0320000

[...]

     Threshold (ethr) on eigenvalues was too large:
     Diagonalizing with lowered threshold

     Davidson diagonalization with overlap
     ethr =  4.89E-11,  avg # of iterations =  2.0

[...]

     negative rho (up, down):  0.859E-06 0.859E-06

[...]

     negative rho (up, down):  0.859E-06 0.859E-06
     atom    1 type  1   force =     0.00000000    0.00000000    0.00000000
     atom    2 type  1   force =     0.00000000    0.00000000    0.00000000
     atom    3 type  2   force =     0.00000103    0.00000103    0.00000000
     atom    4 type  2   force =    -0.00000103   -0.00000103    0.00000000
     atom    5 type  2   force =    -0.00000559    0.00000559   -0.00000000
     atom    6 type  2   force =     0.00000559   -0.00000559   -0.00000000

     Total force =     0.000011     Total SCF correction =     0.000032
     SCF correction compared to forces is large: reduce conv_thr to get better values

[...]

     negative rho (up, down):  0.859E-06 0.859E-06
          total   stress  (Ry/bohr**3)                   (kbar)     P=   15.23
   0.00010337  -0.00000000   0.00000000         15.21     -0.00      0.00
  -0.00000000   0.00010337   0.00000000         -0.00     15.21      0.00
   0.00000000   0.00000000   0.00010390          0.00      0.00     15.28

     Volume is kept fixed: isostatic pressure set to zero

     bfgs converged in   9 scf cycles and   8 bfgs steps
     (criteria: energy < 0.10E-03, force < 0.10E-02, cell < 0.50E+00)

     End of BFGS Geometry Optimization

     Final enthalpy =    -407.8320727697 Ry
Begin final coordinates
     new unit-cell volume =    445.71400 a.u.^3 (    66.04800 Ang^3 )

CELL_PARAMETERS (alat=  8.84348815)
   1.054099995  -0.000000063   0.000000000
  -0.000000063   1.054099995   0.000000000
   0.000000000   0.000000000   0.579991811

ATOMIC_POSITIONS (crystal)
Mo0      0.000000000   0.000000000   0.000000000    0   0   0
Mo0      0.500000000   0.500000000   0.500000000    0   0   0
O1       0.281019102   0.281019102   0.000000000    1   1   0
O1      -0.281019102  -0.281019102   0.000000000    1   1   0
O1       0.781019496   0.218980504   0.500000000    1   1   0
O1       0.218980504   0.781019496   0.500000000    1   1   0
End final coordinates

     A final scf calculation at the relaxed structure.
     The G-vectors are recalculated for the final unit cell
     Results may differ from those at the preceding step.

     bravais-lattice index     =            0
     lattice parameter (alat)  =       8.8435  a.u.
     unit-cell volume          =     445.7140 (a.u.)^3
     number of atoms/cell      =            6
     number of atomic types    =            2
     number of electrons       =        52.00
     number of Kohn-Sham states=           78
     kinetic-energy cutoff     =      40.0000  Ry
     charge density cutoff     =     500.0000  Ry
     convergence threshold     =      1.0E-08
     mixing beta               =       0.3000
     number of iterations used =            8  plain     mixing
     Exchange-correlation      = SLA  PW   PBE  PBE ( 1 4 3 4 0)
     EXX-fraction              =        0.00

     celldm(1)=   8.843488  celldm(2)=   0.000000  celldm(3)=   0.000000
     celldm(4)=   0.000000  celldm(5)=   0.000000  celldm(6)=   0.000000

     crystal axes: (cart. coord. in units of alat)
               a(1) = (   1.054100  -0.000000   0.000000 )
               a(2) = (  -0.000000   1.054100   0.000000 )
               a(3) = (   0.000000   0.000000   0.579992 )

     reciprocal axes: (cart. coord. in units 2 pi/alat)
               b(1) = (  0.948677  0.000000 -0.000000 )
               b(2) = (  0.000000  0.948677 -0.000000 )
               b(3) = ( -0.000000 -0.000000  1.724162 )

     PseudoPot. # 1 for Mo read from file:
     /home/camp/zhonxu/pseudo/mo_pbe_v1.uspp.F.UPF
     MD5 check sum: 30c4dcd161f5d35cd49bb5239c51a633
     Pseudo is Ultrasoft + core correction, Zval = 14.0
     Generated by new atomic code, or converted to UPF format
     Using radial grid of  889 points,  6 beta functions with:
                l(1) =   0
                l(2) =   0
                l(3) =   1
                l(4) =   1
                l(5) =   2
                l(6) =   2
     Q(r) pseudized with  6 coefficients,  rinner =    1.000   1.000   1.000
                                                       1.000   1.000

     PseudoPot. # 2 for O  read from file:
     /home/camp/zhonxu/pseudo/o_pbe_v1.01.uspp.F.UPF
     MD5 check sum: 2bcb18d16ea4b960afae9ec6d52f22d2
     Pseudo is Ultrasoft + core correction, Zval =  6.0
     Generated by new atomic code, or converted to UPF format
     Using radial grid of  737 points,  5 beta functions with:
                l(1) =   0
                l(2) =   0
                l(3) =   1
                l(4) =   1
                l(5) =   2
     Q(r) pseudized with  8 coefficients,  rinner =    0.900   0.900   0.900
                                                       0.900   0.900

     atomic species   valence    mass     pseudopotential
        Mo0           14.00    95.94000     Mo( 1.00)
        O1             6.00    15.99940     O ( 1.00)

     Starting magnetic structure
     atomic species   magnetization
        Mo0          0.000
        O1           0.000

      8 Sym. Ops., with inversion, found
          (note:  8 additional sym.ops. were found but ignored
           their fractional translations are incommensurate with FFT grid)

   Cartesian axes

     site n.     atom                  positions (alat units)
         1           Mo0 tau(   1) = (   0.0000000   0.0000000   0.0000000  )
         2           Mo0 tau(   2) = (   0.5270500   0.5270500   0.2899959  )
         3           O1  tau(   3) = (   0.2962222   0.2962222   0.0000000  )
         4           O1  tau(   4) = (  -0.2962222  -0.2962222   0.0000000  )
         5           O1  tau(   5) = (   0.8232726   0.2308273   0.2899959  )
         6           O1  tau(   6) = (   0.2308273   0.8232726   0.2899959  )

     number of k points=    54  Methfessel-Paxton smearing, width (Ry)=  0.0100
                       cart. coord. in units 2pi/alat
        k(    1) = (   0.0000000   0.0000000   0.0000000), wk =   0.0080000
        k(    2) = (   0.0000000   0.0000000   0.3448325), wk =   0.0160000
        k(    3) = (   0.0000000   0.0000000   0.6896649), wk =   0.0160000
        k(    4) = (   0.0000000   0.1897353   0.0000000), wk =   0.0320000
        k(    5) = (   0.0000000   0.1897353   0.3448325), wk =   0.0640000
        k(    6) = (   0.0000000   0.1897353   0.6896649), wk =   0.0640000
        k(    7) = (   0.0000000   0.3794706   0.0000000), wk =   0.0320000
        k(    8) = (   0.0000000   0.3794706   0.3448325), wk =   0.0640000
        k(    9) = (   0.0000000   0.3794706   0.6896649), wk =   0.0640000
        k(   10) = (   0.1897353   0.1897353   0.0000000), wk =   0.0160000
        k(   11) = (   0.1897353   0.1897353   0.3448325), wk =   0.0320000
        k(   12) = (   0.1897353   0.1897353   0.6896649), wk =   0.0320000
        k(   13) = (   0.1897353   0.3794707   0.0000000), wk =   0.0320000
        k(   14) = (   0.1897353   0.3794707   0.3448325), wk =   0.0640000
        k(   15) = (   0.1897353   0.3794707   0.6896649), wk =   0.0640000
        k(   16) = (   0.3794707   0.3794707   0.0000000), wk =   0.0160000
        k(   17) = (   0.3794707   0.3794707   0.3448325), wk =   0.0320000
        k(   18) = (   0.3794707   0.3794707   0.6896649), wk =   0.0320000
        k(   19) = (  -0.1897353   0.1897353   0.0000000), wk =   0.0160000
        k(   20) = (  -0.1897353   0.1897353  -0.3448325), wk =   0.0320000
        k(   21) = (  -0.1897353   0.1897353  -0.6896649), wk =   0.0320000
        k(   22) = (  -0.1897353   0.3794706   0.0000000), wk =   0.0320000
        k(   23) = (  -0.1897353   0.3794706  -0.3448325), wk =   0.0640000
        k(   24) = (  -0.1897353   0.3794706  -0.6896649), wk =   0.0640000
        k(   25) = (  -0.3794706   0.3794706   0.0000000), wk =   0.0160000
        k(   26) = (  -0.3794706   0.3794706  -0.3448325), wk =   0.0320000
        k(   27) = (  -0.3794706   0.3794706  -0.6896649), wk =   0.0320000
        k(   28) = (   0.0000000   0.0000000   0.0000000), wk =   0.0080000
        k(   29) = (   0.0000000   0.0000000   0.3448325), wk =   0.0160000
        k(   30) = (   0.0000000   0.0000000   0.6896649), wk =   0.0160000
        k(   31) = (   0.0000000   0.1897353   0.0000000), wk =   0.0320000
        k(   32) = (   0.0000000   0.1897353   0.3448325), wk =   0.0640000
        k(   33) = (   0.0000000   0.1897353   0.6896649), wk =   0.0640000
        k(   34) = (   0.0000000   0.3794706   0.0000000), wk =   0.0320000
        k(   35) = (   0.0000000   0.3794706   0.3448325), wk =   0.0640000
        k(   36) = (   0.0000000   0.3794706   0.6896649), wk =   0.0640000
        k(   37) = (   0.1897353   0.1897353   0.0000000), wk =   0.0160000
        k(   38) = (   0.1897353   0.1897353   0.3448325), wk =   0.0320000
        k(   39) = (   0.1897353   0.1897353   0.6896649), wk =   0.0320000
        k(   40) = (   0.1897353   0.3794707   0.0000000), wk =   0.0320000
        k(   41) = (   0.1897353   0.3794707   0.3448325), wk =   0.0640000
        k(   42) = (   0.1897353   0.3794707   0.6896649), wk =   0.0640000
        k(   43) = (   0.3794707   0.3794707   0.0000000), wk =   0.0160000
        k(   44) = (   0.3794707   0.3794707   0.3448325), wk =   0.0320000
        k(   45) = (   0.3794707   0.3794707   0.6896649), wk =   0.0320000
        k(   46) = (  -0.1897353   0.1897353   0.0000000), wk =   0.0160000
        k(   47) = (  -0.1897353   0.1897353  -0.3448325), wk =   0.0320000
        k(   48) = (  -0.1897353   0.1897353  -0.6896649), wk =   0.0320000
        k(   49) = (  -0.1897353   0.3794706   0.0000000), wk =   0.0320000
        k(   50) = (  -0.1897353   0.3794706  -0.3448325), wk =   0.0640000
        k(   51) = (  -0.1897353   0.3794706  -0.6896649), wk =   0.0640000
        k(   52) = (  -0.3794706   0.3794706   0.0000000), wk =   0.0160000
        k(   53) = (  -0.3794706   0.3794706  -0.3448325), wk =   0.0320000
        k(   54) = (  -0.3794706   0.3794706  -0.6896649), wk =   0.0320000

     Largest allocated arrays     est. size (Mb)     dimensions
     Largest temporary arrays     est. size (Mb)     dimensions

     Check: negative/imaginary core charge=   -0.000007    0.000000

     Initial potential from superposition of free atoms

     starting charge   51.99787, renormalised to   52.00000
     Starting wfc are   42 randomized atomic wfcs

     Self-consistent Calculation

[...]

     total energy              =    -407.83232107 Ry
     Harris-Foulkes estimate   =    -407.83232031 Ry
     estimated scf accuracy    <       0.00000004 Ry

[...]

     iteration # 11     ecut=    40.00 Ry     beta=0.30
     Davidson diagonalization with overlap
     ethr =  7.51E-11,  avg # of iterations =  1.0

     End of self-consistent calculation

 ------ SPIN UP ------------

[...]

 ------ SPIN DOWN ----------

[...]

          k = 0.3795 0.3795 0.6897 (  1902 PWs)   bands (ev):

[...]

          k =-0.3795 0.3795-0.6897 (  1902 PWs)   bands (ev):

   -48.9763 -48.9759 -23.5841 -23.5814 -23.3082 -23.3043 -22.9509 -22.9504
    -6.0830  -5.8548  -5.6920  -5.4386   5.6874   6.0516   6.1831   6.4893
     6.6933   7.1619   7.3116   8.0569   8.9506   9.1423  10.0111  10.1504
    12.9197  13.1633  13.9462  14.3150  15.5807  15.6715  17.3336  18.2469
    18.5850  19.3256  22.6989  23.0287  23.6752  23.7968  26.8653  26.9202
    29.1895  29.2649  29.4178  29.6527  30.9359  31.3695  32.3495  32.8771
    35.7712  36.0756  36.5175  36.8858  38.5796  39.1490  40.3656  40.7126
    41.6832  42.0049  42.6502  43.4181  43.5747  44.0931  44.2946  45.0767
    45.5079  45.5683  45.6891  46.4944  46.8823  47.0706  47.6638  47.7330
    49.2053  50.3164  52.9893  53.0600  53.5378  53.7792

     the Fermi energy is    13.1936 ev

!    total energy              =    -407.83232180 Ry
     Harris-Foulkes estimate   =    -407.83232107 Ry
     estimated scf accuracy    <          3.5E-09 Ry

     The total energy is the sum of the following terms:

     one-electron contribution =    -113.50429660 Ry
     hartree contribution      =      85.92718680 Ry
     xc contribution           =     -67.46514439 Ry
     ewald contribution        =    -312.79000449 Ry
     smearing contrib. (-TS)   =      -0.00006311 Ry

     total magnetization       =    -0.00 Bohr mag/cell
     absolute magnetization    =     0.00 Bohr mag/cell

     convergence has been achieved in  11 iterations

     Forces acting on atoms (Ry/au):

     atom    1 type  1   force =     0.00000000    0.00000000    0.00000000
     atom    2 type  1   force =     0.00000000    0.00000000    0.00000000
     atom    3 type  2   force =    -0.00003232   -0.00003232    0.00000000
     atom    4 type  2   force =     0.00003232    0.00003232    0.00000000
     atom    5 type  2   force =    -0.00003426    0.00003426    0.00000000
     atom    6 type  2   force =     0.00003426   -0.00003426    0.00000000

     Total force =     0.000094     Total SCF correction =     0.000006

     entering subroutine stress ...

          total   stress  (Ry/bohr**3)                   (kbar)     P=   12.71
   0.00009025   0.00000003   0.00000000         13.28      0.00      0.00
   0.00000003   0.00009025   0.00000000          0.00     13.28      0.00
   0.00000000   0.00000000   0.00007870          0.00      0.00     11.58

     General routines

     Parallel routines

   This run was terminated on:  16:32:15  24Jan2014

   JOB DONE.