     Program PWSCF v.5.0.2 (svn rev. 9656) starts on 23Jan2014 at 21:20:54

     Current dimensions of program PWSCF are:
     Max number of different atomic species (ntypx) = 10
     Max number of k-points (npk) =  40000
     Max angular momentum in pseudopotentials (lmaxx) =  3
     Reading input from IrO2-v-1.2.in

     Subspace diagonalization in iterative solution of the eigenvalue problem:
     a serial algorithm will be used

     bravais-lattice index     =            0
     lattice parameter (alat)  =       9.2016  a.u.
     unit-cell volume          =     502.0761 (a.u.)^3
     number of atoms/cell      =            6
     number of atomic types    =            2
     number of electrons       =        54.00
     number of Kohn-Sham states=           78
     kinetic-energy cutoff     =      40.0000  Ry
     charge density cutoff     =     500.0000  Ry
     convergence threshold     =      1.0E-06
     mixing beta               =       0.7000
     number of iterations used =            8  plain     mixing
     Exchange-correlation      = SLA  PW   PBE  PBE ( 1 4 3 4 0)
     EXX-fraction              =        0.00
     nstep                     =           50

     celldm(1)=   9.201558  celldm(2)=   0.000000  celldm(3)=   0.000000
     celldm(4)=   0.000000  celldm(5)=   0.000000  celldm(6)=   0.000000

     crystal axes: (cart. coord. in units of alat)
               a(1) = (   1.000000   0.000000   0.000000 )
               a(2) = (   0.000000   1.000000   0.000000 )
               a(3) = (   0.000000   0.000000   0.644444 )

     reciprocal axes: (cart. coord. in units 2 pi/alat)
               b(1) = (  1.000000  0.000000  0.000000 )
               b(2) = (  0.000000  1.000000  0.000000 )
               b(3) = (  0.000000  0.000000  1.551724 )

     PseudoPot. # 1 for Ir read from file:
     /home/camp/zhonxu/pseudo/ir_pbe_v1.uspp.F.UPF
     MD5 check sum: abf987a9674477536ede83817f8f8b70
     Pseudo is Ultrasoft + core correction, Zval = 15.0
     Generated by new atomic code, or converted to UPF format
     Using radial grid of  983 points,  7 beta functions with:
                l(1) =   0
                l(2) =   0
                l(3) =   1
                l(4) =   1
                l(5) =   1
                l(6) =   2
                l(7) =   2
     Q(r) pseudized with  8 coefficients,  rinner =    1.350   1.350   1.350
                                                       1.350   1.350

     PseudoPot. # 2 for O  read from file:
     /home/camp/zhonxu/pseudo/o_pbe_v1.01.uspp.F.UPF
     MD5 check sum: 2bcb18d16ea4b960afae9ec6d52f22d2
     Pseudo is Ultrasoft + core correction, Zval =  6.0
     Generated by new atomic code, or converted to UPF format
     Using radial grid of  737 points,  5 beta functions with:
                l(1) =   0
                l(2) =   0
                l(3) =   1
                l(4) =   1
                l(5) =   2
     Q(r) pseudized with  8 coefficients,  rinner =    0.900   0.900   0.900
                                                       0.900   0.900

     atomic species   valence    mass     pseudopotential
        Ir0           15.00   192.22000     Ir( 1.00)
        O1             6.00    15.99940     O ( 1.00)

     Starting magnetic structure
     atomic species   magnetization
        Ir0          0.600
        O1           0.000

      8 Sym. Ops., with inversion, found
          (note:  8 additional sym.ops. were found but ignored
           their fractional translations are incommensurate with FFT grid)

   Cartesian axes

     site n.     atom                  positions (alat units)
         1           Ir0 tau(   1) = (   0.0000000   0.0000000   0.0000000  )
         2           Ir0 tau(   2) = (   0.5000000   0.5000000   0.3222222  )
         3           O1  tau(   3) = (   0.3050000   0.3050000   0.0000000  )
         4           O1  tau(   4) = (  -0.3050000  -0.3050000   0.0000000  )
         5           O1  tau(   5) = (   0.8050000   0.1950000   0.3222222  )
         6           O1  tau(   6) = (   0.1950000   0.8050000   0.3222222  )

     number of k points=    54  Methfessel-Paxton smearing, width (Ry)=  0.0100
                       cart. coord. in units 2pi/alat
        k(    1) = (   0.0000000   0.0000000   0.0000000), wk =   0.0080000
        k(    2) = (   0.0000000   0.0000000   0.3103448), wk =   0.0160000
        k(    3) = (   0.0000000   0.0000000   0.6206897), wk =   0.0160000
        k(    4) = (   0.0000000   0.2000000   0.0000000), wk =   0.0320000
        k(    5) = (   0.0000000   0.2000000   0.3103448), wk =   0.0640000
        k(    6) = (   0.0000000   0.2000000   0.6206897), wk =   0.0640000
        k(    7) = (   0.0000000   0.4000000   0.0000000), wk =   0.0320000
        k(    8) = (   0.0000000   0.4000000   0.3103448), wk =   0.0640000
        k(    9) = (   0.0000000   0.4000000   0.6206897), wk =   0.0640000
        k(   10) = (   0.2000000   0.2000000   0.0000000), wk =   0.0160000
        k(   11) = (   0.2000000   0.2000000   0.3103448), wk =   0.0320000
        k(   12) = (   0.2000000   0.2000000   0.6206897), wk =   0.0320000
        k(   13) = (   0.2000000   0.4000000   0.0000000), wk =   0.0320000
        k(   14) = (   0.2000000   0.4000000   0.3103448), wk =   0.0640000
        k(   15) = (   0.2000000   0.4000000   0.6206897), wk =   0.0640000
        k(   16) = (   0.4000000   0.4000000   0.0000000), wk =   0.0160000
        k(   17) = (   0.4000000   0.4000000   0.3103448), wk =   0.0320000
        k(   18) = (   0.4000000   0.4000000   0.6206897), wk =   0.0320000
        k(   19) = (  -0.2000000   0.2000000   0.0000000), wk =   0.0160000
        k(   20) = (  -0.2000000   0.2000000  -0.3103448), wk =   0.0320000
        k(   21) = (  -0.2000000   0.2000000  -0.6206897), wk =   0.0320000
        k(   22) = (  -0.2000000   0.4000000   0.0000000), wk =   0.0320000
        k(   23) = (  -0.2000000   0.4000000  -0.3103448), wk =   0.0640000
        k(   24) = (  -0.2000000   0.4000000  -0.6206897), wk =   0.0640000
        k(   25) = (  -0.4000000   0.4000000   0.0000000), wk =   0.0160000
        k(   26) = (  -0.4000000   0.4000000  -0.3103448), wk =   0.0320000
        k(   27) = (  -0.4000000   0.4000000  -0.6206897), wk =   0.0320000
        k(   28) = (   0.0000000   0.0000000   0.0000000), wk =   0.0080000
        k(   29) = (   0.0000000   0.0000000   0.3103448), wk =   0.0160000
        k(   30) = (   0.0000000   0.0000000   0.6206897), wk =   0.0160000
        k(   31) = (   0.0000000   0.2000000   0.0000000), wk =   0.0320000
        k(   32) = (   0.0000000   0.2000000   0.3103448), wk =   0.0640000
        k(   33) = (   0.0000000   0.2000000   0.6206897), wk =   0.0640000
        k(   34) = (   0.0000000   0.4000000   0.0000000), wk =   0.0320000
        k(   35) = (   0.0000000   0.4000000   0.3103448), wk =   0.0640000
        k(   36) = (   0.0000000   0.4000000   0.6206897), wk =   0.0640000
        k(   37) = (   0.2000000   0.2000000   0.0000000), wk =   0.0160000
        k(   38) = (   0.2000000   0.2000000   0.3103448), wk =   0.0320000
        k(   39) = (   0.2000000   0.2000000   0.6206897), wk =   0.0320000
        k(   40) = (   0.2000000   0.4000000   0.0000000), wk =   0.0320000
        k(   41) = (   0.2000000   0.4000000   0.3103448), wk =   0.0640000
        k(   42) = (   0.2000000   0.4000000   0.6206897), wk =   0.0640000
        k(   43) = (   0.4000000   0.4000000   0.0000000), wk =   0.0160000
        k(   44) = (   0.4000000   0.4000000   0.3103448), wk =   0.0320000
        k(   45) = (   0.4000000   0.4000000   0.6206897), wk =   0.0320000
        k(   46) = (  -0.2000000   0.2000000   0.0000000), wk =   0.0160000
        k(   47) = (  -0.2000000   0.2000000  -0.3103448), wk =   0.0320000
        k(   48) = (  -0.2000000   0.2000000  -0.6206897), wk =   0.0320000
        k(   49) = (  -0.2000000   0.4000000   0.0000000), wk =   0.0320000
        k(   50) = (  -0.2000000   0.4000000  -0.3103448), wk =   0.0640000
        k(   51) = (  -0.2000000   0.4000000  -0.6206897), wk =   0.0640000
        k(   52) = (  -0.4000000   0.4000000   0.0000000), wk =   0.0160000
        k(   53) = (  -0.4000000   0.4000000  -0.3103448), wk =   0.0320000
        k(   54) = (  -0.4000000   0.4000000  -0.6206897), wk =   0.0320000

     Largest allocated arrays     est. size (Mb)     dimensions
     Largest temporary arrays     est. size (Mb)     dimensions

     Check: negative/imaginary core charge=   -0.000005    0.000000

     Initial potential from superposition of free atoms
     Check: negative starting charge=(component1):   -0.667857
     Check: negative starting charge=(component2):   -0.166376

     starting charge   52.99993, renormalised to   54.00000

     negative rho (up, down):  0.680E+00 0.170E+00
     Starting wfc are   40 randomized atomic wfcs

     Self-consistent Calculation

     iteration #  1     ecut=    40.00 Ry     beta=0.70
     Davidson diagonalization with overlap
     ethr =  1.00E-02,  avg # of iterations =  5.2

     negative rho (up, down):  0.523E+00 0.224E+00

     total energy              =    -497.73730363 Ry
     Harris-Foulkes estimate   =    -501.58798690 Ry
     estimated scf accuracy    <       5.93584891 Ry

     total magnetization       =     8.82 Bohr mag/cell
     absolute magnetization    =     9.26 Bohr mag/cell

[...]

     End of self-consistent calculation

 ------ SPIN UP ------------

          k = 0.0000 0.0000 0.0000 (  2127 PWs)   bands (ev):

   -39.1218 -39.1218 -38.9757 -38.9755 -38.9264 -38.9205  -8.8612  -7.9036
    -7.2924  -7.2923   2.5035   2.8884   4.3628   4.3628   4.4773   6.5917
     6.5917   6.9914   8.0770   8.5219   8.5219   8.5371   8.5543   8.7903
     9.0794   9.0795   9.5315  11.0135  11.8932  14.1966  14.3941  14.3941
    15.5256  19.4893  19.4894  20.6595  20.6596  21.1774  22.9421  23.1489
    25.6427  25.7677  25.7678  27.3338  27.5925  29.5681  30.9133  30.9133
    31.9344  31.9344  33.4314  35.2854  35.3841  35.5336  35.5336  36.7301
    37.2262  38.1017  38.1213  39.1067  39.4239  39.4239  39.6425  39.6425
    40.2327  40.2328  41.3244  42.9737  43.6228  45.1629  45.1629  46.2667
    47.0455  47.0456  47.1671  47.3109  48.0493  48.0494

[...]

          k =-0.2000 0.2000 0.0000 (  2131 PWs)   bands (ev):

[...]

 ------ SPIN DOWN ----------

[...]

     the Fermi energy is    10.9501 ev

!    total energy              =    -501.21329488 Ry
     Harris-Foulkes estimate   =    -501.21329378 Ry
     estimated scf accuracy    <       0.00000086 Ry

     The total energy is the sum of the following terms:

     one-electron contribution =    -129.22289767 Ry
     hartree contribution      =      97.12193826 Ry
     xc contribution           =    -137.61200459 Ry
     ewald contribution        =    -331.49997519 Ry
     smearing contrib. (-TS)   =      -0.00035569 Ry

[...]

     convergence has been achieved in  14 iterations

     Forces acting on atoms (Ry/au):

     negative rho (up, down):  0.393E+00 0.391E+00
     atom    1 type  1   force =     0.00000000    0.00000000    0.00000000
     atom    2 type  1   force =     0.00000000    0.00000000    0.00000000
[...]
        k(    8) = (   0.0000023   0.4073089   0.2993069), wk =   0.0640000
        k(    9) = (   0.0000023   0.4073089   0.5986137), wk =   0.0640000
        k(   10) = (   0.2036556   0.2036556   0.0000000), wk =   0.0160000
        k(   11) = (   0.2036556   0.2036556   0.2993069), wk =   0.0320000
        k(   12) = (   0.2036556   0.2036556   0.5986137), wk =   0.0320000
        k(   13) = (   0.2036567   0.4073101   0.0000000), wk =   0.0320000
        k(   14) = (   0.2036567   0.4073101   0.2993069), wk =   0.0640000
        k(   15) = (   0.2036567   0.4073101   0.5986137), wk =   0.0640000
        k(   16) = (   0.4073112   0.4073112   0.0000000), wk =   0.0160000
        k(   17) = (   0.4073112   0.4073112   0.2993069), wk =   0.0320000
        k(   18) = (   0.4073112   0.4073112   0.5986137), wk =   0.0320000
        k(   19) = (  -0.2036533   0.2036533   0.0000000), wk =   0.0160000
        k(   20) = (  -0.2036533   0.2036533  -0.2993069), wk =   0.0320000
        k(   21) = (  -0.2036533   0.2036533  -0.5986137), wk =   0.0320000
        k(   22) = (  -0.2036522   0.4073078   0.0000000), wk =   0.0320000
        k(   23) = (  -0.2036522   0.4073078  -0.2993069), wk =   0.0640000
        k(   24) = (  -0.2036522   0.4073078  -0.5986137), wk =   0.0640000
        k(   25) = (  -0.4073066   0.4073066   0.0000000), wk =   0.0160000
        k(   26) = (  -0.4073066   0.4073066  -0.2993069), wk =   0.0320000
        k(   27) = (  -0.4073066   0.4073066  -0.5986137), wk =   0.0320000
        k(   28) = (   0.0000000   0.0000000   0.0000000), wk =   0.0080000
        k(   29) = (   0.0000000   0.0000000   0.2993069), wk =   0.0160000
        k(   30) = (   0.0000000   0.0000000   0.5986137), wk =   0.0160000
        k(   31) = (   0.0000011   0.2036545   0.0000000), wk =   0.0320000
        k(   32) = (   0.0000011   0.2036545   0.2993069), wk =   0.0640000
        k(   33) = (   0.0000011   0.2036545   0.5986137), wk =   0.0640000
        k(   34) = (   0.0000023   0.4073089   0.0000000), wk =   0.0320000
        k(   35) = (   0.0000023   0.4073089   0.2993069), wk =   0.0640000
        k(   36) = (   0.0000023   0.4073089   0.5986137), wk =   0.0640000
        k(   37) = (   0.2036556   0.2036556   0.0000000), wk =   0.0160000
        k(   38) = (   0.2036556   0.2036556   0.2993069), wk =   0.0320000
        k(   39) = (   0.2036556   0.2036556   0.5986137), wk =   0.0320000
        k(   40) = (   0.2036567   0.4073101   0.0000000), wk =   0.0320000
        k(   41) = (   0.2036567   0.4073101   0.2993069), wk =   0.0640000
        k(   42) = (   0.2036567   0.4073101   0.5986137), wk =   0.0640000
        k(   43) = (   0.4073112   0.4073112   0.0000000), wk =   0.0160000
        k(   44) = (   0.4073112   0.4073112   0.2993069), wk =   0.0320000
        k(   45) = (   0.4073112   0.4073112   0.5986137), wk =   0.0320000
        k(   46) = (  -0.2036533   0.2036533   0.0000000), wk =   0.0160000
        k(   47) = (  -0.2036533   0.2036533  -0.2993069), wk =   0.0320000
        k(   48) = (  -0.2036533   0.2036533  -0.5986137), wk =   0.0320000
        k(   49) = (  -0.2036522   0.4073078   0.0000000), wk =   0.0320000
        k(   50) = (  -0.2036522   0.4073078  -0.2993069), wk =   0.0640000
        k(   51) = (  -0.2036522   0.4073078  -0.5986137), wk =   0.0640000
        k(   52) = (  -0.4073066   0.4073066   0.0000000), wk =   0.0160000
        k(   53) = (  -0.4073066   0.4073066  -0.2993069), wk =   0.0320000
        k(   54) = (  -0.4073066   0.4073066  -0.5986137), wk =   0.0320000

     Check: negative/imaginary core charge=   -0.000005    0.000000
     Check: negative starting charge=(component1):   -0.835544

[...]

     Threshold (ethr) on eigenvalues was too large:
     Diagonalizing with lowered threshold

     Davidson diagonalization with overlap
     ethr =  8.53E-09,  avg # of iterations =  1.0

[...]

     Total force =     0.000015     Total SCF correction =     0.000028
     SCF correction compared to forces is large: reduce conv_thr to get better values

[...]

     Volume is kept fixed: isostatic pressure set to zero

     bfgs converged in   6 scf cycles and   5 bfgs steps
     (criteria: energy < 0.10E-03, force < 0.10E-02, cell < 0.50E+00)

     End of BFGS Geometry Optimization

     Final enthalpy =    -501.2221259052 Ry
Begin final coordinates
     new unit-cell volume =    502.07609 a.u.^3 (    74.40000 Ang^3 )

CELL_PARAMETERS (alat=  9.20155768)
   0.982055604  -0.000005520   0.000000000
  -0.000005520   0.982055604   0.000000000
   0.000000000   0.000000000   0.668210550

ATOMIC_POSITIONS (crystal)
Ir0      0.000000000   0.000000000   0.000000000    0   0   0
Ir0      0.500000000   0.500000000   0.500000000    0   0   0
O1       0.309186143   0.309186143   0.000000000    1   1   0
O1      -0.309186143  -0.309186143   0.000000000    1   1   0
O1       0.809185220   0.190814780   0.500000000    1   1   0
O1       0.190814780   0.809185220   0.500000000    1   1   0
End final coordinates

     A final scf calculation at the relaxed structure.
     The G-vectors are recalculated for the final unit cell
     Results may differ from those at the preceding step.

     bravais-lattice index     =            0
     lattice parameter (alat)  =       9.2016  a.u.
     unit-cell volume          =     502.0761 (a.u.)^3
     number of atoms/cell      =            6
     number of atomic types    =            2
     number of electrons       =        54.00
     number of Kohn-Sham states=           78
     kinetic-energy cutoff     =      40.0000  Ry
     charge density cutoff     =     500.0000  Ry
     convergence threshold     =      1.0E-08
     mixing beta               =       0.7000
     number of iterations used =            8  plain     mixing
     Exchange-correlation      = SLA  PW   PBE  PBE ( 1 4 3 4 0)
     EXX-fraction              =        0.00

     celldm(1)=   9.201558  celldm(2)=   0.000000  celldm(3)=   0.000000
     celldm(4)=   0.000000  celldm(5)=   0.000000  celldm(6)=   0.000000

     crystal axes: (cart. coord. in units of alat)
               a(1) = (   0.982056  -0.000006   0.000000 )
               a(2) = (  -0.000006   0.982056   0.000000 )
               a(3) = (   0.000000   0.000000   0.668211 )

     reciprocal axes: (cart. coord. in units 2 pi/alat)
               b(1) = (  1.018272  0.000006 -0.000000 )
               b(2) = (  0.000006  1.018272 -0.000000 )
               b(3) = ( -0.000000 -0.000000  1.496534 )

     PseudoPot. # 1 for Ir read from file:
     /home/camp/zhonxu/pseudo/ir_pbe_v1.uspp.F.UPF
     MD5 check sum: abf987a9674477536ede83817f8f8b70
     Pseudo is Ultrasoft + core correction, Zval = 15.0
     Generated by new atomic code, or converted to UPF format
     Using radial grid of  983 points,  7 beta functions with:
                l(1) =   0
                l(2) =   0
                l(3) =   1
                l(4) =   1
                l(5) =   1
                l(6) =   2
                l(7) =   2
     Q(r) pseudized with  8 coefficients,  rinner =    1.350   1.350   1.350
                                                       1.350   1.350

     PseudoPot. # 2 for O  read from file:
     /home/camp/zhonxu/pseudo/o_pbe_v1.01.uspp.F.UPF
     MD5 check sum: 2bcb18d16ea4b960afae9ec6d52f22d2
     Pseudo is Ultrasoft + core correction, Zval =  6.0
     Generated by new atomic code, or converted to UPF format
     Using radial grid of  737 points,  5 beta functions with:
                l(1) =   0
                l(2) =   0
                l(3) =   1
                l(4) =   1
                l(5) =   2
     Q(r) pseudized with  8 coefficients,  rinner =    0.900   0.900   0.900
                                                       0.900   0.900

     atomic species   valence    mass     pseudopotential
        Ir0           15.00   192.22000     Ir( 1.00)
        O1             6.00    15.99940     O ( 1.00)

     Starting magnetic structure
     atomic species   magnetization
        Ir0          0.600
        O1           0.000

      8 Sym. Ops., with inversion, found
          (note:  8 additional sym.ops. were found but ignored
           their fractional translations are incommensurate with FFT grid)

   Cartesian axes

     site n.     atom                  positions (alat units)
         1           Ir0 tau(   1) = (   0.0000000   0.0000000   0.0000000  )
         2           Ir0 tau(   2) = (   0.4910250   0.4910250   0.3341053  )
         3           O1  tau(   3) = (   0.3036363   0.3036363   0.0000000  )
         4           O1  tau(   4) = (  -0.3036363  -0.3036363   0.0000000  )
         5           O1  tau(   5) = (   0.7946638   0.1873863   0.3341053  )
         6           O1  tau(   6) = (   0.1873863   0.7946638   0.3341053  )

     number of k points=    54  Methfessel-Paxton smearing, width (Ry)=  0.0100
                       cart. coord. in units 2pi/alat
        k(    1) = (   0.0000000   0.0000000   0.0000000), wk =   0.0080000
        k(    2) = (   0.0000000   0.0000000   0.2993069), wk =   0.0160000
        k(    3) = (   0.0000000   0.0000000   0.5986137), wk =   0.0160000
        k(    4) = (   0.0000011   0.2036545   0.0000000), wk =   0.0320000
        k(    5) = (   0.0000011   0.2036545   0.2993069), wk =   0.0640000
        k(    6) = (   0.0000011   0.2036545   0.5986137), wk =   0.0640000
        k(    7) = (   0.0000023   0.4073089   0.0000000), wk =   0.0320000
        k(    8) = (   0.0000023   0.4073089   0.2993069), wk =   0.0640000
        k(    9) = (   0.0000023   0.4073089   0.5986137), wk =   0.0640000
        k(   10) = (   0.2036556   0.2036556   0.0000000), wk =   0.0160000
        k(   11) = (   0.2036556   0.2036556   0.2993069), wk =   0.0320000
        k(   12) = (   0.2036556   0.2036556   0.5986137), wk =   0.0320000
        k(   13) = (   0.2036567   0.4073101   0.0000000), wk =   0.0320000
        k(   14) = (   0.2036567   0.4073101   0.2993069), wk =   0.0640000
        k(   15) = (   0.2036567   0.4073101   0.5986137), wk =   0.0640000
        k(   16) = (   0.4073112   0.4073112   0.0000000), wk =   0.0160000
        k(   17) = (   0.4073112   0.4073112   0.2993069), wk =   0.0320000
        k(   18) = (   0.4073112   0.4073112   0.5986137), wk =   0.0320000
        k(   19) = (  -0.2036533   0.2036533   0.0000000), wk =   0.0160000
        k(   20) = (  -0.2036533   0.2036533  -0.2993069), wk =   0.0320000
        k(   21) = (  -0.2036533   0.2036533  -0.5986137), wk =   0.0320000
        k(   22) = (  -0.2036522   0.4073078   0.0000000), wk =   0.0320000
        k(   23) = (  -0.2036522   0.4073078  -0.2993069), wk =   0.0640000
        k(   24) = (  -0.2036522   0.4073078  -0.5986137), wk =   0.0640000
        k(   25) = (  -0.4073066   0.4073066   0.0000000), wk =   0.0160000
        k(   26) = (  -0.4073066   0.4073066  -0.2993069), wk =   0.0320000
        k(   27) = (  -0.4073066   0.4073066  -0.5986137), wk =   0.0320000
        k(   28) = (   0.0000000   0.0000000   0.0000000), wk =   0.0080000
        k(   29) = (   0.0000000   0.0000000   0.2993069), wk =   0.0160000
        k(   30) = (   0.0000000   0.0000000   0.5986137), wk =   0.0160000
        k(   31) = (   0.0000011   0.2036545   0.0000000), wk =   0.0320000
        k(   32) = (   0.0000011   0.2036545   0.2993069), wk =   0.0640000
        k(   33) = (   0.0000011   0.2036545   0.5986137), wk =   0.0640000
        k(   34) = (   0.0000023   0.4073089   0.0000000), wk =   0.0320000
        k(   35) = (   0.0000023   0.4073089   0.2993069), wk =   0.0640000
        k(   36) = (   0.0000023   0.4073089   0.5986137), wk =   0.0640000
        k(   37) = (   0.2036556   0.2036556   0.0000000), wk =   0.0160000
        k(   38) = (   0.2036556   0.2036556   0.2993069), wk =   0.0320000
        k(   39) = (   0.2036556   0.2036556   0.5986137), wk =   0.0320000
        k(   40) = (   0.2036567   0.4073101   0.0000000), wk =   0.0320000
        k(   41) = (   0.2036567   0.4073101   0.2993069), wk =   0.0640000
        k(   42) = (   0.2036567   0.4073101   0.5986137), wk =   0.0640000
        k(   43) = (   0.4073112   0.4073112   0.0000000), wk =   0.0160000
        k(   44) = (   0.4073112   0.4073112   0.2993069), wk =   0.0320000
        k(   45) = (   0.4073112   0.4073112   0.5986137), wk =   0.0320000
        k(   46) = (  -0.2036533   0.2036533   0.0000000), wk =   0.0160000
        k(   47) = (  -0.2036533   0.2036533  -0.2993069), wk =   0.0320000
        k(   48) = (  -0.2036533   0.2036533  -0.5986137), wk =   0.0320000
        k(   49) = (  -0.2036522   0.4073078   0.0000000), wk =   0.0320000
        k(   50) = (  -0.2036522   0.4073078  -0.2993069), wk =   0.0640000
        k(   51) = (  -0.2036522   0.4073078  -0.5986137), wk =   0.0640000
        k(   52) = (  -0.4073066   0.4073066   0.0000000), wk =   0.0160000
        k(   53) = (  -0.4073066   0.4073066  -0.2993069), wk =   0.0320000
        k(   54) = (  -0.4073066   0.4073066  -0.5986137), wk =   0.0320000

     Largest allocated arrays     est. size (Mb)     dimensions
     Largest temporary arrays     est. size (Mb)     dimensions

     Check: negative/imaginary core charge=   -0.000005    0.000000

     Initial potential from superposition of free atoms
     Check: negative starting charge=(component1):   -0.668890
     Check: negative starting charge=(component2):   -0.166656

     starting charge   52.99993, renormalised to   54.00000

     negative rho (up, down):  0.682E+00 0.170E+00
     Starting wfc are   40 randomized atomic wfcs

     Self-consistent Calculation

[...]

     total energy              =    -501.22233680 Ry
     Harris-Foulkes estimate   =    -501.22233800 Ry
     estimated scf accuracy    <       0.00000002 Ry

[...]

     iteration # 19     ecut=    40.00 Ry     beta=0.70
     Davidson diagonalization with overlap
     ethr =  4.44E-11,  avg # of iterations =  2.8

     negative rho (up, down):  0.393E+00 0.392E+00

     End of self-consistent calculation

 ------ SPIN UP ------------

[...]

 ------ SPIN DOWN ----------

[...]

          k = 0.4073 0.4073 0.5986 (  2145 PWs)   bands (ev):

[...]

          k =-0.4073 0.4073-0.5986 (  2145 PWs)   bands (ev):

   -39.1008 -39.1004 -39.0636 -39.0630 -38.8873 -38.8872  -7.7761  -7.7322
    -7.5976  -7.5745   3.8181   3.8821   4.3587   4.4825   4.7529   5.1052
     6.0848   6.1615   7.2553   7.3940   7.8373   8.1928   9.5296   9.5483
     9.6009  10.0869  10.5112  10.9195  12.3051  12.9625  13.3166  13.9685
    19.2521  19.5724  20.4724  20.5420  20.6481  20.6481  21.9440  22.4534
    23.1719  23.7454  26.9629  27.0305  28.6852  29.2404  29.8719  31.0502
    31.3776  31.4852  31.7644  32.9129  35.5363  35.9079  35.9689  36.0003
    37.6713  38.4284  38.8224  40.2776  40.3052  40.9259  41.1603  41.7132
    41.9255  42.0670  42.4133  43.3655  43.9820  44.2683  44.9298  45.6943
    46.1905  46.4390  46.8138  47.2680  47.3486  48.1928

     the Fermi energy is    10.9503 ev

!    total energy              =    -501.22233815 Ry
     Harris-Foulkes estimate   =    -501.22233815 Ry
     estimated scf accuracy    <          7.8E-10 Ry

     The total energy is the sum of the following terms:

     one-electron contribution =    -126.43213984 Ry
     hartree contribution      =      95.72796782 Ry
     xc contribution           =    -137.56978358 Ry
     ewald contribution        =    -332.94777629 Ry
     smearing contrib. (-TS)   =      -0.00060627 Ry

     total magnetization       =     0.01 Bohr mag/cell
     absolute magnetization    =     0.01 Bohr mag/cell

     convergence has been achieved in  19 iterations

     Forces acting on atoms (Ry/au):

     negative rho (up, down):  0.393E+00 0.392E+00
     atom    1 type  1   force =     0.00000000    0.00000000    0.00000000
     atom    2 type  1   force =     0.00000000    0.00000000    0.00000000
     atom    3 type  2   force =     0.00006205    0.00006205   -0.00000000
     atom    4 type  2   force =    -0.00006205   -0.00006205   -0.00000000
     atom    5 type  2   force =     0.00006522   -0.00006522    0.00000000
     atom    6 type  2   force =    -0.00006522    0.00006522    0.00000000

     Total force =     0.000180     Total SCF correction =     0.000007

     entering subroutine stress ...

     negative rho (up, down):  0.393E+00 0.392E+00
          total   stress  (Ry/bohr**3)                   (kbar)     P= -259.29
  -0.00176961   0.00000012   0.00000000       -260.32      0.02      0.00
   0.00000012  -0.00176961   0.00000000          0.02   -260.32      0.00
   0.00000000   0.00000000  -0.00174859          0.00      0.00   -257.23

     General routines

     Parallel routines

   This run was terminated on:  22:24:56  23Jan2014

   JOB DONE.