     Program PWSCF v.5.0.2 (svn rev. 9656) starts on 31May2014 at 11:23:21

     Current dimensions of program PWSCF are:
     Max number of different atomic species (ntypx) = 10
     Max number of k-points (npk) =  40000
     Max angular momentum in pseudopotentials (lmaxx) =  3
     Reading input from pwscf.in
Warning: card &CELL ignored
Warning: card / ignored

     Subspace diagonalization in iterative solution of the eigenvalue problem:
     a serial algorithm will be used

     bravais-lattice index     =            0
     lattice parameter (alat)  =      12.2076  a.u.
     unit-cell volume          =    7496.5096 (a.u.)^3
     number of atoms/cell      =           33
     number of atomic types    =            3
     number of electrons       =       253.00
     number of Kohn-Sham states=          379
     kinetic-energy cutoff     =      40.0000  Ry
     charge density cutoff     =     500.0000  Ry
     convergence threshold     =      1.0E-06
     mixing beta               =       0.7000
     number of iterations used =            8  plain     mixing
     Exchange-correlation      = SLA  PW   PBE  PBE ( 1 4 3 4 0)
     EXX-fraction              =        0.00
     nstep                     =           50

     celldm(1)=  12.207631  celldm(2)=   0.000000  celldm(3)=   0.000000
     celldm(4)=   0.000000  celldm(5)=   0.000000  celldm(6)=   0.000000

     crystal axes: (cart. coord. in units of alat)
               a(1) = (   1.000000   0.000000   0.000000 )
               a(2) = (   0.000000   1.004836   0.000000 )
               a(3) = (   0.000000   0.000000   4.100811 )

     reciprocal axes: (cart. coord. in units 2 pi/alat)
               b(1) = (  1.000000  0.000000  0.000000 )
               b(2) = (  0.000000  0.995187  0.000000 )
               b(3) = (  0.000000  0.000000  0.243854 )

     PseudoPot. # 1 for O  read from file:
     /home/camp/zhonxu/pseudo/o_pbe_v1.01.uspp.F.UPF
     MD5 check sum: 2bcb18d16ea4b960afae9ec6d52f22d2
     Pseudo is Ultrasoft + core correction, Zval =  6.0
     Generated by new atomic code, or converted to UPF format
     Using radial grid of  737 points,  5 beta functions with:
                l(1) =   0
                l(2) =   0
                l(3) =   1
                l(4) =   1
                l(5) =   2
     Q(r) pseudized with  8 coefficients,  rinner =    0.900   0.900   0.900
                                                       0.900   0.900

     PseudoPot. # 2 for Pt read from file:
     /home/camp/zhonxu/pseudo/pt_pbe_v1.uspp.F.UPF
     MD5 check sum: 4c71d6ad5ef119f1eb26a4d0b7884226
     Pseudo is Ultrasoft + core correction, Zval = 16.0
     Generated by new atomic code, or converted to UPF format
     Using radial grid of  985 points,  6 beta functions with:
                l(1) =   0
                l(2) =   0
                l(3) =   1
                l(4) =   1
                l(5) =   2
                l(6) =   2
     Q(r) pseudized with  8 coefficients,  rinner =    1.300   1.300   1.300
                                                       1.300   1.300

     PseudoPot. # 3 for H  read from file:
     /home/camp/zhonxu/pseudo/h_pbe_v1.uspp.F.UPF
     MD5 check sum: 3408e3ff4ec8b0a4e358431e7e038a48
     Pseudo is Ultrasoft, Zval =  1.0
     Generated by new atomic code, or converted to UPF format
     Using radial grid of  615 points,  2 beta functions with:
                l(1) =   0
                l(2) =   0
     Q(r) pseudized with  8 coefficients,  rinner =    0.700

     atomic species   valence    mass     pseudopotential
        O0             6.00    15.99940     O ( 1.00)
        Pt1           16.00   195.08000     Pt( 1.00)
        H2             1.00     1.00794     H ( 1.00)

     Simplified LDA+U calculation (l_max = 2) with parameters (eV):
     atomic species    L          U    alpha       J0     beta
        Pt1            2     8.0000   0.0000   0.0000   0.0000

     No symmetry found

   Cartesian axes

     site n.     atom                  positions (alat units)
         1           O0  tau(   1) = (   0.0000000   0.0000000   1.5494095  )
         2           O0  tau(   2) = (   0.0000000   0.5024180   1.6475009  )
         3           Pt1 tau(   3) = (   0.2500000   0.5024180   1.8504910  )
         4           Pt1 tau(   4) = (   0.0000000   0.0000000   1.8570523  )
         5           O0  tau(   5) = (   0.2500000   0.8139171   1.8187098  )
         6           O0  tau(   6) = (   0.2500000   0.1909188   1.8864142  )
         7           O0  tau(   7) = (   0.0000000   0.5024180   2.0369959  )
         8           O0  tau(   8) = (   0.0000000   0.0000000   2.1720357  )
         9           Pt1 tau(   9) = (   0.2500000   0.0000000   2.3614521  )
        10           Pt1 tau(  10) = (   0.0000000   0.5024180   2.3598528  )
        11           O0  tau(  11) = (   0.2500000   0.6933368   2.3268823  )
        12           O0  tau(  12) = (   0.2500000   0.3114991   2.4033624  )
        13           O0  tau(  13) = (   0.0000000   0.0000000   2.5482851  )
        14           O0  tau(  14) = (   0.5000000   0.0000000   1.5485073  )
        15           O0  tau(  15) = (   0.5000000   0.5024180   1.6434821  )
        16           Pt1 tau(  16) = (   0.7500000   0.5024180   1.8504910  )
        17           Pt1 tau(  17) = (   0.5000000   0.0000000   1.8561092  )
        18           O0  tau(  18) = (   0.7500000   0.8139171   1.8187918  )
        19           O0  tau(  19) = (   0.7500000   0.1909188   1.8863321  )
        20           O0  tau(  20) = (   0.5000000   0.5024180   2.0428191  )
        21           O0  tau(  21) = (   0.5000000   0.0000000   2.1708874  )
        22           Pt1 tau(  22) = (   0.7500000   0.0000000   2.3614521  )
        23           Pt1 tau(  23) = (   0.5000000   0.5024180   2.3628874  )
        24           O0  tau(  24) = (   0.7500000   0.6933368   2.3268003  )
        25           O0  tau(  25) = (   0.7500000   0.3114991   2.4034034  )
        26           O0  tau(  26) = (   0.5000000   0.0000000   2.5460296  )
        27           H2  tau(  27) = (   0.0000200   0.6429744   1.5830361  )
        28           H2  tau(  28) = (   0.5000600   0.6435874   1.5806577  )
        29           H2  tau(  29) = (   0.1433700   0.0339333   1.5082373  )
        30           H2  tau(  30) = (   0.6430800   0.0354607   1.5076632  )
        31           O0  tau(  31) = (   0.5001100   0.5589199   2.6603192  )
        32           O0  tau(  32) = (   0.4999400   0.3687346   2.7792838  )
        33           H2  tau(  33) = (   0.4999900   0.4305019   2.9192445  )

     number of k points=    10  Methfessel-Paxton smearing, width (Ry)=  0.0100
                       cart. coord. in units 2pi/alat
        k(    1) = (   0.0000000   0.0000000   0.0000000), wk =   0.1250000
        k(    2) = (   0.0000000   0.2487968   0.0000000), wk =   0.2500000
        k(    3) = (   0.0000000  -0.4975937   0.0000000), wk =   0.1250000
        k(    4) = (   0.2500000   0.0000000   0.0000000), wk =   0.2500000
        k(    5) = (   0.2500000   0.2487968   0.0000000), wk =   0.2500000
        k(    6) = (   0.2500000  -0.4975937   0.0000000), wk =   0.2500000
        k(    7) = (  -0.5000000   0.0000000   0.0000000), wk =   0.1250000
        k(    8) = (  -0.5000000   0.2487968   0.0000000), wk =   0.2500000
        k(    9) = (  -0.5000000  -0.4975937   0.0000000), wk =   0.1250000
        k(   10) = (  -0.2500000   0.2487968   0.0000000), wk =   0.2500000

     Largest allocated arrays     est. size (Mb)     dimensions
     Largest temporary arrays     est. size (Mb)     dimensions

     Check: negative/imaginary core charge=   -0.000003    0.000000

     Initial potential from superposition of free atoms
     Check: negative starting charge=   -1.535323

     starting charge  248.99983, renormalised to  253.00000

     negative rho (up, down):  0.156E+01 0.000E+00
     Number of +U iterations with fixed ns =  0
     Starting occupations:
 --- enter write_ns ---
 LDA+U parameters:
U( 2)     =  8.00000000
alpha( 2) =  0.00000000
atom    3   Tr[ns(na)] =   8.00000
    eigenvalues:
  0.800  0.800  0.800  0.800  0.800
    eigenvectors:
  1.000  0.000  0.000  0.000  0.000
  0.000  1.000  0.000  0.000  0.000
  0.000  0.000  1.000  0.000  0.000
  0.000  0.000  0.000  1.000  0.000
  0.000  0.000  0.000  0.000  1.000
    occupations:
  0.800  0.000  0.000  0.000  0.000
  0.000  0.800  0.000  0.000  0.000
  0.000  0.000  0.800  0.000  0.000
  0.000  0.000  0.000  0.800  0.000
  0.000  0.000  0.000  0.000  0.800
atom    4   Tr[ns(na)] =   8.00000
    eigenvalues:
  0.800  0.800  0.800  0.800  0.800
    eigenvectors:
  1.000  0.000  0.000  0.000  0.000
  0.000  1.000  0.000  0.000  0.000
  0.000  0.000  1.000  0.000  0.000
  0.000  0.000  0.000  1.000  0.000
  0.000  0.000  0.000  0.000  1.000
    occupations:
  0.800  0.000  0.000  0.000  0.000
  0.000  0.800  0.000  0.000  0.000
  0.000  0.000  0.800  0.000  0.000
  0.000  0.000  0.000  0.800  0.000
  0.000  0.000  0.000  0.000  0.800
atom    9   Tr[ns(na)] =   8.00000
    eigenvalues:
  0.800  0.800  0.800  0.800  0.800
    eigenvectors:
  1.000  0.000  0.000  0.000  0.000
  0.000  1.000  0.000  0.000  0.000
  0.000  0.000  1.000  0.000  0.000
  0.000  0.000  0.000  1.000  0.000
  0.000  0.000  0.000  0.000  1.000
    occupations:
  0.800  0.000  0.000  0.000  0.000
  0.000  0.800  0.000  0.000  0.000
  0.000  0.000  0.800  0.000  0.000
  0.000  0.000  0.000  0.800  0.000
  0.000  0.000  0.000  0.000  0.800
atom   10   Tr[ns(na)] =   8.00000
    eigenvalues:
  0.800  0.800  0.800  0.800  0.800
    eigenvectors:
  1.000  0.000  0.000  0.000  0.000
  0.000  1.000  0.000  0.000  0.000
  0.000  0.000  1.000  0.000  0.000
  0.000  0.000  0.000  1.000  0.000
  0.000  0.000  0.000  0.000  1.000
    occupations:
  0.800  0.000  0.000  0.000  0.000
  0.000  0.800  0.000  0.000  0.000
  0.000  0.000  0.800  0.000  0.000
  0.000  0.000  0.000  0.800  0.000
  0.000  0.000  0.000  0.000  0.800
atom   16   Tr[ns(na)] =   8.00000
    eigenvalues:
  0.800  0.800  0.800  0.800  0.800
    eigenvectors:
  1.000  0.000  0.000  0.000  0.000
  0.000  1.000  0.000  0.000  0.000
  0.000  0.000  1.000  0.000  0.000
  0.000  0.000  0.000  1.000  0.000
  0.000  0.000  0.000  0.000  1.000
    occupations:
  0.800  0.000  0.000  0.000  0.000
  0.000  0.800  0.000  0.000  0.000
  0.000  0.000  0.800  0.000  0.000
  0.000  0.000  0.000  0.800  0.000
  0.000  0.000  0.000  0.000  0.800
atom   17   Tr[ns(na)] =   8.00000
    eigenvalues:
  0.800  0.800  0.800  0.800  0.800
    eigenvectors:
  1.000  0.000  0.000  0.000  0.000
  0.000  1.000  0.000  0.000  0.000
  0.000  0.000  1.000  0.000  0.000
  0.000  0.000  0.000  1.000  0.000
  0.000  0.000  0.000  0.000  1.000
    occupations:
  0.800  0.000  0.000  0.000  0.000
  0.000  0.800  0.000  0.000  0.000
  0.000  0.000  0.800  0.000  0.000
  0.000  0.000  0.000  0.800  0.000
  0.000  0.000  0.000  0.000  0.800
atom   22   Tr[ns(na)] =   8.00000
    eigenvalues:
  0.800  0.800  0.800  0.800  0.800
    eigenvectors:
  1.000  0.000  0.000  0.000  0.000
  0.000  1.000  0.000  0.000  0.000
  0.000  0.000  1.000  0.000  0.000
[...]
  0.018  0.000  0.982  0.000  0.000
  0.000  0.001  0.000  0.193  0.806
  0.000  0.026  0.000  0.791  0.184
  0.982  0.000  0.018  0.000  0.000
    occupations:
  0.823 -0.000 -0.006  0.027  0.000
 -0.000  0.982 -0.000  0.000 -0.042
 -0.006 -0.000  0.991 -0.000  0.000
  0.027  0.000 -0.000  0.984 -0.000
  0.000 -0.042  0.000 -0.000  0.673
atom   16   Tr[ns(na)] =   8.82248
    eigenvalues:
  0.710  0.729  0.989  0.990  0.993
    eigenvectors:
  0.058  0.110  0.827  0.003  0.003
  0.694  0.305  0.000  0.000  0.000
  0.001  0.005  0.010  0.000  0.984
  0.246  0.580  0.161  0.000  0.012
  0.000  0.000  0.003  0.997  0.000
    occupations:
  0.944 -0.008  0.008 -0.099 -0.000
 -0.008  0.716 -0.001 -0.006 -0.002
  0.008 -0.001  0.991  0.019  0.000
 -0.099 -0.006  0.019  0.769 -0.001
 -0.000 -0.002  0.000 -0.001  0.990
atom   17   Tr[ns(na)] =   8.81693
    eigenvalues:
  0.710  0.732  0.987  0.989  0.990
    eigenvectors:
  0.000  0.984  0.011  0.004  0.002
  0.014  0.000  0.073  0.839  0.073
  0.000  0.006  0.735  0.011  0.248
  0.000  0.010  0.180  0.134  0.676
  0.986  0.000  0.001  0.012  0.001
    occupations:
  0.736 -0.004 -0.019  0.025 -0.001
 -0.004  0.985  0.000  0.000  0.033
 -0.019  0.000  0.987  0.003 -0.000
  0.025  0.000  0.003  0.987  0.000
 -0.001  0.033 -0.000  0.000  0.714
atom   22   Tr[ns(na)] =   8.81221
    eigenvalues:
  0.731  0.740  0.968  0.977  0.989
    eigenvectors:
  0.000  0.132  0.000  0.017  0.851
  0.999  0.001  0.000  0.000  0.000
  0.000  0.014  0.029  0.949  0.009
  0.001  0.854  0.000  0.005  0.140
  0.000  0.000  0.970  0.030  0.000
    occupations:
  0.956  0.002 -0.009 -0.084  0.000
  0.002  0.731  0.000 -0.000 -0.003
 -0.009  0.000  0.974 -0.026 -0.002
 -0.084 -0.000 -0.026  0.777  0.000
  0.000 -0.003 -0.002  0.000  0.968
atom   23   Tr[ns(na)] =   8.81441
    eigenvalues:
  0.724  0.727  0.978  0.988  0.990
    eigenvectors:
  0.000  0.955  0.000  0.035  0.009
  0.024  0.000  0.976  0.000  0.000
  0.000  0.035  0.000  0.965  0.000
  0.000  0.010  0.000  0.000  0.990
  0.976  0.000  0.024  0.000  0.000
    occupations:
  0.738  0.000  0.048  0.025 -0.000
  0.000  0.972  0.000 -0.000 -0.039
  0.048  0.000  0.979 -0.005 -0.000
  0.025 -0.000 -0.005  0.988 -0.000
 -0.000 -0.039 -0.000 -0.000  0.730
N of occupied +U levels =  70.6246007
 --- exit write_ns ---

     Threshold (ethr) on eigenvalues was too large:
     Diagonalizing with lowered threshold

     Davidson diagonalization with overlap
     ethr =  4.94E-09,  avg # of iterations =  2.0

[...]

     total energy              =   -2312.02764481 Ry
     Harris-Foulkes estimate   =   -2312.02764487 Ry
     estimated scf accuracy    <       0.00000144 Ry

     iteration # 14     ecut=    40.00 Ry     beta=0.70
     Davidson diagonalization with overlap
     ethr =  6.95E-12,  avg # of iterations =  2.0

     negative rho (up, down):  0.157E+01 0.000E+00

     End of self-consistent calculation
 --- enter write_ns ---
 LDA+U parameters:
U( 2)     =  8.00000000
alpha( 2) =  0.00000000
atom    3   Tr[ns(na)] =   8.82267
    eigenvalues:
  0.710  0.729  0.989  0.990  0.993
    eigenvectors:
  0.058  0.110  0.824  0.005  0.003
  0.694  0.305  0.000  0.000  0.000
  0.001  0.005  0.010  0.000  0.984
  0.246  0.580  0.160  0.001  0.013
  0.000  0.000  0.005  0.994  0.000
    occupations:
  0.944  0.008  0.008 -0.099  0.001
  0.008  0.716  0.001  0.006 -0.002
  0.008  0.001  0.991  0.019 -0.000
 -0.099  0.006  0.019  0.769  0.001
  0.001 -0.002 -0.000  0.001  0.990
atom    4   Tr[ns(na)] =   8.81798
    eigenvalues:
  0.710  0.732  0.988  0.989  0.990
    eigenvectors:
  0.000  0.984  0.011  0.003  0.002
  0.014  0.000  0.051  0.846  0.089
  0.000  0.006  0.760  0.003  0.231
  0.000  0.010  0.178  0.136  0.677
  0.986  0.000  0.001  0.012  0.001
    occupations:
  0.736 -0.004 -0.019  0.025 -0.001
 -0.004  0.985  0.000  0.000  0.033
 -0.019  0.000  0.987  0.003 -0.000
  0.025  0.000  0.003  0.987  0.000
 -0.001  0.033 -0.000  0.000  0.714
atom    9   Tr[ns(na)] =   8.81214
    eigenvalues:
  0.730  0.740  0.968  0.977  0.989
    eigenvectors:
  0.000  0.132  0.000  0.017  0.851
  0.997  0.003  0.000  0.000  0.000
  0.000  0.014  0.025  0.953  0.009
  0.003  0.852  0.000  0.005  0.140
  0.000  0.000  0.974  0.026  0.000
    occupations:
  0.956 -0.001 -0.009 -0.084 -0.000
 -0.001  0.731  0.000  0.001 -0.003
 -0.009  0.000  0.974 -0.026  0.001
 -0.084  0.001 -0.026  0.777 -0.000
 -0.000 -0.003  0.001 -0.000  0.968
atom   10   Tr[ns(na)] =   8.90613
    eigenvalues:
  0.667  0.819  0.987  0.988  0.992
    eigenvectors:
  0.000  0.973  0.000  0.017  0.010
  0.018  0.000  0.982  0.000  0.000
  0.000  0.001  0.000  0.192  0.807
  0.000  0.026  0.000  0.791  0.183
  0.982  0.000  0.018  0.000  0.000
    occupations:
  0.823 -0.000 -0.006  0.027  0.000
 -0.000  0.982 -0.000  0.000 -0.042
 -0.006 -0.000  0.991 -0.000  0.000
  0.027  0.000 -0.000  0.984 -0.000
  0.000 -0.042  0.000 -0.000  0.673
atom   16   Tr[ns(na)] =   8.82267
    eigenvalues:
  0.710  0.729  0.989  0.990  0.993
    eigenvectors:
  0.058  0.110  0.827  0.003  0.003
  0.694  0.306  0.000  0.000  0.000
  0.001  0.005  0.010  0.000  0.984
  0.247  0.580  0.161  0.000  0.012
  0.000  0.000  0.003  0.997  0.000
    occupations:
  0.944 -0.008  0.008 -0.099 -0.000
 -0.008  0.716 -0.001 -0.006 -0.002
  0.008 -0.001  0.991  0.019  0.000
 -0.099 -0.006  0.019  0.769 -0.001
 -0.000 -0.002  0.000 -0.001  0.990
atom   17   Tr[ns(na)] =   8.81687
    eigenvalues:
  0.710  0.732  0.987  0.989  0.990
    eigenvectors:
  0.000  0.984  0.011  0.004  0.002
  0.014  0.000  0.073  0.839  0.073
  0.000  0.006  0.735  0.011  0.249
  0.000  0.010  0.180  0.134  0.675
  0.986  0.000  0.001  0.012  0.001
    occupations:
  0.736 -0.004 -0.019  0.025 -0.001
 -0.004  0.985  0.000  0.000  0.033
 -0.019  0.000  0.987  0.003 -0.000
  0.025  0.000  0.003  0.987  0.000
 -0.001  0.033 -0.000  0.000  0.714
atom   22   Tr[ns(na)] =   8.81213
    eigenvalues:
  0.730  0.740  0.968  0.977  0.989
    eigenvectors:
  0.000  0.132  0.000  0.017  0.851
  0.999  0.001  0.000  0.000  0.000
  0.000  0.014  0.029  0.949  0.009
  0.001  0.854  0.000  0.005  0.140
  0.000  0.000  0.971  0.029  0.000
    occupations:
  0.956  0.002 -0.009 -0.084  0.000
  0.002  0.731  0.000 -0.000 -0.003
 -0.009  0.000  0.974 -0.026 -0.002
 -0.084 -0.000 -0.026  0.777  0.000
  0.000 -0.003 -0.002  0.000  0.968
atom   23   Tr[ns(na)] =   8.81407
    eigenvalues:
  0.724  0.727  0.978  0.988  0.990
    eigenvectors:
  0.000  0.955  0.000  0.035  0.009
  0.024  0.000  0.976  0.000  0.000
  0.000  0.035  0.000  0.965  0.000
  0.000  0.010  0.000  0.000  0.990
  0.976  0.000  0.024  0.000  0.000
    occupations:
  0.738  0.000  0.048  0.025 -0.000
  0.000  0.972  0.000 -0.000 -0.039
  0.048  0.000  0.979 -0.005 -0.000
  0.025 -0.000 -0.005  0.988 -0.000
 -0.000 -0.039 -0.000 -0.000  0.730
N of occupied +U levels =  70.6246576
 --- exit write_ns ---

[...]

          k = 0.2500-0.4976 0.0000 ( 32026 PWs)   bands (ev):

[...]

          k =-0.2500 0.2488 0.0000 ( 32025 PWs)   bands (ev):

   -54.2759 -54.2690 -54.2296 -54.2215 -54.1795 -54.1768 -54.1533 -54.1133
   -54.0911 -54.0868 -54.0467 -54.0429 -54.0162 -53.9472 -53.9432 -53.9082
   -53.9033 -53.8192 -53.8157 -53.7839 -53.7788 -53.2924 -53.0750 -52.6043
   -24.1333 -21.5410 -21.2765 -20.6725 -20.5465 -20.3440 -20.3184 -20.1778
   -20.0654 -19.9114 -19.8089 -19.7434 -19.6718 -19.5779 -19.4632 -19.4166
   -19.3539 -18.8255 -18.5501 -17.5951 -10.9672 -10.8497 -10.8070 -10.6020
   -10.4014 -10.3145 -10.2033 -10.0181  -9.9795  -9.5712  -9.4164  -9.2646
    -9.2140  -9.0768  -8.9186  -8.8719  -8.8170  -8.6661  -8.5575  -8.5134
    -8.3355  -8.1176  -8.0621  -8.0153  -7.9719  -7.7475  -7.6534  -7.5701
    -7.5537  -7.3603  -7.3260  -7.2244  -7.1938  -7.1281  -7.0287  -6.8942
    -6.8090  -6.7493  -6.6718  -6.5480  -6.4478  -6.3101  -6.0844  -5.8364
    -5.7688  -5.5012  -5.2970  -5.1845  -5.1338  -5.0684  -4.9423  -4.8523
    -4.8201  -4.6588  -4.5312  -4.3665  -4.2875  -4.0659  -3.8784  -3.8132
    -3.7461  -3.6196  -3.5473  -3.4500  -3.3104  -3.2546  -3.1762  -3.0442
    -2.9069  -2.8810  -2.6018  -2.5388  -2.3560  -2.2248  -2.1147  -2.0379
    -1.9782  -1.9281  -1.8738  -1.7626  -1.5035  -1.3995  -1.3222  -1.2122
    -0.5484  -0.3166  -0.2003   0.2388   0.4149   0.7798   0.9959   1.2660
     1.3644   1.4919   1.5831   1.8499   1.9654   2.0436   2.3114   3.3803
     3.8193   4.0223   4.5452   4.8864   5.0687   5.5194   5.7596   5.7976
     5.9622   6.1189   6.2493   6.4182   6.4991   6.7468   6.8684   6.9571
     7.0396   7.1710   7.3099   7.4657   7.6008   7.6835   7.7836   7.8797
     7.9666   8.1021   8.1952   8.2664   8.4241   8.5110   8.6494   8.7137
     8.8085   8.8420   9.0078   9.0621   9.1512   9.2458   9.3722   9.4373
     9.5269   9.5916   9.7078   9.7577   9.8863   9.9622  10.0051  10.1400
    10.2090  10.3044  10.3934  10.4640  10.5592  10.6476  10.7163  10.8094
    10.9350  11.0239  11.0702  11.1988  11.3138  11.3434  11.4666  11.5348
    11.6113  11.7351  11.7923  11.8589  11.9494  12.0508  12.0951  12.1663
    12.2143  12.3136  12.3874  12.4422  12.5842  12.6513  12.7350  12.8452
    12.8875  12.9456  13.0147  13.1075  13.2482  13.3188  13.3804  13.4865
    13.5640  13.6605  13.6849  13.7412  13.8358  13.8785  13.9850  14.0455
    14.1172  14.1771  14.2939  14.4344  14.4467  14.5227  14.6240  14.7308
    14.7828  14.8652  14.9710  14.9936  15.0579  15.1651  15.2024  15.2873
    15.3190  15.3554  15.3691  15.4258  15.5215  15.5733  15.6413  15.6619
    15.7847  15.8615  15.8923  15.9525  16.0009  16.0895  16.1491  16.1815
    16.2504  16.2914  16.3410  16.4313  16.5302  16.6138  16.7396  16.7749
    16.8300  16.9322  16.9786  17.0270  17.0562  17.1592  17.1966  17.2435
    17.3350  17.3607  17.4016  17.4649  17.4928  17.6039  17.6208  17.7217
    17.7628  17.9057  17.9673  18.0224  18.0757  18.1067  18.1740  18.2248
    18.2397  18.2600  18.2727  18.2838  18.3417  18.3566  18.3722  18.4076
    18.4322  18.5168  18.5686  18.6165  18.7239  18.7638  18.8790  18.9658
    18.9977  19.0500  19.1253  19.1383  19.2424  19.3139  19.3946  19.4142
    19.4786  19.5904  19.6387  19.6679  19.7291  19.8588  19.9841  20.0387
    20.1095  20.1728  20.2099  20.2553  20.2939  20.3380  20.3872  20.4530
    20.5468  20.5861  20.6432  20.7055  20.7343  20.8157  20.8317  20.8753
    20.9474  20.9970  21.0435  21.1355  21.1638  21.2432  21.3211  21.3626
    21.4190  21.5039  21.5287  21.5708  21.6282  21.6974  21.7742  21.8836
    21.9520  22.0021  22.0689  22.1437  22.1868  22.2549  22.3140  22.3272
    22.4550  22.4970  22.5177

     the Fermi energy is    -1.3148 ev

!    total energy              =   -2312.02764484 Ry
     Harris-Foulkes estimate   =   -2312.02764484 Ry
     estimated scf accuracy    <          3.8E-09 Ry

     The total energy is the sum of the following terms:

     one-electron contribution =  -24124.23415701 Ry
     hartree contribution      =   12115.23785816 Ry
     xc contribution           =    -580.10094446 Ry
     ewald contribution        =   10275.02322086 Ry
     Hubbard energy            =       2.04653925 Ry
     smearing contrib. (-TS)   =      -0.00016164 Ry

     convergence has been achieved in  14 iterations

     Forces acting on atoms (Ry/au):

     negative rho (up, down):  0.157E+01 0.000E+00
     atom    1 type  1   force =    -0.00738753   -0.00295159   -0.00014946
     atom    2 type  1   force =     0.00009943    0.00368049   -0.00056139
     atom    3 type  2   force =     0.00668854    0.00496138    0.00015452
     atom    4 type  2   force =     0.00945198    0.00350168   -0.00011386
     atom    5 type  1   force =     0.00112043   -0.00293417    0.00034877
     atom    6 type  1   force =     0.00019809   -0.00290532    0.00012337
     atom    7 type  1   force =     0.00011511   -0.00044542    0.00078194
     atom    8 type  1   force =    -0.00397401   -0.00011427   -0.00019057
     atom    9 type  2   force =     0.00686921    0.00336346   -0.00002008
     atom   10 type  2   force =    -0.00007842   -0.02212839    0.00011604
     atom   11 type  1   force =    -0.00071774    0.00302197   -0.00012623
     atom   12 type  1   force =    -0.01117858    0.00939813   -0.00006364
     atom   13 type  1   force =    -0.00109615   -0.00760693    0.00011386
     atom   14 type  1   force =    -0.00748475   -0.00268213   -0.00007732
     atom   15 type  1   force =     0.00011216    0.00090273    0.00028764
     atom   16 type  2   force =    -0.00757258    0.00507781    0.00014124
     atom   17 type  2   force =     0.00927596    0.00512090   -0.00003562
     atom   18 type  1   force =     0.00141857   -0.00295382    0.00034783
     atom   19 type  1   force =     0.00013767   -0.00285115    0.00012292
     atom   20 type  1   force =    -0.00004131   -0.00385651   -0.00019694
     atom   21 type  1   force =    -0.00383284    0.00261095   -0.00008697
     atom   22 type  2   force =    -0.00339287    0.00329489   -0.00002249
     atom   23 type  2   force =     0.00013904    0.00979827   -0.00036151
     atom   24 type  1   force =     0.00081205    0.00308648   -0.00012508
     atom   25 type  1   force =     0.01123873    0.00941978   -0.00006844
     atom   26 type  1   force =    -0.00101990   -0.01667301    0.00016918
     atom   27 type  3   force =    -0.00000372    0.00034444   -0.00008060
     atom   28 type  3   force =    -0.00000236   -0.00010824    0.00009320
     atom   29 type  3   force =     0.00007070   -0.00001443    0.00008187
     atom   30 type  3   force =     0.00006288   -0.00007853    0.00005956
     atom   31 type  1   force =     0.00001902    0.00015086   -0.00061995
     atom   32 type  1   force =    -0.00007262    0.00027743   -0.00006376
     atom   33 type  3   force =     0.00002583    0.00029224    0.00002198

     Total force =     0.001559     Total SCF correction =     0.000233
     SCF correction compared to forces is large: reduce conv_thr to get better values

     entering subroutine stress ...

     negative rho (up, down):  0.157E+01 0.000E+00
          total   stress  (Ry/bohr**3)                   (kbar)     P=  -21.68
  -0.00023553   0.00000015   0.00000369        -34.65      0.02      0.54
   0.00000015  -0.00015326  -0.00000830          0.02    -22.55     -1.22
   0.00000369  -0.00000830  -0.00005324          0.54     -1.22     -7.83

     bfgs converged in  13 scf cycles and  12 bfgs steps
     (criteria: energy < 0.10E-03, force < 0.10E-02)

     End of BFGS Geometry Optimization

     Final energy   =   -2312.0276448400 Ry
Begin final coordinates

ATOMIC_POSITIONS (crystal)
O0       0.000000000   0.000000000   0.377591150    0   0   1
O0       0.000000000   0.500000000   0.401669029    0   0   1
Pt1      0.250000000   0.500000000   0.451113200    0   0   1
Pt1      0.000000000   0.000000000   0.452733875    0   0   1
O0       0.250000000   0.810000000   0.442128278    0   0   1
O0       0.250000000   0.190000000   0.461376238    0   0   1
O0       0.000000000   0.500000000   0.496294667    0   0   1
O0       0.000000000   0.000000000   0.529827329    0   0   1
Pt1      0.250000000   0.000000000   0.575757919    0   0   1
Pt1      0.000000000   0.500000000   0.575857054    0   0   1
O0       0.250000000   0.690000000   0.565678285    0   0   1
O0       0.250000000   0.310000000   0.587210743    0   0   1
O0       0.000000000   0.000000000   0.621494992    0   0   1
O0       0.500000000   0.000000000   0.377443519    0   0   1
O0       0.500000000   0.500000000   0.400975142    0   0   1
Pt1      0.750000000   0.500000000   0.451117332    0   0   1
Pt1      0.500000000   0.000000000   0.452572362    0   0   1
O0       0.750000000   0.810000000   0.442137293    0   0   1
O0       0.750000000   0.190000000   0.461363912    0   0   1
O0       0.500000000   0.500000000   0.498037913    0   0   1
O0       0.500000000   0.000000000   0.529599885    0   0   1
Pt1      0.750000000   0.000000000   0.575755077    0   0   1
Pt1      0.500000000   0.500000000   0.575822024    0   0   1
O0       0.750000000   0.690000000   0.565655004    0   0   1
O0       0.750000000   0.310000000   0.587197570    0   0   1
O0       0.500000000   0.000000000   0.621054950    0   0   1
H2       0.000020918   0.641563475   0.386865172
H2       0.500047303   0.641798130   0.386406092
H2       0.143985072   0.034034911   0.368098707
H2       0.643653481   0.035302471   0.367941831
O0       0.500251831   0.557139449   0.649014239
O0       0.499726907   0.369278986   0.677241916
H2       0.500044480   0.428230038   0.711697300
End final coordinates

     General routines

     Parallel routines
     Hubbard U routines

   This run was terminated on:   4:38: 0   1Jun2014

   JOB DONE.