     Program PWSCF v.5.0.2 (svn rev. 9656) starts on  1Jun2014 at  6:41: 5

     Current dimensions of program PWSCF are:
     Max number of different atomic species (ntypx) = 10
     Max number of k-points (npk) =  40000
     Max angular momentum in pseudopotentials (lmaxx) =  3
     Reading input from pwscf.in
Warning: card &CELL ignored
Warning: card / ignored

     Subspace diagonalization in iterative solution of the eigenvalue problem:
     a serial algorithm will be used

     bravais-lattice index     =            0
     lattice parameter (alat)  =      11.1872  a.u.
     unit-cell volume          =    7531.8600 (a.u.)^3
     number of atoms/cell      =           33
     number of atomic types    =            3
     number of electrons       =       229.00
     number of Kohn-Sham states=          343
     kinetic-energy cutoff     =      40.0000  Ry
     charge density cutoff     =     500.0000  Ry
     convergence threshold     =      1.0E-06
     mixing beta               =       0.7000
     number of iterations used =            8  plain     mixing
     Exchange-correlation      = SLA  PW   PBE  PBE ( 1 4 3 4 0)
     EXX-fraction              =        0.00
     nstep                     =           50

     celldm(1)=  11.187179  celldm(2)=   0.000000  celldm(3)=   0.000000
     celldm(4)=   0.000000  celldm(5)=   0.000000  celldm(6)=   0.000000

     crystal axes: (cart. coord. in units of alat)
               a(1) = (   1.000000   0.000000   0.000000 )
               a(2) = (   0.000000   1.180104   0.000000 )
               a(3) = (   0.000000   0.000000   4.558482 )

     reciprocal axes: (cart. coord. in units 2 pi/alat)
               b(1) = (  1.000000  0.000000  0.000000 )
               b(2) = (  0.000000  0.847383  0.000000 )
               b(3) = (  0.000000  0.000000  0.219371 )

     PseudoPot. # 1 for O  read from file:
     /home/camp/zhonxu/pseudo/o_pbe_v1.01.uspp.F.UPF
     MD5 check sum: 2bcb18d16ea4b960afae9ec6d52f22d2
     Pseudo is Ultrasoft + core correction, Zval =  6.0
     Generated by new atomic code, or converted to UPF format
     Using radial grid of  737 points,  5 beta functions with:
                l(1) =   0
                l(2) =   0
                l(3) =   1
                l(4) =   1
                l(5) =   2
     Q(r) pseudized with  8 coefficients,  rinner =    0.900   0.900   0.900
                                                       0.900   0.900

     PseudoPot. # 2 for Nb read from file:
     /home/camp/zhonxu/pseudo/nb_pbe_v1.uspp.F.UPF
     MD5 check sum: 573aab8a2fa660278ed4a62cd769473f
     Pseudo is Ultrasoft + core correction, Zval = 13.0
     Generated by new atomic code, or converted to UPF format
     Using radial grid of  887 points,  6 beta functions with:
                l(1) =   0
                l(2) =   0
                l(3) =   1
                l(4) =   1
                l(5) =   2
                l(6) =   2
     Q(r) pseudized with  6 coefficients,  rinner =    1.000   1.000   1.000
                                                       1.000   1.000

     PseudoPot. # 3 for H  read from file:
     /home/camp/zhonxu/pseudo/h_pbe_v1.uspp.F.UPF
     MD5 check sum: 3408e3ff4ec8b0a4e358431e7e038a48
     Pseudo is Ultrasoft, Zval =  1.0
     Generated by new atomic code, or converted to UPF format
     Using radial grid of  615 points,  2 beta functions with:
                l(1) =   0
                l(2) =   0
     Q(r) pseudized with  8 coefficients,  rinner =    0.700

     atomic species   valence    mass     pseudopotential
        O0             6.00    15.99940     O ( 1.00)
        Nb1           13.00    92.90640     Nb( 1.00)
        H2             1.00     1.00794     H ( 1.00)

     Simplified LDA+U calculation (l_max = 2) with parameters (eV):
     atomic species    L          U    alpha       J0     beta
        Nb1            2     2.0000   0.0000   0.0000   0.0000

     No symmetry found

   Cartesian axes

     site n.     atom                  positions (alat units)
         1           O0  tau(   1) = (   0.0000000   0.0000000   1.6962113  )
         2           O0  tau(   2) = (   0.0000000   0.5900519   1.7723835  )
         3           Nb1 tau(   3) = (   0.2500000   0.5900519   2.0257895  )
         4           Nb1 tau(   4) = (   0.0000000   0.0000000   2.0274306  )
         5           O0  tau(   5) = (   0.2500000   0.9322821   2.0383253  )
         6           O0  tau(   6) = (   0.2500000   0.2478218   2.0381886  )
         7           O0  tau(   7) = (   0.0000000   0.5900519   2.2790132  )
         8           O0  tau(   8) = (   0.0000000   0.0000000   2.3853170  )
         9           Nb1 tau(   9) = (   0.2500000   0.0000000   2.6318397  )
        10           Nb1 tau(  10) = (   0.0000000   0.5900519   2.5956910  )
        11           O0  tau(  11) = (   0.2500000   0.8378738   2.6232242  )
        12           O0  tau(  12) = (   0.2500000   0.3422301   2.6255034  )
        13           O0  tau(  13) = (   0.0000000   0.0000000   2.8344187  )
        14           O0  tau(  14) = (   0.5000000   0.0000000   1.6974420  )
        15           O0  tau(  15) = (   0.5000000   0.5900519   1.7789021  )
        16           Nb1 tau(  16) = (   0.7500000   0.5900519   2.0259719  )
        17           Nb1 tau(  17) = (   0.5000000   0.0000000   2.0298010  )
        18           O0  tau(  18) = (   0.7500000   0.9322821   2.0382798  )
        19           O0  tau(  19) = (   0.7500000   0.2478218   2.0381886  )
        20           O0  tau(  20) = (   0.5000000   0.5900519   2.2737254  )
        21           O0  tau(  21) = (   0.5000000   0.0000000   2.3845421  )
        22           Nb1 tau(  22) = (   0.7500000   0.0000000   2.6318397  )
        23           Nb1 tau(  23) = (   0.5000000   0.5900519   2.6269166  )
        24           O0  tau(  24) = (   0.7500000   0.8378738   2.6231786  )
        25           O0  tau(  25) = (   0.7500000   0.3422301   2.6254579  )
        26           O0  tau(  26) = (   0.5000000   0.0000000   2.8332335  )
        27           H2  tau(  27) = (  -0.0005200   0.5958463   1.6070929  )
        28           H2  tau(  28) = (   0.4994400   0.5914445   1.6138395  )
        29           H2  tau(  29) = (   0.1507700   0.0008261   1.6243240  )
        30           H2  tau(  30) = (   0.6503900   0.0006019   1.6249166  )
        31           O0  tau(  31) = (   0.5000000   0.6010623   2.9587285  )
        32           O0  tau(  32) = (   0.5000000   0.4103103   3.1155403  )
        33           H2  tau(  33) = (   0.5000000   0.4955964   3.2584031  )

     number of k points=    10  Methfessel-Paxton smearing, width (Ry)=  0.0100
                       cart. coord. in units 2pi/alat
        k(    1) = (   0.0000000   0.0000000   0.0000000), wk =   0.1250000
        k(    2) = (   0.0000000   0.2118458   0.0000000), wk =   0.2500000
        k(    3) = (   0.0000000  -0.4236915   0.0000000), wk =   0.1250000
        k(    4) = (   0.2500000   0.0000000   0.0000000), wk =   0.2500000
        k(    5) = (   0.2500000   0.2118458   0.0000000), wk =   0.2500000
        k(    6) = (   0.2500000  -0.4236915   0.0000000), wk =   0.2500000
        k(    7) = (  -0.5000000   0.0000000   0.0000000), wk =   0.1250000
        k(    8) = (  -0.5000000   0.2118458   0.0000000), wk =   0.2500000
        k(    9) = (  -0.5000000  -0.4236915   0.0000000), wk =   0.1250000
        k(   10) = (  -0.2500000   0.2118458   0.0000000), wk =   0.2500000

     Largest allocated arrays     est. size (Mb)     dimensions
     Largest temporary arrays     est. size (Mb)     dimensions

     Check: negative/imaginary core charge=   -0.000003    0.000000

     Initial potential from superposition of free atoms
     Check: negative starting charge=   -0.003307

     starting charge  228.97806, renormalised to  229.00000

     negative rho (up, down):  0.331E-02 0.000E+00
     Number of +U iterations with fixed ns =  0
     Starting occupations:
 --- enter write_ns ---
 LDA+U parameters:
U( 2)     =  2.00000000
alpha( 2) =  0.00000000
atom    3   Tr[ns(na)] =   3.00000
    eigenvalues:
  0.300  0.300  0.300  0.300  0.300
    eigenvectors:
  1.000  0.000  0.000  0.000  0.000
  0.000  1.000  0.000  0.000  0.000
  0.000  0.000  1.000  0.000  0.000
  0.000  0.000  0.000  1.000  0.000
  0.000  0.000  0.000  0.000  1.000
    occupations:
  0.300  0.000  0.000  0.000  0.000
  0.000  0.300  0.000  0.000  0.000
  0.000  0.000  0.300  0.000  0.000
  0.000  0.000  0.000  0.300  0.000
  0.000  0.000  0.000  0.000  0.300
atom    4   Tr[ns(na)] =   3.00000
    eigenvalues:
  0.300  0.300  0.300  0.300  0.300
    eigenvectors:
  1.000  0.000  0.000  0.000  0.000
  0.000  1.000  0.000  0.000  0.000
  0.000  0.000  1.000  0.000  0.000
  0.000  0.000  0.000  1.000  0.000
  0.000  0.000  0.000  0.000  1.000
    occupations:
  0.300  0.000  0.000  0.000  0.000
  0.000  0.300  0.000  0.000  0.000
  0.000  0.000  0.300  0.000  0.000
  0.000  0.000  0.000  0.300  0.000
  0.000  0.000  0.000  0.000  0.300
atom    9   Tr[ns(na)] =   3.00000
    eigenvalues:
  0.300  0.300  0.300  0.300  0.300
    eigenvectors:
  1.000  0.000  0.000  0.000  0.000
  0.000  1.000  0.000  0.000  0.000
  0.000  0.000  1.000  0.000  0.000
  0.000  0.000  0.000  1.000  0.000
  0.000  0.000  0.000  0.000  1.000
    occupations:
  0.300  0.000  0.000  0.000  0.000
  0.000  0.300  0.000  0.000  0.000
  0.000  0.000  0.300  0.000  0.000
  0.000  0.000  0.000  0.300  0.000
  0.000  0.000  0.000  0.000  0.300
atom   10   Tr[ns(na)] =   3.00000
    eigenvalues:
  0.300  0.300  0.300  0.300  0.300
    eigenvectors:
  1.000  0.000  0.000  0.000  0.000
  0.000  1.000  0.000  0.000  0.000
  0.000  0.000  1.000  0.000  0.000
  0.000  0.000  0.000  1.000  0.000
  0.000  0.000  0.000  0.000  1.000
    occupations:
  0.300  0.000  0.000  0.000  0.000
  0.000  0.300  0.000  0.000  0.000
  0.000  0.000  0.300  0.000  0.000
  0.000  0.000  0.000  0.300  0.000
  0.000  0.000  0.000  0.000  0.300
atom   16   Tr[ns(na)] =   3.00000
    eigenvalues:
  0.300  0.300  0.300  0.300  0.300
    eigenvectors:
  1.000  0.000  0.000  0.000  0.000
  0.000  1.000  0.000  0.000  0.000
  0.000  0.000  1.000  0.000  0.000
  0.000  0.000  0.000  1.000  0.000
  0.000  0.000  0.000  0.000  1.000
    occupations:
  0.300  0.000  0.000  0.000  0.000
  0.000  0.300  0.000  0.000  0.000
  0.000  0.000  0.300  0.000  0.000
  0.000  0.000  0.000  0.300  0.000
  0.000  0.000  0.000  0.000  0.300
atom   17   Tr[ns(na)] =   3.00000
    eigenvalues:
  0.300  0.300  0.300  0.300  0.300
    eigenvectors:
  1.000  0.000  0.000  0.000  0.000
  0.000  1.000  0.000  0.000  0.000
  0.000  0.000  1.000  0.000  0.000
  0.000  0.000  0.000  1.000  0.000
  0.000  0.000  0.000  0.000  1.000
    occupations:
  0.300  0.000  0.000  0.000  0.000
  0.000  0.300  0.000  0.000  0.000
  0.000  0.000  0.300  0.000  0.000
  0.000  0.000  0.000  0.300  0.000
  0.000  0.000  0.000  0.000  0.300
atom   22   Tr[ns(na)] =   3.00000
    eigenvalues:
  0.300  0.300  0.300  0.300  0.300
    eigenvectors:
  1.000  0.000  0.000  0.000  0.000
  0.000  1.000  0.000  0.000  0.000
  0.000  0.000  1.000  0.000  0.000
[...]
  0.000  0.000  0.005  0.000  0.995
  0.000  0.000  0.000  1.000  0.000
    occupations:
  0.509  0.000  0.000  0.008 -0.000
  0.000  0.484 -0.000 -0.000  0.001
  0.000 -0.000  0.392 -0.000  0.000
  0.008 -0.000 -0.000  0.627  0.000
 -0.000  0.001  0.000  0.000  0.545
atom   16   Tr[ns(na)] =   5.22461
    eigenvalues:
  0.398  0.426  0.517  0.572  0.699
    eigenvectors:
  0.000  0.000  0.002  0.430  0.567
  0.000  0.000  0.996  0.004  0.000
  0.002  0.998  0.000  0.000  0.000
  0.000  0.000  0.002  0.566  0.432
  0.998  0.002  0.000  0.000  0.000
    occupations:
  0.644  0.004  0.005 -0.063  0.005
  0.004  0.517  0.001  0.002 -0.000
  0.005  0.001  0.426 -0.003 -0.001
 -0.063  0.002 -0.003  0.627 -0.004
  0.005 -0.000 -0.001 -0.004  0.398
atom   17   Tr[ns(na)] =   5.24314
    eigenvalues:
  0.414  0.448  0.549  0.583  0.627
    eigenvectors:
  0.000  0.004  0.000  0.995  0.001
  0.000  0.995  0.000  0.005  0.001
  1.000  0.000  0.000  0.000  0.000
  0.000  0.001  0.000  0.001  0.998
  0.000  0.000  1.000  0.000  0.000
    occupations:
  0.582  0.009 -0.000  0.002  0.000
  0.009  0.449 -0.000 -0.006  0.000
 -0.000 -0.000  0.414  0.002  0.001
  0.002 -0.006  0.002  0.627  0.000
  0.000  0.000  0.001  0.000  0.549
atom   22   Tr[ns(na)] =   5.28573
    eigenvalues:
  0.458  0.468  0.500  0.606  0.611
    eigenvectors:
  0.881  0.000  0.000  0.116  0.002
  0.000  0.000  0.000  0.020  0.980
  0.000  0.098  0.902  0.000  0.000
  0.119  0.000  0.000  0.864  0.017
  0.000  0.902  0.098  0.000  0.000
    occupations:
  0.475  0.000 -0.000  0.048 -0.000
  0.000  0.611 -0.000  0.001  0.000
 -0.000 -0.000  0.497 -0.000 -0.010
  0.048  0.001 -0.000  0.588  0.000
 -0.000  0.000 -0.010  0.000  0.471
atom   23   Tr[ns(na)] =   5.25962
    eigenvalues:
  0.398  0.487  0.549  0.586  0.610
    eigenvectors:
  0.003  0.000  0.000  0.983  0.014
  0.000  0.996  0.004  0.000  0.000
  0.997  0.000  0.000  0.003  0.001
  0.000  0.000  0.000  0.014  0.986
  0.000  0.004  0.996  0.000  0.000
    occupations:
  0.586  0.000  0.010  0.003 -0.000
  0.000  0.487 -0.000  0.000 -0.004
  0.010 -0.000  0.399  0.004  0.000
  0.003  0.000  0.004  0.610 -0.000
 -0.000 -0.004  0.000 -0.000  0.549
N of occupied +U levels =  41.8807275
 --- exit write_ns ---

     Threshold (ethr) on eigenvalues was too large:
     Diagonalizing with lowered threshold

     Davidson diagonalization with overlap
     ethr =  1.68E-08,  avg # of iterations =  2.3

[...]

     total energy              =   -1594.29077689 Ry
     Harris-Foulkes estimate   =   -1594.29077690 Ry
     estimated scf accuracy    <       0.00000004 Ry

     iteration # 11     ecut=    40.00 Ry     beta=0.70
     Davidson diagonalization with overlap
     ethr =  1.96E-11,  avg # of iterations =  1.0

     negative rho (up, down):  0.334E-02 0.000E+00

     End of self-consistent calculation
 --- enter write_ns ---
 LDA+U parameters:
U( 2)     =  2.00000000
alpha( 2) =  0.00000000
atom    3   Tr[ns(na)] =   5.22213
    eigenvalues:
  0.396  0.426  0.517  0.572  0.699
    eigenvectors:
  0.000  0.001  0.002  0.431  0.566
  0.000  0.000  0.996  0.004  0.000
  0.048  0.952  0.000  0.000  0.000
  0.000  0.000  0.002  0.566  0.432
  0.952  0.048  0.000  0.000  0.001
    occupations:
  0.644 -0.003  0.005 -0.063 -0.005
 -0.003  0.517 -0.001 -0.001 -0.000
  0.005 -0.001  0.425 -0.003 -0.007
 -0.063 -0.001 -0.003  0.627  0.004
 -0.005 -0.000 -0.007  0.004  0.397
atom    4   Tr[ns(na)] =   5.24337
    eigenvalues:
  0.411  0.447  0.550  0.582  0.632
    eigenvectors:
  0.000  0.005  0.000  0.994  0.001
  0.000  0.995  0.000  0.005  0.001
  1.000  0.000  0.000  0.000  0.000
  0.000  0.001  0.000  0.001  0.998
  0.000  0.000  1.000  0.000  0.000
    occupations:
  0.581  0.009 -0.000  0.002 -0.000
  0.009  0.448 -0.000 -0.006 -0.000
 -0.000 -0.000  0.411 -0.000  0.001
  0.002 -0.006 -0.000  0.632  0.000
 -0.000 -0.000  0.001  0.000  0.550
atom    9   Tr[ns(na)] =   5.28649
    eigenvalues:
  0.458  0.468  0.501  0.606  0.611
    eigenvectors:
  0.881  0.000  0.000  0.116  0.003
  0.000  0.000  0.000  0.025  0.975
  0.000  0.096  0.904  0.000  0.000
  0.119  0.000  0.000  0.860  0.022
  0.000  0.903  0.096  0.000  0.000
    occupations:
  0.475 -0.000  0.000  0.048  0.000
 -0.000  0.611  0.000 -0.001  0.000
  0.000  0.000  0.497 -0.000  0.010
  0.048 -0.001 -0.000  0.588 -0.000
  0.000  0.000  0.010 -0.000  0.471
atom   10   Tr[ns(na)] =   5.11683
    eigenvalues:
  0.392  0.485  0.509  0.545  0.628
    eigenvectors:
  0.000  0.000  0.995  0.000  0.005
  0.000  1.000  0.000  0.000  0.000
  1.000  0.000  0.000  0.000  0.000
  0.000  0.000  0.005  0.000  0.995
  0.000  0.000  0.000  1.000  0.000
    occupations:
  0.509  0.000  0.000  0.008 -0.000
  0.000  0.485 -0.000 -0.000  0.001
  0.000 -0.000  0.392 -0.000  0.000
  0.008 -0.000 -0.000  0.627  0.000
 -0.000  0.001  0.000  0.000  0.545
atom   16   Tr[ns(na)] =   5.22266
    eigenvalues:
  0.398  0.426  0.517  0.572  0.699
    eigenvectors:
  0.000  0.000  0.002  0.431  0.566
  0.000  0.000  0.996  0.004  0.000
  0.002  0.998  0.000  0.000  0.000
  0.000  0.000  0.002  0.565  0.433
  0.998  0.002  0.000  0.000  0.000
    occupations:
  0.644  0.004  0.005 -0.063  0.005
  0.004  0.517  0.001  0.002 -0.000
  0.005  0.001  0.426 -0.003 -0.001
 -0.063  0.002 -0.003  0.627 -0.004
  0.005 -0.000 -0.001 -0.004  0.398
atom   17   Tr[ns(na)] =   5.24312
    eigenvalues:
  0.414  0.448  0.549  0.583  0.627
    eigenvectors:
  0.000  0.004  0.000  0.995  0.001
  0.000  0.995  0.000  0.005  0.001
  1.000  0.000  0.000  0.000  0.000
  0.000  0.001  0.000  0.001  0.998
  0.000  0.000  1.000  0.000  0.000
    occupations:
  0.582  0.009 -0.000  0.002  0.000
  0.009  0.449 -0.000 -0.006  0.000
 -0.000 -0.000  0.414  0.002  0.001
  0.002 -0.006  0.002  0.627  0.000
  0.000  0.000  0.001  0.000  0.549
atom   22   Tr[ns(na)] =   5.28636
    eigenvalues:
  0.458  0.468  0.501  0.606  0.611
    eigenvectors:
  0.881  0.000  0.000  0.116  0.002
  0.000  0.000  0.000  0.020  0.980
  0.000  0.098  0.902  0.000  0.000
  0.119  0.000  0.000  0.864  0.017
  0.000  0.902  0.098  0.000  0.000
    occupations:
  0.475  0.000 -0.000  0.048 -0.000
  0.000  0.611 -0.000  0.001  0.000
 -0.000 -0.000  0.497 -0.000 -0.010
  0.048  0.001 -0.000  0.588  0.000
 -0.000  0.000 -0.010  0.000  0.471
atom   23   Tr[ns(na)] =   5.26060
    eigenvalues:
  0.398  0.487  0.549  0.586  0.610
    eigenvectors:
  0.003  0.000  0.000  0.983  0.014
  0.000  0.996  0.004  0.000  0.000
  0.996  0.000  0.000  0.003  0.001
  0.000  0.000  0.000  0.014  0.985
  0.000  0.004  0.996  0.000  0.000
    occupations:
  0.586  0.000  0.011  0.003 -0.000
  0.000  0.487 -0.000  0.000 -0.004
  0.011 -0.000  0.399  0.005  0.000
  0.003  0.000  0.005  0.610 -0.000
 -0.000 -0.004  0.000 -0.000  0.549
N of occupied +U levels =  41.8815636
 --- exit write_ns ---

[...]

          k = 0.2500-0.4237 0.0000 ( 32188 PWs)   bands (ev):

[...]

          k =-0.2500 0.2118 0.0000 ( 32165 PWs)   bands (ev):

   -56.0283 -55.9633 -55.6442 -55.5973 -55.5865 -55.5299 -55.4873 -55.4739
   -32.8429 -32.2344 -32.1529 -32.1290 -32.0948 -32.0858 -32.0851 -32.0193
   -31.9522 -31.9464 -31.9306 -31.9181 -31.8932 -31.8531 -31.8132 -31.6572
   -31.6075 -31.5291 -31.5125 -31.4660 -31.4640 -31.3928 -31.3620 -31.3106
   -22.4544 -20.2252 -19.9323 -19.1478 -18.8753 -18.7604 -18.6615 -18.6142
   -18.5657 -18.5491 -18.5127 -18.4864 -17.9400 -17.8882 -17.8766 -17.8131
   -17.7927 -17.6893 -17.5379 -16.1666  -8.6788  -8.2779  -7.8302  -7.3692
    -6.8377  -6.6587  -6.5607  -6.4314  -6.3276  -6.2851  -6.1155  -6.0699
    -5.9687  -5.9566  -5.7840  -5.6865  -5.6540  -5.6244  -5.4138  -5.3904
    -5.3570  -5.2394  -5.0524  -4.9294  -4.7945  -4.7100  -4.4837  -4.4548
    -4.3667  -4.2514  -4.1227  -4.0694  -4.0178  -3.9714  -3.8310  -3.7917
    -3.7406  -3.7176  -3.6804  -3.6061  -3.5001  -3.4089  -3.3554  -3.3055
    -3.2285  -3.0866  -3.0050  -2.9260  -2.8734  -2.8305  -2.7314  -2.6130
    -2.5452  -2.5132  -2.3727  -2.3404  -2.0927  -1.9110  -0.8896  -0.0407
     0.6122   0.6643   1.1214   1.2426   1.5184   1.7760   1.9337   1.9868
     2.1204   2.3040   2.3383   2.4120   2.5282   2.5900   2.6708   2.7822
     2.8581   2.9281   3.0055   3.0204   3.1143   3.1834   3.2114   3.4650
     3.7385   4.1404   4.3471   4.4596   4.7126   4.8312   5.0560   5.2885
     5.2972   5.3474   5.5173   5.5615   5.6706   5.7511   5.8656   5.8858
     6.0067   6.0638   6.1411   6.2255   6.4248   6.5585   6.6049   6.7471
     6.8031   6.9034   6.9253   7.1005   7.1924   7.3722   7.4507   7.4856
     7.6438   7.7950   7.8814   8.0111   8.0825   8.1418   8.3169   8.3584
     8.5214   8.6144   8.7199   8.7891   8.9483   8.9929   9.0578   9.2495
     9.3315   9.4009   9.4582   9.5551   9.6637   9.7778   9.8806   9.9424
    10.0564  10.1273  10.2158  10.3190  10.4078  10.4405  10.6058  10.7710
    10.8349  10.9867  11.0260  11.1077  11.1672  11.2007  11.3236  11.3955
    11.4748  11.5939  11.6245  11.6578  11.6822  11.8481  11.8913  12.0011
    12.1187  12.1745  12.2317  12.3149  12.4476  12.5407  12.6201  12.7112
    12.7367  12.7817  12.8817  12.9108  12.9411  13.0057  13.0612  13.1773
    13.2313  13.3228  13.3624  13.4201  13.4997  13.5856  13.6259  13.7019
    13.7624  13.8629  13.9149  14.0012  14.0411  14.1042  14.1306  14.2388
    14.3034  14.3892  14.4314  14.4687  14.6498  14.7462  14.8392  14.8807
    14.9590  15.1204  15.1565  15.2372  15.2951  15.3203  15.4062  15.4455
    15.4911  15.5614  15.5921  15.6969  15.7566  15.7975  15.8618  15.8949
    15.9866  16.0482  16.1281  16.1903  16.2827  16.3563  16.3736  16.4366
    16.5584  16.6729  16.6949  16.7499  16.7853  16.8738  16.9206  17.0272
    17.0682  17.1103  17.1832  17.2406  17.3079  17.3659  17.4519  17.4727
    17.5606  17.6146  17.6907  17.8240  17.8715  17.9204  17.9700  18.0575
    18.1213  18.2174  18.3072  18.3448  18.4021  18.5349  18.5669  18.6159
    18.6595  18.7273  18.8030  18.8721  18.9532  18.9944  19.0724  19.0957
    19.1843  19.2709  19.3019  19.3534  19.4382  19.4591  19.5115  19.6132
    19.6924  19.7460  19.7704  19.8104  19.8802  19.9191  19.9732  20.0291
    20.0683  20.1493  20.1737  20.2355  20.2836  20.3472  20.4103

     the Fermi energy is     1.1784 ev

!    total energy              =   -1594.29077689 Ry
     Harris-Foulkes estimate   =   -1594.29077690 Ry
     estimated scf accuracy    <          6.4E-09 Ry

     The total energy is the sum of the following terms:

     one-electron contribution =  -19391.80021368 Ry
     hartree contribution      =    9729.08733092 Ry
     xc contribution           =    -294.65706730 Ry
     ewald contribution        =    8361.65491173 Ry
     Hubbard energy            =       1.42433140 Ry
     smearing contrib. (-TS)   =      -0.00006996 Ry

     convergence has been achieved in  11 iterations

     Forces acting on atoms (Ry/au):

     negative rho (up, down):  0.334E-02 0.000E+00
     atom    1 type  1   force =     0.00132434   -0.00022201   -0.00037122
     atom    2 type  1   force =    -0.00072812   -0.00034439   -0.00037251
     atom    3 type  2   force =    -0.02371142    0.00053167   -0.00051133
     atom    4 type  2   force =    -0.00455818   -0.00054776   -0.00000635
     atom    5 type  1   force =    -0.00272365   -0.01439914    0.00015515
     atom    6 type  1   force =    -0.00158374    0.01510012    0.00014760
     atom    7 type  1   force =    -0.00017168    0.00045312    0.00019764
     atom    8 type  1   force =     0.00176555    0.00071309    0.00075890
     atom    9 type  2   force =     0.00014365    0.00079684    0.00024160
     atom   10 type  2   force =     0.00010374    0.00013798   -0.00033423
     atom   11 type  1   force =    -0.01497393   -0.01303149   -0.00037379
     atom   12 type  1   force =    -0.01360403    0.01408645   -0.00057732
     atom   13 type  1   force =     0.00035895   -0.00127523    0.00019177
     atom   14 type  1   force =     0.00057566    0.00012512   -0.00026711
     atom   15 type  1   force =    -0.00075194   -0.00002548   -0.00030655
     atom   16 type  2   force =     0.02549646    0.00058363   -0.00051175
     atom   17 type  2   force =    -0.00438300   -0.00044713    0.00026873
     atom   18 type  1   force =     0.00395105   -0.01425161    0.00015023
     atom   19 type  1   force =     0.00258218    0.01490872    0.00013886
     atom   20 type  1   force =     0.00002937   -0.00699577    0.00007170
     atom   21 type  1   force =     0.00184472    0.00024637    0.00042274
     atom   22 type  2   force =    -0.00067334    0.00079736    0.00026432
     atom   23 type  2   force =     0.00006178    0.00696045   -0.00096784
     atom   24 type  1   force =     0.01505333   -0.01302270   -0.00038938
     atom   25 type  1   force =     0.01368027    0.01407484   -0.00059344
     atom   26 type  1   force =     0.00044210   -0.00391776    0.00011389
     atom   27 type  3   force =     0.00000347    0.00010715    0.00058983
     atom   28 type  3   force =     0.00000610   -0.00041324    0.00045973
     atom   29 type  3   force =     0.00025324    0.00002618   -0.00004454
     atom   30 type  3   force =     0.00019252   -0.00000797   -0.00004831
     atom   31 type  1   force =    -0.00000867   -0.00025488    0.00015058
     atom   32 type  1   force =     0.00000400   -0.00046905    0.00058683
     atom   33 type  3   force =    -0.00000075   -0.00002347    0.00076559

     Total force =     0.002493     Total SCF correction =     0.000263
     SCF correction compared to forces is large: reduce conv_thr to get better values

     entering subroutine stress ...

     negative rho (up, down):  0.334E-02 0.000E+00
          total   stress  (Ry/bohr**3)                   (kbar)     P=   -2.97
  -0.00001663  -0.00000006   0.00000191         -2.45     -0.01      0.28
  -0.00000006  -0.00001300   0.00000073         -0.01     -1.91      0.11
   0.00000191   0.00000073  -0.00003100          0.28      0.11     -4.56

     bfgs converged in  10 scf cycles and   9 bfgs steps
     (criteria: energy < 0.10E-03, force < 0.10E-02)

     End of BFGS Geometry Optimization

     Final energy   =   -1594.2907768918 Ry
Begin final coordinates

ATOMIC_POSITIONS (crystal)
O0       0.000000000   0.000000000   0.372298839    0   0   1
O0       0.000000000   0.500000000   0.388336863    0   0   1
Nb1      0.250000000   0.500000000   0.443990992    0   0   1
Nb1      0.000000000   0.000000000   0.444913242    0   0   1
O0       0.250000000   0.790000000   0.446904725    0   0   1
O0       0.250000000   0.210000000   0.446864765    0   0   1
O0       0.000000000   0.500000000   0.500399946    0   0   1
O0       0.000000000   0.000000000   0.523335080    0   0   1
Nb1      0.250000000   0.000000000   0.577426424    0   0   1
Nb1      0.000000000   0.500000000   0.569573626    0   0   1
O0       0.250000000   0.710000000   0.575993383    0   0   1
O0       0.250000000   0.290000000   0.576291651    0   0   1
O0       0.000000000   0.000000000   0.621783687    0   0   1
O0       0.500000000   0.000000000   0.372483229    0   0   1
O0       0.500000000   0.500000000   0.389806261    0   0   1
Nb1      0.750000000   0.500000000   0.444014031    0   0   1
Nb1      0.500000000   0.000000000   0.445322413    0   0   1
O0       0.750000000   0.790000000   0.446890002    0   0   1
O0       0.750000000   0.210000000   0.446874734    0   0   1
O0       0.500000000   0.500000000   0.499578240    0   0   1
O0       0.500000000   0.000000000   0.523160086    0   0   1
Nb1      0.750000000   0.000000000   0.577416171    0   0   1
Nb1      0.500000000   0.500000000   0.575901561    0   0   1
O0       0.750000000   0.710000000   0.575994736    0   0   1
O0       0.750000000   0.290000000   0.576298435    0   0   1
O0       0.500000000   0.000000000   0.621503974    0   0   1
H2      -0.000510007   0.505209682   0.352058618
H2       0.499430408   0.500265950   0.353542719
H2       0.150593153   0.000812998   0.356477805
H2       0.650248044   0.000557675   0.356545152
O0       0.499993891   0.506154807   0.648888691
O0       0.500008761   0.347346831   0.683615789
H2       0.499993660   0.420710133   0.714774132
End final coordinates

     General routines

     Parallel routines
     Hubbard U routines

   This run was terminated on:  18: 0:25   1Jun2014

   JOB DONE.
Running PBS batch system epilogue script
Job id: 373362.audhumbla.fysik.dtu.dk
Username: zhonxu
Groupname: campgst
Jobname: NbO2/Eads-2-layers/OOH-U-2.0
Sessionid: 18793
Queuename: verylong
Accounting:
This job has allocated the following 16 nodes:
b138 b138 b138 b138 b138 b138 b138 b138 b048 b048 b048 b048 b048 b048 b048 b048
Finished epilogue job 373362.audhumbla.fysik.dtu.dk for zhonxu