     Program PWSCF v.5.0.2 (svn rev. 9656) starts on 24Jan2014 at 14:51:51

     Current dimensions of program PWSCF are:
     Max number of different atomic species (ntypx) = 10
     Max number of k-points (npk) =  40000
     Max angular momentum in pseudopotentials (lmaxx) =  3
     Reading input from CrO2-v-1.05.in

     Subspace diagonalization in iterative solution of the eigenvalue problem:
     a serial algorithm will be used

     bravais-lattice index     =            0
     lattice parameter (alat)  =       8.5984  a.u.
     unit-cell volume          =     409.6769 (a.u.)^3
     number of atoms/cell      =            6
     number of atomic types    =            2
     number of electrons       =        52.00
     number of Kohn-Sham states=           75
     kinetic-energy cutoff     =      40.0000  Ry
     charge density cutoff     =     500.0000  Ry
     convergence threshold     =      1.0E-06
     mixing beta               =       0.3000
     number of iterations used =            8  plain     mixing
     Exchange-correlation      = SLA  PW   PBE  PBE ( 1 4 3 4 0)
     EXX-fraction              =        0.00
     nstep                     =           50

     celldm(1)=   8.598420  celldm(2)=   0.000000  celldm(3)=   0.000000
     celldm(4)=   0.000000  celldm(5)=   0.000000  celldm(6)=   0.000000

     crystal axes: (cart. coord. in units of alat)
               a(1) = (   1.000000   0.000000   0.000000 )
               a(2) = (   0.000000   1.000000   0.000000 )
               a(3) = (   0.000000   0.000000   0.644444 )

     reciprocal axes: (cart. coord. in units 2 pi/alat)
               b(1) = (  1.000000  0.000000  0.000000 )
               b(2) = (  0.000000  1.000000  0.000000 )
               b(3) = (  0.000000  0.000000  1.551724 )

     PseudoPot. # 1 for Cr read from file:
     /home/camp/zhonxu/pseudo/cr_pbe_v1.uspp.F.UPF
     MD5 check sum: 68b6f918d1762dccfb11451fe85b0e0e
     Pseudo is Ultrasoft + core correction, Zval = 14.0
     Generated by new atomic code, or converted to UPF format
     Using radial grid of  857 points,  6 beta functions with:
                l(1) =   0
                l(2) =   0
                l(3) =   1
                l(4) =   1
                l(5) =   2
                l(6) =   2
     Q(r) pseudized with  6 coefficients,  rinner =    1.000   1.000   1.000
                                                       1.000   1.000

     PseudoPot. # 2 for O  read from file:
     /home/camp/zhonxu/pseudo/o_pbe_v1.01.uspp.F.UPF
     MD5 check sum: 2bcb18d16ea4b960afae9ec6d52f22d2
     Pseudo is Ultrasoft + core correction, Zval =  6.0
     Generated by new atomic code, or converted to UPF format
     Using radial grid of  737 points,  5 beta functions with:
                l(1) =   0
                l(2) =   0
                l(3) =   1
                l(4) =   1
                l(5) =   2
     Q(r) pseudized with  8 coefficients,  rinner =    0.900   0.900   0.900
                                                       0.900   0.900

     atomic species   valence    mass     pseudopotential
        Cr0           14.00    51.99600     Cr( 1.00)
        O1             6.00    15.99940     O ( 1.00)

     Starting magnetic structure
     atomic species   magnetization
        Cr0          0.000
        O1           0.000

     16 Sym. Ops., with inversion, found ( 8 have fractional translation)

   Cartesian axes

     site n.     atom                  positions (alat units)
         1           Cr0 tau(   1) = (   0.0000000   0.0000000   0.0000000  )
         2           Cr0 tau(   2) = (   0.5000000   0.5000000   0.3222222  )
         3           O1  tau(   3) = (   0.3050000   0.3050000   0.0000000  )
         4           O1  tau(   4) = (  -0.3050000  -0.3050000   0.0000000  )
         5           O1  tau(   5) = (   0.8050000   0.1950000   0.3222222  )
         6           O1  tau(   6) = (   0.1950000   0.8050000   0.3222222  )

     number of k points=    36  Methfessel-Paxton smearing, width (Ry)=  0.0100
                       cart. coord. in units 2pi/alat
        k(    1) = (   0.0000000   0.0000000   0.0000000), wk =   0.0080000
        k(    2) = (   0.0000000   0.0000000   0.3103448), wk =   0.0160000
        k(    3) = (   0.0000000   0.0000000   0.6206897), wk =   0.0160000
        k(    4) = (   0.0000000   0.2000000   0.0000000), wk =   0.0320000
        k(    5) = (   0.0000000   0.2000000   0.3103448), wk =   0.0640000
        k(    6) = (   0.0000000   0.2000000   0.6206897), wk =   0.0640000
        k(    7) = (   0.0000000   0.4000000   0.0000000), wk =   0.0320000
        k(    8) = (   0.0000000   0.4000000   0.3103448), wk =   0.0640000
        k(    9) = (   0.0000000   0.4000000   0.6206897), wk =   0.0640000
        k(   10) = (   0.2000000   0.2000000   0.0000000), wk =   0.0320000
        k(   11) = (   0.2000000   0.2000000   0.3103448), wk =   0.0640000
        k(   12) = (   0.2000000   0.2000000   0.6206897), wk =   0.0640000
        k(   13) = (   0.2000000   0.4000000   0.0000000), wk =   0.0640000
        k(   14) = (   0.2000000   0.4000000   0.3103448), wk =   0.1280000
        k(   15) = (   0.2000000   0.4000000   0.6206897), wk =   0.1280000
        k(   16) = (   0.4000000   0.4000000   0.0000000), wk =   0.0320000
        k(   17) = (   0.4000000   0.4000000   0.3103448), wk =   0.0640000
        k(   18) = (   0.4000000   0.4000000   0.6206897), wk =   0.0640000
        k(   19) = (   0.0000000   0.0000000   0.0000000), wk =   0.0080000
        k(   20) = (   0.0000000   0.0000000   0.3103448), wk =   0.0160000
        k(   21) = (   0.0000000   0.0000000   0.6206897), wk =   0.0160000
        k(   22) = (   0.0000000   0.2000000   0.0000000), wk =   0.0320000
        k(   23) = (   0.0000000   0.2000000   0.3103448), wk =   0.0640000
        k(   24) = (   0.0000000   0.2000000   0.6206897), wk =   0.0640000
        k(   25) = (   0.0000000   0.4000000   0.0000000), wk =   0.0320000
        k(   26) = (   0.0000000   0.4000000   0.3103448), wk =   0.0640000
        k(   27) = (   0.0000000   0.4000000   0.6206897), wk =   0.0640000
        k(   28) = (   0.2000000   0.2000000   0.0000000), wk =   0.0320000
        k(   29) = (   0.2000000   0.2000000   0.3103448), wk =   0.0640000
        k(   30) = (   0.2000000   0.2000000   0.6206897), wk =   0.0640000
        k(   31) = (   0.2000000   0.4000000   0.0000000), wk =   0.0640000
        k(   32) = (   0.2000000   0.4000000   0.3103448), wk =   0.1280000
        k(   33) = (   0.2000000   0.4000000   0.6206897), wk =   0.1280000
        k(   34) = (   0.4000000   0.4000000   0.0000000), wk =   0.0320000
        k(   35) = (   0.4000000   0.4000000   0.3103448), wk =   0.0640000
        k(   36) = (   0.4000000   0.4000000   0.6206897), wk =   0.0640000

     Largest allocated arrays     est. size (Mb)     dimensions
     Largest temporary arrays     est. size (Mb)     dimensions

     Check: negative/imaginary core charge=   -0.000032    0.000000

     Initial potential from superposition of free atoms

     starting charge   49.99997, renormalised to   52.00000
     Starting wfc are   36 randomized atomic wfcs

     Self-consistent Calculation

     iteration #  1     ecut=    40.00 Ry     beta=0.30
     Davidson diagonalization with overlap
     ethr =  1.00E-02,  avg # of iterations =  5.0

     total energy              =    -480.52916496 Ry
     Harris-Foulkes estimate   =    -481.42436722 Ry
     estimated scf accuracy    <       1.90920328 Ry

     total magnetization       =    -0.00 Bohr mag/cell
     absolute magnetization    =     0.00 Bohr mag/cell

[...]

     End of self-consistent calculation

 ------ SPIN UP ------------

          k = 0.0000 0.0000 0.0000 (  1787 PWs)   bands (ev):

   -62.8271 -62.8234 -34.1883 -34.1769 -34.0849 -34.0849 -34.0354 -34.0354
    -9.7919  -8.2913  -7.9130  -7.9130   2.5399   3.2956   3.8575   4.7307
     4.7307   5.8674   5.8674   6.4456   7.9473   8.3236   8.3236   8.6532
     9.2576   9.4938   9.6220   9.6220   9.7840  11.2963  11.5969  13.5532
    13.5532  14.3623  16.8171  20.5323  20.5323  23.6752  23.7050  24.7193
    26.4161  27.7589  27.7589  28.8115  29.0966  32.1462  33.4189  33.4189
    33.5499  34.6716  34.6716  35.1071  35.3165  35.3165  35.5628  37.0785
    38.7512  39.2822  41.5946  41.8516  41.8516  42.2222  42.2222  43.7652
    45.3424  46.0877  46.0877  47.1997  48.6678  48.8173  48.8173  49.2032
    49.8835  50.8874  51.6074

[...]

 ------ SPIN DOWN ----------

[...]

     the Fermi energy is     9.9798 ev

!    total energy              =    -481.06809582 Ry
     Harris-Foulkes estimate   =    -481.06809338 Ry
     estimated scf accuracy    <       0.00000022 Ry

     The total energy is the sum of the following terms:

     one-electron contribution =    -215.83798875 Ry
     hartree contribution      =     132.20425091 Ry
     xc contribution           =     -73.93570248 Ry
     ewald contribution        =    -323.49869787 Ry
     smearing contrib. (-TS)   =       0.00004237 Ry

[...]

     convergence has been achieved in  10 iterations

     Forces acting on atoms (Ry/au):

     atom    1 type  1   force =     0.00000000    0.00000000    0.00000000
     atom    2 type  1   force =     0.00000000    0.00000000    0.00000000
     atom    3 type  2   force =    -0.01197635   -0.01197635    0.00000000
     atom    4 type  2   force =     0.01197635    0.01197635    0.00000000
     atom    5 type  2   force =    -0.01197635    0.01197635    0.00000000
     atom    6 type  2   force =     0.01197635   -0.01197635    0.00000000

     Total force =     0.033874     Total SCF correction =     0.000275

     entering subroutine stress ...

          total   stress  (Ry/bohr**3)                   (kbar)     P= -171.85
  -0.00077720   0.00000000   0.00000000       -114.33      0.00      0.00
   0.00000000  -0.00077720   0.00000000          0.00   -114.33      0.00
   0.00000000   0.00000000  -0.00195016          0.00      0.00   -286.88

     Volume is kept fixed: isostatic pressure set to zero

     BFGS Geometry Optimization

     number of scf cycles    =   1
     number of bfgs steps    =   0

     enthalpy new            =    -481.0680958156 Ry

     new trust radius        =       0.0791376089 bohr
     new conv_thr            =       0.0000010000 Ry

     new unit-cell volume =    409.67688 a.u.^3 (    60.70785 Ang^3 )

CELL_PARAMETERS (alat=  8.59842007)
   1.009871798   0.000000000   0.000000000
   0.000000000   1.009871798   0.000000000
   0.000000000   0.000000000   0.631906752

ATOMIC_POSITIONS (crystal)
Cr0      0.000000000   0.000000000   0.000000000    0   0   0
Cr0      0.500000000   0.500000000   0.500000000    0   0   0
O1       0.303607145   0.303607145   0.000000000    1   1   0
O1      -0.303607145  -0.303607145   0.000000000    1   1   0
O1       0.803607145   0.196392855   0.500000000    1   1   0
O1       0.196392855   0.803607145   0.500000000    1   1   0

     NEW-OLD atomic charge density approx. for the potential
     NEW k-points:
        k(    1) = (   0.0000000   0.0000000   0.0000000), wk =   0.0080000
[...]
        k(   22) = (   0.0000000   0.1980449   0.0000000), wk =   0.0320000
        k(   23) = (   0.0000000   0.1980449   0.3165024), wk =   0.0640000
        k(   24) = (   0.0000000   0.1980449   0.6330048), wk =   0.0640000
        k(   25) = (   0.0000000   0.3960899   0.0000000), wk =   0.0320000
        k(   26) = (   0.0000000   0.3960899   0.3165024), wk =   0.0640000
        k(   27) = (   0.0000000   0.3960899   0.6330048), wk =   0.0640000
        k(   28) = (   0.1980449   0.1980449   0.0000000), wk =   0.0320000
        k(   29) = (   0.1980449   0.1980449   0.3165024), wk =   0.0640000
        k(   30) = (   0.1980449   0.1980449   0.6330048), wk =   0.0640000
        k(   31) = (   0.1980449   0.3960899   0.0000000), wk =   0.0640000
        k(   32) = (   0.1980449   0.3960899   0.3165024), wk =   0.1280000
        k(   33) = (   0.1980449   0.3960899   0.6330048), wk =   0.1280000
        k(   34) = (   0.3960899   0.3960899   0.0000000), wk =   0.0320000
        k(   35) = (   0.3960899   0.3960899   0.3165024), wk =   0.0640000
        k(   36) = (   0.3960899   0.3960899   0.6330048), wk =   0.0640000

[...]

     enthalpy old            =    -481.0680958156 Ry
     enthalpy new            =    -481.0773023400 Ry

     CASE: enthalpy_new < enthalpy_old

[...]

     Threshold (ethr) on eigenvalues was too large:
     Diagonalizing with lowered threshold

     Davidson diagonalization with overlap
     ethr =  4.62E-08,  avg # of iterations =  1.1

[...]

     Total force =     0.002196     Total SCF correction =     0.000083

[...]

     number of scf cycles    =   6
     number of bfgs steps    =   5

     enthalpy old            =    -481.0849118913 Ry
     enthalpy new            =    -481.0849894848 Ry

     CASE: enthalpy_new < enthalpy_old

     new trust radius        =       0.0044152087 bohr
     new conv_thr            =       0.0000000100 Ry

     new unit-cell volume =    409.67688 a.u.^3 (    60.70785 Ang^3 )

[...]

ATOMIC_POSITIONS (crystal)
Cr0      0.000000000   0.000000000   0.000000000    0   0   0
Cr0      0.500000000   0.500000000   0.500000000    0   0   0
O1       0.298300594   0.298300594   0.000000000    1   1   0
O1      -0.298300594  -0.298300594   0.000000000    1   1   0
O1       0.798300594   0.201699406   0.500000000    1   1   0
O1       0.201699406   0.798300594   0.500000000    1   1   0

     NEW-OLD atomic charge density approx. for the potential
     NEW k-points:
        k(    1) = (   0.0000000   0.0000000   0.0000000), wk =   0.0080000
        k(    2) = (   0.0000000   0.0000000   0.3274518), wk =   0.0160000
        k(    3) = (   0.0000000   0.0000000   0.6549036), wk =   0.0160000
        k(    4) = (   0.0000000   0.1947057   0.0000000), wk =   0.0320000
        k(    5) = (   0.0000000   0.1947057   0.3274518), wk =   0.0640000
        k(    6) = (   0.0000000   0.1947057   0.6549036), wk =   0.0640000
        k(    7) = (   0.0000000   0.3894113   0.0000000), wk =   0.0320000
        k(    8) = (   0.0000000   0.3894113   0.3274518), wk =   0.0640000
        k(    9) = (   0.0000000   0.3894113   0.6549036), wk =   0.0640000
        k(   10) = (   0.1947057   0.1947057   0.0000000), wk =   0.0320000
        k(   11) = (   0.1947057   0.1947057   0.3274518), wk =   0.0640000
        k(   12) = (   0.1947057   0.1947057   0.6549036), wk =   0.0640000
        k(   13) = (   0.1947057   0.3894113   0.0000000), wk =   0.0640000
        k(   14) = (   0.1947057   0.3894113   0.3274518), wk =   0.1280000
        k(   15) = (   0.1947057   0.3894113   0.6549036), wk =   0.1280000
        k(   16) = (   0.3894113   0.3894113   0.0000000), wk =   0.0320000
        k(   17) = (   0.3894113   0.3894113   0.3274518), wk =   0.0640000
        k(   18) = (   0.3894113   0.3894113   0.6549036), wk =   0.0640000
        k(   19) = (   0.0000000   0.0000000   0.0000000), wk =   0.0080000
        k(   20) = (   0.0000000   0.0000000   0.3274518), wk =   0.0160000
        k(   21) = (   0.0000000   0.0000000   0.6549036), wk =   0.0160000
        k(   22) = (   0.0000000   0.1947057   0.0000000), wk =   0.0320000
        k(   23) = (   0.0000000   0.1947057   0.3274518), wk =   0.0640000
        k(   24) = (   0.0000000   0.1947057   0.6549036), wk =   0.0640000
        k(   25) = (   0.0000000   0.3894113   0.0000000), wk =   0.0320000
        k(   26) = (   0.0000000   0.3894113   0.3274518), wk =   0.0640000
        k(   27) = (   0.0000000   0.3894113   0.6549036), wk =   0.0640000
        k(   28) = (   0.1947057   0.1947057   0.0000000), wk =   0.0320000
        k(   29) = (   0.1947057   0.1947057   0.3274518), wk =   0.0640000
        k(   30) = (   0.1947057   0.1947057   0.6549036), wk =   0.0640000
        k(   31) = (   0.1947057   0.3894113   0.0000000), wk =   0.0640000
        k(   32) = (   0.1947057   0.3894113   0.3274518), wk =   0.1280000
        k(   33) = (   0.1947057   0.3894113   0.6549036), wk =   0.1280000
        k(   34) = (   0.3894113   0.3894113   0.0000000), wk =   0.0320000
        k(   35) = (   0.3894113   0.3894113   0.3274518), wk =   0.0640000
        k(   36) = (   0.3894113   0.3894113   0.6549036), wk =   0.0640000

[...]

     Threshold (ethr) on eigenvalues was too large:
     Diagonalizing with lowered threshold

     Davidson diagonalization with overlap
     ethr =  2.70E-08,  avg # of iterations =  1.1

[...]

     Total force =     0.000048     Total SCF correction =     0.000037
     SCF correction compared to forces is large: reduce conv_thr to get better values

[...]

     Volume is kept fixed: isostatic pressure set to zero

     bfgs converged in   7 scf cycles and   6 bfgs steps
     (criteria: energy < 0.10E-03, force < 0.10E-02, cell < 0.50E+00)

     End of BFGS Geometry Optimization

     Final enthalpy =    -481.0850005822 Ry
Begin final coordinates
     new unit-cell volume =    409.67688 a.u.^3 (    60.70785 Ang^3 )

CELL_PARAMETERS (alat=  8.59842007)
   1.027191542   0.000000000   0.000000000
   0.000000000   1.027191542   0.000000000
   0.000000000   0.000000000   0.610776916

ATOMIC_POSITIONS (crystal)
Cr0      0.000000000   0.000000000   0.000000000    0   0   0
Cr0      0.500000000   0.500000000   0.500000000    0   0   0
O1       0.298300594   0.298300594   0.000000000    1   1   0
O1      -0.298300594  -0.298300594   0.000000000    1   1   0
O1       0.798300594   0.201699406   0.500000000    1   1   0
O1       0.201699406   0.798300594   0.500000000    1   1   0
End final coordinates

     A final scf calculation at the relaxed structure.
     The G-vectors are recalculated for the final unit cell
     Results may differ from those at the preceding step.

     bravais-lattice index     =            0
     lattice parameter (alat)  =       8.5984  a.u.
     unit-cell volume          =     409.6769 (a.u.)^3
     number of atoms/cell      =            6
     number of atomic types    =            2
     number of electrons       =        52.00
     number of Kohn-Sham states=           75
     kinetic-energy cutoff     =      40.0000  Ry
     charge density cutoff     =     500.0000  Ry
     convergence threshold     =      1.0E-08
     mixing beta               =       0.3000
     number of iterations used =            8  plain     mixing
     Exchange-correlation      = SLA  PW   PBE  PBE ( 1 4 3 4 0)
     EXX-fraction              =        0.00

     celldm(1)=   8.598420  celldm(2)=   0.000000  celldm(3)=   0.000000
     celldm(4)=   0.000000  celldm(5)=   0.000000  celldm(6)=   0.000000

     crystal axes: (cart. coord. in units of alat)
               a(1) = (   1.027192   0.000000   0.000000 )
               a(2) = (   0.000000   1.027192   0.000000 )
               a(3) = (   0.000000   0.000000   0.610777 )

     reciprocal axes: (cart. coord. in units 2 pi/alat)
               b(1) = (  0.973528  0.000000  0.000000 )
               b(2) = (  0.000000  0.973528  0.000000 )
               b(3) = (  0.000000  0.000000  1.637259 )

     PseudoPot. # 1 for Cr read from file:
     /home/camp/zhonxu/pseudo/cr_pbe_v1.uspp.F.UPF
     MD5 check sum: 68b6f918d1762dccfb11451fe85b0e0e
     Pseudo is Ultrasoft + core correction, Zval = 14.0
     Generated by new atomic code, or converted to UPF format
     Using radial grid of  857 points,  6 beta functions with:
                l(1) =   0
                l(2) =   0
                l(3) =   1
                l(4) =   1
                l(5) =   2
                l(6) =   2
     Q(r) pseudized with  6 coefficients,  rinner =    1.000   1.000   1.000
                                                       1.000   1.000

     PseudoPot. # 2 for O  read from file:
     /home/camp/zhonxu/pseudo/o_pbe_v1.01.uspp.F.UPF
     MD5 check sum: 2bcb18d16ea4b960afae9ec6d52f22d2
     Pseudo is Ultrasoft + core correction, Zval =  6.0
     Generated by new atomic code, or converted to UPF format
     Using radial grid of  737 points,  5 beta functions with:
                l(1) =   0
                l(2) =   0
                l(3) =   1
                l(4) =   1
                l(5) =   2
     Q(r) pseudized with  8 coefficients,  rinner =    0.900   0.900   0.900
                                                       0.900   0.900

     atomic species   valence    mass     pseudopotential
        Cr0           14.00    51.99600     Cr( 1.00)
        O1             6.00    15.99940     O ( 1.00)

     Starting magnetic structure
     atomic species   magnetization
        Cr0          0.000
        O1           0.000

     16 Sym. Ops., with inversion, found ( 8 have fractional translation)

   Cartesian axes

     site n.     atom                  positions (alat units)
         1           Cr0 tau(   1) = (   0.0000000   0.0000000   0.0000000  )
         2           Cr0 tau(   2) = (   0.5135958   0.5135958   0.3053885  )
         3           O1  tau(   3) = (   0.3064118   0.3064118   0.0000000  )
         4           O1  tau(   4) = (  -0.3064118  -0.3064118   0.0000000  )
         5           O1  tau(   5) = (   0.8200076   0.2071839   0.3053885  )
         6           O1  tau(   6) = (   0.2071839   0.8200076   0.3053885  )

     number of k points=    36  Methfessel-Paxton smearing, width (Ry)=  0.0100
                       cart. coord. in units 2pi/alat
        k(    1) = (   0.0000000   0.0000000   0.0000000), wk =   0.0080000
        k(    2) = (   0.0000000   0.0000000   0.3274518), wk =   0.0160000
        k(    3) = (   0.0000000   0.0000000   0.6549036), wk =   0.0160000
        k(    4) = (   0.0000000   0.1947057   0.0000000), wk =   0.0320000
        k(    5) = (   0.0000000   0.1947057   0.3274518), wk =   0.0640000
        k(    6) = (   0.0000000   0.1947057   0.6549036), wk =   0.0640000
        k(    7) = (   0.0000000   0.3894113   0.0000000), wk =   0.0320000
        k(    8) = (   0.0000000   0.3894113   0.3274518), wk =   0.0640000
        k(    9) = (   0.0000000   0.3894113   0.6549036), wk =   0.0640000
        k(   10) = (   0.1947057   0.1947057   0.0000000), wk =   0.0320000
        k(   11) = (   0.1947057   0.1947057   0.3274518), wk =   0.0640000
        k(   12) = (   0.1947057   0.1947057   0.6549036), wk =   0.0640000
        k(   13) = (   0.1947057   0.3894113   0.0000000), wk =   0.0640000
        k(   14) = (   0.1947057   0.3894113   0.3274518), wk =   0.1280000
        k(   15) = (   0.1947057   0.3894113   0.6549036), wk =   0.1280000
        k(   16) = (   0.3894113   0.3894113   0.0000000), wk =   0.0320000
        k(   17) = (   0.3894113   0.3894113   0.3274518), wk =   0.0640000
        k(   18) = (   0.3894113   0.3894113   0.6549036), wk =   0.0640000
        k(   19) = (   0.0000000   0.0000000   0.0000000), wk =   0.0080000
        k(   20) = (   0.0000000   0.0000000   0.3274518), wk =   0.0160000
        k(   21) = (   0.0000000   0.0000000   0.6549036), wk =   0.0160000
        k(   22) = (   0.0000000   0.1947057   0.0000000), wk =   0.0320000
        k(   23) = (   0.0000000   0.1947057   0.3274518), wk =   0.0640000
        k(   24) = (   0.0000000   0.1947057   0.6549036), wk =   0.0640000
        k(   25) = (   0.0000000   0.3894113   0.0000000), wk =   0.0320000
        k(   26) = (   0.0000000   0.3894113   0.3274518), wk =   0.0640000
        k(   27) = (   0.0000000   0.3894113   0.6549036), wk =   0.0640000
        k(   28) = (   0.1947057   0.1947057   0.0000000), wk =   0.0320000
        k(   29) = (   0.1947057   0.1947057   0.3274518), wk =   0.0640000
        k(   30) = (   0.1947057   0.1947057   0.6549036), wk =   0.0640000
        k(   31) = (   0.1947057   0.3894113   0.0000000), wk =   0.0640000
        k(   32) = (   0.1947057   0.3894113   0.3274518), wk =   0.1280000
        k(   33) = (   0.1947057   0.3894113   0.6549036), wk =   0.1280000
        k(   34) = (   0.3894113   0.3894113   0.0000000), wk =   0.0320000
        k(   35) = (   0.3894113   0.3894113   0.3274518), wk =   0.0640000
        k(   36) = (   0.3894113   0.3894113   0.6549036), wk =   0.0640000

     Largest allocated arrays     est. size (Mb)     dimensions
     Largest temporary arrays     est. size (Mb)     dimensions

     Check: negative/imaginary core charge=   -0.000032    0.000000

     Initial potential from superposition of free atoms

     starting charge   49.99997, renormalised to   52.00000
     Starting wfc are   36 randomized atomic wfcs

     Self-consistent Calculation

[...]

     total energy              =    -481.08488092 Ry
     Harris-Foulkes estimate   =    -481.08488015 Ry
     estimated scf accuracy    <       0.00000001 Ry

[...]

     iteration # 12     ecut=    40.00 Ry     beta=0.30
     Davidson diagonalization with overlap
     ethr =  2.47E-11,  avg # of iterations =  1.1

     End of self-consistent calculation

 ------ SPIN UP ------------

[...]

 ------ SPIN DOWN ----------

[...]

          k = 0.3894 0.3894 0.6549 (  1754 PWs)   bands (ev):

   -62.8682 -62.8681 -34.3841 -34.3838 -34.1535 -34.1532 -34.0822 -34.0821
    -8.3961  -8.2920  -8.2557  -8.1595   3.5617   3.6737   3.8152   3.8980
     4.7306   5.0370   5.4042   5.5577   6.9646   7.0836   7.5244   7.7842
     9.6922  10.1590  10.2224  10.4086  10.4766  10.6375  12.2213  12.7851
    13.0637  13.5909  20.9064  21.3704  21.8880  22.2649  24.6433  24.7265
    25.7856  25.8746  26.6355  26.6525  27.7893  28.0747  30.7765  32.2495
    32.6654  33.2531  34.1495  34.9334  37.5711  37.6659  39.2499  39.8334
    41.9775  42.0962  42.5622  42.9674  43.6509  43.7657  45.4530  45.7483
    46.5940  46.6316  46.8985  47.5579  47.7262  47.9176  48.6170  49.2873
    49.6901  50.3328  52.8852

     the Fermi energy is     9.9161 ev

!    total energy              =    -481.08488167 Ry
     Harris-Foulkes estimate   =    -481.08488093 Ry
     estimated scf accuracy    <          2.8E-09 Ry

     The total energy is the sum of the following terms:

     one-electron contribution =    -219.20298454 Ry
     hartree contribution      =     133.75323827 Ry
     xc contribution           =     -73.92907524 Ry
     ewald contribution        =    -321.70575437 Ry
     smearing contrib. (-TS)   =      -0.00030579 Ry

     total magnetization       =     0.00 Bohr mag/cell
     absolute magnetization    =     0.00 Bohr mag/cell

     convergence has been achieved in  12 iterations

     Forces acting on atoms (Ry/au):

     atom    1 type  1   force =     0.00000000    0.00000000   -0.00000000
     atom    2 type  1   force =     0.00000000    0.00000000   -0.00000000
     atom    3 type  2   force =    -0.00004830   -0.00004830   -0.00000000
     atom    4 type  2   force =     0.00004830    0.00004830    0.00000000
     atom    5 type  2   force =    -0.00004830    0.00004830    0.00000000
     atom    6 type  2   force =     0.00004830   -0.00004830   -0.00000000

     Total force =     0.000137     Total SCF correction =     0.000032
     SCF correction compared to forces is large: reduce conv_thr to get better values

     entering subroutine stress ...

          total   stress  (Ry/bohr**3)                   (kbar)     P= -185.67
  -0.00125966   0.00000000   0.00000000       -185.30      0.00      0.00
   0.00000000  -0.00125966   0.00000000          0.00   -185.30      0.00
   0.00000000   0.00000000  -0.00126706          0.00      0.00   -186.39

     General routines

     Parallel routines

   This run was terminated on:  15:16:15  24Jan2014

   JOB DONE.
Running PBS batch system epilogue script
Job id: 252007.audhumbla.fysik.dtu.dk
Username: zhonxu
Groupname: campgst
Jobname: CrO2/fine-EOS/non-mag/CrO2-v-1.05
Sessionid: 11871
Queuename: verylong
Accounting:
This job has allocated the following 4 nodes:
q082 q082 q082 q082
Finished epilogue job 252007.audhumbla.fysik.dtu.dk for zhonxu