     Program PWSCF v.5.0.2 (svn rev. 9656) starts on  9May2014 at 10:51:44

     Current dimensions of program PWSCF are:
     Max number of different atomic species (ntypx) = 10
     Max number of k-points (npk) =  40000
     Max angular momentum in pseudopotentials (lmaxx) =  3
     Reading input from pwscf.in
Warning: card &CELL ignored
Warning: card / ignored

     Subspace diagonalization in iterative solution of the eigenvalue problem:
     a serial algorithm will be used

     Found symmetry operation: I + ( -0.5000  0.0000  0.0000)
     This is a supercell, fractional translations are disabled

     bravais-lattice index     =            0
     lattice parameter (alat)  =      10.7336  a.u.
     unit-cell volume          =    6184.1966 (a.u.)^3
     number of atoms/cell      =           30
     number of atomic types    =            3
     number of electrons       =       232.00 (up: 128.00, down: 104.00)
     number of Kohn-Sham states=          336
     kinetic-energy cutoff     =      40.0000  Ry
     charge density cutoff     =     500.0000  Ry
     convergence threshold     =      1.0E-06
     mixing beta               =       0.7000
     number of iterations used =            8  plain     mixing
     Exchange-correlation      = SLA  PW   PBE  PBE ( 1 4 3 4 0)
     EXX-fraction              =        0.00
     nstep                     =           50

     celldm(1)=  10.733644  celldm(2)=   0.000000  celldm(3)=   0.000000
     celldm(4)=   0.000000  celldm(5)=   0.000000  celldm(6)=   0.000000

     crystal axes: (cart. coord. in units of alat)
               a(1) = (   1.000000   0.000000   0.000000 )
               a(2) = (   0.000000   1.085558   0.000000 )
               a(3) = (   0.000000   0.000000   4.606685 )

     reciprocal axes: (cart. coord. in units 2 pi/alat)
               b(1) = (  1.000000  0.000000  0.000000 )
               b(2) = (  0.000000  0.921185  0.000000 )
               b(3) = (  0.000000  0.000000  0.217076 )

     PseudoPot. # 1 for O  read from file:
     /home/camp/zhonxu/pseudo/o_pbe_v1.01.uspp.F.UPF
     MD5 check sum: 2bcb18d16ea4b960afae9ec6d52f22d2
     Pseudo is Ultrasoft + core correction, Zval =  6.0
     Generated by new atomic code, or converted to UPF format
     Using radial grid of  737 points,  5 beta functions with:
                l(1) =   0
                l(2) =   0
                l(3) =   1
                l(4) =   1
                l(5) =   2
     Q(r) pseudized with  8 coefficients,  rinner =    0.900   0.900   0.900
                                                       0.900   0.900

     PseudoPot. # 2 for Mn read from file:
     /home/camp/zhonxu/pseudo/mn_pbe_v1.uspp.F.UPF
     MD5 check sum: 5fd7c7b5c956fd19902447332617373a
     Pseudo is Ultrasoft + core correction, Zval = 15.0
     Generated by new atomic code, or converted to UPF format
     Using radial grid of  859 points,  6 beta functions with:
                l(1) =   0
                l(2) =   0
                l(3) =   1
                l(4) =   1
                l(5) =   2
                l(6) =   2
     Q(r) pseudized with  6 coefficients,  rinner =    1.150   1.150   1.150
                                                       1.150   1.150

     PseudoPot. # 3 for H  read from file:
     /home/camp/zhonxu/pseudo/h_pbe_v1.uspp.F.UPF
     MD5 check sum: 3408e3ff4ec8b0a4e358431e7e038a48
     Pseudo is Ultrasoft, Zval =  1.0
     Generated by new atomic code, or converted to UPF format
     Using radial grid of  615 points,  2 beta functions with:
                l(1) =   0
                l(2) =   0
     Q(r) pseudized with  8 coefficients,  rinner =    0.700

     atomic species   valence    mass     pseudopotential
        O0             6.00    15.99940     O ( 1.00)
        Mn1           15.00    54.93800     Mn( 1.00)
        H2             1.00     1.00794     H ( 1.00)

     Starting magnetic structure
     atomic species   magnetization
        O0           0.000
        Mn1          0.600
        H2           0.000

     Simplified LDA+U calculation (l_max = 2) with parameters (eV):
     atomic species    L          U    alpha       J0     beta
        Mn1            2     3.0000   0.0000   0.0000   0.0000

     No symmetry found

   Cartesian axes

     site n.     atom                  positions (alat units)
         1           O0  tau(   1) = (   0.0000000   0.0000000   1.7440910  )
         2           O0  tau(   2) = (   0.0000000   0.5427791   1.8348887  )
         3           Mn1 tau(   3) = (   0.2500000   0.5427791   2.0695072  )
         4           Mn1 tau(   4) = (   0.0000000   0.0000000   2.0719487  )
         5           O0  tau(   5) = (   0.2500000   0.8684466   2.0695533  )
         6           O0  tau(   6) = (   0.2500000   0.2171117   2.0770161  )
         7           O0  tau(   7) = (   0.0000000   0.5427791   2.2881405  )
         8           O0  tau(   8) = (   0.0000000   0.0000000   2.4167130  )
         9           Mn1 tau(   9) = (   0.2500000   0.0000000   2.6452046  )
        10           Mn1 tau(  10) = (   0.0000000   0.5427791   2.6189465  )
        11           O0  tau(  11) = (   0.2500000   0.7598908   2.6694358  )
        12           O0  tau(  12) = (   0.2500000   0.3256675   2.6696661  )
        13           O0  tau(  13) = (   0.0000000   0.0000000   2.8462864  )
        14           O0  tau(  14) = (   0.5000000   0.0000000   1.7440910  )
        15           O0  tau(  15) = (   0.5000000   0.5427791   1.8348887  )
        16           Mn1 tau(  16) = (   0.7500000   0.5427791   2.0695072  )
        17           Mn1 tau(  17) = (   0.5000000   0.0000000   2.0719487  )
        18           O0  tau(  18) = (   0.7500000   0.8684466   2.0695533  )
        19           O0  tau(  19) = (   0.7500000   0.2171117   2.0770161  )
        20           O0  tau(  20) = (   0.5000000   0.5427791   2.2881405  )
        21           O0  tau(  21) = (   0.5000000   0.0000000   2.4167130  )
        22           Mn1 tau(  22) = (   0.7500000   0.0000000   2.6452046  )
        23           Mn1 tau(  23) = (   0.5000000   0.5427791   2.6189465  )
        24           O0  tau(  24) = (   0.7500000   0.7598908   2.6694358  )
        25           O0  tau(  25) = (   0.7500000   0.3256675   2.6696661  )
        26           O0  tau(  26) = (   0.5000000   0.0000000   2.8462864  )
        27           H2  tau(  27) = (  -0.0000900   0.7018026   1.7591088  )
        28           H2  tau(  28) = (   0.4999100   0.7018026   1.7591088  )
        29           H2  tau(  29) = (   0.1616900   0.0388738   1.6898703  )
        30           H2  tau(  30) = (   0.6616900   0.0388738   1.6898703  )

     number of k points=    20  Methfessel-Paxton smearing, width (Ry)=  0.0100
                       cart. coord. in units 2pi/alat
        k(    1) = (   0.0000000   0.0000000   0.0000000), wk =   0.0625000
        k(    2) = (   0.0000000   0.2302962   0.0000000), wk =   0.1250000
        k(    3) = (   0.0000000  -0.4605925   0.0000000), wk =   0.0625000
        k(    4) = (   0.2500000   0.0000000   0.0000000), wk =   0.1250000
        k(    5) = (   0.2500000   0.2302962   0.0000000), wk =   0.1250000
        k(    6) = (   0.2500000  -0.4605925   0.0000000), wk =   0.1250000
        k(    7) = (  -0.5000000   0.0000000   0.0000000), wk =   0.0625000
        k(    8) = (  -0.5000000   0.2302962   0.0000000), wk =   0.1250000
        k(    9) = (  -0.5000000  -0.4605925   0.0000000), wk =   0.0625000
        k(   10) = (  -0.2500000   0.2302962   0.0000000), wk =   0.1250000
        k(   11) = (   0.0000000   0.0000000   0.0000000), wk =   0.0625000
        k(   12) = (   0.0000000   0.2302962   0.0000000), wk =   0.1250000
        k(   13) = (   0.0000000  -0.4605925   0.0000000), wk =   0.0625000
        k(   14) = (   0.2500000   0.0000000   0.0000000), wk =   0.1250000
        k(   15) = (   0.2500000   0.2302962   0.0000000), wk =   0.1250000
        k(   16) = (   0.2500000  -0.4605925   0.0000000), wk =   0.1250000
        k(   17) = (  -0.5000000   0.0000000   0.0000000), wk =   0.0625000
        k(   18) = (  -0.5000000   0.2302962   0.0000000), wk =   0.1250000
        k(   19) = (  -0.5000000  -0.4605925   0.0000000), wk =   0.0625000
        k(   20) = (  -0.2500000   0.2302962   0.0000000), wk =   0.1250000

     Largest allocated arrays     est. size (Mb)     dimensions
     Largest temporary arrays     est. size (Mb)     dimensions

     Check: negative/imaginary core charge=   -0.000022    0.000000

     Initial potential from superposition of free atoms
     Check: negative starting charge=(component1):   -0.000776
     Check: negative starting charge=(component2):   -0.000381

     starting charge  223.99987, renormalised to  232.00000

     negative rho (up, down):  0.804E-03 0.395E-03
     Number of +U iterations with fixed ns =  0
     Starting occupations:
 --- enter write_ns ---
 LDA+U parameters:
U( 2)     =  3.00000000
alpha( 2) =  0.00000000
atom    3   Tr[ns(na)] (up, down, total) =   5.00000  0.00000  5.00000
   spin  1
    eigenvalues:
  1.000  1.000  1.000  1.000  1.000
    eigenvectors:
  1.000  0.000  0.000  0.000  0.000
  0.000  1.000  0.000  0.000  0.000
  0.000  0.000  1.000  0.000  0.000
  0.000  0.000  0.000  1.000  0.000
  0.000  0.000  0.000  0.000  1.000
    occupations:
  1.000  0.000  0.000  0.000  0.000
  0.000  1.000  0.000  0.000  0.000
  0.000  0.000  1.000  0.000  0.000
  0.000  0.000  0.000  1.000  0.000
  0.000  0.000  0.000  0.000  1.000
   spin  2
    eigenvalues:
  0.000  0.000  0.000  0.000  0.000
    eigenvectors:
  1.000  0.000  0.000  0.000  0.000
  0.000  1.000  0.000  0.000  0.000
  0.000  0.000  1.000  0.000  0.000
  0.000  0.000  0.000  1.000  0.000
  0.000  0.000  0.000  0.000  1.000
    occupations:
  0.000  0.000  0.000  0.000  0.000
  0.000  0.000  0.000  0.000  0.000
  0.000  0.000  0.000  0.000  0.000
  0.000  0.000  0.000  0.000  0.000
  0.000  0.000  0.000  0.000  0.000
atomic mag. moment =     5.000000
atom    4   Tr[ns(na)] (up, down, total) =   5.00000  0.00000  5.00000
   spin  1
    eigenvalues:
  1.000  1.000  1.000  1.000  1.000
    eigenvectors:
  1.000  0.000  0.000  0.000  0.000
  0.000  1.000  0.000  0.000  0.000
  0.000  0.000  1.000  0.000  0.000
  0.000  0.000  0.000  1.000  0.000
  0.000  0.000  0.000  0.000  1.000
    occupations:
  1.000  0.000  0.000  0.000  0.000
  0.000  1.000  0.000  0.000  0.000
  0.000  0.000  1.000  0.000  0.000
  0.000  0.000  0.000  1.000  0.000
  0.000  0.000  0.000  0.000  1.000
   spin  2
    eigenvalues:
  0.000  0.000  0.000  0.000  0.000
    eigenvectors:
  1.000  0.000  0.000  0.000  0.000
  0.000  1.000  0.000  0.000  0.000
  0.000  0.000  1.000  0.000  0.000
  0.000  0.000  0.000  1.000  0.000
  0.000  0.000  0.000  0.000  1.000
    occupations:
  0.000  0.000  0.000  0.000  0.000
  0.000  0.000  0.000  0.000  0.000
  0.000  0.000  0.000  0.000  0.000
  0.000  0.000  0.000  0.000  0.000
  0.000  0.000  0.000  0.000  0.000
atomic mag. moment =     5.000000
atom    9   Tr[ns(na)] (up, down, total) =   5.00000  0.00000  5.00000
   spin  1
    eigenvalues:
  1.000  1.000  1.000  1.000  1.000
    eigenvectors:
[...]
  0.751  0.000  0.247  0.000  0.002
  0.000  0.001  0.000  0.999  0.000
    occupations:
  0.904  0.000 -0.004 -0.159  0.000
  0.000  0.658 -0.000  0.000 -0.008
 -0.004 -0.000  1.005 -0.005  0.000
 -0.159  0.000 -0.005  0.719  0.000
  0.000 -0.008  0.000  0.000  0.996
   spin  2
    eigenvalues:
  0.105  0.139  0.166  0.370  0.382
    eigenvectors:
  0.775  0.000  0.003  0.000  0.222
  0.000  0.002  0.000  0.998  0.000
  0.004  0.000  0.996  0.000  0.000
  0.221  0.000  0.000  0.000  0.778
  0.000  0.998  0.000  0.002  0.000
    occupations:
  0.167 -0.000 -0.002  0.115 -0.000
 -0.000  0.369  0.000 -0.000  0.011
 -0.002  0.000  0.166  0.004 -0.000
  0.115 -0.000  0.004  0.321 -0.000
 -0.000  0.011 -0.000 -0.000  0.140
atomic mag. moment =     3.119596
atom    4   Tr[ns(na)] (up, down, total) =   4.24775  1.19613  5.44389
   spin  1
    eigenvalues:
  0.597  0.650  0.994  1.003  1.004
    eigenvectors:
  0.000  0.998  0.000  0.000  0.001
  0.000  0.001  0.000  0.051  0.948
  0.000  0.000  0.000  0.949  0.050
  0.000  0.000  0.999  0.000  0.000
  1.000  0.000  0.000  0.000  0.000
    occupations:
  0.651 -0.011 -0.005  0.007 -0.001
 -0.011  1.003  0.000  0.000  0.000
 -0.005  0.000  1.003  0.000  0.000
  0.007  0.000  0.000  0.994  0.000
 -0.001  0.000  0.000  0.000  0.597
   spin  2
    eigenvalues:
  0.106  0.144  0.169  0.386  0.391
    eigenvectors:
  0.003  0.004  0.000  0.992  0.001
  0.001  0.901  0.094  0.004  0.000
  0.000  0.094  0.906  0.001  0.000
  0.996  0.002  0.000  0.002  0.000
  0.000  0.000  0.000  0.001  0.999
    occupations:
  0.384  0.015  0.006 -0.014 -0.000
  0.015  0.147 -0.007  0.000 -0.003
  0.006 -0.007  0.167  0.001  0.000
 -0.014  0.000  0.001  0.107 -0.000
 -0.000 -0.003  0.000 -0.000  0.391
atomic mag. moment =     3.051622
atom    9   Tr[ns(na)] (up, down, total) =   4.22427  1.26148  5.48575
   spin  1
    eigenvalues:
  0.648  0.651  0.956  0.972  0.997
    eigenvectors:
  0.205  0.005  0.000  0.000  0.789
  0.025  0.975  0.000  0.000  0.000
  0.000  0.000  0.000  1.000  0.000
  0.770  0.020  0.000  0.000  0.211
  0.000  0.000  1.000  0.000  0.000
    occupations:
  0.923  0.000 -0.000 -0.142  0.000
  0.000  0.651  0.000  0.000  0.000
 -0.000  0.000  0.972  0.000 -0.000
 -0.142  0.000  0.000  0.722  0.000
  0.000  0.000 -0.000  0.000  0.956
   spin  2
    eigenvalues:
  0.138  0.155  0.157  0.393  0.419
    eigenvectors:
  0.821  0.000  0.000  0.179  0.000
  0.000  0.000  0.000  0.000  1.000
  0.000  1.000  0.000  0.000  0.000
  0.179  0.000  0.000  0.821  0.000
  0.000  0.000  1.000  0.000  0.000
    occupations:
  0.183 -0.000  0.000  0.098 -0.000
 -0.000  0.419 -0.000 -0.000 -0.000
  0.000 -0.000  0.155 -0.000 -0.000
  0.098 -0.000 -0.000  0.347 -0.000
 -0.000 -0.000 -0.000 -0.000  0.157
atomic mag. moment =     2.962787
atom   10   Tr[ns(na)] (up, down, total) =   4.50362  0.85961  5.36323
   spin  1
    eigenvalues:
  0.630  0.886  0.991  0.997  0.999
    eigenvectors:
  0.000  0.981  0.000  0.019  0.000
  0.000  0.000  1.000  0.000  0.000
  0.000  0.000  0.000  0.000  1.000
  0.000  0.019  0.000  0.981  0.000
  1.000  0.000  0.000  0.000  0.000
    occupations:
  0.889  0.000  0.000  0.015  0.000
  0.000  0.991  0.000  0.000 -0.000
  0.000  0.000  0.999 -0.000 -0.000
  0.015  0.000 -0.000  0.995 -0.000
  0.000 -0.000 -0.000 -0.000  0.630
   spin  2
    eigenvalues:
  0.091  0.111  0.116  0.192  0.350
    eigenvectors:
  0.025  0.000  0.000  0.975  0.000
  0.000  0.000  1.000  0.000  0.000
  0.000  1.000  0.000  0.000  0.000
  0.975  0.000  0.000  0.025  0.000
  0.000  0.000  0.000  0.000  1.000
    occupations:
  0.189 -0.000 -0.000 -0.016 -0.000
 -0.000  0.116 -0.000 -0.000  0.000
 -0.000 -0.000  0.111 -0.000  0.000
 -0.016 -0.000 -0.000  0.093 -0.000
 -0.000  0.000  0.000 -0.000  0.350
atomic mag. moment =     3.644017
atom   16   Tr[ns(na)] (up, down, total) =   4.28260  1.16300  5.44560
   spin  1
    eigenvalues:
  0.628  0.658  0.996  0.997  1.005
    eigenvectors:
  0.249  0.000  0.737  0.000  0.014
  0.000  0.999  0.000  0.001  0.000
  0.000  0.000  0.016  0.000  0.984
  0.751  0.000  0.247  0.000  0.002
  0.000  0.001  0.000  0.999  0.000
    occupations:
  0.904  0.000 -0.004 -0.159  0.000
  0.000  0.658 -0.000  0.000 -0.008
 -0.004 -0.000  1.005 -0.005  0.000
 -0.159  0.000 -0.005  0.719  0.000
  0.000 -0.008  0.000  0.000  0.996
   spin  2
    eigenvalues:
  0.105  0.139  0.166  0.370  0.382
    eigenvectors:
  0.775  0.000  0.003  0.000  0.222
  0.000  0.002  0.000  0.998  0.000
  0.004  0.000  0.996  0.000  0.000
  0.221  0.000  0.000  0.000  0.778
  0.000  0.998  0.000  0.002  0.000
    occupations:
  0.167 -0.000 -0.002  0.115 -0.000
 -0.000  0.369  0.000 -0.000  0.011
 -0.002  0.000  0.166  0.004 -0.000
  0.115 -0.000  0.004  0.321 -0.000
 -0.000  0.011 -0.000 -0.000  0.140
atomic mag. moment =     3.119596
atom   17   Tr[ns(na)] (up, down, total) =   4.24775  1.19615  5.44390
   spin  1
    eigenvalues:
  0.597  0.650  0.994  1.003  1.004
    eigenvectors:
  0.000  0.998  0.000  0.000  0.001
  0.000  0.001  0.000  0.051  0.948
  0.000  0.000  0.000  0.949  0.050
  0.000  0.000  0.999  0.000  0.000
  1.000  0.000  0.000  0.000  0.000
    occupations:
  0.651 -0.011 -0.005  0.007 -0.001
 -0.011  1.003  0.000  0.000  0.000
 -0.005  0.000  1.003  0.000  0.000
  0.007  0.000  0.000  0.994  0.000
 -0.001  0.000  0.000  0.000  0.597
   spin  2
    eigenvalues:
  0.106  0.144  0.169  0.386  0.391
    eigenvectors:
  0.003  0.004  0.000  0.992  0.001
  0.001  0.901  0.094  0.004  0.000
  0.000  0.094  0.906  0.001  0.000
  0.996  0.002  0.000  0.002  0.000
  0.000  0.000  0.000  0.001  0.999
    occupations:
  0.384  0.015  0.006 -0.014 -0.000
  0.015  0.147 -0.007  0.000 -0.003
  0.006 -0.007  0.167  0.001  0.000
 -0.014  0.000  0.001  0.107 -0.000
 -0.000 -0.003  0.000 -0.000  0.391
atomic mag. moment =     3.051604
atom   22   Tr[ns(na)] (up, down, total) =   4.22426  1.26148  5.48574
   spin  1
    eigenvalues:
  0.648  0.651  0.956  0.972  0.997
    eigenvectors:
  0.205  0.005  0.000  0.000  0.789
  0.025  0.975  0.000  0.000  0.000
  0.000  0.000  0.000  1.000  0.000
  0.770  0.020  0.000  0.000  0.211
  0.000  0.000  1.000  0.000  0.000
    occupations:
  0.923  0.000 -0.000 -0.142  0.000
  0.000  0.651  0.000  0.000  0.000
 -0.000  0.000  0.972  0.000 -0.000
 -0.142  0.000  0.000  0.722  0.000
  0.000  0.000 -0.000  0.000  0.956
   spin  2
    eigenvalues:
  0.138  0.155  0.157  0.393  0.419
    eigenvectors:
  0.821  0.000  0.000  0.179  0.000
  0.000  0.000  0.000  0.000  1.000
  0.000  1.000  0.000  0.000  0.000
  0.179  0.000  0.000  0.821  0.000
  0.000  0.000  1.000  0.000  0.000
    occupations:
  0.183 -0.000  0.000  0.098 -0.000
 -0.000  0.419 -0.000 -0.000 -0.000
  0.000 -0.000  0.155 -0.000 -0.000
  0.098 -0.000 -0.000  0.347 -0.000
 -0.000 -0.000 -0.000 -0.000  0.157
atomic mag. moment =     2.962787
atom   23   Tr[ns(na)] (up, down, total) =   4.50362  0.85962  5.36325
   spin  1
    eigenvalues:
  0.630  0.886  0.991  0.997  0.999
    eigenvectors:
  0.000  0.981  0.000  0.019  0.000
  0.000  0.000  1.000  0.000  0.000
  0.000  0.000  0.000  0.000  1.000
  0.000  0.019  0.000  0.981  0.000
  1.000  0.000  0.000  0.000  0.000
    occupations:
  0.889  0.000  0.000  0.015  0.000
  0.000  0.991  0.000  0.000 -0.000
  0.000  0.000  0.999 -0.000 -0.000
  0.015  0.000 -0.000  0.995 -0.000
  0.000 -0.000 -0.000 -0.000  0.630
   spin  2
    eigenvalues:
  0.091  0.111  0.116  0.192  0.350
    eigenvectors:
  0.025  0.000  0.000  0.975  0.000
  0.000  0.000  1.000  0.000  0.000
  0.000  1.000  0.000  0.000  0.000
  0.975  0.000  0.000  0.025  0.000
  0.000  0.000  0.000  0.000  1.000
    occupations:
  0.189 -0.000 -0.000 -0.016 -0.000
 -0.000  0.116 -0.000 -0.000  0.000
 -0.000 -0.000  0.111 -0.000  0.000
 -0.016 -0.000 -0.000  0.093 -0.000
 -0.000  0.000  0.000 -0.000  0.350
atomic mag. moment =     3.643999
N of occupied +U levels =  43.4769558
 --- exit write_ns ---

 ------ SPIN UP ------------

[...]

 ------ SPIN DOWN ----------

[...]

          k = 0.2500-0.4606 0.0000 ( 26462 PWs)   bands (ev):

[...]

          k =-0.2500 0.2303 0.0000 ( 26396 PWs)   bands (ev):

   -80.6838 -80.6759 -80.5448 -80.5365 -80.5097 -80.5015 -79.7061 -79.6977
   -49.5680 -49.5197 -49.5118 -49.4981 -49.4707 -49.4119 -49.4019 -49.3982
   -49.3815 -49.3664 -49.3597 -49.3519 -49.3495 -49.3000 -49.1623 -49.1503
   -49.1461 -49.1411 -48.8435 -48.7403 -48.6208 -48.6030 -48.1586 -48.1501
   -21.8816 -21.4600 -21.1225 -20.9079 -20.4706 -20.4434 -20.3224 -20.2626
   -20.1287 -20.0829 -19.9746 -19.9394 -19.8654 -19.8466 -19.6882 -19.6109
   -19.4916 -19.3648  -9.3211  -9.0786  -8.6013  -8.5018  -8.3533  -8.1100
    -7.8618  -7.7605  -7.6313  -7.6270  -7.4447  -7.4349  -7.2392  -7.2319
    -7.0371  -7.0025  -6.9543  -6.9079  -6.7142  -6.6764  -6.5005  -6.4984
    -6.4053  -6.3162  -6.2233  -5.9205  -5.8869  -5.8022  -5.6792  -5.5558
    -5.5112  -5.4814  -5.3060  -5.2527  -5.1476  -5.1167  -4.9913  -4.8519
    -4.7709  -4.6515  -4.5960  -4.5180  -4.3509  -4.2405  -4.0565  -4.0236
    -3.9626  -3.8386  -3.7928  -3.6344  -3.4944  -3.3142  -3.2507  -2.8954
    -0.2623  -0.2209  -0.1890  -0.0922  -0.0615   0.0414   0.0721   0.1398
     0.1616   0.1922   0.2912   0.3266   0.4262   0.4807   0.5623   0.6650
     0.7114   0.7366   0.8144   0.8977   1.0025   1.0291   1.0664   1.0984
     1.2496   1.2984   1.3000   1.4426   1.6156   1.7597   1.8098   1.8190
     1.9931   2.1389   2.2364   2.2868   2.3734   2.5733   2.6888   2.7690
     3.6248   4.1804   4.3468   4.8185   5.2942   5.5718   5.6656   6.0515
     6.2177   6.4162   6.4406   6.5494   6.6192   6.8711   6.8942   7.2445
     7.3542   7.6253   7.7033   7.8576   8.1237   8.2964   8.4189   8.5389
     8.5569   8.6636   8.7599   8.8461   9.0980   9.1868   9.3063   9.4641
     9.5449   9.6820   9.9257   9.9612  10.0531  10.1117  10.1851  10.3482
    10.4536  10.6207  10.6621  10.7094  10.8409  11.0505  11.0634  11.1092
    11.2762  11.3569  11.4701  11.5076  11.5949  11.6884  11.7086  11.8219
    11.8933  12.0158  12.1967  12.2310  12.2934  12.3473  12.4462  12.5041
    12.6674  12.8202  12.8376  12.8858  12.9180  12.9963  13.0901  13.1471
    13.2441  13.3180  13.3571  13.4550  13.5613  13.6071  13.6542  13.7263
    13.8410  13.8660  13.9476  14.0444  14.1173  14.1837  14.2597  14.2907
    14.3277  14.4175  14.4688  14.6549  14.6881  14.7005  14.7602  14.8977
    15.0044  15.0117  15.1116  15.1982  15.3519  15.4402  15.5247  15.6327
    15.6358  15.8113  15.8519  15.9570  15.9878  16.1281  16.2107  16.2652
    16.3649  16.4661  16.5384  16.5464  16.5976  16.7451  16.8244  16.9348
    17.0090  17.0568  17.1471  17.1635  17.2229  17.3317  17.3471  17.4749
    17.4861  17.6086  17.6473  17.7144  17.8929  17.9075  17.9375  18.1108
    18.1844  18.2055  18.2100  18.3362  18.3611  18.4287  18.5092  18.5885
    18.6733  18.7645  18.8179  18.8308  18.9683  19.0800  19.1835  19.2034
    19.2879  19.3173  19.4350  19.4830  19.6251  19.6512  19.7952  19.8445
    19.8950  19.9979  20.0431  20.0959  20.1174  20.2056  20.2915  20.3031
    20.3252  20.4429  20.4770  20.6119  20.6146  20.7708  20.9246  20.9451
    21.0829  21.1244  21.2355  21.2547  21.3521  21.3615  21.4663  21.5246
    21.5559  21.6436  21.7358  21.8027  21.8910  21.9266  22.0373  22.1139

     the spin up/dw Fermi energies are    -2.2896   -2.7019 ev

!    total energy              =   -2287.73172590 Ry
     Harris-Foulkes estimate   =   -2287.73172591 Ry
     estimated scf accuracy    <          5.0E-09 Ry

     The total energy is the sum of the following terms:

     one-electron contribution =  -25654.10916222 Ry
     hartree contribution      =   12842.37501800 Ry
     xc contribution           =    -341.50887189 Ry
     ewald contribution        =   10864.41193633 Ry
     Hubbard energy            =       1.09992260 Ry
     smearing contrib. (-TS)   =      -0.00056873 Ry

     total magnetization       =    24.00 Bohr mag/cell
     absolute magnetization    =    29.43 Bohr mag/cell

     convergence has been achieved in  15 iterations

     Forces acting on atoms (Ry/au):

     negative rho (up, down):  0.205E-02 0.141E-02
     atom    1 type  1   force =    -0.00607253   -0.01615442   -0.00086502
     atom    2 type  1   force =     0.00030906    0.01228955    0.00006077
     atom    3 type  2   force =    -0.00056968   -0.00239847    0.00036829
     atom    4 type  2   force =     0.00686910    0.01141512   -0.00044022
     atom    5 type  1   force =     0.00236053    0.01337732    0.00009091
     atom    6 type  1   force =    -0.00237569   -0.01744372    0.00028657
     atom    7 type  1   force =     0.00000417    0.00088485    0.00081504
     atom    8 type  1   force =    -0.00122620   -0.00202136    0.00055656
     atom    9 type  2   force =     0.00068831    0.00052491    0.00030998
     atom   10 type  2   force =    -0.00004264   -0.00056441    0.00013319
     atom   11 type  1   force =     0.00003949   -0.04536682   -0.00022440
     atom   12 type  1   force =     0.00002598    0.04535191   -0.00022570
     atom   13 type  1   force =    -0.00037496   -0.00017917   -0.00054816
     atom   14 type  1   force =    -0.00607387   -0.01615444   -0.00087362
     atom   15 type  1   force =     0.00030925    0.01228987    0.00006063
     atom   16 type  2   force =    -0.00055699   -0.00239830    0.00036853
     atom   17 type  2   force =     0.00686925    0.01141533   -0.00044587
     atom   18 type  1   force =     0.00236535    0.01337719    0.00009092
     atom   19 type  1   force =    -0.00237056   -0.01744385    0.00028631
     atom   20 type  1   force =     0.00000421    0.00088496    0.00081241
     atom   21 type  1   force =    -0.00122530   -0.00202143    0.00056394
     atom   22 type  2   force =     0.00070158    0.00052499    0.00030946
     atom   23 type  2   force =    -0.00004163   -0.00056427    0.00014013
     atom   24 type  1   force =     0.00003955   -0.04536644   -0.00022456
     atom   25 type  1   force =     0.00002604    0.04535156   -0.00022585
     atom   26 type  1   force =    -0.00037396   -0.00017916   -0.00054703
     atom   27 type  3   force =    -0.00000577   -0.00015056   -0.00039090
     atom   28 type  3   force =    -0.00000575   -0.00015065   -0.00039162
     atom   29 type  3   force =     0.00035074    0.00043479    0.00007540
     atom   30 type  3   force =     0.00035290    0.00043513    0.00007389

     Total force =     0.002517     Total SCF correction =     0.000149

     bfgs converged in  13 scf cycles and  12 bfgs steps
     (criteria: energy < 0.10E-03, force < 0.10E-02)

     End of BFGS Geometry Optimization

     Final energy   =   -2287.7317259023 Ry
Begin final coordinates

ATOMIC_POSITIONS (crystal)
O0       0.000000000   0.000000000   0.376861886    0   0   1
O0       0.000000000   0.500000000   0.396271018    0   0   1
Mn1      0.250000000   0.500000000   0.448042194    0   0   1
Mn1      0.000000000   0.000000000   0.448480371    0   0   1
O0       0.250000000   0.800000000   0.448358646    0   0   1
O0       0.250000000   0.200000000   0.450196004    0   0   1
O0       0.000000000   0.500000000   0.495425614    0   0   1
O0       0.000000000   0.000000000   0.525498603    0   0   1
Mn1      0.250000000   0.000000000   0.574460474    0   0   1
Mn1      0.000000000   0.500000000   0.570672036    0   0   1
O0       0.250000000   0.700000000   0.582272709    0   0   1
O0       0.250000000   0.300000000   0.582315958    0   0   1
O0       0.000000000   0.000000000   0.620687550    0   0   1
O0       0.500000000   0.000000000   0.376862656    0   0   1
O0       0.500000000   0.500000000   0.396270879    0   0   1
Mn1      0.750000000   0.500000000   0.448042189    0   0   1
Mn1      0.500000000   0.000000000   0.448480637    0   0   1
O0       0.750000000   0.800000000   0.448358737    0   0   1
O0       0.750000000   0.200000000   0.450196041    0   0   1
O0       0.500000000   0.500000000   0.495425598    0   0   1
O0       0.500000000   0.000000000   0.525498096    0   0   1
Mn1      0.750000000   0.000000000   0.574460489    0   0   1
Mn1      0.500000000   0.500000000   0.570671061    0   0   1
O0       0.750000000   0.700000000   0.582272699    0   0   1
O0       0.750000000   0.300000000   0.582315950    0   0   1
O0       0.500000000   0.000000000   0.620687453    0   0   1
H2       0.000235736   0.647639237   0.380473241
H2       0.500235726   0.647639944   0.380473483
H2       0.161798577   0.037905259   0.365593555
H2       0.661797833   0.037906241   0.365594172
End final coordinates

     General routines

     Parallel routines
     Hubbard U routines

   This run was terminated on:   3:43:35  10May2014

   JOB DONE.