     Program PWSCF v.5.0.2 (svn rev. 9656) starts on 17Apr2014 at  1:12:37

     Current dimensions of program PWSCF are:
     Max number of different atomic species (ntypx) = 10
     Max number of k-points (npk) =  40000
     Max angular momentum in pseudopotentials (lmaxx) =  3
     Reading input from pwscf.in
Warning: card &CELL ignored
Warning: card / ignored

     Subspace diagonalization in iterative solution of the eigenvalue problem:
     a serial algorithm will be used

     bravais-lattice index     =            0
     lattice parameter (alat)  =      11.7541  a.u.
     unit-cell volume          =    7139.8207 (a.u.)^3
     number of atoms/cell      =           31
     number of atomic types    =            3
     number of electrons       =       238.00
     number of Kohn-Sham states=          357
     kinetic-energy cutoff     =      40.0000  Ry
     charge density cutoff     =     500.0000  Ry
     convergence threshold     =      1.0E-06
     mixing beta               =       0.1000
     number of iterations used =            8  plain     mixing
     Exchange-correlation      = SLA  PW   PBE  PBE ( 1 4 3 4 0)
     EXX-fraction              =        0.00
     nstep                     =           50

     celldm(1)=  11.754097  celldm(2)=   0.000000  celldm(3)=   0.000000
     celldm(4)=   0.000000  celldm(5)=   0.000000  celldm(6)=   0.000000

     crystal axes: (cart. coord. in units of alat)
               a(1) = (   1.000000   0.000000   0.000000 )
               a(2) = (   0.000000   1.034513   0.000000 )
               a(3) = (   0.000000   0.000000   4.249947 )

     reciprocal axes: (cart. coord. in units 2 pi/alat)
               b(1) = (  1.000000  0.000000  0.000000 )
               b(2) = (  0.000000  0.966638  0.000000 )
               b(3) = (  0.000000  0.000000  0.235297 )

     PseudoPot. # 1 for O  read from file:
     /home/camp/zhonxu/pseudo/o_pbe_v1.01.uspp.F.UPF
     MD5 check sum: 2bcb18d16ea4b960afae9ec6d52f22d2
     Pseudo is Ultrasoft + core correction, Zval =  6.0
     Generated by new atomic code, or converted to UPF format
     Using radial grid of  737 points,  5 beta functions with:
                l(1) =   0
                l(2) =   0
                l(3) =   1
                l(4) =   1
                l(5) =   2
     Q(r) pseudized with  8 coefficients,  rinner =    0.900   0.900   0.900
                                                       0.900   0.900

     PseudoPot. # 2 for Rh read from file:
     /home/camp/zhonxu/pseudo/rh_pbe_v1.uspp.F.UPF
     MD5 check sum: 37b626987ad0dd8ec6bf4cc9ef289918
     Pseudo is Ultrasoft + core correction, Zval = 15.0
     Generated by new atomic code, or converted to UPF format
     Using radial grid of  969 points,  7 beta functions with:
                l(1) =   0
                l(2) =   0
                l(3) =   1
                l(4) =   1
                l(5) =   2
                l(6) =   2
                l(7) =   2
     Q(r) pseudized with  6 coefficients,  rinner =    1.050   1.050   1.050
                                                       1.050   1.050

     PseudoPot. # 3 for H  read from file:
     /home/camp/zhonxu/pseudo/h_pbe_v1.uspp.F.UPF
     MD5 check sum: 3408e3ff4ec8b0a4e358431e7e038a48
     Pseudo is Ultrasoft, Zval =  1.0
     Generated by new atomic code, or converted to UPF format
     Using radial grid of  615 points,  2 beta functions with:
                l(1) =   0
                l(2) =   0
     Q(r) pseudized with  8 coefficients,  rinner =    0.700

     atomic species   valence    mass     pseudopotential
        O0             6.00    15.99940     O ( 1.00)
        Rh1           15.00   102.90550     Rh( 1.00)
        H2             1.00     1.00794     H ( 1.00)

     No symmetry found

   Cartesian axes

     site n.     atom                  positions (alat units)
         1           O0  tau(   1) = (   0.0000000   0.0000000   1.6093700  )
         2           O0  tau(   2) = (   0.0000000   0.5172566   1.7042713  )
         3           Rh1 tau(   3) = (   0.2500000   0.5172566   1.9208061  )
         4           Rh1 tau(   4) = (   0.0000000   0.0000000   1.9259911  )
         5           O0  tau(   5) = (   0.2500000   0.8379556   1.9236111  )
         6           O0  tau(   6) = (   0.2500000   0.1965575   1.9228461  )
         7           O0  tau(   7) = (   0.0000000   0.5172566   2.1191512  )
         8           O0  tau(   8) = (   0.0000000   0.0000000   2.2480521  )
         9           Rh1 tau(   9) = (   0.2500000   0.0000000   2.4496696  )
        10           Rh1 tau(  10) = (   0.0000000   0.5172566   2.4271874  )
        11           O0  tau(  11) = (   0.2500000   0.7138141   2.4450371  )
        12           O0  tau(  12) = (   0.2500000   0.3206991   2.4451221  )
        13           O0  tau(  13) = (   0.0000000   0.0000000   2.6414697  )
        14           O0  tau(  14) = (   0.5000000   0.0000000   1.6092850  )
        15           O0  tau(  15) = (   0.5000000   0.5172566   1.7013814  )
        16           Rh1 tau(  16) = (   0.7500000   0.5172566   1.9208061  )
        17           Rh1 tau(  17) = (   0.5000000   0.0000000   1.9258211  )
        18           O0  tau(  18) = (   0.7500000   0.8379556   1.9235686  )
        19           O0  tau(  19) = (   0.7500000   0.1965575   1.9228886  )
        20           O0  tau(  20) = (   0.5000000   0.5172566   2.1194912  )
        21           O0  tau(  21) = (   0.5000000   0.0000000   2.2472021  )
        22           Rh1 tau(  22) = (   0.7500000   0.0000000   2.4496696  )
        23           Rh1 tau(  23) = (   0.5000000   0.5172566   2.4540470  )
        24           O0  tau(  24) = (   0.7500000   0.7138141   2.4450371  )
        25           O0  tau(  25) = (   0.7500000   0.3206991   2.4451221  )
        26           O0  tau(  26) = (   0.5000000   0.0000000   2.6416397  )
        27           H2  tau(  27) = (  -0.0000800   0.6599987   1.6321497  )
        28           H2  tau(  28) = (   0.4999100   0.6611884   1.6317672  )
        29           H2  tau(  29) = (   0.1483800   0.0338493   1.5633431  )
        30           H2  tau(  30) = (   0.6484000   0.0339217   1.5633006  )
        31           O0  tau(  31) = (   0.5000400   0.5166255   2.7340760  )

     number of k points=    10  Methfessel-Paxton smearing, width (Ry)=  0.0100
                       cart. coord. in units 2pi/alat
        k(    1) = (   0.0000000   0.0000000   0.0000000), wk =   0.1250000
        k(    2) = (   0.0000000   0.2416596   0.0000000), wk =   0.2500000
        k(    3) = (   0.0000000  -0.4833191   0.0000000), wk =   0.1250000
        k(    4) = (   0.2500000   0.0000000   0.0000000), wk =   0.2500000
        k(    5) = (   0.2500000   0.2416596   0.0000000), wk =   0.2500000
        k(    6) = (   0.2500000  -0.4833191   0.0000000), wk =   0.2500000
        k(    7) = (  -0.5000000   0.0000000   0.0000000), wk =   0.1250000
        k(    8) = (  -0.5000000   0.2416596   0.0000000), wk =   0.2500000
        k(    9) = (  -0.5000000  -0.4833191   0.0000000), wk =   0.1250000
        k(   10) = (  -0.2500000   0.2416596   0.0000000), wk =   0.2500000

     Largest allocated arrays     est. size (Mb)     dimensions
     Largest temporary arrays     est. size (Mb)     dimensions

     Check: negative/imaginary core charge=   -0.000003    0.000000

     Initial potential from superposition of free atoms
     Check: negative starting charge=   -0.643692

     starting charge  233.99915, renormalised to  238.00000

     negative rho (up, down):  0.655E+00 0.000E+00
     Starting wfc are  176 randomized atomic wfcs

     Self-consistent Calculation

     iteration #  1     ecut=    40.00 Ry     beta=0.10
     Davidson diagonalization with overlap
     ethr =  1.00E-02,  avg # of iterations =  6.0

     negative rho (up, down):  0.658E+00 0.000E+00

     total energy              =   -1979.46166509 Ry
     Harris-Foulkes estimate   =   -1983.75579685 Ry
     estimated scf accuracy    <      24.21527907 Ry

[...]

     End of self-consistent calculation

          k = 0.0000 0.0000 0.0000 ( 30479 PWs)   bands (ev):

   -50.7348 -50.3626 -50.3000 -49.7272 -49.7193 -49.6779 -49.6395 -49.6164
   -49.5964 -49.5628 -49.5305 -49.5186 -49.4922 -49.4849 -49.4756 -49.3879
   -49.3833 -49.3403 -49.2883 -49.2739 -49.2705 -49.2640 -49.2444 -49.2269
   -21.7697 -21.3600 -21.3376 -21.1765 -20.7151 -20.5300 -20.4758 -20.4368
   -20.4151 -20.3713 -20.2557 -20.2060 -20.1649 -19.9617 -19.8995 -19.8981
   -19.2912 -19.1606 -19.0394 -10.1796 -10.0972  -9.7600  -9.1612  -8.9791
    -8.9714  -8.8621  -8.8548  -8.8138  -8.6934  -8.5527  -8.4559  -8.4423
    -8.3163  -8.2981  -8.2487  -8.1722  -8.0322  -7.9363  -7.7029  -7.4846
    -7.3267  -7.2291  -7.2039  -6.9684  -6.8537  -6.7883  -6.4033  -6.2016
    -6.1059  -6.0620  -6.0324  -5.9469  -5.6610  -5.6055  -5.5666  -5.5511
    -5.5171  -5.4259  -5.3580  -5.3206  -5.1135  -5.0141  -4.9731  -4.9022
    -4.8622  -4.7709  -4.6651  -4.5927  -4.4741  -4.4385  -4.3641  -4.2574
    -4.1757  -4.1113  -4.0912  -3.9300  -3.9214  -3.8364  -3.6769  -3.6336
    -3.5969  -3.4378  -3.3519  -3.2766  -3.2709  -3.0485  -2.8834  -2.7854
    -2.6586  -2.5679  -2.5420  -2.4274  -2.3499  -2.0357  -1.8944  -1.7546
    -1.7073  -1.5661  -1.5224  -1.3598  -1.2312  -0.5078  -0.1366  -0.0930
    -0.0528   0.0906   0.2829   0.4519   0.5767   0.9613   1.3661   1.5243
     1.5307   1.6637   1.9380   2.2409   2.8479   3.9218   4.1298   4.6458
     4.9390   5.6939   5.8963   5.9352   6.0095   6.6859   6.7206   6.9569
     7.3310   7.6392   7.6681   7.7627   7.7700   7.8446   7.8464   7.8570
     8.0152   8.1100   8.1561   8.2328   8.2481   8.2985   8.4285   8.4845
     8.5681   8.6160   8.6965   8.9255   8.9306   9.0149   9.1068   9.1840
     9.3463   9.4564   9.4788   9.6419   9.6863   9.7985   9.9371  10.0132
    10.3227  10.3450  10.4513  10.5145  10.5880  10.7354  10.9438  10.9597
    10.9901  11.0273  11.0535  11.0753  11.1729  11.3207  11.3872  11.4002
    11.5375  11.5784  11.6391  11.6648  11.7364  11.7671  11.7716  11.9625
    11.9746  12.0127  12.0519  12.1368  12.1751  12.2276  12.2975  12.3676
    12.3916  12.4399  12.4880  12.6173  12.7330  12.7386  12.7650  12.8610
    12.8664  13.0358  13.0508  13.2905  13.5060  13.5495  13.5744  13.5812
    13.5998  13.7138  13.8267  13.9302  14.0480  14.1046  14.2018  14.2378
    14.3217  14.5102  14.5459  14.6230  14.7075  14.7877  14.9915  15.1491
    15.1782  15.2069  15.2500  15.4434  15.4838  15.5113  15.6688  15.6923
    15.7909  15.8228  15.8394  16.1323  16.2397  16.2954  16.4067  16.4773
    16.5832  16.7165  16.8077  16.8581  16.8982  17.0214  17.0727  17.1470
    17.2529  17.3565  17.4586  17.5450  17.6060  17.7052  17.8516  17.8901
    18.0674  18.0955  18.1493  18.2117  18.2486  18.2800  18.3372  18.3527
    18.4331  18.4799  18.6136  18.7095  18.7436  18.8016  18.9602  18.9891
    19.1017  19.1161  19.1250  19.2049  19.2619  19.3325  19.4252  19.4538
    19.4832  19.5562  19.6439  19.6657  19.6778  19.7642  19.8361  19.9320
    19.9368  20.0163  20.0835  20.1562  20.1842  20.2378  20.3290  20.3781
[...]
     atom   10 type  2   force =    -0.00002905   -0.00135504   -0.01089686
     atom   11 type  1   force =    -0.00982069    0.01102112   -0.00670691
     atom   12 type  1   force =    -0.01027199   -0.01146933   -0.00667817
     atom   13 type  1   force =    -0.00089815    0.00019451   -0.00108341
     atom   14 type  1   force =    -0.00700769   -0.01442333   -0.00048591
     atom   15 type  1   force =     0.00014228    0.00580896    0.00113067
     atom   16 type  2   force =    -0.03459012    0.00486069    0.00790055
     atom   17 type  2   force =     0.00873107    0.00931458   -0.00020110
     atom   18 type  1   force =     0.00014246   -0.03012673   -0.00120926
     atom   19 type  1   force =     0.00191070    0.02697644   -0.00098064
     atom   20 type  1   force =    -0.00005138   -0.00483508    0.01558168
     atom   21 type  1   force =    -0.00287344   -0.00054893   -0.00160331
     atom   22 type  2   force =    -0.00148145    0.00035638   -0.00433399
     atom   23 type  2   force =    -0.00017905    0.00101881   -0.00262143
     atom   24 type  1   force =     0.00976372    0.01105988   -0.00680439
     atom   25 type  1   force =     0.01083601   -0.01156347   -0.00669187
     atom   26 type  1   force =    -0.00084101   -0.00006347   -0.00240946
     atom   27 type  3   force =    -0.00002019   -0.00117375    0.00005844
     atom   28 type  3   force =    -0.00002195    0.00082999   -0.00023859
     atom   29 type  3   force =     0.00001380    0.00046574    0.00025896
     atom   30 type  3   force =    -0.00001040    0.00052171    0.00014089
     atom   31 type  1   force =    -0.00000206   -0.00035326    0.03159892

     Total force =     0.041818     Total SCF correction =     0.003328

     BFGS Geometry Optimization

     number of scf cycles    =   1
     number of bfgs steps    =   0

     energy   new            =   -1980.3095213500 Ry

     new trust radius        =       0.0316008952 bohr
     new conv_thr            =       0.0000010000 Ry

ATOMIC_POSITIONS (crystal)
O0       0.000000000   0.000000000   0.378675536    0   0   1
O0       0.000000000   0.500000000   0.401029959    0   0   1
Rh1      0.250000000   0.500000000   0.452117188    0   0   1
Rh1      0.000000000   0.000000000   0.453183649    0   0   1
O0       0.250000000   0.810000000   0.452595624    0   0   1
O0       0.250000000   0.190000000   0.452420405    0   0   1
O0       0.000000000   0.500000000   0.498551009    0   0   1
O0       0.000000000   0.000000000   0.528918427    0   0   1
Rh1      0.250000000   0.000000000   0.576313640    0   0   1
Rh1      0.000000000   0.500000000   0.570891863    0   0   1
O0       0.250000000   0.690000000   0.575175739    0   0   1
O0       0.250000000   0.310000000   0.575196314    0   0   1
O0       0.000000000   0.000000000   0.621508312    0   0   1
O0       0.500000000   0.000000000   0.378650273    0   0   1
O0       0.500000000   0.500000000   0.400352634    0   0   1
Rh1      0.750000000   0.500000000   0.452118156    0   0   1
Rh1      0.500000000   0.000000000   0.453135974    0   0   1
O0       0.750000000   0.810000000   0.452585793    0   0   1
O0       0.750000000   0.190000000   0.452430369    0   0   1
O0       0.500000000   0.500000000   0.499021919    0   0   1
O0       0.500000000   0.000000000   0.528727904    0   0   1
Rh1      0.750000000   0.000000000   0.576313241    0   0   1
Rh1      0.500000000   0.500000000   0.577377523    0   0   1
O0       0.750000000   0.690000000   0.575173788    0   0   1
O0       0.750000000   0.310000000   0.575196040    0   0   1
O0       0.500000000   0.000000000   0.621521767    0   0   1
H2      -0.000081717   0.637883473   0.384041170
H2       0.499908132   0.639198257   0.383945224
H2       0.148381174   0.032758302   0.367855184
H2       0.648399115   0.032832905   0.367842820
O0       0.500039825   0.499360949   0.643952557

     Check: negative starting charge=   -0.643692
     NEW-OLD atomic charge density approx. for the potential

     Check: negative/imaginary core charge=   -0.000003    0.000000
     Check: negative starting charge=   -0.643682

[...]

     Total force =     0.030074     Total SCF correction =     0.003282
     SCF correction compared to forces is large: reduce conv_thr to get better values

[...]

     energy   old            =   -1980.3095213500 Ry
     energy   new            =   -1980.3107538137 Ry

     CASE: energy  _new < energy  _old

[...]

     Threshold (ethr) on eigenvalues was too large:
     Diagonalizing with lowered threshold

     Davidson diagonalization with overlap
     ethr =  9.15E-08,  avg # of iterations =  1.0

[...]

     Total force =     0.002968     Total SCF correction =     0.000253

[...]

     number of scf cycles    =  15
     number of bfgs steps    =  14

     energy   old            =   -1980.3142480739 Ry
     energy   new            =   -1980.3142587164 Ry

     CASE: energy  _new < energy  _old

     new trust radius        =       0.0032368391 bohr
     new conv_thr            =       0.0000000100 Ry

ATOMIC_POSITIONS (crystal)
O0       0.000000000   0.000000000   0.377987959    0   0   1
O0       0.000000000   0.500000000   0.402155013    0   0   1
Rh1      0.250000000   0.500000000   0.453245599    0   0   1
Rh1      0.000000000   0.000000000   0.452433640    0   0   1
O0       0.250000000   0.810000000   0.452250809    0   0   1
O0       0.250000000   0.190000000   0.452134003    0   0   1
O0       0.000000000   0.500000000   0.498836695    0   0   1
O0       0.000000000   0.000000000   0.527815887    0   0   1
Rh1      0.250000000   0.000000000   0.575059704    0   0   1
Rh1      0.000000000   0.500000000   0.570667056    0   0   1
O0       0.250000000   0.690000000   0.574898883    0   0   1
O0       0.250000000   0.310000000   0.574884829    0   0   1
O0       0.000000000   0.000000000   0.620166278    0   0   1
O0       0.500000000   0.000000000   0.377985615    0   0   1
O0       0.500000000   0.500000000   0.401872456    0   0   1
Rh1      0.750000000   0.500000000   0.453248438    0   0   1
Rh1      0.500000000   0.000000000   0.452415632    0   0   1
O0       0.750000000   0.810000000   0.452233048    0   0   1
O0       0.750000000   0.190000000   0.452151863    0   0   1
O0       0.500000000   0.500000000   0.500807839    0   0   1
O0       0.500000000   0.000000000   0.527620630    0   0   1
Rh1      0.750000000   0.000000000   0.575053640    0   0   1
Rh1      0.500000000   0.500000000   0.580061810    0   0   1
O0       0.750000000   0.690000000   0.574867886    0   0   1
O0       0.750000000   0.310000000   0.574879546    0   0   1
O0       0.500000000   0.000000000   0.620109063    0   0   1
H2      -0.000069299   0.637023207   0.384814793
H2       0.499928390   0.638497719   0.385142891
H2       0.148077871   0.034301227   0.367219565
H2       0.648113432   0.034247625   0.367204708
O0       0.500081604   0.498830265   0.646594223

     Check: negative starting charge=   -0.645402
     NEW-OLD atomic charge density approx. for the potential

     Check: negative/imaginary core charge=   -0.000003    0.000000
     Check: negative starting charge=   -0.645367

[...]

     Self-consistent Calculation

[...]

     Threshold (ethr) on eigenvalues was too large:
     Diagonalizing with lowered threshold

     Davidson diagonalization with overlap
     ethr =  1.67E-08,  avg # of iterations =  3.1

[...]

     total energy              =   -1980.31426363 Ry
     Harris-Foulkes estimate   =   -1980.31426363 Ry
     estimated scf accuracy    <       0.00000002 Ry

     iteration # 11     ecut=    40.00 Ry     beta=0.10
     Davidson diagonalization with overlap
     ethr =  6.61E-12,  avg # of iterations =  1.0

     negative rho (up, down):  0.695E+00 0.000E+00

     End of self-consistent calculation

[...]

          k = 0.2500-0.4833 0.0000 ( 30510 PWs)   bands (ev):

[...]

          k =-0.2500 0.2417 0.0000 ( 30481 PWs)   bands (ev):

   -50.7002 -50.3727 -50.2648 -49.7113 -49.7061 -49.6673 -49.6488 -49.6210
   -49.5861 -49.5792 -49.5720 -49.5418 -49.5066 -49.4954 -49.4799 -49.4007
   -49.3966 -49.3451 -49.2941 -49.2831 -49.2827 -49.2715 -49.2684 -49.2588
   -21.6739 -21.3746 -21.1968 -21.0524 -20.9169 -20.6545 -20.5881 -20.4721
   -20.3966 -20.3479 -20.2074 -20.1994 -20.1474 -20.0567 -20.0393 -19.9465
   -19.2453 -19.1799 -19.0862  -9.7588  -9.6166  -9.5012  -9.3260  -8.9931
    -8.9018  -8.8671  -8.8365  -8.8096  -8.7864  -8.6308  -8.6008  -8.4187
    -8.2734  -8.1834  -8.0779  -8.0051  -7.9334  -7.7034  -7.6057  -7.5120
    -7.3849  -7.2935  -7.0745  -6.9516  -6.7848  -6.6272  -6.5560  -6.4774
    -6.4246  -6.3441  -6.2727  -6.2244  -6.1708  -6.1115  -6.0561  -5.9027
    -5.7910  -5.7297  -5.6429  -5.4297  -5.4132  -5.2294  -5.1438  -5.0760
    -5.0136  -4.8067  -4.7516  -4.6659  -4.5919  -4.5369  -4.4280  -4.2224
    -3.9796  -3.8463  -3.7627  -3.7006  -3.5770  -3.4268  -3.4044  -3.3682
    -3.3117  -3.2044  -3.1535  -3.0995  -3.0603  -3.0012  -2.9700  -2.8462
    -2.7765  -2.4963  -2.3873  -2.3036  -2.1208  -2.0333  -1.9050  -1.8362
    -1.7793  -1.6595  -1.6011  -1.4874  -1.1566  -0.7908  -0.6427  -0.2008
     0.0825   0.2359   0.5059   0.6718   0.9609   1.1124   1.1567   1.2814
     1.3759   1.5876   1.6112   1.9727   3.4733   4.4516   4.6233   5.0881
     5.2825   5.3494   5.4939   6.0822   6.3563   6.4115   6.4724   6.5816
     6.7189   6.8346   6.9767   7.1777   7.3123   7.4656   7.5684   7.7189
     7.8248   7.9598   8.0489   8.1349   8.2597   8.3559   8.4289   8.5345
     8.7561   8.7743   8.8785   8.9934   9.2141   9.3573   9.4501   9.5308
     9.6134   9.7151   9.7723   9.8068   9.9143  10.1037  10.1818  10.2183
    10.3261  10.4228  10.4809  10.5888  10.6887  10.7427  10.8283  10.8900
    10.9523  11.0598  11.0940  11.1553  11.3105  11.4240  11.5008  11.5477
    11.5925  11.6912  11.7276  11.7648  11.8701  11.9872  12.0269  12.1443
    12.2058  12.2261  12.3665  12.4257  12.5049  12.6305  12.6869  12.7606
    12.7932  12.8357  12.9246  12.9630  13.0402  13.0722  13.1327  13.2062
    13.2711  13.3842  13.4664  13.5338  13.6617  13.7208  13.7889  13.8222
    13.9114  14.0381  14.1084  14.1663  14.2077  14.3369  14.3834  14.4802
    14.5555  14.5664  14.7002  14.8032  14.9600  15.0901  15.2149  15.2701
    15.3490  15.4167  15.4962  15.5147  15.5553  15.6128  15.7192  15.7530
    15.8715  15.9378  16.0100  16.0345  16.0833  16.1255  16.2211  16.2868
    16.3581  16.4190  16.4520  16.4797  16.5284  16.6046  16.6604  16.7213
    16.7986  16.8735  17.0011  17.0437  17.1203  17.2130  17.2726  17.3355
    17.3778  17.4762  17.5513  17.5963  17.6308  17.7582  17.8331  17.8497
    17.8997  18.0184  18.1033  18.1375  18.1681  18.2903  18.3134  18.3735
    18.4669  18.5729  18.6509  18.7037  18.7349  18.8297  18.8895  18.9802
    18.9975  19.0486  19.0659  19.1690  19.2064  19.2585  19.3267  19.4577
    19.5134  19.5770  19.6174  19.7005  19.7630  19.8721  20.0070  20.0587
    20.1740  20.2101  20.2601  20.3166  20.4768  20.5418  20.6212  20.6728
    20.6891  20.7678  20.8215  20.8753  20.9207  20.9993  21.0901  21.1930
    21.2415  21.2847  21.3445  21.3758  21.4264  21.5183  21.6728  21.7275
    21.7846  21.8569  21.8866  21.9245  21.9452  21.9993  22.0637  22.1659
    22.2010  22.2931  22.3984  22.4604  22.4907

     the Fermi energy is    -1.9275 ev

!    total energy              =   -1980.31426367 Ry
     Harris-Foulkes estimate   =   -1980.31426363 Ry
     estimated scf accuracy    <          5.1E-09 Ry

     The total energy is the sum of the following terms:

     one-electron contribution =  -23249.17887877 Ry
     hartree contribution      =   11669.29714044 Ry
     xc contribution           =    -371.89766853 Ry
     ewald contribution        =    9971.46513781 Ry
     smearing contrib. (-TS)   =       0.00000538 Ry

     convergence has been achieved in  11 iterations

     Forces acting on atoms (Ry/au):

     negative rho (up, down):  0.695E+00 0.000E+00
     atom    1 type  1   force =    -0.00707108   -0.01365560    0.00000915
     atom    2 type  1   force =     0.00009767    0.00486084   -0.00048690
     atom    3 type  2   force =     0.04079016    0.00600440    0.00012327
     atom    4 type  2   force =     0.00866179    0.00963924    0.00004967
     atom    5 type  1   force =    -0.00135586   -0.03067125    0.00005828
     atom    6 type  1   force =     0.00118133    0.02747866    0.00008949
     atom    7 type  1   force =    -0.00018716   -0.00106194   -0.00021749
     atom    8 type  1   force =    -0.00294169   -0.00103290   -0.00010361
     atom    9 type  2   force =     0.00425033    0.00026357   -0.00004809
     atom   10 type  2   force =     0.00000193   -0.00133596   -0.00050632
     atom   11 type  1   force =    -0.00470009    0.00737815    0.00020262
     atom   12 type  1   force =    -0.00526974   -0.00792401    0.00018004
     atom   13 type  1   force =    -0.00092390    0.00020223    0.00009515
     atom   14 type  1   force =    -0.00666105   -0.01369455   -0.00000777
     atom   15 type  1   force =     0.00014921    0.00565213    0.00039015
     atom   16 type  2   force =    -0.04141521    0.00516030    0.00012686
     atom   17 type  2   force =     0.00850304    0.00989376    0.00004878
     atom   18 type  1   force =    -0.00004694   -0.03056330    0.00005348
     atom   19 type  1   force =     0.00216036    0.02770607    0.00008902
     atom   20 type  1   force =    -0.00010629   -0.00440018   -0.00011881
     atom   21 type  1   force =    -0.00294687   -0.00067475    0.00013425
     atom   22 type  2   force =    -0.00144273    0.00045285   -0.00004784
     atom   23 type  2   force =    -0.00014176    0.00068354   -0.00060729
     atom   24 type  1   force =     0.00453051    0.00742138    0.00020066
     atom   25 type  1   force =     0.00589281   -0.00804785    0.00018189
     atom   26 type  1   force =    -0.00084995   -0.00006371   -0.00000791
     atom   27 type  3   force =     0.00001035    0.00034249    0.00003907
     atom   28 type  3   force =     0.00000827   -0.00010057    0.00017625
     atom   29 type  3   force =    -0.00008891    0.00006793   -0.00022008
     atom   30 type  3   force =    -0.00008826    0.00004268   -0.00024202
     atom   31 type  1   force =    -0.00000026   -0.00002365    0.00036607

     Total force =     0.001322     Total SCF correction =     0.000235
     SCF correction compared to forces is large: reduce conv_thr to get better values

     bfgs converged in  16 scf cycles and  15 bfgs steps
     (criteria: energy < 0.10E-03, force < 0.10E-02)

     End of BFGS Geometry Optimization

     Final energy   =   -1980.3142636666 Ry
Begin final coordinates

ATOMIC_POSITIONS (crystal)
O0       0.000000000   0.000000000   0.377987959    0   0   1
O0       0.000000000   0.500000000   0.402155013    0   0   1
Rh1      0.250000000   0.500000000   0.453245599    0   0   1
Rh1      0.000000000   0.000000000   0.452433640    0   0   1
O0       0.250000000   0.810000000   0.452250809    0   0   1
O0       0.250000000   0.190000000   0.452134003    0   0   1
O0       0.000000000   0.500000000   0.498836695    0   0   1
O0       0.000000000   0.000000000   0.527815887    0   0   1
Rh1      0.250000000   0.000000000   0.575059704    0   0   1
Rh1      0.000000000   0.500000000   0.570667056    0   0   1
O0       0.250000000   0.690000000   0.574898883    0   0   1
O0       0.250000000   0.310000000   0.574884829    0   0   1
O0       0.000000000   0.000000000   0.620166278    0   0   1
O0       0.500000000   0.000000000   0.377985615    0   0   1
O0       0.500000000   0.500000000   0.401872456    0   0   1
Rh1      0.750000000   0.500000000   0.453248438    0   0   1
Rh1      0.500000000   0.000000000   0.452415632    0   0   1
O0       0.750000000   0.810000000   0.452233048    0   0   1
O0       0.750000000   0.190000000   0.452151863    0   0   1
O0       0.500000000   0.500000000   0.500807839    0   0   1
O0       0.500000000   0.000000000   0.527620630    0   0   1
Rh1      0.750000000   0.000000000   0.575053640    0   0   1
Rh1      0.500000000   0.500000000   0.580061810    0   0   1
O0       0.750000000   0.690000000   0.574867886    0   0   1
O0       0.750000000   0.310000000   0.574879546    0   0   1
O0       0.500000000   0.000000000   0.620109063    0   0   1
H2      -0.000069299   0.637023207   0.384814793
H2       0.499928390   0.638497719   0.385142891
H2       0.148077871   0.034301227   0.367219565
H2       0.648113432   0.034247625   0.367204708
O0       0.500081604   0.498830265   0.646594223
End final coordinates

     General routines

     Parallel routines

   This run was terminated on:  15:28: 4  17Apr2014

   JOB DONE.