     Program PWSCF v.5.0.2 (svn rev. 9656) starts on 28May2014 at  3:38:51

     Current dimensions of program PWSCF are:
     Max number of different atomic species (ntypx) = 10
     Max number of k-points (npk) =  40000
     Max angular momentum in pseudopotentials (lmaxx) =  3
     Reading input from pwscf.in
Warning: card &CELL ignored
Warning: card / ignored

     Subspace diagonalization in iterative solution of the eigenvalue problem:
     a serial algorithm will be used

     bravais-lattice index     =            0
     lattice parameter (alat)  =      10.3179  a.u.
     unit-cell volume          =    6964.3238 (a.u.)^3
     number of atoms/cell      =           33
     number of atomic types    =            3
     number of electrons       =       237.00
     number of Kohn-Sham states=          355
     kinetic-energy cutoff     =      40.0000  Ry
     charge density cutoff     =     500.0000  Ry
     convergence threshold     =      1.0E-06
     mixing beta               =       0.7000
     number of iterations used =            8  plain     mixing
     Exchange-correlation      = SLA  PW   PBE  PBE ( 1 4 3 4 0)
     EXX-fraction              =        0.00
     nstep                     =           50

     celldm(1)=  10.317905  celldm(2)=   0.000000  celldm(3)=   0.000000
     celldm(4)=   0.000000  celldm(5)=   0.000000  celldm(6)=   0.000000

     crystal axes: (cart. coord. in units of alat)
               a(1) = (   1.000000   0.000000   0.000000 )
               a(2) = (   0.000000   1.282117   0.000000 )
               a(3) = (   0.000000   0.000000   4.945120 )

     reciprocal axes: (cart. coord. in units 2 pi/alat)
               b(1) = (  1.000000  0.000000  0.000000 )
               b(2) = (  0.000000  0.779960  0.000000 )
               b(3) = (  0.000000  0.000000  0.202220 )

     PseudoPot. # 1 for O  read from file:
     /home/camp/zhonxu/pseudo/o_pbe_v1.01.uspp.F.UPF
     MD5 check sum: 2bcb18d16ea4b960afae9ec6d52f22d2
     Pseudo is Ultrasoft + core correction, Zval =  6.0
     Generated by new atomic code, or converted to UPF format
     Using radial grid of  737 points,  5 beta functions with:
                l(1) =   0
                l(2) =   0
                l(3) =   1
                l(4) =   1
                l(5) =   2
     Q(r) pseudized with  8 coefficients,  rinner =    0.900   0.900   0.900
                                                       0.900   0.900

     PseudoPot. # 2 for Mo read from file:
     /home/camp/zhonxu/pseudo/mo_pbe_v1.uspp.F.UPF
     MD5 check sum: 30c4dcd161f5d35cd49bb5239c51a633
     Pseudo is Ultrasoft + core correction, Zval = 14.0
     Generated by new atomic code, or converted to UPF format
     Using radial grid of  889 points,  6 beta functions with:
                l(1) =   0
                l(2) =   0
                l(3) =   1
                l(4) =   1
                l(5) =   2
                l(6) =   2
     Q(r) pseudized with  6 coefficients,  rinner =    1.000   1.000   1.000
                                                       1.000   1.000

     PseudoPot. # 3 for H  read from file:
     /home/camp/zhonxu/pseudo/h_pbe_v1.uspp.F.UPF
     MD5 check sum: 3408e3ff4ec8b0a4e358431e7e038a48
     Pseudo is Ultrasoft, Zval =  1.0
     Generated by new atomic code, or converted to UPF format
     Using radial grid of  615 points,  2 beta functions with:
                l(1) =   0
                l(2) =   0
     Q(r) pseudized with  8 coefficients,  rinner =    0.700

     atomic species   valence    mass     pseudopotential
        O0             6.00    15.99940     O ( 1.00)
        Mo1           14.00    95.94000     Mo( 1.00)
        H2             1.00     1.00794     H ( 1.00)

     Simplified LDA+U calculation (l_max = 2) with parameters (eV):
     atomic species    L          U    alpha       J0     beta
        Mo1            2     5.0000   0.0000   0.0000   0.0000

     No symmetry found

   Cartesian axes

     site n.     atom                  positions (alat units)
         1           O0  tau(   1) = (   0.0000000   0.0000000   1.8345407  )
         2           O0  tau(   2) = (   0.0000000   0.6410583   1.8924976  )
         3           Mo1 tau(   3) = (   0.2500000   0.6410583   2.1781772  )
         4           Mo1 tau(   4) = (   0.0000000   0.0000000   2.1929631  )
         5           O0  tau(   5) = (   0.2500000   1.0000510   2.1897982  )
         6           O0  tau(   6) = (   0.2500000   0.2820657   2.1891553  )
         7           O0  tau(   7) = (   0.0000000   0.6410583   2.4607413  )
         8           O0  tau(   8) = (   0.0000000   0.0000000   2.5556382  )
         9           Mo1 tau(   9) = (   0.2500000   0.0000000   2.8453728  )
        10           Mo1 tau(  10) = (   0.0000000   0.6410583   2.7952787  )
        11           O0  tau(  11) = (   0.2500000   0.9231240   2.8196582  )
        12           O0  tau(  12) = (   0.2500000   0.3589927   2.8248011  )
        13           O0  tau(  13) = (   0.0000000   0.0000000   3.0952003  )
        14           O0  tau(  14) = (   0.5000000   0.0000000   1.8353814  )
        15           O0  tau(  15) = (   0.5000000   0.6410583   1.8936349  )
        16           Mo1 tau(  16) = (   0.7500000   0.6410583   2.1781277  )
        17           Mo1 tau(  17) = (   0.5000000   0.0000000   2.1954851  )
        18           O0  tau(  18) = (   0.7500000   1.0000510   2.1899960  )
        19           O0  tau(  19) = (   0.7500000   0.2820657   2.1890564  )
        20           O0  tau(  20) = (   0.5000000   0.6410583   2.4612853  )
        21           O0  tau(  21) = (   0.5000000   0.0000000   2.5539074  )
        22           Mo1 tau(  22) = (   0.7500000   0.0000000   2.8439387  )
        23           Mo1 tau(  23) = (   0.5000000   0.6410583   2.8209934  )
        24           O0  tau(  24) = (   0.7500000   0.9231240   2.8195098  )
        25           O0  tau(  25) = (   0.7500000   0.3589927   2.8246033  )
        26           O0  tau(  26) = (   0.5000000   0.0000000   3.0932717  )
        27           H2  tau(  27) = (  -0.0005800   0.7846554   1.7836060  )
        28           H2  tau(  28) = (   0.4995100   0.7915788   1.7940402  )
        29           H2  tau(  29) = (   0.1672700   0.0232576   1.7642706  )
        30           H2  tau(  30) = (   0.6659000   0.0248346   1.7633310  )
        31           O0  tau(  31) = (   0.5002100   0.6666879   3.1760530  )
        32           O0  tau(  32) = (   0.4999400   0.4570233   3.3393409  )
        33           H2  tau(  33) = (   0.5000100   0.5446560   3.4973869  )

     number of k points=    10  Methfessel-Paxton smearing, width (Ry)=  0.0100
                       cart. coord. in units 2pi/alat
        k(    1) = (   0.0000000   0.0000000   0.0000000), wk =   0.1250000
        k(    2) = (   0.0000000   0.1949901   0.0000000), wk =   0.2500000
        k(    3) = (   0.0000000  -0.3899801   0.0000000), wk =   0.1250000
        k(    4) = (   0.2500000   0.0000000   0.0000000), wk =   0.2500000
        k(    5) = (   0.2500000   0.1949901   0.0000000), wk =   0.2500000
        k(    6) = (   0.2500000  -0.3899801   0.0000000), wk =   0.2500000
        k(    7) = (  -0.5000000   0.0000000   0.0000000), wk =   0.1250000
        k(    8) = (  -0.5000000   0.1949901   0.0000000), wk =   0.2500000
        k(    9) = (  -0.5000000  -0.3899801   0.0000000), wk =   0.1250000
        k(   10) = (  -0.2500000   0.1949901   0.0000000), wk =   0.2500000

     Largest allocated arrays     est. size (Mb)     dimensions
     Largest temporary arrays     est. size (Mb)     dimensions

     Check: negative/imaginary core charge=   -0.000003    0.000000

     Initial potential from superposition of free atoms
     Check: negative starting charge=   -0.002157

     starting charge  236.99142, renormalised to  237.00000

     negative rho (up, down):  0.216E-02 0.000E+00
     Number of +U iterations with fixed ns =  0
     Starting occupations:
 --- enter write_ns ---
 LDA+U parameters:
U( 2)     =  5.00000000
alpha( 2) =  0.00000000
atom    3   Tr[ns(na)] =   5.00000
    eigenvalues:
  0.500  0.500  0.500  0.500  0.500
    eigenvectors:
  1.000  0.000  0.000  0.000  0.000
  0.000  1.000  0.000  0.000  0.000
  0.000  0.000  1.000  0.000  0.000
  0.000  0.000  0.000  1.000  0.000
  0.000  0.000  0.000  0.000  1.000
    occupations:
  0.500  0.000  0.000  0.000  0.000
  0.000  0.500  0.000  0.000  0.000
  0.000  0.000  0.500  0.000  0.000
  0.000  0.000  0.000  0.500  0.000
  0.000  0.000  0.000  0.000  0.500
atom    4   Tr[ns(na)] =   5.00000
    eigenvalues:
  0.500  0.500  0.500  0.500  0.500
    eigenvectors:
  1.000  0.000  0.000  0.000  0.000
  0.000  1.000  0.000  0.000  0.000
  0.000  0.000  1.000  0.000  0.000
  0.000  0.000  0.000  1.000  0.000
  0.000  0.000  0.000  0.000  1.000
    occupations:
  0.500  0.000  0.000  0.000  0.000
  0.000  0.500  0.000  0.000  0.000
  0.000  0.000  0.500  0.000  0.000
  0.000  0.000  0.000  0.500  0.000
  0.000  0.000  0.000  0.000  0.500
atom    9   Tr[ns(na)] =   5.00000
    eigenvalues:
  0.500  0.500  0.500  0.500  0.500
    eigenvectors:
  1.000  0.000  0.000  0.000  0.000
  0.000  1.000  0.000  0.000  0.000
  0.000  0.000  1.000  0.000  0.000
  0.000  0.000  0.000  1.000  0.000
  0.000  0.000  0.000  0.000  1.000
    occupations:
  0.500  0.000  0.000  0.000  0.000
  0.000  0.500  0.000  0.000  0.000
  0.000  0.000  0.500  0.000  0.000
  0.000  0.000  0.000  0.500  0.000
  0.000  0.000  0.000  0.000  0.500
atom   10   Tr[ns(na)] =   5.00000
    eigenvalues:
  0.500  0.500  0.500  0.500  0.500
    eigenvectors:
  1.000  0.000  0.000  0.000  0.000
  0.000  1.000  0.000  0.000  0.000
  0.000  0.000  1.000  0.000  0.000
  0.000  0.000  0.000  1.000  0.000
  0.000  0.000  0.000  0.000  1.000
    occupations:
  0.500  0.000  0.000  0.000  0.000
  0.000  0.500  0.000  0.000  0.000
  0.000  0.000  0.500  0.000  0.000
  0.000  0.000  0.000  0.500  0.000
  0.000  0.000  0.000  0.000  0.500
atom   16   Tr[ns(na)] =   5.00000
    eigenvalues:
  0.500  0.500  0.500  0.500  0.500
    eigenvectors:
  1.000  0.000  0.000  0.000  0.000
  0.000  1.000  0.000  0.000  0.000
  0.000  0.000  1.000  0.000  0.000
  0.000  0.000  0.000  1.000  0.000
  0.000  0.000  0.000  0.000  1.000
    occupations:
  0.500  0.000  0.000  0.000  0.000
  0.000  0.500  0.000  0.000  0.000
  0.000  0.000  0.500  0.000  0.000
  0.000  0.000  0.000  0.500  0.000
  0.000  0.000  0.000  0.000  0.500
atom   17   Tr[ns(na)] =   5.00000
    eigenvalues:
  0.500  0.500  0.500  0.500  0.500
    eigenvectors:
  1.000  0.000  0.000  0.000  0.000
  0.000  1.000  0.000  0.000  0.000
  0.000  0.000  1.000  0.000  0.000
  0.000  0.000  0.000  1.000  0.000
  0.000  0.000  0.000  0.000  1.000
    occupations:
  0.500  0.000  0.000  0.000  0.000
  0.000  0.500  0.000  0.000  0.000
  0.000  0.000  0.500  0.000  0.000
  0.000  0.000  0.000  0.500  0.000
  0.000  0.000  0.000  0.000  0.500
atom   22   Tr[ns(na)] =   5.00000
    eigenvalues:
  0.500  0.500  0.500  0.500  0.500
    eigenvectors:
  1.000  0.000  0.000  0.000  0.000
  0.000  1.000  0.000  0.000  0.000
  0.000  0.000  1.000  0.000  0.000
[...]
  0.462  0.000 -0.004  0.018 -0.000
  0.000  0.821 -0.002  0.002 -0.002
 -0.004 -0.002  0.368 -0.001 -0.001
  0.018  0.002 -0.001  0.720 -0.000
 -0.000 -0.002 -0.001 -0.000  0.506
atom   16   Tr[ns(na)] =   5.82452
    eigenvalues:
  0.426  0.510  0.572  0.629  0.775
    eigenvectors:
  0.012  0.003  0.306  0.000  0.678
  0.000  0.988  0.007  0.005  0.000
  0.981  0.000  0.001  0.006  0.011
  0.001  0.004  0.685  0.000  0.310
  0.006  0.004  0.001  0.989  0.000
    occupations:
  0.708 -0.006  0.034 -0.093 -0.003
 -0.006  0.511 -0.000 -0.002 -0.008
  0.034 -0.000  0.431 -0.016  0.015
 -0.093 -0.002 -0.016  0.634  0.003
 -0.003 -0.008  0.015  0.003  0.628
atom   17   Tr[ns(na)] =   5.82842
    eigenvalues:
  0.398  0.521  0.588  0.639  0.768
    eigenvectors:
  0.000  0.000  0.996  0.004  0.000
  0.000  0.000  0.004  0.996  0.000
  1.000  0.000  0.000  0.000  0.000
  0.000  0.000  0.000  0.000  1.000
  0.000  1.000  0.000  0.000  0.000
    occupations:
  0.588  0.003  0.001  0.000  0.000
  0.003  0.639  0.002 -0.001 -0.001
  0.001  0.002  0.399 -0.004  0.000
  0.000 -0.001 -0.004  0.768 -0.000
  0.000 -0.001  0.000 -0.000  0.521
atom   22   Tr[ns(na)] =   5.83493
    eigenvalues:
  0.451  0.508  0.598  0.602  0.758
    eigenvectors:
  0.000  0.000  0.096  0.131  0.774
  0.000  0.000  0.585  0.415  0.000
  0.121  0.879  0.000  0.000  0.000
  0.000  0.000  0.319  0.455  0.226
  0.878  0.121  0.000  0.000  0.000
    occupations:
  0.722  0.002  0.000 -0.066 -0.003
  0.002  0.600  0.000  0.002 -0.000
  0.000  0.000  0.501 -0.000 -0.019
 -0.066  0.002 -0.000  0.636  0.002
 -0.003 -0.000 -0.019  0.002  0.458
atom   23   Tr[ns(na)] =   5.85476
    eigenvalues:
  0.480  0.517  0.526  0.596  0.808
    eigenvectors:
  0.003  0.000  0.000  0.986  0.010
  0.000  0.687  0.313  0.000  0.000
  0.995  0.000  0.001  0.004  0.000
  0.001  0.000  0.000  0.010  0.989
  0.001  0.313  0.686  0.000  0.000
    occupations:
  0.598 -0.000  0.006 -0.022 -0.000
 -0.000  0.520 -0.000 -0.000 -0.004
  0.006 -0.000  0.481  0.006  0.001
 -0.022 -0.000  0.006  0.806 -0.000
 -0.000 -0.004  0.001 -0.000  0.523
N of occupied +U levels =  46.5832866
 --- exit write_ns ---

     Threshold (ethr) on eigenvalues was too large:
     Diagonalizing with lowered threshold

     Davidson diagonalization with overlap
     ethr =  7.33E-09,  avg # of iterations =  2.9

[...]

     total energy              =   -1762.26485560 Ry
     Harris-Foulkes estimate   =   -1762.26485561 Ry
     estimated scf accuracy    <       0.00000002 Ry

     iteration # 13     ecut=    40.00 Ry     beta=0.70
     Davidson diagonalization with overlap
     ethr =  9.94E-12,  avg # of iterations =  1.0

     negative rho (up, down):  0.337E-02 0.000E+00

     End of self-consistent calculation
 --- enter write_ns ---
 LDA+U parameters:
U( 2)     =  5.00000000
alpha( 2) =  0.00000000
atom    3   Tr[ns(na)] =   5.82647
    eigenvalues:
  0.432  0.510  0.572  0.624  0.775
    eigenvectors:
  0.012  0.003  0.308  0.000  0.676
  0.000  0.988  0.007  0.005  0.000
  0.979  0.000  0.001  0.008  0.011
  0.001  0.004  0.683  0.000  0.313
  0.008  0.004  0.001  0.987  0.000
    occupations:
  0.707  0.006  0.033 -0.093  0.004
  0.006  0.511  0.000  0.002 -0.007
  0.033  0.000  0.437 -0.015 -0.016
 -0.093  0.002 -0.015  0.635 -0.003
  0.004 -0.007 -0.016 -0.003  0.622
atom    4   Tr[ns(na)] =   5.82069
    eigenvalues:
  0.381  0.521  0.584  0.660  0.765
    eigenvectors:
  0.000  0.000  0.994  0.006  0.000
  0.000  0.000  0.006  0.994  0.000
  1.000  0.000  0.000  0.000  0.000
  0.000  0.000  0.000  0.000  1.000
  0.000  1.000  0.000  0.000  0.000
    occupations:
  0.584  0.006  0.001  0.002  0.000
  0.006  0.660  0.004 -0.002 -0.000
  0.001  0.004  0.381  0.000  0.001
  0.002 -0.002  0.000  0.765  0.000
  0.000 -0.000  0.001  0.000  0.521
atom    9   Tr[ns(na)] =   5.84177
    eigenvalues:
  0.467  0.519  0.602  0.609  0.724
    eigenvectors:
  0.000  0.000  0.192  0.010  0.797
  0.000  0.000  0.055  0.945  0.000
  0.130  0.870  0.000  0.000  0.000
  0.000  0.000  0.753  0.045  0.203
  0.870  0.130  0.000  0.000  0.000
    occupations:
  0.700 -0.001  0.001 -0.049 -0.001
 -0.001  0.609 -0.001 -0.001  0.000
  0.001 -0.001  0.512 -0.001  0.017
 -0.049 -0.001 -0.001  0.627  0.000
 -0.001  0.000  0.017  0.000  0.473
atom   10   Tr[ns(na)] =   5.75243
    eigenvalues:
  0.367  0.461  0.506  0.721  0.821
    eigenvectors:
  0.002  0.993  0.000  0.005  0.000
  0.000  0.000  0.000  0.001  0.999
  0.998  0.002  0.000  0.000  0.000
  0.000  0.005  0.000  0.995  0.000
  0.000  0.000  1.000  0.000  0.000
    occupations:
  0.462  0.000 -0.004  0.018 -0.000
  0.000  0.821 -0.002  0.002 -0.002
 -0.004 -0.002  0.367 -0.001 -0.001
  0.018  0.002 -0.001  0.720 -0.000
 -0.000 -0.002 -0.001 -0.000  0.506
atom   16   Tr[ns(na)] =   5.82500
    eigenvalues:
  0.426  0.510  0.572  0.630  0.775
    eigenvectors:
  0.012  0.003  0.306  0.000  0.678
  0.000  0.988  0.007  0.005  0.000
  0.981  0.000  0.001  0.006  0.011
  0.001  0.004  0.685  0.000  0.310
  0.006  0.004  0.001  0.989  0.000
    occupations:
  0.708 -0.006  0.034 -0.093 -0.003
 -0.006  0.511 -0.000 -0.002 -0.008
  0.034 -0.000  0.431 -0.016  0.015
 -0.093 -0.002 -0.016  0.634  0.003
 -0.003 -0.008  0.015  0.003  0.628
atom   17   Tr[ns(na)] =   5.82813
    eigenvalues:
  0.398  0.521  0.588  0.639  0.768
    eigenvectors:
  0.000  0.000  0.996  0.004  0.000
  0.000  0.000  0.004  0.996  0.000
  1.000  0.000  0.000  0.000  0.000
  0.000  0.000  0.000  0.000  1.000
  0.000  1.000  0.000  0.000  0.000
    occupations:
  0.588  0.003  0.001  0.000  0.000
  0.003  0.639  0.002 -0.001 -0.001
  0.001  0.002  0.399 -0.004  0.000
  0.000 -0.001 -0.004  0.768 -0.000
  0.000 -0.001  0.000 -0.000  0.521
atom   22   Tr[ns(na)] =   5.83318
    eigenvalues:
  0.451  0.508  0.598  0.602  0.758
    eigenvectors:
  0.000  0.000  0.091  0.135  0.773
  0.000  0.000  0.605  0.395  0.000
  0.121  0.879  0.000  0.000  0.000
  0.000  0.000  0.304  0.470  0.227
  0.879  0.121  0.000  0.000  0.000
    occupations:
  0.722  0.002  0.000 -0.066 -0.003
  0.002  0.600  0.000  0.002 -0.000
  0.000  0.000  0.501 -0.000 -0.019
 -0.066  0.002 -0.000  0.636  0.002
 -0.003 -0.000 -0.019  0.002  0.458
atom   23   Tr[ns(na)] =   5.85552
    eigenvalues:
  0.480  0.517  0.526  0.596  0.808
    eigenvectors:
  0.003  0.000  0.000  0.986  0.010
  0.000  0.684  0.316  0.000  0.000
  0.995  0.000  0.001  0.004  0.000
  0.001  0.000  0.000  0.010  0.989
  0.001  0.316  0.683  0.000  0.000
    occupations:
  0.598 -0.000  0.006 -0.022 -0.000
 -0.000  0.520 -0.000 -0.000 -0.004
  0.006 -0.000  0.481  0.006  0.001
 -0.022 -0.000  0.006  0.806 -0.000
 -0.000 -0.004  0.001 -0.000  0.523
N of occupied +U levels =  46.5831887
 --- exit write_ns ---

[...]

          k = 0.2500-0.3900 0.0000 ( 29726 PWs)   bands (ev):

[...]

          k =-0.2500 0.1950 0.0000 ( 29746 PWs)   bands (ev):

   -62.0947 -61.9795 -61.9225 -61.6568 -61.6484 -61.5703 -61.5658 -61.3439
   -36.6575 -36.5186 -36.4393 -36.4215 -36.0595 -36.0319 -36.0016 -35.9595
   -35.9359 -35.9254 -35.9011 -35.8970 -35.8847 -35.8629 -35.8352 -35.7978
   -35.7356 -35.7010 -35.6975 -35.6663 -35.6533 -35.1813 -35.1671 -35.0138
   -22.9759 -20.1621 -19.8995 -19.4315 -19.3082 -19.1446 -19.0318 -18.9711
   -18.9579 -18.8921 -18.7357 -18.6868 -18.5204 -18.4980 -18.3726 -18.2863
   -18.1551 -17.8810 -17.7132 -16.5960  -8.3821  -8.2275  -8.0819  -7.9049
    -7.5818  -7.4238  -7.3131  -7.2051  -7.1550  -7.0826  -6.9889  -6.9097
    -6.7668  -6.5568  -6.4812  -6.2345  -6.1495  -6.0433  -5.9824  -5.8386
    -5.6944  -5.6447  -5.5456  -5.4245  -5.3392  -5.1643  -4.9313  -4.8872
    -4.8074  -4.6452  -4.5677  -4.5376  -4.3831  -4.2363  -4.1521  -4.0866
    -4.0136  -3.9895  -3.9615  -3.9082  -3.8177  -3.7561  -3.6661  -3.4973
    -3.3839  -3.3372  -3.2393  -3.1520  -3.0572  -2.9997  -2.9329  -2.7895
    -2.7065  -2.6513  -2.5297  -2.4084  -2.3348  -2.0934  -1.6585  -1.4912
    -1.4251  -1.3259  -0.3621  -0.3302  -0.1933  -0.0278   0.6770   0.7860
     1.0038   1.0990   1.2247   1.3009   1.4782   1.6044   1.7554   1.8221
     1.9449   2.0223   2.0457   2.1686   2.2396   2.3899   2.7633   2.9728
     3.6544   3.7863   4.0674   4.1570   4.2510   4.3909   4.4385   4.5724
     4.7481   4.8235   4.8661   4.9664   5.1634   5.2046   5.3076   5.5552
     5.9124   6.0800   6.1772   6.2318   6.3691   6.4850   6.5082   6.6122
     6.7132   6.9517   7.0121   7.2699   7.3478   7.4226   7.7243   7.7727
     8.0802   8.2356   8.4504   8.4853   8.6387   8.7275   8.8548   8.9678
     9.0160   9.1965   9.2390   9.4055   9.4891   9.6174   9.6985   9.7805
     9.8267   9.9701   9.9779  10.0954  10.2543  10.4354  10.5329  10.6170
    10.7016  10.8124  10.9409  10.9582  11.0477  11.1461  11.3037  11.3937
    11.5080  11.6967  11.7728  11.8541  11.9203  11.9539  12.0155  12.1821
    12.1914  12.2577  12.3565  12.3667  12.4422  12.5686  12.6164  12.8244
    12.9271  12.9853  13.0465  13.1725  13.2053  13.2940  13.4137  13.4549
    13.5405  13.5648  13.6398  13.7165  13.7731  13.8621  13.9022  13.9497
    14.0508  14.0935  14.1453  14.2006  14.2735  14.2952  14.3693  14.3874
    14.5026  14.5299  14.6185  14.7630  14.7805  14.8822  14.9113  15.0787
    15.1457  15.2475  15.3182  15.4480  15.4772  15.5164  15.6457  15.7004
    15.8134  15.8854  15.9241  16.0228  16.1096  16.1729  16.2792  16.3062
    16.3514  16.4415  16.5157  16.5698  16.6172  16.6444  16.7390  16.7741
    16.8622  16.9139  16.9723  17.0823  17.1096  17.2180  17.2783  17.3177
    17.3397  17.4118  17.5260  17.5866  17.6948  17.7558  17.8082  17.9089
    18.0577  18.1186  18.1447  18.2035  18.2364  18.3791  18.4113  18.5003
    18.5823  18.6194  18.6983  18.7823  18.9284  18.9477  19.0348  19.0782
    19.2145  19.2694  19.3871  19.4191  19.4549  19.5458  19.6140  19.7068
    19.8117  19.9024  19.9784  20.0475  20.1195  20.1757  20.2075  20.2599
    20.2957  20.3385  20.4413  20.4763  20.4963  20.5561  20.6020  20.6646
    20.7616  20.8379  20.8920  20.9606  21.0066  21.1000  21.1459  21.2341
    21.2828  21.3792  21.4093  21.4728  21.5338  21.5759  21.6024  21.6212
    21.6515  21.7435  21.8050  21.8776  21.8928  21.9505  21.9983  22.0766
    22.1383  22.1983  22.2977

     the Fermi energy is     0.3682 ev

!    total energy              =   -1762.26485560 Ry
     Harris-Foulkes estimate   =   -1762.26485561 Ry
     estimated scf accuracy    <          9.9E-09 Ry

     The total energy is the sum of the following terms:

     one-electron contribution =  -22635.58933995 Ry
     hartree contribution      =   11348.27959287 Ry
     xc contribution           =    -301.61988454 Ry
     ewald contribution        =    9823.30978317 Ry
     Hubbard energy            =       3.35468410 Ry
     smearing contrib. (-TS)   =       0.00030876 Ry

     convergence has been achieved in  13 iterations

     Forces acting on atoms (Ry/au):

     negative rho (up, down):  0.337E-02 0.000E+00
     atom    1 type  1   force =    -0.00369627   -0.00554111   -0.00049233
     atom    2 type  1   force =    -0.00019514    0.00722574   -0.00045447
     atom    3 type  2   force =     0.01533526   -0.00870031   -0.00002255
     atom    4 type  2   force =     0.00575159    0.00376595   -0.00019927
     atom    5 type  1   force =     0.00042033   -0.01888415    0.00020597
     atom    6 type  1   force =    -0.00120727    0.01776939    0.00022950
     atom    7 type  1   force =    -0.00005580    0.00200563    0.00004972
     atom    8 type  1   force =     0.00437785    0.00142588    0.00064579
     atom    9 type  2   force =    -0.00537446   -0.00241398    0.00077047
     atom   10 type  2   force =     0.00014361    0.00242523    0.00063462
     atom   11 type  1   force =    -0.01220163   -0.00220634   -0.00009146
     atom   12 type  1   force =    -0.00878312    0.00649847    0.00012829
     atom   13 type  1   force =     0.00225504   -0.00140112    0.00007642
     atom   14 type  1   force =    -0.00071015   -0.00492964   -0.00036837
     atom   15 type  1   force =     0.00002761    0.00838549   -0.00038656
     atom   16 type  2   force =    -0.01560455   -0.00829391   -0.00005929
     atom   17 type  2   force =    -0.00735018    0.00369707   -0.00041760
     atom   18 type  1   force =     0.00263263   -0.01766628    0.00023952
     atom   19 type  1   force =     0.00088751    0.01573356    0.00028812
     atom   20 type  1   force =    -0.00016068   -0.00056214   -0.00054369
     atom   21 type  1   force =     0.00374332    0.00242314   -0.00033013
     atom   22 type  2   force =     0.00162479   -0.00288479   -0.00049687
     atom   23 type  2   force =     0.00047496    0.00252300   -0.00030198
     atom   24 type  1   force =     0.01164096   -0.00030685   -0.00030663
     atom   25 type  1   force =     0.00860274    0.00517663   -0.00011884
     atom   26 type  1   force =    -0.00368357   -0.00662443    0.00032284
     atom   27 type  3   force =    -0.00000526    0.00062016    0.00043495
     atom   28 type  3   force =    -0.00001521    0.00030397   -0.00003529
     atom   29 type  3   force =     0.00061782   -0.00002238    0.00049376
     atom   30 type  3   force =     0.00042908    0.00001045    0.00029905
     atom   31 type  1   force =     0.00011754    0.00027451   -0.00020990
     atom   32 type  1   force =    -0.00006402    0.00014841   -0.00004774
     atom   33 type  3   force =     0.00002468    0.00002474    0.00006394

     Total force =     0.002307     Total SCF correction =     0.000436
     SCF correction compared to forces is large: reduce conv_thr to get better values

     entering subroutine stress ...

     negative rho (up, down):  0.337E-02 0.000E+00
          total   stress  (Ry/bohr**3)                   (kbar)     P=   -6.40
  -0.00003854  -0.00000116   0.00000035         -5.67     -0.17      0.05
  -0.00000116  -0.00005617  -0.00000099         -0.17     -8.26     -0.15
   0.00000035  -0.00000099  -0.00003577          0.05     -0.15     -5.26

     bfgs converged in  17 scf cycles and  16 bfgs steps
     (criteria: energy < 0.10E-03, force < 0.10E-02)

     End of BFGS Geometry Optimization

     Final energy   =   -1762.2648556007 Ry
Begin final coordinates

ATOMIC_POSITIONS (crystal)
O0       0.000000000   0.000000000   0.370926947    0   0   1
O0       0.000000000   0.500000000   0.382942538    0   0   1
Mo1      0.250000000   0.500000000   0.440853070    0   0   1
Mo1      0.000000000   0.000000000   0.442930262    0   0   1
O0       0.250000000   0.780000000   0.442995701    0   0   1
O0       0.250000000   0.220000000   0.442749746    0   0   1
O0       0.000000000   0.500000000   0.496996200    0   0   1
O0       0.000000000   0.000000000   0.516621212    0   0   1
Mo1      0.250000000   0.000000000   0.575594365    0   0   1
Mo1      0.000000000   0.500000000   0.566533877    0   0   1
O0       0.250000000   0.720000000   0.571350522    0   0   1
O0       0.250000000   0.280000000   0.572128875    0   0   1
O0       0.000000000   0.000000000   0.625206580    0   0   1
O0       0.500000000   0.000000000   0.371136871    0   0   1
O0       0.500000000   0.500000000   0.382787516    0   0   1
Mo1      0.750000000   0.500000000   0.440835192    0   0   1
Mo1      0.500000000   0.000000000   0.443087636    0   0   1
O0       0.750000000   0.780000000   0.443011401    0   0   1
O0       0.750000000   0.220000000   0.442825005    0   0   1
O0       0.500000000   0.500000000   0.499516318    0   0   1
O0       0.500000000   0.000000000   0.516046990    0   0   1
Mo1      0.750000000   0.000000000   0.573758655    0   0   1
Mo1      0.500000000   0.500000000   0.570174248    0   0   1
O0       0.750000000   0.720000000   0.571109238    0   0   1
O0       0.750000000   0.280000000   0.571867231    0   0   1
O0       0.500000000   0.000000000   0.624866830    0   0   1
H2      -0.000512467   0.613634093   0.361512896
H2       0.499432054   0.609329171   0.359974421
H2       0.166000273   0.018427630   0.356181711
H2       0.665319873   0.018535762   0.356103091
O0       0.500506944   0.515113414   0.641941622
O0       0.499626012   0.355899001   0.675822069
H2       0.500143640   0.427065498   0.707361163
End final coordinates

     General routines

     Parallel routines
     Hubbard U routines

   This run was terminated on:  23:16:31  28May2014

   JOB DONE.
Running PBS batch system epilogue script
Job id: 373266.audhumbla.fysik.dtu.dk
Username: zhonxu
Groupname: campgst
Jobname: MoO2/Eads-2-layers/OOH-U-5.0
Sessionid: 25341
Queuename: verylong
Accounting:
This job has allocated the following 16 nodes:
c071 c071 c071 c071 c071 c071 c071 c071 c051 c051 c051 c051 c051 c051 c051 c051
Finished epilogue job 373266.audhumbla.fysik.dtu.dk for zhonxu