     Program PWSCF v.5.0.2 (svn rev. 9656) starts on  6May2014 at  3:53:55

     Current dimensions of program PWSCF are:
     Max number of different atomic species (ntypx) = 10
     Max number of k-points (npk) =  40000
     Max angular momentum in pseudopotentials (lmaxx) =  3
     Reading input from pwscf.in
Warning: card &CELL ignored
Warning: card / ignored

     Subspace diagonalization in iterative solution of the eigenvalue problem:
     a serial algorithm will be used

     bravais-lattice index     =            0
     lattice parameter (alat)  =      11.7919  a.u.
     unit-cell volume          =    7123.6633 (a.u.)^3
     number of atoms/cell      =           30
     number of atomic types    =            3
     number of electrons       =       240.00
     number of Kohn-Sham states=          348
     kinetic-energy cutoff     =      40.0000  Ry
     charge density cutoff     =     500.0000  Ry
     convergence threshold     =      1.0E-06
     mixing beta               =       0.7000
     number of iterations used =            8  plain     mixing
     Exchange-correlation      = SLA  PW   PBE  PBE ( 1 4 3 4 0)
     EXX-fraction              =        0.00
     nstep                     =           50

     celldm(1)=  11.791891  celldm(2)=   0.000000  celldm(3)=   0.000000
     celldm(4)=   0.000000  celldm(5)=   0.000000  celldm(6)=   0.000000

     crystal axes: (cart. coord. in units of alat)
               a(1) = (   1.000000   0.000000   0.000000 )
               a(2) = (   0.000000   1.026665   0.000000 )
               a(3) = (   0.000000   0.000000   4.231793 )

     reciprocal axes: (cart. coord. in units 2 pi/alat)
               b(1) = (  1.000000  0.000000  0.000000 )
               b(2) = (  0.000000  0.974028  0.000000 )
               b(3) = (  0.000000  0.000000  0.236306 )

     PseudoPot. # 1 for O  read from file:
     /home/camp/zhonxu/pseudo/o_pbe_v1.01.uspp.F.UPF
     MD5 check sum: 2bcb18d16ea4b960afae9ec6d52f22d2
     Pseudo is Ultrasoft + core correction, Zval =  6.0
     Generated by new atomic code, or converted to UPF format
     Using radial grid of  737 points,  5 beta functions with:
                l(1) =   0
                l(2) =   0
                l(3) =   1
                l(4) =   1
                l(5) =   2
     Q(r) pseudized with  8 coefficients,  rinner =    0.900   0.900   0.900
                                                       0.900   0.900

     PseudoPot. # 2 for Ru read from file:
     /home/camp/zhonxu/pseudo/ru_pbe_v1.uspp.F.UPF
     MD5 check sum: df00be1c11b23341d9806d8f1dfa10cf
     Pseudo is Ultrasoft + core correction, Zval = 16.0
     Generated by new atomic code, or converted to UPF format
     Using radial grid of  967 points,  6 beta functions with:
                l(1) =   0
                l(2) =   0
                l(3) =   1
                l(4) =   1
                l(5) =   2
                l(6) =   2
     Q(r) pseudized with  8 coefficients,  rinner =    1.300   1.300   1.300
                                                       1.300   1.300

     PseudoPot. # 3 for H  read from file:
     /home/camp/zhonxu/pseudo/h_pbe_v1.uspp.F.UPF
     MD5 check sum: 3408e3ff4ec8b0a4e358431e7e038a48
     Pseudo is Ultrasoft, Zval =  1.0
     Generated by new atomic code, or converted to UPF format
     Using radial grid of  615 points,  2 beta functions with:
                l(1) =   0
                l(2) =   0
     Q(r) pseudized with  8 coefficients,  rinner =    0.700

     atomic species   valence    mass     pseudopotential
        O0             6.00    15.99940     O ( 1.00)
        Ru1           16.00   101.07000     Ru( 1.00)
        H2             1.00     1.00794     H ( 1.00)

     Simplified LDA+U calculation (l_max = 2) with parameters (eV):
     atomic species    L          U    alpha       J0     beta
        Ru1            2     1.0000   0.0000   0.0000   0.0000

     No symmetry found

   Cartesian axes

     site n.     atom                  positions (alat units)
         1           O0  tau(   1) = (   0.0000000   0.0000000   1.6080390  )
         2           O0  tau(   2) = (   0.0000000   0.5133323   1.7023233  )
         3           Ru1 tau(   3) = (   0.2500000   0.5133323   1.9175523  )
         4           Ru1 tau(   4) = (   0.0000000   0.0000000   1.9215302  )
         5           O0  tau(   5) = (   0.2500000   0.8315984   1.9195836  )
         6           O0  tau(   6) = (   0.2500000   0.1950663   1.9193297  )
         7           O0  tau(   7) = (   0.0000000   0.5133323   2.1106490  )
         8           O0  tau(   8) = (   0.0000000   0.0000000   2.2345136  )
         9           Ru1 tau(   9) = (   0.2500000   0.0000000   2.4487269  )
        10           Ru1 tau(  10) = (   0.0000000   0.5133323   2.4113179  )
        11           O0  tau(  11) = (   0.2500000   0.7083986   2.4387399  )
        12           O0  tau(  12) = (   0.2500000   0.3182660   2.4402210  )
        13           O0  tau(  13) = (   0.0000000   0.0000000   2.6238385  )
        14           O0  tau(  14) = (   0.5000000   0.0000000   1.6080390  )
        15           O0  tau(  15) = (   0.5000000   0.5133323   1.7023233  )
        16           Ru1 tau(  16) = (   0.7500000   0.5133323   1.9175523  )
        17           Ru1 tau(  17) = (   0.5000000   0.0000000   1.9215302  )
        18           O0  tau(  18) = (   0.7500000   0.8315984   1.9195836  )
        19           O0  tau(  19) = (   0.7500000   0.1950663   1.9193297  )
        20           O0  tau(  20) = (   0.5000000   0.5133323   2.1106490  )
        21           O0  tau(  21) = (   0.5000000   0.0000000   2.2345136  )
        22           Ru1 tau(  22) = (   0.7500000   0.0000000   2.4487269  )
        23           Ru1 tau(  23) = (   0.5000000   0.5133323   2.4113179  )
        24           O0  tau(  24) = (   0.7500000   0.7083986   2.4387399  )
        25           O0  tau(  25) = (   0.7500000   0.3182660   2.4401787  )
        26           O0  tau(  26) = (   0.5000000   0.0000000   2.6238385  )
        27           H2  tau(  27) = (  -0.0004100   0.6466653   1.6162063  )
        28           H2  tau(  28) = (   0.4995900   0.6466653   1.6162063  )
        29           H2  tau(  29) = (   0.1464700   0.0296706   1.5559879  )
        30           H2  tau(  30) = (   0.6464700   0.0296706   1.5559879  )

     number of k points=    10  Methfessel-Paxton smearing, width (Ry)=  0.0100
                       cart. coord. in units 2pi/alat
        k(    1) = (   0.0000000   0.0000000   0.0000000), wk =   0.1250000
        k(    2) = (   0.0000000   0.2435070   0.0000000), wk =   0.2500000
        k(    3) = (   0.0000000  -0.4870139   0.0000000), wk =   0.1250000
        k(    4) = (   0.2500000   0.0000000   0.0000000), wk =   0.2500000
        k(    5) = (   0.2500000   0.2435070   0.0000000), wk =   0.2500000
        k(    6) = (   0.2500000  -0.4870139   0.0000000), wk =   0.2500000
        k(    7) = (  -0.5000000   0.0000000   0.0000000), wk =   0.1250000
        k(    8) = (  -0.5000000   0.2435070   0.0000000), wk =   0.2500000
        k(    9) = (  -0.5000000  -0.4870139   0.0000000), wk =   0.1250000
        k(   10) = (  -0.2500000   0.2435070   0.0000000), wk =   0.2500000

     Largest allocated arrays     est. size (Mb)     dimensions
     Largest temporary arrays     est. size (Mb)     dimensions

     Check: negative/imaginary core charge=   -0.000003    0.000000

     Initial potential from superposition of free atoms
     Check: negative starting charge=   -0.522083

     starting charge  231.99981, renormalised to  240.00000

     negative rho (up, down):  0.540E+00 0.000E+00
     Number of +U iterations with fixed ns =  0
     Starting occupations:
 --- enter write_ns ---
 LDA+U parameters:
U( 2)     =  1.00000000
alpha( 2) =  0.00000000
atom    3   Tr[ns(na)] =   6.00000
    eigenvalues:
  0.600  0.600  0.600  0.600  0.600
    eigenvectors:
  1.000  0.000  0.000  0.000  0.000
  0.000  1.000  0.000  0.000  0.000
  0.000  0.000  1.000  0.000  0.000
  0.000  0.000  0.000  1.000  0.000
  0.000  0.000  0.000  0.000  1.000
    occupations:
  0.600  0.000  0.000  0.000  0.000
  0.000  0.600  0.000  0.000  0.000
  0.000  0.000  0.600  0.000  0.000
  0.000  0.000  0.000  0.600  0.000
  0.000  0.000  0.000  0.000  0.600
atom    4   Tr[ns(na)] =   6.00000
    eigenvalues:
  0.600  0.600  0.600  0.600  0.600
    eigenvectors:
  1.000  0.000  0.000  0.000  0.000
  0.000  1.000  0.000  0.000  0.000
  0.000  0.000  1.000  0.000  0.000
  0.000  0.000  0.000  1.000  0.000
  0.000  0.000  0.000  0.000  1.000
    occupations:
  0.600  0.000  0.000  0.000  0.000
  0.000  0.600  0.000  0.000  0.000
  0.000  0.000  0.600  0.000  0.000
  0.000  0.000  0.000  0.600  0.000
  0.000  0.000  0.000  0.000  0.600
atom    9   Tr[ns(na)] =   6.00000
    eigenvalues:
  0.600  0.600  0.600  0.600  0.600
    eigenvectors:
  1.000  0.000  0.000  0.000  0.000
  0.000  1.000  0.000  0.000  0.000
  0.000  0.000  1.000  0.000  0.000
  0.000  0.000  0.000  1.000  0.000
  0.000  0.000  0.000  0.000  1.000
    occupations:
  0.600  0.000  0.000  0.000  0.000
  0.000  0.600  0.000  0.000  0.000
  0.000  0.000  0.600  0.000  0.000
  0.000  0.000  0.000  0.600  0.000
  0.000  0.000  0.000  0.000  0.600
atom   10   Tr[ns(na)] =   6.00000
    eigenvalues:
  0.600  0.600  0.600  0.600  0.600
    eigenvectors:
  1.000  0.000  0.000  0.000  0.000
  0.000  1.000  0.000  0.000  0.000
  0.000  0.000  1.000  0.000  0.000
  0.000  0.000  0.000  1.000  0.000
  0.000  0.000  0.000  0.000  1.000
    occupations:
  0.600  0.000  0.000  0.000  0.000
  0.000  0.600  0.000  0.000  0.000
  0.000  0.000  0.600  0.000  0.000
  0.000  0.000  0.000  0.600  0.000
  0.000  0.000  0.000  0.000  0.600
atom   16   Tr[ns(na)] =   6.00000
    eigenvalues:
  0.600  0.600  0.600  0.600  0.600
    eigenvectors:
  1.000  0.000  0.000  0.000  0.000
  0.000  1.000  0.000  0.000  0.000
  0.000  0.000  1.000  0.000  0.000
  0.000  0.000  0.000  1.000  0.000
  0.000  0.000  0.000  0.000  1.000
    occupations:
  0.600  0.000  0.000  0.000  0.000
  0.000  0.600  0.000  0.000  0.000
  0.000  0.000  0.600  0.000  0.000
  0.000  0.000  0.000  0.600  0.000
  0.000  0.000  0.000  0.000  0.600
atom   17   Tr[ns(na)] =   6.00000
    eigenvalues:
  0.600  0.600  0.600  0.600  0.600
    eigenvectors:
  1.000  0.000  0.000  0.000  0.000
  0.000  1.000  0.000  0.000  0.000
  0.000  0.000  1.000  0.000  0.000
  0.000  0.000  0.000  1.000  0.000
  0.000  0.000  0.000  0.000  1.000
    occupations:
  0.600  0.000  0.000  0.000  0.000
  0.000  0.600  0.000  0.000  0.000
  0.000  0.000  0.600  0.000  0.000
  0.000  0.000  0.000  0.600  0.000
  0.000  0.000  0.000  0.000  0.600
atom   22   Tr[ns(na)] =   6.00000
    eigenvalues:
  0.600  0.600  0.600  0.600  0.600
    eigenvectors:
  1.000  0.000  0.000  0.000  0.000
  0.000  1.000  0.000  0.000  0.000
  0.000  0.000  1.000  0.000  0.000
  0.000  0.000  0.000  1.000  0.000
  0.000  0.000  0.000  0.000  1.000
    occupations:
  0.600  0.000  0.000  0.000  0.000
  0.000  0.600  0.000  0.000  0.000
  0.000  0.000  0.600  0.000  0.000
  0.000  0.000  0.000  0.600  0.000
[...]
  0.000  0.000  0.983  0.017  0.000
  0.000  0.010  0.000  0.000  0.990
  1.000  0.000  0.000  0.000  0.000
    occupations:
  0.607 -0.001 -0.000  0.037  0.001
 -0.001  0.773  0.012 -0.001 -0.001
 -0.000  0.012  0.681  0.002  0.000
  0.037 -0.001  0.002  0.962  0.000
  0.001 -0.001  0.000  0.000  0.557
atom    9   Tr[ns(na)] =   7.14688
    eigenvalues:
  0.580  0.598  0.759  0.817  0.820
    eigenvectors:
  0.000  0.142  0.001  0.385  0.473
  1.000  0.000  0.000  0.000  0.000
  0.000  0.000  0.999  0.000  0.000
  0.000  0.858  0.000  0.064  0.078
  0.000  0.000  0.000  0.551  0.449
    occupations:
  0.787  0.000 -0.002 -0.077  0.001
  0.000  0.580  0.001  0.000  0.000
 -0.002  0.001  0.759  0.000  0.000
 -0.077  0.000  0.000  0.629 -0.001
  0.001  0.000  0.000 -0.001  0.818
atom   10   Tr[ns(na)] =   7.18911
    eigenvalues:
  0.542  0.550  0.758  0.812  0.933
    eigenvectors:
  0.000  0.991  0.000  0.000  0.009
  0.000  0.000  0.000  1.000  0.000
  0.000  0.000  1.000  0.000  0.000
  0.000  0.009  0.000  0.000  0.991
  1.000  0.000  0.000  0.000  0.000
    occupations:
  0.553  0.000 -0.001  0.037  0.000
  0.000  0.812  0.000  0.000 -0.001
 -0.001  0.000  0.758 -0.002 -0.000
  0.037  0.000 -0.002  0.929 -0.000
  0.000 -0.001 -0.000 -0.000  0.542
atom   16   Tr[ns(na)] =   7.18168
    eigenvalues:
  0.523  0.567  0.734  0.824  0.942
    eigenvectors:
  0.000  0.197  0.007  0.000  0.796
  1.000  0.000  0.000  0.000  0.000
  0.000  0.000  0.990  0.000  0.010
  0.000  0.803  0.003  0.000  0.194
  0.000  0.000  0.000  1.000  0.000
    occupations:
  0.867  0.000  0.019 -0.148 -0.000
  0.000  0.523 -0.000 -0.000 -0.003
  0.019 -0.000  0.736 -0.007  0.000
 -0.148 -0.000 -0.007  0.640  0.000
 -0.000 -0.003  0.000  0.000  0.824
atom   17   Tr[ns(na)] =   7.15827
    eigenvalues:
  0.557  0.603  0.679  0.774  0.965
    eigenvectors:
  0.000  0.989  0.000  0.000  0.010
  0.000  0.000  0.017  0.983  0.000
  0.000  0.000  0.983  0.017  0.000
  0.000  0.010  0.000  0.000  0.990
  1.000  0.000  0.000  0.000  0.000
    occupations:
  0.607 -0.001 -0.000  0.037  0.001
 -0.001  0.773  0.012 -0.001 -0.001
 -0.000  0.012  0.681  0.002  0.000
  0.037 -0.001  0.002  0.962  0.000
  0.001 -0.001  0.000  0.000  0.557
atom   22   Tr[ns(na)] =   7.14844
    eigenvalues:
  0.580  0.598  0.759  0.817  0.820
    eigenvectors:
  0.000  0.142  0.001  0.360  0.498
  1.000  0.000  0.000  0.000  0.000
  0.000  0.000  0.999  0.000  0.000
  0.000  0.858  0.000  0.059  0.082
  0.000  0.000  0.000  0.580  0.420
    occupations:
  0.787  0.000 -0.002 -0.077  0.001
  0.000  0.580  0.001  0.000  0.000
 -0.002  0.001  0.759  0.000  0.000
 -0.077  0.000  0.000  0.629 -0.001
  0.001  0.000  0.000 -0.001  0.818
atom   23   Tr[ns(na)] =   7.18901
    eigenvalues:
  0.542  0.550  0.758  0.812  0.933
    eigenvectors:
  0.000  0.991  0.000  0.000  0.009
  0.000  0.000  0.000  1.000  0.000
  0.000  0.000  1.000  0.000  0.000
  0.000  0.009  0.000  0.000  0.991
  1.000  0.000  0.000  0.000  0.000
    occupations:
  0.553  0.000 -0.001  0.037  0.000
  0.000  0.812  0.000  0.000 -0.001
 -0.001  0.000  0.758 -0.002 -0.000
  0.037  0.000 -0.002  0.929 -0.000
  0.000 -0.001 -0.000 -0.000  0.542
N of occupied +U levels =  57.3526819
 --- exit write_ns ---

[...]

     total energy              =   -2130.77353419 Ry
     Harris-Foulkes estimate   =   -2130.77353419 Ry
     estimated scf accuracy    <       0.00000001 Ry

     iteration # 19     ecut=    40.00 Ry     beta=0.70
     Davidson diagonalization with overlap
     ethr =  4.34E-12,  avg # of iterations =  1.0

     negative rho (up, down):  0.575E+00 0.000E+00

     End of self-consistent calculation
 --- enter write_ns ---
 LDA+U parameters:
U( 2)     =  1.00000000
alpha( 2) =  0.00000000
atom    3   Tr[ns(na)] =   7.18603
    eigenvalues:
  0.523  0.567  0.735  0.825  0.943
    eigenvectors:
  0.000  0.197  0.007  0.000  0.796
  1.000  0.000  0.000  0.000  0.000
  0.000  0.000  0.990  0.000  0.010
  0.000  0.803  0.003  0.000  0.194
  0.000  0.000  0.000  1.000  0.000
    occupations:
  0.867  0.000  0.019 -0.149 -0.000
  0.000  0.523 -0.000 -0.000 -0.003
  0.019 -0.000  0.737 -0.007  0.000
 -0.149 -0.000 -0.007  0.640  0.000
 -0.000 -0.003  0.000  0.000  0.825
atom    4   Tr[ns(na)] =   7.16195
    eigenvalues:
  0.557  0.603  0.680  0.775  0.966
    eigenvectors:
  0.000  0.989  0.000  0.000  0.010
  0.000  0.000  0.017  0.983  0.000
  0.000  0.000  0.983  0.017  0.000
  0.000  0.010  0.000  0.000  0.990
  1.000  0.000  0.000  0.000  0.000
    occupations:
  0.607 -0.001 -0.000  0.037  0.001
 -0.001  0.773  0.012 -0.001 -0.001
 -0.000  0.012  0.682  0.002  0.000
  0.037 -0.001  0.002  0.962  0.000
  0.001 -0.001  0.000  0.000  0.557
atom    9   Tr[ns(na)] =   7.14382
    eigenvalues:
  0.580  0.598  0.759  0.816  0.819
    eigenvectors:
  0.000  0.142  0.001  0.412  0.445
  1.000  0.000  0.000  0.000  0.000
  0.000  0.000  0.999  0.000  0.000
  0.000  0.858  0.000  0.068  0.074
  0.000  0.000  0.000  0.520  0.480
    occupations:
  0.786  0.000 -0.002 -0.077  0.001
  0.000  0.580  0.001  0.000  0.000
 -0.002  0.001  0.759  0.000  0.000
 -0.077  0.000  0.000  0.629 -0.001
  0.001  0.000  0.000 -0.001  0.818
atom   10   Tr[ns(na)] =   7.18428
    eigenvalues:
  0.542  0.550  0.757  0.811  0.932
    eigenvectors:
  0.000  0.991  0.000  0.000  0.009
  0.000  0.000  0.000  1.000  0.000
  0.000  0.000  1.000  0.000  0.000
  0.000  0.009  0.000  0.000  0.991
  1.000  0.000  0.000  0.000  0.000
    occupations:
  0.553  0.000 -0.000  0.037  0.000
  0.000  0.811  0.000  0.000 -0.001
 -0.000  0.000  0.757 -0.002 -0.000
  0.037  0.000 -0.002  0.929 -0.000
  0.000 -0.001 -0.000 -0.000  0.542
atom   16   Tr[ns(na)] =   7.18606
    eigenvalues:
  0.523  0.567  0.735  0.825  0.943
    eigenvectors:
  0.000  0.197  0.007  0.000  0.796
  1.000  0.000  0.000  0.000  0.000
  0.000  0.000  0.990  0.000  0.010
  0.000  0.803  0.003  0.000  0.194
  0.000  0.000  0.000  1.000  0.000
    occupations:
  0.867  0.000  0.019 -0.149 -0.000
  0.000  0.523 -0.000 -0.000 -0.003
  0.019 -0.000  0.737 -0.007  0.000
 -0.149 -0.000 -0.007  0.640  0.000
 -0.000 -0.003  0.000  0.000  0.825
atom   17   Tr[ns(na)] =   7.16193
    eigenvalues:
  0.557  0.603  0.680  0.775  0.966
    eigenvectors:
  0.000  0.989  0.000  0.000  0.010
  0.000  0.000  0.017  0.983  0.000
  0.000  0.000  0.983  0.017  0.000
  0.000  0.010  0.000  0.000  0.990
  1.000  0.000  0.000  0.000  0.000
    occupations:
  0.607 -0.001 -0.000  0.037  0.001
 -0.001  0.773  0.012 -0.001 -0.001
 -0.000  0.012  0.682  0.002  0.000
  0.037 -0.001  0.002  0.962  0.000
  0.001 -0.001  0.000  0.000  0.557
atom   22   Tr[ns(na)] =   7.14382
    eigenvalues:
  0.580  0.598  0.759  0.816  0.819
    eigenvectors:
  0.000  0.142  0.001  0.407  0.450
  1.000  0.000  0.000  0.000  0.000
  0.000  0.000  0.999  0.000  0.000
  0.000  0.858  0.000  0.067  0.075
  0.000  0.000  0.000  0.525  0.475
    occupations:
  0.787  0.000 -0.002 -0.077  0.001
  0.000  0.580  0.001  0.000  0.000
 -0.002  0.001  0.759  0.000  0.000
 -0.077  0.000  0.000  0.629 -0.001
  0.001  0.000  0.000 -0.001  0.818
atom   23   Tr[ns(na)] =   7.18427
    eigenvalues:
  0.542  0.550  0.757  0.811  0.932
    eigenvectors:
  0.000  0.991  0.000  0.000  0.009
  0.000  0.000  0.000  1.000  0.000
  0.000  0.000  1.000  0.000  0.000
  0.000  0.009  0.000  0.000  0.991
  1.000  0.000  0.000  0.000  0.000
    occupations:
  0.553  0.000 -0.000  0.037  0.000
  0.000  0.811  0.000  0.000 -0.001
 -0.000  0.000  0.757 -0.002 -0.000
  0.037  0.000 -0.002  0.929 -0.000
  0.000 -0.001 -0.000 -0.000  0.542
N of occupied +U levels =  57.3521626
 --- exit write_ns ---

[...]

          k = 0.2500-0.4870 0.0000 ( 30468 PWs)   bands (ev):

[...]

          k =-0.2500 0.2435 0.0000 ( 30434 PWs)   bands (ev):

   -74.4893 -74.4817 -74.2636 -74.2563 -74.1207 -74.1133 -73.9680 -73.9609
   -44.6180 -44.5331 -44.5227 -44.4863 -44.4710 -44.4627 -44.4110 -44.4020
   -44.3809 -44.3611 -44.2124 -44.1627 -44.1353 -44.1157 -44.0959 -44.0355
   -44.0344 -44.0337 -43.9525 -43.9280 -43.9065 -43.8789 -43.8581 -43.8311
   -20.9189 -20.4908 -20.4148 -20.3696 -20.2195 -20.1153 -19.8368 -19.7724
   -19.6718 -19.5636 -19.5054 -19.5016 -19.3042 -19.2722 -19.1996 -19.1152
   -19.0581 -18.8482  -9.0994  -8.5916  -8.5052  -8.4783  -8.1462  -8.1199
    -7.9678  -7.9297  -7.9072  -7.7208  -7.6259  -7.6048  -7.5271  -7.4888
    -7.3569  -7.3533  -7.2066  -7.2006  -6.8101  -6.7009  -6.6999  -6.4898
    -6.3980  -6.1044  -5.9658  -5.8516  -5.7858  -5.5819  -5.4905  -5.4313
    -5.4126  -5.3076  -5.2700  -5.1685  -5.0349  -4.9855  -4.9042  -4.8702
    -4.7314  -4.6985  -4.5479  -4.4740  -4.2426  -4.2185  -4.1033  -4.0591
    -3.9560  -3.8421  -3.7608  -3.4676  -3.4613  -3.1386  -3.0986  -2.7282
    -2.2493  -2.2060  -2.0200  -1.8363  -1.7513  -1.6641  -1.6230  -1.5487
    -1.5153  -1.4907  -1.4150  -1.3591  -1.3410  -1.2054  -1.1334  -1.0060
    -0.6821  -0.5360  -0.5010  -0.3805  -0.3260  -0.1166  -0.0072   0.1691
     0.6180   0.8019   1.5151   1.6850   1.7113   2.1937   2.2653   2.5884
     2.7671   3.0704   3.2086   3.2288   3.3274   3.4292   3.7073   3.7566
     4.0685   4.3016   4.6760   5.1035   5.5490   5.8077   5.8669   5.9853
     6.1079   6.4082   6.5665   6.5826   6.6997   6.9001   6.9846   7.2096
     7.4867   7.5552   7.7696   7.9149   7.9358   8.2168   8.2651   8.4009
     8.4072   8.4909   8.6947   8.7320   8.8454   8.9932   9.1641   9.1872
     9.2576   9.4816   9.5020   9.7712   9.7961   9.9140   9.9613  10.0364
    10.1287  10.2708  10.3568  10.4272  10.4388  10.5875  10.6641  10.7377
    10.8388  10.9005  11.0073  11.1336  11.2766  11.3000  11.4418  11.5233
    11.5984  11.6432  11.6636  11.8099  11.8652  11.9723  12.0440  12.0592
    12.1604  12.2757  12.3739  12.4512  12.4996  12.5494  12.6386  12.6591
    12.7710  12.7832  12.9197  12.9275  12.9591  13.1193  13.2097  13.3286
    13.3437  13.4549  13.5285  13.6229  13.7072  13.7551  13.8572  13.9346
    13.9803  14.0342  14.1696  14.3059  14.3279  14.3808  14.5143  14.5216
    14.5753  14.6858  14.7454  14.8264  14.8642  14.9935  15.0372  15.0847
    15.2149  15.3545  15.5175  15.5592  15.6666  15.7018  15.7628  15.8404
    15.8410  15.9074  15.9390  15.9547  16.0289  16.0898  16.1557  16.1964
    16.2894  16.3847  16.4305  16.5385  16.6043  16.7128  16.7216  16.8048
    16.8332  16.8439  17.0032  17.0195  17.0667  17.2180  17.2351  17.3613
    17.4409  17.4907  17.4955  17.5731  17.5917  17.6266  17.7314  17.7676
    17.8641  17.8753  17.9965  18.0129  18.0792  18.1618  18.1735  18.3194
    18.3263  18.4558  18.4965  18.6073  18.6251  18.7459  18.7599  18.9083
    18.9963  19.0562  19.1308  19.1640  19.2586  19.2612  19.3486  19.4254
    19.4438  19.5578  19.5988  19.7769  19.8115  19.8568  19.9346  19.9472
    20.0126  20.1916  20.2200  20.3797  20.3811  20.5544  20.6289  20.6378
    20.7564  20.7628  20.8731  20.9053  20.9713  21.0310  21.0525  21.1264
    21.1822  21.2661  21.3318  21.3587  21.4079  21.4232  21.4796  21.6126
    21.6422  21.6656  21.7838  21.8119

     the Fermi energy is    -0.8340 ev

!    total energy              =   -2130.77353419 Ry
     Harris-Foulkes estimate   =   -2130.77353419 Ry
     estimated scf accuracy    <          9.2E-10 Ry

     The total energy is the sum of the following terms:

     one-electron contribution =  -24463.15088847 Ry
     hartree contribution      =   12251.97780998 Ry
     xc contribution           =    -330.68021732 Ry
     ewald contribution        =   10410.54099397 Ry
     Hubbard energy            =       0.53806979 Ry
     smearing contrib. (-TS)   =       0.00069786 Ry

     convergence has been achieved in  19 iterations

     Forces acting on atoms (Ry/au):

     negative rho (up, down):  0.575E+00 0.000E+00
     atom    1 type  1   force =    -0.00524068   -0.01130937   -0.00027966
     atom    2 type  1   force =    -0.00013865    0.00894018    0.00066147
     atom    3 type  2   force =    -0.00026242   -0.00013368    0.00064313
     atom    4 type  2   force =     0.00371221    0.00655248   -0.00012193
     atom    5 type  1   force =     0.00169170   -0.02852699    0.00027119
     atom    6 type  1   force =     0.00077348    0.02847581    0.00027960
     atom    7 type  1   force =     0.00011847   -0.00186280   -0.00085887
     atom    8 type  1   force =    -0.00002174   -0.00112152    0.00093716
     atom    9 type  2   force =     0.00090856    0.00091932   -0.00043299
     atom   10 type  2   force =     0.00006721    0.00020274    0.00020228
     atom   11 type  1   force =    -0.00000075    0.00388323   -0.00039188
     atom   12 type  1   force =    -0.00000375   -0.00495289   -0.00051499
     atom   13 type  1   force =    -0.00165966   -0.00041542   -0.00034130
     atom   14 type  1   force =    -0.00523319   -0.01130820   -0.00027296
     atom   15 type  1   force =    -0.00014264    0.00894111    0.00066167
     atom   16 type  2   force =    -0.00026392   -0.00013780    0.00063867
     atom   17 type  2   force =     0.00371146    0.00655240   -0.00012180
     atom   18 type  1   force =     0.00168661   -0.02852227    0.00027115
     atom   19 type  1   force =     0.00076869    0.02847153    0.00028009
     atom   20 type  1   force =     0.00010792   -0.00186255   -0.00086133
     atom   21 type  1   force =    -0.00003026   -0.00112160    0.00092646
     atom   22 type  2   force =     0.00090927    0.00092315   -0.00042121
     atom   23 type  2   force =     0.00005977    0.00020275    0.00020221
     atom   24 type  1   force =    -0.00000282    0.00388089   -0.00039323
     atom   25 type  1   force =    -0.00000570   -0.00495885   -0.00049671
     atom   26 type  1   force =    -0.00165546   -0.00041546   -0.00034088
     atom   27 type  3   force =    -0.00001257   -0.00075185   -0.00038869
     atom   28 type  3   force =    -0.00001274   -0.00075233   -0.00038836
     atom   29 type  3   force =     0.00008924    0.00010463    0.00032499
     atom   30 type  3   force =     0.00008237    0.00010337    0.00032671

     Total force =     0.002929     Total SCF correction =     0.000169

     bfgs converged in   5 scf cycles and   4 bfgs steps
     (criteria: energy < 0.10E-03, force < 0.10E-02)

     End of BFGS Geometry Optimization

     Final energy   =   -2130.7735341885 Ry
Begin final coordinates

ATOMIC_POSITIONS (crystal)
O0       0.000000000   0.000000000   0.380197733    0   0   1
O0       0.000000000   0.500000000   0.402457132    0   0   1
Ru1      0.250000000   0.500000000   0.453150921    0   0   1
Ru1      0.000000000   0.000000000   0.454138617    0   0   1
O0       0.250000000   0.810000000   0.453577153    0   0   1
O0       0.250000000   0.190000000   0.453514857    0   0   1
O0       0.000000000   0.500000000   0.498995917    0   0   1
O0       0.000000000   0.000000000   0.527800801    0   0   1
Ru1      0.250000000   0.000000000   0.578669332    0   0   1
Ru1      0.000000000   0.500000000   0.569709118    0   0   1
O0       0.250000000   0.690000000   0.576105339    0   0   1
O0       0.250000000   0.310000000   0.576429462    0   0   1
O0       0.000000000   0.000000000   0.620096245    0   0   1
O0       0.500000000   0.000000000   0.380197250    0   0   1
O0       0.500000000   0.500000000   0.402457171    0   0   1
Ru1      0.750000000   0.500000000   0.453151083    0   0   1
Ru1      0.500000000   0.000000000   0.454138489    0   0   1
O0       0.750000000   0.810000000   0.453577298    0   0   1
O0       0.750000000   0.190000000   0.453514834    0   0   1
O0       0.500000000   0.500000000   0.498996203    0   0   1
O0       0.500000000   0.000000000   0.527801263    0   0   1
Ru1      0.750000000   0.000000000   0.578667828    0   0   1
Ru1      0.500000000   0.500000000   0.569709312    0   0   1
O0       0.750000000   0.690000000   0.576104966    0   0   1
O0       0.750000000   0.310000000   0.576425450    0   0   1
O0       0.500000000   0.000000000   0.620096282    0   0   1
H2      -0.000415036   0.629121397   0.381866893
H2       0.499584904   0.629121244   0.381866846
H2       0.146255741   0.028935789   0.367728158
H2       0.646256895   0.028936228   0.367728048
End final coordinates

     General routines

     Parallel routines
     Hubbard U routines

   This run was terminated on:   9:19:55   6May2014

   JOB DONE.
Running PBS batch system epilogue script
Job id: 340776.audhumbla.fysik.dtu.dk
Username: zhonxu
Groupname: campgst
Jobname: RuO2/Eads-2-layers/bare-U-1.0
Sessionid: 10043
Queuename: verylong
Accounting:
This job has allocated the following 16 nodes:
b022 b022 b022 b022 b022 b022 b022 b022 b010 b010 b010 b010 b010 b010 b010 b010
Finished epilogue job 340776.audhumbla.fysik.dtu.dk for zhonxu