     Program PWSCF v.5.0.2 (svn rev. 9656) starts on 28Apr2014 at  7:15: 4

     Current dimensions of program PWSCF are:
     Max number of different atomic species (ntypx) = 10
     Max number of k-points (npk) =  40000
     Max angular momentum in pseudopotentials (lmaxx) =  3
     Reading input from pwscf.in
Warning: card &CELL ignored
Warning: card / ignored

     Subspace diagonalization in iterative solution of the eigenvalue problem:
     a serial algorithm will be used

     bravais-lattice index     =            0
     lattice parameter (alat)  =      11.2250  a.u.
     unit-cell volume          =    7005.5484 (a.u.)^3
     number of atoms/cell      =           31
     number of atomic types    =            3
     number of electrons       =       214.00
     number of Kohn-Sham states=          309
     kinetic-energy cutoff     =      40.0000  Ry
     charge density cutoff     =     500.0000  Ry
     convergence threshold     =      1.0E-06
     mixing beta               =       0.7000
     number of iterations used =            8  plain     mixing
     Exchange-correlation      = SLA  PW   PBE  PBE ( 1 4 3 4 0)
     EXX-fraction              =        0.00
     nstep                     =           50

     celldm(1)=  11.224973  celldm(2)=   0.000000  celldm(3)=   0.000000
     celldm(4)=   0.000000  celldm(5)=   0.000000  celldm(6)=   0.000000

     crystal axes: (cart. coord. in units of alat)
               a(1) = (   1.000000   0.000000   0.000000 )
               a(2) = (   0.000000   1.107086   0.000000 )
               a(3) = (   0.000000   0.000000   4.474090 )

     reciprocal axes: (cart. coord. in units 2 pi/alat)
               b(1) = (  1.000000  0.000000  0.000000 )
               b(2) = (  0.000000  0.903272  0.000000 )
               b(3) = (  0.000000  0.000000  0.223509 )

     PseudoPot. # 1 for O  read from file:
     /home/camp/zhonxu/pseudo/o_pbe_v1.01.uspp.F.UPF
     MD5 check sum: 2bcb18d16ea4b960afae9ec6d52f22d2
     Pseudo is Ultrasoft + core correction, Zval =  6.0
     Generated by new atomic code, or converted to UPF format
     Using radial grid of  737 points,  5 beta functions with:
                l(1) =   0
                l(2) =   0
                l(3) =   1
                l(4) =   1
                l(5) =   2
     Q(r) pseudized with  8 coefficients,  rinner =    0.900   0.900   0.900
                                                       0.900   0.900

     PseudoPot. # 2 for Ti read from file:
     /home/camp/zhonxu/pseudo/ti_pbe_v1.uspp.F.UPF
     MD5 check sum: bcc8f6961b3b91f0cac3ca967d22d0fb
     Pseudo is Ultrasoft + core correction, Zval = 12.0
     Generated by new atomic code, or converted to UPF format
     Using radial grid of  851 points,  6 beta functions with:
                l(1) =   0
                l(2) =   0
                l(3) =   1
                l(4) =   1
                l(5) =   2
                l(6) =   2
     Q(r) pseudized with  6 coefficients,  rinner =    1.000   1.000   1.000
                                                       1.000   1.000

     PseudoPot. # 3 for H  read from file:
     /home/camp/zhonxu/pseudo/h_pbe_v1.uspp.F.UPF
     MD5 check sum: 3408e3ff4ec8b0a4e358431e7e038a48
     Pseudo is Ultrasoft, Zval =  1.0
     Generated by new atomic code, or converted to UPF format
     Using radial grid of  615 points,  2 beta functions with:
                l(1) =   0
                l(2) =   0
     Q(r) pseudized with  8 coefficients,  rinner =    0.700

     atomic species   valence    mass     pseudopotential
        O0             6.00    15.99940     O ( 1.00)
        Ti1           12.00    47.88000     Ti( 1.00)
        H2             1.00     1.00794     H ( 1.00)

     Simplified LDA+U calculation (l_max = 2) with parameters (eV):
     atomic species    L          U    alpha       J0     beta
        Ti1            2     1.0000   0.0000   0.0000   0.0000

     No symmetry found

   Cartesian axes

     site n.     atom                  positions (alat units)
         1           O0  tau(   1) = (   0.0000000   0.0000000   1.6912507  )
         2           O0  tau(   2) = (   0.0000000   0.5535432   1.7801061  )
         3           Ti1 tau(   3) = (   0.2500000   0.5535432   2.0136983  )
         4           Ti1 tau(   4) = (   0.0000000   0.0000000   2.0256889  )
         5           O0  tau(   5) = (   0.2500000   0.8967400   2.0101638  )
         6           O0  tau(   6) = (   0.2500000   0.2103464   2.0140115  )
         7           O0  tau(   7) = (   0.0000000   0.5535432   2.2264413  )
         8           O0  tau(   8) = (   0.0000000   0.0000000   2.3510894  )
         9           Ti1 tau(   9) = (   0.2500000   0.0000000   2.5997146  )
        10           Ti1 tau(  10) = (   0.0000000   0.5535432   2.5433858  )
        11           O0  tau(  11) = (   0.2500000   0.7638896   2.5969406  )
        12           O0  tau(  12) = (   0.2500000   0.3431968   2.5970301  )
        13           O0  tau(  13) = (   0.0000000   0.0000000   2.7842260  )
        14           O0  tau(  14) = (   0.5000000   0.0000000   1.6905348  )
        15           O0  tau(  15) = (   0.5000000   0.5535432   1.7767953  )
        16           Ti1 tau(  16) = (   0.7500000   0.5535432   2.0136983  )
        17           Ti1 tau(  17) = (   0.5000000   0.0000000   2.0204542  )
        18           O0  tau(  18) = (   0.7500000   0.8967400   2.0103875  )
        19           O0  tau(  19) = (   0.7500000   0.2103464   2.0134299  )
        20           O0  tau(  20) = (   0.5000000   0.5535432   2.2001336  )
        21           O0  tau(  21) = (   0.5000000   0.0000000   2.3501946  )
        22           Ti1 tau(  22) = (   0.7500000   0.0000000   2.5996698  )
        23           Ti1 tau(  23) = (   0.5000000   0.5535432   2.6765794  )
        24           O0  tau(  24) = (   0.7500000   0.7638896   2.5974328  )
        25           O0  tau(  25) = (   0.7500000   0.3431968   2.5965380  )
        26           O0  tau(  26) = (   0.5000000   0.0000000   2.7806915  )
        27           H2  tau(  27) = (  -0.0007400   0.6861389   1.6797970  )
        28           H2  tau(  28) = (   0.4994200   0.6816995   1.6713410  )
        29           H2  tau(  29) = (   0.1486600   0.0377184   1.6265106  )
        30           H2  tau(  30) = (   0.6489300   0.0363456   1.6257052  )
        31           O0  tau(  31) = (   0.4999900   0.5533882   2.9590287  )

     number of k points=    10  Methfessel-Paxton smearing, width (Ry)=  0.0100
                       cart. coord. in units 2pi/alat
        k(    1) = (   0.0000000   0.0000000   0.0000000), wk =   0.1250000
        k(    2) = (   0.0000000   0.2258180   0.0000000), wk =   0.2500000
        k(    3) = (   0.0000000  -0.4516359   0.0000000), wk =   0.1250000
        k(    4) = (   0.2500000   0.0000000   0.0000000), wk =   0.2500000
        k(    5) = (   0.2500000   0.2258180   0.0000000), wk =   0.2500000
        k(    6) = (   0.2500000  -0.4516359   0.0000000), wk =   0.2500000
        k(    7) = (  -0.5000000   0.0000000   0.0000000), wk =   0.1250000
        k(    8) = (  -0.5000000   0.2258180   0.0000000), wk =   0.2500000
        k(    9) = (  -0.5000000  -0.4516359   0.0000000), wk =   0.1250000
        k(   10) = (  -0.2500000   0.2258180   0.0000000), wk =   0.2500000

     Largest allocated arrays     est. size (Mb)     dimensions
     Largest temporary arrays     est. size (Mb)     dimensions

     Check: negative/imaginary core charge=   -0.000006    0.000000

     Initial potential from superposition of free atoms
     Check: negative starting charge=   -0.102438

     starting charge  205.99958, renormalised to  214.00000

     negative rho (up, down):  0.106E+00 0.000E+00
     Number of +U iterations with fixed ns =  0
     Starting occupations:
 --- enter write_ns ---
 LDA+U parameters:
U( 2)     =  1.00000000
alpha( 2) =  0.00000000
atom    3   Tr[ns(na)] =   2.00000
    eigenvalues:
  0.200  0.200  0.200  0.200  0.200
    eigenvectors:
  1.000  0.000  0.000  0.000  0.000
  0.000  1.000  0.000  0.000  0.000
  0.000  0.000  1.000  0.000  0.000
  0.000  0.000  0.000  1.000  0.000
  0.000  0.000  0.000  0.000  1.000
    occupations:
  0.200  0.000  0.000  0.000  0.000
  0.000  0.200  0.000  0.000  0.000
  0.000  0.000  0.200  0.000  0.000
  0.000  0.000  0.000  0.200  0.000
  0.000  0.000  0.000  0.000  0.200
atom    4   Tr[ns(na)] =   2.00000
    eigenvalues:
  0.200  0.200  0.200  0.200  0.200
    eigenvectors:
  1.000  0.000  0.000  0.000  0.000
  0.000  1.000  0.000  0.000  0.000
  0.000  0.000  1.000  0.000  0.000
  0.000  0.000  0.000  1.000  0.000
  0.000  0.000  0.000  0.000  1.000
    occupations:
  0.200  0.000  0.000  0.000  0.000
  0.000  0.200  0.000  0.000  0.000
  0.000  0.000  0.200  0.000  0.000
  0.000  0.000  0.000  0.200  0.000
  0.000  0.000  0.000  0.000  0.200
atom    9   Tr[ns(na)] =   2.00000
    eigenvalues:
  0.200  0.200  0.200  0.200  0.200
    eigenvectors:
  1.000  0.000  0.000  0.000  0.000
  0.000  1.000  0.000  0.000  0.000
  0.000  0.000  1.000  0.000  0.000
  0.000  0.000  0.000  1.000  0.000
  0.000  0.000  0.000  0.000  1.000
    occupations:
  0.200  0.000  0.000  0.000  0.000
  0.000  0.200  0.000  0.000  0.000
  0.000  0.000  0.200  0.000  0.000
  0.000  0.000  0.000  0.200  0.000
  0.000  0.000  0.000  0.000  0.200
atom   10   Tr[ns(na)] =   2.00000
    eigenvalues:
  0.200  0.200  0.200  0.200  0.200
    eigenvectors:
  1.000  0.000  0.000  0.000  0.000
  0.000  1.000  0.000  0.000  0.000
  0.000  0.000  1.000  0.000  0.000
  0.000  0.000  0.000  1.000  0.000
  0.000  0.000  0.000  0.000  1.000
    occupations:
  0.200  0.000  0.000  0.000  0.000
  0.000  0.200  0.000  0.000  0.000
  0.000  0.000  0.200  0.000  0.000
  0.000  0.000  0.000  0.200  0.000
  0.000  0.000  0.000  0.000  0.200
atom   16   Tr[ns(na)] =   2.00000
    eigenvalues:
  0.200  0.200  0.200  0.200  0.200
    eigenvectors:
  1.000  0.000  0.000  0.000  0.000
  0.000  1.000  0.000  0.000  0.000
  0.000  0.000  1.000  0.000  0.000
  0.000  0.000  0.000  1.000  0.000
  0.000  0.000  0.000  0.000  1.000
    occupations:
  0.200  0.000  0.000  0.000  0.000
  0.000  0.200  0.000  0.000  0.000
  0.000  0.000  0.200  0.000  0.000
  0.000  0.000  0.000  0.200  0.000
  0.000  0.000  0.000  0.000  0.200
atom   17   Tr[ns(na)] =   2.00000
    eigenvalues:
  0.200  0.200  0.200  0.200  0.200
    eigenvectors:
  1.000  0.000  0.000  0.000  0.000
  0.000  1.000  0.000  0.000  0.000
  0.000  0.000  1.000  0.000  0.000
  0.000  0.000  0.000  1.000  0.000
  0.000  0.000  0.000  0.000  1.000
    occupations:
  0.200  0.000  0.000  0.000  0.000
  0.000  0.200  0.000  0.000  0.000
  0.000  0.000  0.200  0.000  0.000
  0.000  0.000  0.000  0.200  0.000
  0.000  0.000  0.000  0.000  0.200
atom   22   Tr[ns(na)] =   2.00000
    eigenvalues:
  0.200  0.200  0.200  0.200  0.200
    eigenvectors:
  1.000  0.000  0.000  0.000  0.000
  0.000  1.000  0.000  0.000  0.000
  0.000  0.000  1.000  0.000  0.000
  0.000  0.000  0.000  1.000  0.000
  0.000  0.000  0.000  0.000  1.000
    occupations:
  0.200  0.000  0.000  0.000  0.000
  0.000  0.200  0.000  0.000  0.000
[...]
    eigenvalues:
  0.188  0.205  0.224  0.383  0.425
    eigenvectors:
  0.032  0.718  0.071  0.169  0.009
  0.003  0.005  0.004  0.175  0.814
  0.616  0.000  0.384  0.001  0.000
  0.010  0.149  0.011  0.655  0.175
  0.338  0.128  0.531  0.000  0.002
    occupations:
  0.238  0.011 -0.004  0.068  0.002
  0.011  0.415  0.003 -0.023  0.011
 -0.004  0.003  0.202  0.006 -0.016
  0.068 -0.023  0.006  0.360 -0.002
  0.002  0.011 -0.016 -0.002  0.210
atom    4   Tr[ns(na)] =   2.93049
    eigenvalues:
  0.179  0.215  0.231  0.416  0.424
    eigenvectors:
  0.006  0.003  0.000  0.001  0.991
  0.001  0.896  0.100  0.000  0.003
  0.000  0.100  0.900  0.000  0.000
  0.993  0.001  0.000  0.000  0.006
  0.000  0.000  0.000  0.999  0.001
    occupations:
  0.422  0.011  0.004 -0.019 -0.000
  0.011  0.217 -0.004  0.000 -0.002
  0.004 -0.004  0.229  0.000 -0.000
 -0.019  0.000  0.000  0.181 -0.000
 -0.000 -0.002 -0.000 -0.000  0.416
atom    9   Tr[ns(na)] =   2.91209
    eigenvalues:
  0.184  0.223  0.242  0.383  0.424
    eigenvectors:
  0.000  0.000  0.919  0.081  0.000
  0.000  0.000  0.000  0.004  0.996
  0.999  0.001  0.000  0.000  0.000
  0.000  0.000  0.081  0.915  0.004
  0.001  0.999  0.000  0.000  0.000
    occupations:
  0.253  0.001 -0.000  0.039  0.000
  0.001  0.424  0.000 -0.003 -0.000
 -0.000  0.000  0.184 -0.000 -0.001
  0.039 -0.003 -0.000  0.372 -0.000
  0.000 -0.000 -0.001 -0.000  0.223
atom   10   Tr[ns(na)] =   2.83578
    eigenvalues:
  0.187  0.231  0.244  0.329  0.427
    eigenvectors:
  0.016  0.000  0.000  0.984  0.000
  0.000  0.000  1.000  0.000  0.000
  0.000  1.000  0.000  0.000  0.000
  0.984  0.000  0.000  0.016  0.000
  0.000  0.000  0.000  0.000  1.000
    occupations:
  0.326 -0.000 -0.000 -0.018 -0.000
 -0.000  0.244 -0.000 -0.000 -0.000
 -0.000 -0.000  0.231 -0.000  0.000
 -0.018 -0.000 -0.000  0.189  0.000
 -0.000 -0.000  0.000  0.000  0.427
atom   16   Tr[ns(na)] =   2.84999
    eigenvalues:
  0.188  0.205  0.224  0.383  0.425
    eigenvectors:
  0.032  0.717  0.073  0.169  0.009
  0.003  0.005  0.004  0.175  0.813
  0.617  0.000  0.382  0.001  0.000
  0.011  0.148  0.012  0.655  0.175
  0.338  0.130  0.530  0.001  0.002
    occupations:
  0.238 -0.011 -0.004  0.068 -0.003
 -0.011  0.415 -0.003  0.023  0.011
 -0.004 -0.003  0.202  0.006  0.016
  0.068  0.023  0.006  0.360  0.001
 -0.003  0.011  0.016  0.001  0.210
atom   17   Tr[ns(na)] =   2.92388
    eigenvalues:
  0.179  0.213  0.231  0.414  0.425
    eigenvectors:
  0.006  0.003  0.000  0.000  0.991
  0.001  0.901  0.096  0.000  0.003
  0.000  0.095  0.904  0.000  0.000
  0.993  0.001  0.000  0.000  0.006
  0.000  0.000  0.000  1.000  0.000
    occupations:
  0.423  0.011  0.004 -0.018 -0.000
  0.011  0.216 -0.005  0.000 -0.002
  0.004 -0.005  0.229  0.000 -0.000
 -0.018  0.000  0.000  0.181 -0.000
 -0.000 -0.002 -0.000 -0.000  0.414
atom   22   Tr[ns(na)] =   2.91203
    eigenvalues:
  0.184  0.223  0.242  0.383  0.424
    eigenvectors:
  0.000  0.000  0.919  0.081  0.000
  0.000  0.000  0.000  0.003  0.997
  0.999  0.001  0.000  0.000  0.000
  0.000  0.000  0.081  0.915  0.003
  0.001  0.999  0.000  0.000  0.000
    occupations:
  0.253 -0.001  0.000  0.039  0.000
 -0.001  0.424  0.000  0.003 -0.000
  0.000  0.000  0.184 -0.000  0.001
  0.039  0.003 -0.000  0.372 -0.000
  0.000 -0.000  0.001 -0.000  0.223
atom   23   Tr[ns(na)] =   3.04106
    eigenvalues:
  0.129  0.300  0.312  0.345  0.435
    eigenvectors:
  0.003  0.000  0.000  0.000  0.997
  0.000  0.000  1.000  0.000  0.000
  0.000  1.000  0.000  0.000  0.000
  0.997  0.000  0.000  0.000  0.003
  0.000  0.000  0.000  1.000  0.000
    occupations:
  0.434 -0.000  0.000 -0.017 -0.000
 -0.000  0.312 -0.000 -0.000  0.000
  0.000 -0.000  0.300 -0.000  0.000
 -0.017 -0.000 -0.000  0.130 -0.000
 -0.000  0.000  0.000 -0.000  0.345
N of occupied +U levels =  23.2552763
 --- exit write_ns ---

[...]

     total energy              =   -1566.36281440 Ry
     Harris-Foulkes estimate   =   -1566.36281441 Ry
     estimated scf accuracy    <       0.00000002 Ry

     iteration # 17     ecut=    40.00 Ry     beta=0.70
     Davidson diagonalization with overlap
     ethr =  7.05E-12,  avg # of iterations =  1.0

     negative rho (up, down):  0.103E+00 0.000E+00

     End of self-consistent calculation
 --- enter write_ns ---
 LDA+U parameters:
U( 2)     =  1.00000000
alpha( 2) =  0.00000000
atom    3   Tr[ns(na)] =   2.84925
    eigenvalues:
  0.188  0.205  0.224  0.383  0.425
    eigenvectors:
  0.033  0.716  0.072  0.170  0.009
  0.003  0.005  0.004  0.174  0.814
  0.615  0.000  0.385  0.001  0.000
  0.011  0.149  0.011  0.655  0.174
  0.339  0.130  0.529  0.000  0.002
    occupations:
  0.238  0.011 -0.004  0.068  0.002
  0.011  0.415  0.003 -0.023  0.011
 -0.004  0.003  0.202  0.006 -0.016
  0.068 -0.023  0.006  0.360 -0.002
  0.002  0.011 -0.016 -0.002  0.210
atom    4   Tr[ns(na)] =   2.93067
    eigenvalues:
  0.179  0.215  0.231  0.416  0.424
    eigenvectors:
  0.006  0.003  0.000  0.001  0.991
  0.001  0.896  0.100  0.000  0.003
  0.000  0.100  0.900  0.000  0.000
  0.993  0.001  0.000  0.000  0.006
  0.000  0.000  0.000  0.999  0.001
    occupations:
  0.422  0.011  0.004 -0.019 -0.000
  0.011  0.217 -0.004  0.000 -0.002
  0.004 -0.004  0.229  0.000 -0.000
 -0.019  0.000  0.000  0.181 -0.000
 -0.000 -0.002 -0.000 -0.000  0.416
atom    9   Tr[ns(na)] =   2.91311
    eigenvalues:
  0.184  0.223  0.242  0.383  0.424
    eigenvectors:
  0.000  0.000  0.919  0.080  0.000
  0.000  0.000  0.000  0.004  0.996
  0.999  0.001  0.000  0.000  0.000
  0.000  0.000  0.080  0.916  0.004
  0.001  0.998  0.000  0.000  0.000
    occupations:
  0.253  0.001 -0.000  0.038  0.000
  0.001  0.424  0.000 -0.003 -0.000
 -0.000  0.000  0.184 -0.000 -0.001
  0.038 -0.003 -0.000  0.372 -0.000
  0.000 -0.000 -0.001 -0.000  0.223
atom   10   Tr[ns(na)] =   2.83599
    eigenvalues:
  0.187  0.232  0.244  0.329  0.427
    eigenvectors:
  0.016  0.000  0.000  0.984  0.000
  0.000  0.000  1.000  0.000  0.000
  0.000  1.000  0.000  0.000  0.000
  0.984  0.000  0.000  0.016  0.000
  0.000  0.000  0.000  0.000  1.000
    occupations:
  0.326 -0.000 -0.000 -0.018 -0.000
 -0.000  0.244 -0.000 -0.000 -0.000
 -0.000 -0.000  0.232 -0.000  0.000
 -0.018 -0.000 -0.000  0.189  0.000
 -0.000 -0.000  0.000  0.000  0.427
atom   16   Tr[ns(na)] =   2.84928
    eigenvalues:
  0.188  0.205  0.224  0.383  0.425
    eigenvectors:
  0.032  0.715  0.074  0.169  0.009
  0.003  0.005  0.004  0.174  0.814
  0.616  0.000  0.383  0.001  0.000
  0.011  0.148  0.012  0.655  0.175
  0.338  0.132  0.527  0.001  0.002
    occupations:
  0.238 -0.011 -0.004  0.068 -0.003
 -0.011  0.415 -0.003  0.023  0.011
 -0.004 -0.003  0.202  0.006  0.016
  0.068  0.023  0.006  0.360  0.001
 -0.003  0.011  0.016  0.001  0.210
atom   17   Tr[ns(na)] =   2.92418
    eigenvalues:
  0.179  0.213  0.231  0.414  0.425
    eigenvectors:
  0.006  0.003  0.000  0.000  0.991
  0.001  0.901  0.095  0.000  0.003
  0.000  0.094  0.905  0.000  0.000
  0.993  0.001  0.000  0.000  0.006
  0.000  0.000  0.000  1.000  0.000
    occupations:
  0.423  0.011  0.004 -0.018 -0.000
  0.011  0.215 -0.005  0.000 -0.002
  0.004 -0.005  0.229  0.000 -0.000
 -0.018  0.000  0.000  0.181 -0.000
 -0.000 -0.002 -0.000 -0.000  0.414
atom   22   Tr[ns(na)] =   2.91305
    eigenvalues:
  0.184  0.223  0.242  0.383  0.424
    eigenvectors:
  0.000  0.000  0.919  0.081  0.000
  0.000  0.000  0.000  0.003  0.997
  0.999  0.001  0.000  0.000  0.000
  0.000  0.000  0.081  0.916  0.003
  0.001  0.999  0.000  0.000  0.000
    occupations:
  0.253 -0.001  0.000  0.038  0.000
 -0.001  0.424  0.000  0.003 -0.000
  0.000  0.000  0.184 -0.000  0.001
  0.038  0.003 -0.000  0.372 -0.000
  0.000 -0.000  0.001 -0.000  0.223
atom   23   Tr[ns(na)] =   3.04336
    eigenvalues:
  0.129  0.300  0.312  0.345  0.436
    eigenvectors:
  0.003  0.000  0.000  0.000  0.997
  0.000  0.000  1.000  0.000  0.000
  0.000  1.000  0.000  0.000  0.000
  0.997  0.000  0.000  0.000  0.003
  0.000  0.000  0.000  1.000  0.000
    occupations:
  0.435 -0.000  0.000 -0.017 -0.000
 -0.000  0.312 -0.000 -0.000  0.000
  0.000 -0.000  0.300 -0.000  0.000
 -0.017 -0.000 -0.000  0.130 -0.000
 -0.000  0.000  0.000 -0.000  0.345
N of occupied +U levels =  23.2589020
 --- exit write_ns ---

[...]

          k = 0.2500-0.4516 0.0000 ( 29882 PWs)   bands (ev):

[...]

          k =-0.2500 0.2258 0.0000 ( 29912 PWs)   bands (ev):

   -60.7411 -60.7137 -60.4257 -59.9174 -59.8871 -59.4754 -59.4466 -58.7997
   -37.2212 -36.9921 -36.9386 -36.9159 -36.8930 -36.8843 -36.7724 -36.6490
   -36.6011 -36.4698 -36.2326 -36.1583 -36.1513 -36.0475 -36.0239 -35.9267
   -35.7558 -35.7351 -35.7317 -35.6595 -35.5904 -35.1822 -35.1643 -35.1228
   -21.9710 -21.7195 -21.0349 -20.7859 -20.3127 -20.2630 -20.2436 -20.1813
   -19.9822 -19.8642 -19.7770 -19.7572 -19.6350 -19.5578 -19.3262 -19.1882
   -18.8737 -18.7903 -17.9744  -9.7962  -9.5217  -8.5345  -8.2863  -8.0180
    -7.7851  -7.6789  -7.6559  -7.5749  -7.3871  -7.3390  -7.2326  -7.1646
    -7.0378  -6.9740  -6.8914  -6.8293  -6.7667  -6.6211  -6.5471  -6.4751
    -6.3005  -6.1999  -6.0541  -5.9465  -5.8002  -5.7484  -5.6654  -5.5594
    -5.5129  -5.4328  -5.4066  -5.3249  -5.2514  -5.1819  -5.0887  -5.0047
    -4.9559  -4.9110  -4.8345  -4.7359  -4.6608  -4.4833  -4.4276  -4.2296
    -4.1795  -4.1326  -4.1240  -4.0060  -3.9595  -3.8864  -3.7116  -3.6899
    -3.6063  -3.5438  -3.4784  -3.3372  -1.0480  -1.0130  -0.9082  -0.7848
    -0.4670  -0.3974  -0.3268  -0.2898  -0.1844  -0.0254   0.0709   0.1863
     0.2124   0.2674   0.4822   0.5611   0.6102   0.7425   0.8500   0.9447
     1.0235   1.1490   1.1967   1.5344   1.7890   1.8618   1.9470   1.9943
     2.1744   2.2272   2.5647   2.7535   2.9011   3.0883   3.1457   3.1827
     3.3384   3.4631   3.6440   3.7714   3.8592   4.0521   4.4702   4.6025
     4.6692   4.8651   5.2292   5.7941   5.8952   6.0012   6.1429   6.3140
     6.3541   6.5583   6.7455   6.9036   7.0233   7.2578   7.3102   7.4172
     7.6021   7.6911   7.7589   7.8920   7.9247   8.0377   8.2051   8.3437
     8.4910   8.6874   8.7435   8.7743   9.0000   9.1487   9.2057   9.2999
     9.3627   9.4714   9.5743   9.6013   9.7150   9.8334   9.8819  10.0183
    10.0873  10.2751  10.3368  10.4724  10.5691  10.6835  10.7794  10.8341
    10.9335  10.9976  11.0626  11.1192  11.1534  11.2735  11.3604  11.4031
    11.4456  11.5153  11.6481  11.7024  11.7877  11.8665  11.9277  12.0140
    12.0611  12.0920  12.1610  12.2821  12.4018  12.4110  12.4863  12.5290
    12.6061  12.7231  12.8034  12.8952  12.9302  12.9835  13.0623  13.1957
    13.3012  13.3300  13.4096  13.4469  13.5650  13.6393  13.7123  13.7687
    13.8186  13.8889  13.9749  14.0679  14.1194  14.1724  14.2864  14.3436
    14.4276  14.5275  14.5791  14.6075  14.7153  14.7570  14.8638  14.9842
    15.0785  15.1737  15.2238  15.2840  15.3780  15.4438  15.4825  15.5727
    15.6080  15.6771  15.7641  15.8361  15.8497  15.9784  16.0301  16.0771
    16.1547  16.2086  16.3030  16.3536  16.4822  16.5999  16.6876  16.7054
    16.7734  16.8475  16.8830  16.9257  16.9635  17.0691  17.1057  17.1973
    17.2619  17.3246  17.4153  17.4653  17.5551  17.6094  17.6438  17.6935
    17.7658  17.8316  17.9464  18.0337  18.1235  18.1991  18.2414  18.3067
    18.3919  18.4881  18.5883  18.6087  18.6564

     the Fermi energy is    -3.4219 ev

!    total energy              =   -1566.36281441 Ry
     Harris-Foulkes estimate   =   -1566.36281441 Ry
     estimated scf accuracy    <          6.2E-10 Ry

     The total energy is the sum of the following terms:

     one-electron contribution =  -18519.08851086 Ry
     hartree contribution      =    9274.94213153 Ry
     xc contribution           =    -276.69675541 Ry
     ewald contribution        =    7953.90217658 Ry
     Hubbard energy            =       0.57791199 Ry
     smearing contrib. (-TS)   =       0.00023176 Ry

     convergence has been achieved in  17 iterations

     Forces acting on atoms (Ry/au):

     negative rho (up, down):  0.103E+00 0.000E+00
     atom    1 type  1   force =    -0.00059457   -0.01017917   -0.00010395
     atom    2 type  1   force =     0.00012112    0.01522395    0.00022032
     atom    3 type  2   force =     0.05880201   -0.00984078   -0.00091445
     atom    4 type  2   force =    -0.00310185    0.00485779    0.00075315
     atom    5 type  1   force =    -0.00267187   -0.06662770   -0.00027305
     atom    6 type  1   force =    -0.00557236    0.06836980   -0.00041152
     atom    7 type  1   force =    -0.00002798    0.00072129   -0.00032263
     atom    8 type  1   force =     0.00176138   -0.00122202   -0.00057293
     atom    9 type  2   force =     0.00747638    0.00018894   -0.00065936
     atom   10 type  2   force =     0.00004461    0.00018444    0.00035652
     atom   11 type  1   force =    -0.03328693   -0.00151576    0.00054647
     atom   12 type  1   force =    -0.03359377    0.00185860    0.00051853
     atom   13 type  1   force =     0.00012717    0.00013656   -0.00029494
     atom   14 type  1   force =    -0.00018715   -0.00942035    0.00057993
     atom   15 type  1   force =     0.00003934    0.01177953    0.00013731
     atom   16 type  2   force =    -0.05843112   -0.00911013   -0.00092495
     atom   17 type  2   force =    -0.00324813    0.00430708    0.00043653
     atom   18 type  1   force =     0.00741939   -0.06659108   -0.00035825
     atom   19 type  1   force =     0.00493993    0.06838113   -0.00030789
     atom   20 type  1   force =    -0.00024074   -0.00023761   -0.00056477
     atom   21 type  1   force =     0.00184659   -0.00095329   -0.00032917
     atom   22 type  2   force =    -0.00785260   -0.00002609   -0.00066271
     atom   23 type  2   force =     0.00001486   -0.00015200    0.00029704
     atom   24 type  1   force =     0.03372135   -0.00141222    0.00051901
     atom   25 type  1   force =     0.03304637    0.00174468    0.00054787
     atom   26 type  1   force =     0.00020480   -0.00011002    0.00066692
     atom   27 type  3   force =     0.00003740   -0.00011227    0.00044652
     atom   28 type  3   force =     0.00000137   -0.00021188    0.00036222
     atom   29 type  3   force =    -0.00022584   -0.00002795   -0.00032520
     atom   30 type  3   force =    -0.00058061   -0.00001016   -0.00020375
     atom   31 type  1   force =     0.00001145    0.00000667    0.00084119

     Total force =     0.002930     Total SCF correction =     0.000063

     bfgs converged in   7 scf cycles and   6 bfgs steps
     (criteria: energy < 0.10E-03, force < 0.10E-02)

     End of BFGS Geometry Optimization

     Final energy   =   -1566.3628144052 Ry
Begin final coordinates

ATOMIC_POSITIONS (crystal)
O0       0.000000000   0.000000000   0.377744108    0   0   1
O0       0.000000000   0.500000000   0.397588705    0   0   1
Ti1      0.250000000   0.500000000   0.449949776    0   0   1
Ti1      0.000000000   0.000000000   0.452222552    0   0   1
O0       0.250000000   0.810000000   0.449325458    0   0   1
O0       0.250000000   0.190000000   0.450170124    0   0   1
O0       0.000000000   0.500000000   0.497520765    0   0   1
O0       0.000000000   0.000000000   0.525659161    0   0   1
Ti1      0.250000000   0.000000000   0.581022337    0   0   1
Ti1      0.000000000   0.500000000   0.568518616    0   0   1
O0       0.250000000   0.690000000   0.580540546    0   0   1
O0       0.250000000   0.310000000   0.580511033    0   0   1
O0       0.000000000   0.000000000   0.622701751    0   0   1
O0       0.500000000   0.000000000   0.377529224    0   0   1
O0       0.500000000   0.500000000   0.396810858    0   0   1
Ti1      0.750000000   0.500000000   0.449950997    0   0   1
Ti1      0.500000000   0.000000000   0.451520619    0   0   1
O0       0.750000000   0.810000000   0.449358231    0   0   1
O0       0.750000000   0.190000000   0.450081677    0   0   1
O0       0.500000000   0.500000000   0.491851862    0   0   1
O0       0.500000000   0.000000000   0.525422528    0   0   1
Ti1      0.750000000   0.000000000   0.581014040    0   0   1
Ti1      0.500000000   0.500000000   0.598633768    0   0   1
O0       0.750000000   0.690000000   0.580597639    0   0   1
O0       0.750000000   0.310000000   0.580447870    0   0   1
O0       0.500000000   0.000000000   0.621673824    0   0   1
H2      -0.000658622   0.620874297   0.375503323
H2       0.499381157   0.616704646   0.373486444
H2       0.149139013   0.034328593   0.363553347
H2       0.649335162   0.033078536   0.363255382
O0       0.500006920   0.499868048   0.661873436
End final coordinates

     General routines

     Parallel routines
     Hubbard U routines

   This run was terminated on:  13:16:25  28Apr2014

   JOB DONE.