     Program PWSCF v.5.0.2 (svn rev. 9656) starts on 23Jan2014 at 17:46:57

     Current dimensions of program PWSCF are:
     Max number of different atomic species (ntypx) = 10
     Max number of k-points (npk) =  40000
     Max angular momentum in pseudopotentials (lmaxx) =  3
     Reading input from PtO2-v-0.9.in

     Subspace diagonalization in iterative solution of the eigenvalue problem:
     a serial algorithm will be used

     bravais-lattice index     =            0
     lattice parameter (alat)  =       8.3602  a.u.
     unit-cell volume          =     376.5571 (a.u.)^3
     number of atoms/cell      =            6
     number of atomic types    =            2
     number of electrons       =        56.00
     number of Kohn-Sham states=           84
     kinetic-energy cutoff     =      40.0000  Ry
     charge density cutoff     =     500.0000  Ry
     convergence threshold     =      1.0E-06
     mixing beta               =       0.7000
     number of iterations used =            8  plain     mixing
     Exchange-correlation      = SLA  PW   PBE  PBE ( 1 4 3 4 0)
     EXX-fraction              =        0.00
     nstep                     =           50

     celldm(1)=   8.360170  celldm(2)=   0.000000  celldm(3)=   0.000000
     celldm(4)=   0.000000  celldm(5)=   0.000000  celldm(6)=   0.000000

     crystal axes: (cart. coord. in units of alat)
               a(1) = (   1.000000   0.000000   0.000000 )
               a(2) = (   0.000000   1.000000   0.000000 )
               a(3) = (   0.000000   0.000000   0.644444 )

     reciprocal axes: (cart. coord. in units 2 pi/alat)
               b(1) = (  1.000000  0.000000  0.000000 )
               b(2) = (  0.000000  1.000000  0.000000 )
               b(3) = (  0.000000  0.000000  1.551724 )

     PseudoPot. # 1 for Pt read from file:
     /home/camp/zhonxu/pseudo/pt_pbe_v1.uspp.F.UPF
     MD5 check sum: 4c71d6ad5ef119f1eb26a4d0b7884226
     Pseudo is Ultrasoft + core correction, Zval = 16.0
     Generated by new atomic code, or converted to UPF format
     Using radial grid of  985 points,  6 beta functions with:
                l(1) =   0
                l(2) =   0
                l(3) =   1
                l(4) =   1
                l(5) =   2
                l(6) =   2
     Q(r) pseudized with  8 coefficients,  rinner =    1.300   1.300   1.300
                                                       1.300   1.300

     PseudoPot. # 2 for O  read from file:
     /home/camp/zhonxu/pseudo/o_pbe_v1.01.uspp.F.UPF
     MD5 check sum: 2bcb18d16ea4b960afae9ec6d52f22d2
     Pseudo is Ultrasoft + core correction, Zval =  6.0
     Generated by new atomic code, or converted to UPF format
     Using radial grid of  737 points,  5 beta functions with:
                l(1) =   0
                l(2) =   0
                l(3) =   1
                l(4) =   1
                l(5) =   2
     Q(r) pseudized with  8 coefficients,  rinner =    0.900   0.900   0.900
                                                       0.900   0.900

     atomic species   valence    mass     pseudopotential
        Pt0           16.00   195.08000     Pt( 1.00)
        O1             6.00    15.99940     O ( 1.00)

     Starting magnetic structure
     atomic species   magnetization
        Pt0          0.600
        O1           0.000

     16 Sym. Ops., with inversion, found ( 8 have fractional translation)

   Cartesian axes

     site n.     atom                  positions (alat units)
         1           Pt0 tau(   1) = (   0.0000000   0.0000000   0.0000000  )
         2           Pt0 tau(   2) = (   0.5000000   0.5000000   0.3222222  )
         3           O1  tau(   3) = (   0.3050000   0.3050000   0.0000000  )
         4           O1  tau(   4) = (  -0.3050000  -0.3050000   0.0000000  )
         5           O1  tau(   5) = (   0.8050000   0.1950000   0.3222222  )
         6           O1  tau(   6) = (   0.1950000   0.8050000   0.3222222  )

     number of k points=    36  Methfessel-Paxton smearing, width (Ry)=  0.0100
                       cart. coord. in units 2pi/alat
        k(    1) = (   0.0000000   0.0000000   0.0000000), wk =   0.0080000
        k(    2) = (   0.0000000   0.0000000   0.3103448), wk =   0.0160000
        k(    3) = (   0.0000000   0.0000000   0.6206897), wk =   0.0160000
        k(    4) = (   0.0000000   0.2000000   0.0000000), wk =   0.0320000
        k(    5) = (   0.0000000   0.2000000   0.3103448), wk =   0.0640000
        k(    6) = (   0.0000000   0.2000000   0.6206897), wk =   0.0640000
        k(    7) = (   0.0000000   0.4000000   0.0000000), wk =   0.0320000
        k(    8) = (   0.0000000   0.4000000   0.3103448), wk =   0.0640000
        k(    9) = (   0.0000000   0.4000000   0.6206897), wk =   0.0640000
        k(   10) = (   0.2000000   0.2000000   0.0000000), wk =   0.0320000
        k(   11) = (   0.2000000   0.2000000   0.3103448), wk =   0.0640000
        k(   12) = (   0.2000000   0.2000000   0.6206897), wk =   0.0640000
        k(   13) = (   0.2000000   0.4000000   0.0000000), wk =   0.0640000
        k(   14) = (   0.2000000   0.4000000   0.3103448), wk =   0.1280000
        k(   15) = (   0.2000000   0.4000000   0.6206897), wk =   0.1280000
        k(   16) = (   0.4000000   0.4000000   0.0000000), wk =   0.0320000
        k(   17) = (   0.4000000   0.4000000   0.3103448), wk =   0.0640000
        k(   18) = (   0.4000000   0.4000000   0.6206897), wk =   0.0640000
        k(   19) = (   0.0000000   0.0000000   0.0000000), wk =   0.0080000
        k(   20) = (   0.0000000   0.0000000   0.3103448), wk =   0.0160000
        k(   21) = (   0.0000000   0.0000000   0.6206897), wk =   0.0160000
        k(   22) = (   0.0000000   0.2000000   0.0000000), wk =   0.0320000
        k(   23) = (   0.0000000   0.2000000   0.3103448), wk =   0.0640000
        k(   24) = (   0.0000000   0.2000000   0.6206897), wk =   0.0640000
        k(   25) = (   0.0000000   0.4000000   0.0000000), wk =   0.0320000
        k(   26) = (   0.0000000   0.4000000   0.3103448), wk =   0.0640000
        k(   27) = (   0.0000000   0.4000000   0.6206897), wk =   0.0640000
        k(   28) = (   0.2000000   0.2000000   0.0000000), wk =   0.0320000
        k(   29) = (   0.2000000   0.2000000   0.3103448), wk =   0.0640000
        k(   30) = (   0.2000000   0.2000000   0.6206897), wk =   0.0640000
        k(   31) = (   0.2000000   0.4000000   0.0000000), wk =   0.0640000
        k(   32) = (   0.2000000   0.4000000   0.3103448), wk =   0.1280000
        k(   33) = (   0.2000000   0.4000000   0.6206897), wk =   0.1280000
        k(   34) = (   0.4000000   0.4000000   0.0000000), wk =   0.0320000
        k(   35) = (   0.4000000   0.4000000   0.3103448), wk =   0.0640000
        k(   36) = (   0.4000000   0.4000000   0.6206897), wk =   0.0640000

     Largest allocated arrays     est. size (Mb)     dimensions
     Largest temporary arrays     est. size (Mb)     dimensions

     Check: negative/imaginary core charge=   -0.000005    0.000000

     Initial potential from superposition of free atoms
     Check: negative starting charge=(component1):   -0.304704
     Check: negative starting charge=(component2):   -0.075337

     starting charge   54.99997, renormalised to   56.00000

     negative rho (up, down):  0.310E+00 0.767E-01
     Starting wfc are   40 randomized atomic wfcs

     Self-consistent Calculation

     iteration #  1     ecut=    40.00 Ry     beta=0.70
     Davidson diagonalization with overlap
     ethr =  1.00E-02,  avg # of iterations =  5.7

     negative rho (up, down):  0.230E+00 0.150E+00

     total energy              =    -541.50078477 Ry
     Harris-Foulkes estimate   =    -544.44044944 Ry
     estimated scf accuracy    <       5.93614343 Ry

     total magnetization       =     4.82 Bohr mag/cell
     absolute magnetization    =     4.94 Bohr mag/cell

[...]

     End of self-consistent calculation

 ------ SPIN UP ------------

          k = 0.0000 0.0000 0.0000 (  1623 PWs)   bands (ev):

   -37.9833 -37.9659 -37.8557 -37.8557 -37.7664 -37.7664  -5.3667  -3.9329
    -2.4414  -2.4414   5.5103   5.5867   7.5469   7.5469   7.6756  11.2683
    11.2683  11.8130  12.4566  12.9486  13.0656  13.2561  13.2561  13.2972
    13.8852  13.8852  15.1931  17.1662  17.9620  21.3031  21.3031  22.1711
    23.0487  26.2849  26.2849  30.1851  30.3597  30.7805  33.1116  34.3270
    34.6725  34.6725  34.8345  34.8798  35.7730  38.4799  38.5924  38.5924
    40.1564  40.1564  41.7385  44.7045  44.9990  44.9990  45.0660  46.7286
    47.8587  47.9855  48.1612  49.7625  49.7625  50.1605  50.3760  50.3760
    50.7707  51.5477  51.5477  53.2826  55.7137  57.2937  57.7222  57.7222
    57.8234  58.6450  58.6450  59.6667  59.8558  59.8558  60.2467  60.6284
    60.7737  61.7520  62.4849  66.6787

[...]

 ------ SPIN DOWN ----------

[...]

     the Fermi energy is    17.8204 ev

!    total energy              =    -544.72863636 Ry
     Harris-Foulkes estimate   =    -544.72863617 Ry
     estimated scf accuracy    <       0.00000027 Ry

     The total energy is the sum of the following terms:

     one-electron contribution =    -104.39209696 Ry
     hartree contribution      =      97.04362030 Ry
     xc contribution           =    -138.38654628 Ry
     ewald contribution        =    -398.99373023 Ry
     smearing contrib. (-TS)   =       0.00011681 Ry

[...]

     convergence has been achieved in   8 iterations

     Forces acting on atoms (Ry/au):

     negative rho (up, down):  0.196E+00 0.196E+00
     atom    1 type  1   force =     0.00000000    0.00000000    0.00000000
     atom    2 type  1   force =     0.00000000    0.00000000   -0.00000000
     atom    3 type  2   force =    -0.05115671   -0.05115671    0.00000000
     atom    4 type  2   force =     0.05115671    0.05115671   -0.00000000
     atom    5 type  2   force =    -0.05115671    0.05115671    0.00000000
     atom    6 type  2   force =     0.05115671   -0.05115671    0.00000000

     Total force =     0.144693     Total SCF correction =     0.000050

     entering subroutine stress ...

     negative rho (up, down):  0.196E+00 0.196E+00
          total   stress  (Ry/bohr**3)                   (kbar)     P=  762.42
   0.00392587   0.00000000   0.00000000        577.52      0.00      0.00
   0.00000000   0.00392587   0.00000000          0.00    577.52      0.00
   0.00000000   0.00000000   0.00769664          0.00      0.00   1132.22

     Volume is kept fixed: isostatic pressure set to zero

     BFGS Geometry Optimization

     number of scf cycles    =   1
     number of bfgs steps    =   0

     enthalpy new            =    -544.7286363579 Ry

     new trust radius        =       0.2439071845 bohr
     new conv_thr            =       0.0000010000 Ry

     new unit-cell volume =    376.55707 a.u.^3 (    55.80000 Ang^3 )

CELL_PARAMETERS (alat=  8.36016997)
   0.969515051   0.000000000   0.000000000
   0.000000000   0.969515051   0.000000000
   0.000000000   0.000000000   0.685608784

ATOMIC_POSITIONS (crystal)
Pt0      0.000000000   0.000000000   0.000000000    0   0   0
Pt0      0.500000000   0.500000000   0.500000000    0   0   0
[...]
        k(   28) = (   0.2085068   0.2085068   0.0000000), wk =   0.0320000
        k(   29) = (   0.2085068   0.2085068   0.2855380), wk =   0.0640000
        k(   30) = (   0.2085068   0.2085068   0.5710761), wk =   0.0640000
        k(   31) = (   0.2085068   0.4170136   0.0000000), wk =   0.0640000
        k(   32) = (   0.2085068   0.4170136   0.2855380), wk =   0.1280000
        k(   33) = (   0.2085068   0.4170136   0.5710761), wk =   0.1280000
        k(   34) = (   0.4170136   0.4170136   0.0000000), wk =   0.0320000
        k(   35) = (   0.4170136   0.4170136   0.2855380), wk =   0.0640000
        k(   36) = (   0.4170136   0.4170136   0.5710761), wk =   0.0640000

[...]

     Threshold (ethr) on eigenvalues was too large:
     Diagonalizing with lowered threshold

     Davidson diagonalization with overlap
     ethr =  2.48E-10,  avg # of iterations =  2.0

[...]

     Total force =     0.000009     Total SCF correction =     0.000014
     SCF correction compared to forces is large: reduce conv_thr to get better values

[...]

     Volume is kept fixed: isostatic pressure set to zero
Begin final coordinates
     new unit-cell volume =    376.55707 a.u.^3 (    55.80000 Ang^3 )

[...]

ATOMIC_POSITIONS (crystal)
Pt0      0.000000000   0.000000000   0.000000000    0   0   0
Pt0      0.500000000   0.500000000   0.500000000    0   0   0
O1       0.311675393   0.311675393   0.000000000    1   1   0
O1      -0.311675393  -0.311675393   0.000000000    1   1   0
O1       0.811675393   0.188324607   0.500000000    1   1   0
O1       0.188324607   0.811675393   0.500000000    1   1   0
End final coordinates

     lsda relaxation :  a final configuration with zero
                        absolute magnetization has been found

     the program is checking if it is really the minimum energy structure
     by performing a new scf iteration without any "electronic" history

[...]

     negative rho (up, down):  0.310E+00 0.768E-01
     Starting wfc are   40 randomized atomic wfcs
     Check: negative starting charge=(component1):   -0.380295
     NEW-OLD atomic charge density approx. for the potential
     NEW k-points:
        k(    1) = (   0.0000000   0.0000000   0.0000000), wk =   0.0080000
        k(    2) = (   0.0000000   0.0000000   0.2855380), wk =   0.0160000
        k(    3) = (   0.0000000   0.0000000   0.5710761), wk =   0.0160000
        k(    4) = (   0.0000000   0.2085068   0.0000000), wk =   0.0320000
        k(    5) = (   0.0000000   0.2085068   0.2855380), wk =   0.0640000
        k(    6) = (   0.0000000   0.2085068   0.5710761), wk =   0.0640000
        k(    7) = (   0.0000000   0.4170136   0.0000000), wk =   0.0320000
        k(    8) = (   0.0000000   0.4170136   0.2855380), wk =   0.0640000
        k(    9) = (   0.0000000   0.4170136   0.5710761), wk =   0.0640000
        k(   10) = (   0.2085068   0.2085068   0.0000000), wk =   0.0320000
        k(   11) = (   0.2085068   0.2085068   0.2855380), wk =   0.0640000
        k(   12) = (   0.2085068   0.2085068   0.5710761), wk =   0.0640000
        k(   13) = (   0.2085068   0.4170136   0.0000000), wk =   0.0640000
        k(   14) = (   0.2085068   0.4170136   0.2855380), wk =   0.1280000
        k(   15) = (   0.2085068   0.4170136   0.5710761), wk =   0.1280000
        k(   16) = (   0.4170136   0.4170136   0.0000000), wk =   0.0320000
        k(   17) = (   0.4170136   0.4170136   0.2855380), wk =   0.0640000
        k(   18) = (   0.4170136   0.4170136   0.5710761), wk =   0.0640000
        k(   19) = (   0.0000000   0.0000000   0.0000000), wk =   0.0080000
        k(   20) = (   0.0000000   0.0000000   0.2855380), wk =   0.0160000
        k(   21) = (   0.0000000   0.0000000   0.5710761), wk =   0.0160000
        k(   22) = (   0.0000000   0.2085068   0.0000000), wk =   0.0320000
        k(   23) = (   0.0000000   0.2085068   0.2855380), wk =   0.0640000
        k(   24) = (   0.0000000   0.2085068   0.5710761), wk =   0.0640000
        k(   25) = (   0.0000000   0.4170136   0.0000000), wk =   0.0320000
        k(   26) = (   0.0000000   0.4170136   0.2855380), wk =   0.0640000
        k(   27) = (   0.0000000   0.4170136   0.5710761), wk =   0.0640000
        k(   28) = (   0.2085068   0.2085068   0.0000000), wk =   0.0320000
        k(   29) = (   0.2085068   0.2085068   0.2855380), wk =   0.0640000
        k(   30) = (   0.2085068   0.2085068   0.5710761), wk =   0.0640000
        k(   31) = (   0.2085068   0.4170136   0.0000000), wk =   0.0640000
        k(   32) = (   0.2085068   0.4170136   0.2855380), wk =   0.1280000
        k(   33) = (   0.2085068   0.4170136   0.5710761), wk =   0.1280000
        k(   34) = (   0.4170136   0.4170136   0.0000000), wk =   0.0320000
        k(   35) = (   0.4170136   0.4170136   0.2855380), wk =   0.0640000
        k(   36) = (   0.4170136   0.4170136   0.5710761), wk =   0.0640000

     Check: negative/imaginary core charge=   -0.000004    0.000000
     Check: negative starting charge=(component1):   -0.380295

[...]

     Total force =     0.000006     Total SCF correction =     0.000060
     SCF correction compared to forces is large: reduce conv_thr to get better values

[...]

     Volume is kept fixed: isostatic pressure set to zero

     bfgs converged in   7 scf cycles and   6 bfgs steps
     (criteria: energy < 0.10E-03, force < 0.10E-02, cell < 0.50E+00)

     End of BFGS Geometry Optimization

     Final enthalpy =    -544.7802939424 Ry
Begin final coordinates
     new unit-cell volume =    376.55707 a.u.^3 (    55.80000 Ang^3 )

CELL_PARAMETERS (alat=  8.36016997)
   0.959201216   0.000000000   0.000000000
   0.000000000   0.959201216   0.000000000
   0.000000000   0.000000000   0.700432102

ATOMIC_POSITIONS (crystal)
Pt0      0.000000000   0.000000000   0.000000000    0   0   0
Pt0      0.500000000   0.500000000   0.500000000    0   0   0
O1       0.311675393   0.311675393   0.000000000    1   1   0
O1      -0.311675393  -0.311675393   0.000000000    1   1   0
O1       0.811675393   0.188324607   0.500000000    1   1   0
O1       0.188324607   0.811675393   0.500000000    1   1   0
End final coordinates

     A final scf calculation at the relaxed structure.
     The G-vectors are recalculated for the final unit cell
     Results may differ from those at the preceding step.

     bravais-lattice index     =            0
     lattice parameter (alat)  =       8.3602  a.u.
     unit-cell volume          =     376.5571 (a.u.)^3
     number of atoms/cell      =            6
     number of atomic types    =            2
     number of electrons       =        56.00
     number of Kohn-Sham states=           84
     kinetic-energy cutoff     =      40.0000  Ry
     charge density cutoff     =     500.0000  Ry
     convergence threshold     =      1.0E-08
     mixing beta               =       0.7000
     number of iterations used =            8  plain     mixing
     Exchange-correlation      = SLA  PW   PBE  PBE ( 1 4 3 4 0)
     EXX-fraction              =        0.00

     celldm(1)=   8.360170  celldm(2)=   0.000000  celldm(3)=   0.000000
     celldm(4)=   0.000000  celldm(5)=   0.000000  celldm(6)=   0.000000

     crystal axes: (cart. coord. in units of alat)
               a(1) = (   0.959201   0.000000   0.000000 )
               a(2) = (   0.000000   0.959201   0.000000 )
               a(3) = (   0.000000   0.000000   0.700432 )

     reciprocal axes: (cart. coord. in units 2 pi/alat)
               b(1) = (  1.042534  0.000000  0.000000 )
               b(2) = (  0.000000  1.042534  0.000000 )
               b(3) = (  0.000000  0.000000  1.427690 )

     PseudoPot. # 1 for Pt read from file:
     /home/camp/zhonxu/pseudo/pt_pbe_v1.uspp.F.UPF
     MD5 check sum: 4c71d6ad5ef119f1eb26a4d0b7884226
     Pseudo is Ultrasoft + core correction, Zval = 16.0
     Generated by new atomic code, or converted to UPF format
     Using radial grid of  985 points,  6 beta functions with:
                l(1) =   0
                l(2) =   0
                l(3) =   1
                l(4) =   1
                l(5) =   2
                l(6) =   2
     Q(r) pseudized with  8 coefficients,  rinner =    1.300   1.300   1.300
                                                       1.300   1.300

     PseudoPot. # 2 for O  read from file:
     /home/camp/zhonxu/pseudo/o_pbe_v1.01.uspp.F.UPF
     MD5 check sum: 2bcb18d16ea4b960afae9ec6d52f22d2
     Pseudo is Ultrasoft + core correction, Zval =  6.0
     Generated by new atomic code, or converted to UPF format
     Using radial grid of  737 points,  5 beta functions with:
                l(1) =   0
                l(2) =   0
                l(3) =   1
                l(4) =   1
                l(5) =   2
     Q(r) pseudized with  8 coefficients,  rinner =    0.900   0.900   0.900
                                                       0.900   0.900

     atomic species   valence    mass     pseudopotential
        Pt0           16.00   195.08000     Pt( 1.00)
        O1             6.00    15.99940     O ( 1.00)

     Starting magnetic structure
     atomic species   magnetization
        Pt0          0.600
        O1           0.000

     16 Sym. Ops., with inversion, found ( 8 have fractional translation)

   Cartesian axes

     site n.     atom                  positions (alat units)
         1           Pt0 tau(   1) = (   0.0000000   0.0000000   0.0000000  )
         2           Pt0 tau(   2) = (   0.4796006   0.4796006   0.3502161  )
         3           O1  tau(   3) = (   0.2989594   0.2989594   0.0000000  )
         4           O1  tau(   4) = (  -0.2989594  -0.2989594   0.0000000  )
         5           O1  tau(   5) = (   0.7785600   0.1806412   0.3502161  )
         6           O1  tau(   6) = (   0.1806412   0.7785600   0.3502161  )

     number of k points=    36  Methfessel-Paxton smearing, width (Ry)=  0.0100
                       cart. coord. in units 2pi/alat
        k(    1) = (   0.0000000   0.0000000   0.0000000), wk =   0.0080000
        k(    2) = (   0.0000000   0.0000000   0.2855380), wk =   0.0160000
        k(    3) = (   0.0000000   0.0000000   0.5710761), wk =   0.0160000
        k(    4) = (   0.0000000   0.2085068   0.0000000), wk =   0.0320000
        k(    5) = (   0.0000000   0.2085068   0.2855380), wk =   0.0640000
        k(    6) = (   0.0000000   0.2085068   0.5710761), wk =   0.0640000
        k(    7) = (   0.0000000   0.4170136   0.0000000), wk =   0.0320000
        k(    8) = (   0.0000000   0.4170136   0.2855380), wk =   0.0640000
        k(    9) = (   0.0000000   0.4170136   0.5710761), wk =   0.0640000
        k(   10) = (   0.2085068   0.2085068   0.0000000), wk =   0.0320000
        k(   11) = (   0.2085068   0.2085068   0.2855380), wk =   0.0640000
        k(   12) = (   0.2085068   0.2085068   0.5710761), wk =   0.0640000
        k(   13) = (   0.2085068   0.4170136   0.0000000), wk =   0.0640000
        k(   14) = (   0.2085068   0.4170136   0.2855380), wk =   0.1280000
        k(   15) = (   0.2085068   0.4170136   0.5710761), wk =   0.1280000
        k(   16) = (   0.4170136   0.4170136   0.0000000), wk =   0.0320000
        k(   17) = (   0.4170136   0.4170136   0.2855380), wk =   0.0640000
        k(   18) = (   0.4170136   0.4170136   0.5710761), wk =   0.0640000
        k(   19) = (   0.0000000   0.0000000   0.0000000), wk =   0.0080000
        k(   20) = (   0.0000000   0.0000000   0.2855380), wk =   0.0160000
        k(   21) = (   0.0000000   0.0000000   0.5710761), wk =   0.0160000
        k(   22) = (   0.0000000   0.2085068   0.0000000), wk =   0.0320000
        k(   23) = (   0.0000000   0.2085068   0.2855380), wk =   0.0640000
        k(   24) = (   0.0000000   0.2085068   0.5710761), wk =   0.0640000
        k(   25) = (   0.0000000   0.4170136   0.0000000), wk =   0.0320000
        k(   26) = (   0.0000000   0.4170136   0.2855380), wk =   0.0640000
        k(   27) = (   0.0000000   0.4170136   0.5710761), wk =   0.0640000
        k(   28) = (   0.2085068   0.2085068   0.0000000), wk =   0.0320000
        k(   29) = (   0.2085068   0.2085068   0.2855380), wk =   0.0640000
        k(   30) = (   0.2085068   0.2085068   0.5710761), wk =   0.0640000
        k(   31) = (   0.2085068   0.4170136   0.0000000), wk =   0.0640000
        k(   32) = (   0.2085068   0.4170136   0.2855380), wk =   0.1280000
        k(   33) = (   0.2085068   0.4170136   0.5710761), wk =   0.1280000
        k(   34) = (   0.4170136   0.4170136   0.0000000), wk =   0.0320000
        k(   35) = (   0.4170136   0.4170136   0.2855380), wk =   0.0640000
        k(   36) = (   0.4170136   0.4170136   0.5710761), wk =   0.0640000

     Largest allocated arrays     est. size (Mb)     dimensions
     Largest temporary arrays     est. size (Mb)     dimensions

     Check: negative/imaginary core charge=   -0.000005    0.000000

     Initial potential from superposition of free atoms
     Check: negative starting charge=(component1):   -0.305377
     Check: negative starting charge=(component2):   -0.075540

     starting charge   54.99997, renormalised to   56.00000

     negative rho (up, down):  0.311E+00 0.769E-01
     Starting wfc are   40 randomized atomic wfcs

     Self-consistent Calculation

[...]

     total energy              =    -544.78133688 Ry
     Harris-Foulkes estimate   =    -544.78133667 Ry
     estimated scf accuracy    <       0.00000023 Ry

[...]

     iteration #  9     ecut=    40.00 Ry     beta=0.70
     Davidson diagonalization with overlap
     ethr =  4.13E-10,  avg # of iterations =  2.0

     negative rho (up, down):  0.196E+00 0.196E+00

     End of self-consistent calculation

 ------ SPIN UP ------------

[...]

 ------ SPIN DOWN ----------

[...]

          k = 0.4170 0.4170 0.5711 (  1610 PWs)   bands (ev):

   -38.1368 -38.1362 -37.7552 -37.7546 -37.6479 -37.6477  -3.5045  -3.4461
    -3.0324  -3.0277   7.2500   7.3133   7.7868   7.8246   8.6239   9.0690
    10.8239  10.8319  11.5116  11.8048  12.9358  13.4872  13.5317  13.7269
    14.6321  15.6211  15.7179  16.5253  18.2764  18.8370  20.2540  20.7889
    26.7654  27.1434  27.9275  28.1928  29.2462  29.5797  31.3258  32.0428
    34.4853  34.5019  34.7987  34.8322  37.2260  37.7813  39.1047  39.5736
    40.2045  40.7436  41.1620  42.8158  45.1927  45.4722  45.6211  45.9584
    46.6322  47.7000  49.7981  50.5679  50.7087  51.2404  51.8589  52.2317
    52.6882  53.0228  54.1564  54.5978  54.7546  55.1893  56.1564  56.7093
    56.8730  57.6185  57.6684  59.2162  59.3551  59.9065  60.3721  60.5392
    62.2672  62.3512  63.6982  63.8759

     the Fermi energy is    17.5459 ev

!    total energy              =    -544.78133708 Ry
     Harris-Foulkes estimate   =    -544.78133707 Ry
     estimated scf accuracy    <          8.5E-09 Ry

     The total energy is the sum of the following terms:

     one-electron contribution =     -95.96546692 Ry
     hartree contribution      =      92.89263165 Ry
     xc contribution           =    -138.22727614 Ry
     ewald contribution        =    -403.48123131 Ry
     smearing contrib. (-TS)   =       0.00000564 Ry

     total magnetization       =     0.00 Bohr mag/cell
     absolute magnetization    =     0.00 Bohr mag/cell

     convergence has been achieved in   9 iterations

     Forces acting on atoms (Ry/au):

     negative rho (up, down):  0.196E+00 0.196E+00
     atom    1 type  1   force =     0.00000000    0.00000000    0.00000000
     atom    2 type  1   force =     0.00000000    0.00000000    0.00000000
     atom    3 type  2   force =    -0.00033158   -0.00033158   -0.00000000
     atom    4 type  2   force =     0.00033158    0.00033158    0.00000000
     atom    5 type  2   force =    -0.00033158    0.00033158    0.00000000
     atom    6 type  2   force =     0.00033158   -0.00033158    0.00000000

     Total force =     0.000938     Total SCF correction =     0.000062

     entering subroutine stress ...

     negative rho (up, down):  0.196E+00 0.196E+00
          total   stress  (Ry/bohr**3)                   (kbar)     P=  649.64
   0.00439442   0.00000000   0.00000000        646.44      0.00      0.00
   0.00000000   0.00439442   0.00000000          0.00    646.44      0.00
   0.00000000   0.00000000   0.00445958          0.00      0.00    656.03

     General routines

     Parallel routines

   This run was terminated on:  18:13: 8  23Jan2014

   JOB DONE.
Running PBS batch system epilogue script
Job id: 251192.audhumbla.fysik.dtu.dk
Username: zhonxu
Groupname: campgst
Jobname: PtO2/coarse-EOS/PtO2-v-0.9
Sessionid: 23666
Queuename: verylong
Accounting:
This job has allocated the following 4 nodes:
q095 q095 q095 q095
Finished epilogue job 251192.audhumbla.fysik.dtu.dk for zhonxu