     Program PWSCF v.5.0.2 (svn rev. 9656) starts on 12Aug2014 at  8:57:11

     Current dimensions of program PWSCF are:
     Max number of different atomic species (ntypx) = 10
     Max number of k-points (npk) =  40000
     Max angular momentum in pseudopotentials (lmaxx) =  3
     Reading input from pwscf.in
Warning: card &CELL ignored
Warning: card / ignored

     Subspace diagonalization in iterative solution of the eigenvalue problem:
     a serial algorithm will be used

     bravais-lattice index     =            0
     lattice parameter (alat)  =      10.9604  a.u.
     unit-cell volume          =    6350.6732 (a.u.)^3
     number of atoms/cell      =           33
     number of atomic types    =            3
     number of electrons       =       237.00 (up: 126.00, down: 111.00)
     number of Kohn-Sham states=          343
     kinetic-energy cutoff     =      40.0000  Ry
     charge density cutoff     =     500.0000  Ry
     convergence threshold     =      1.0E-06
     mixing beta               =       0.7000
     number of iterations used =            8  plain     mixing
     Exchange-correlation      = SLA  PW   PBE  PBE ( 1 4 3 4 0)
     EXX-fraction              =        0.00
     nstep                     =           50

     celldm(1)=  10.960412  celldm(2)=   0.000000  celldm(3)=   0.000000
     celldm(4)=   0.000000  celldm(5)=   0.000000  celldm(6)=   0.000000

     crystal axes: (cart. coord. in units of alat)
               a(1) = (   1.000000   0.000000   0.000000 )
               a(2) = (   0.000000   1.067975   0.000000 )
               a(3) = (   0.000000   0.000000   4.516251 )

     reciprocal axes: (cart. coord. in units 2 pi/alat)
               b(1) = (  1.000000  0.000000  0.000000 )
               b(2) = (  0.000000  0.936351  0.000000 )
               b(3) = (  0.000000  0.000000  0.221423 )

     PseudoPot. # 1 for O  read from file:
     /home-research/zhongnanxu/gbrv_espresso_pseudo_v1.01/o_pbe_v1.01.uspp.F.UPF
     MD5 check sum: 2bcb18d16ea4b960afae9ec6d52f22d2
     Pseudo is Ultrasoft + core correction, Zval =  6.0
     Generated by new atomic code, or converted to UPF format
     Using radial grid of  737 points,  5 beta functions with:
                l(1) =   0
                l(2) =   0
                l(3) =   1
                l(4) =   1
                l(5) =   2
     Q(r) pseudized with  8 coefficients,  rinner =    0.900   0.900   0.900
                                                       0.900   0.900

     PseudoPot. # 2 for Cr read from file:
     /home-research/zhongnanxu/gbrv_espresso_pseudo_v1.01/cr_pbe_v1.uspp.F.UPF
     MD5 check sum: 68b6f918d1762dccfb11451fe85b0e0e
     Pseudo is Ultrasoft + core correction, Zval = 14.0
     Generated by new atomic code, or converted to UPF format
     Using radial grid of  857 points,  6 beta functions with:
                l(1) =   0
                l(2) =   0
                l(3) =   1
                l(4) =   1
                l(5) =   2
                l(6) =   2
     Q(r) pseudized with  6 coefficients,  rinner =    1.000   1.000   1.000
                                                       1.000   1.000

     PseudoPot. # 3 for H  read from file:
     /home-research/zhongnanxu/gbrv_espresso_pseudo_v1.01/h_pbe_v1.uspp.F.UPF
     MD5 check sum: 3408e3ff4ec8b0a4e358431e7e038a48
     Pseudo is Ultrasoft, Zval =  1.0
     Generated by new atomic code, or converted to UPF format
     Using radial grid of  615 points,  2 beta functions with:
                l(1) =   0
                l(2) =   0
     Q(r) pseudized with  8 coefficients,  rinner =    0.700

     atomic species   valence    mass     pseudopotential
        O0             6.00    15.99940     O ( 1.00)
        Cr1           14.00    51.99600     Cr( 1.00)
        H2             1.00     1.00794     H ( 1.00)

     Starting magnetic structure
     atomic species   magnetization
        O0           0.000
        Cr1          0.600
        H2           0.000

     Simplified LDA+U calculation (l_max = 2) with parameters (eV):
     atomic species    L          U    alpha       J0     beta
        Cr1            2     4.0000   0.0000   0.0000   0.0000

     No symmetry found

   Cartesian axes

     site n.     atom                  positions (alat units)
         1           O0  tau(   1) = (   0.0000000   0.0000000   1.7004136  )
         2           O0  tau(   2) = (   0.0000000   0.5339875   1.7988227  )
         3           Cr1 tau(   3) = (   0.2500000   0.5339875   2.0328097  )
         4           Cr1 tau(   4) = (   0.0000000   0.0000000   2.0275709  )
         5           O0  tau(   5) = (   0.2500000   0.8543801   2.0282935  )
         6           O0  tau(   6) = (   0.2500000   0.2135950   2.0286548  )
         7           O0  tau(   7) = (   0.0000000   0.5339875   2.2485510  )
         8           O0  tau(   8) = (   0.0000000   0.0000000   2.3656574  )
         9           Cr1 tau(   9) = (   0.2500000   0.0000000   2.5743985  )
        10           Cr1 tau(  10) = (   0.0000000   0.5339875   2.5599917  )
        11           O0  tau(  11) = (   0.2500000   0.7475825   2.5934119  )
        12           O0  tau(  12) = (   0.2500000   0.3203925   2.5997347  )
        13           O0  tau(  13) = (   0.0000000   0.0000000   2.7981336  )
        14           O0  tau(  14) = (   0.5000000   0.0000000   1.6991491  )
        15           O0  tau(  15) = (   0.5000000   0.5339875   1.7990486  )
        16           Cr1 tau(  16) = (   0.7500000   0.5339875   2.0328097  )
        17           Cr1 tau(  17) = (   0.5000000   0.0000000   2.0270289  )
        18           O0  tau(  18) = (   0.7500000   0.8543801   2.0283386  )
        19           O0  tau(  19) = (   0.7500000   0.2135950   2.0284741  )
        20           O0  tau(  20) = (   0.5000000   0.5339875   2.2538802  )
        21           O0  tau(  21) = (   0.5000000   0.0000000   2.3659284  )
        22           Cr1 tau(  22) = (   0.7500000   0.0000000   2.6301742  )
        23           Cr1 tau(  23) = (   0.5000000   0.5339875   2.5963023  )
        24           O0  tau(  24) = (   0.7500000   0.7475825   2.6029864  )
        25           O0  tau(  25) = (   0.7500000   0.3203925   2.6079994  )
        26           O0  tau(  26) = (   0.5000000   0.0000000   2.7947464  )
        27           H2  tau(  27) = (  -0.0004400   0.6830662   1.7159495  )
        28           H2  tau(  28) = (   0.4995900   0.6843905   1.7183883  )
        29           H2  tau(  29) = (   0.1585100   0.0313237   1.6440508  )
        30           H2  tau(  30) = (   0.6580500   0.0321460   1.6427411  )
        31           O0  tau(  31) = (   0.4998600   0.5819823   2.9427439  )
        32           O0  tau(  32) = (   0.5002200   0.3805088   3.0731733  )
        33           H2  tau(  33) = (   0.4998900   0.4423660   3.2323711  )

     number of k points=    20  Methfessel-Paxton smearing, width (Ry)=  0.0100
                       cart. coord. in units 2pi/alat
        k(    1) = (   0.0000000   0.0000000   0.0000000), wk =   0.0625000
        k(    2) = (   0.0000000   0.2340879   0.0000000), wk =   0.1250000
        k(    3) = (   0.0000000  -0.4681757   0.0000000), wk =   0.0625000
        k(    4) = (   0.2500000   0.0000000   0.0000000), wk =   0.1250000
        k(    5) = (   0.2500000   0.2340879   0.0000000), wk =   0.1250000
        k(    6) = (   0.2500000  -0.4681757   0.0000000), wk =   0.1250000
        k(    7) = (  -0.5000000   0.0000000   0.0000000), wk =   0.0625000
        k(    8) = (  -0.5000000   0.2340879   0.0000000), wk =   0.1250000
        k(    9) = (  -0.5000000  -0.4681757   0.0000000), wk =   0.0625000
        k(   10) = (  -0.2500000   0.2340879   0.0000000), wk =   0.1250000
        k(   11) = (   0.0000000   0.0000000   0.0000000), wk =   0.0625000
        k(   12) = (   0.0000000   0.2340879   0.0000000), wk =   0.1250000
        k(   13) = (   0.0000000  -0.4681757   0.0000000), wk =   0.0625000
        k(   14) = (   0.2500000   0.0000000   0.0000000), wk =   0.1250000
        k(   15) = (   0.2500000   0.2340879   0.0000000), wk =   0.1250000
        k(   16) = (   0.2500000  -0.4681757   0.0000000), wk =   0.1250000
        k(   17) = (  -0.5000000   0.0000000   0.0000000), wk =   0.0625000
        k(   18) = (  -0.5000000   0.2340879   0.0000000), wk =   0.1250000
        k(   19) = (  -0.5000000  -0.4681757   0.0000000), wk =   0.0625000
        k(   20) = (  -0.2500000   0.2340879   0.0000000), wk =   0.1250000

     Largest allocated arrays     est. size (Mb)     dimensions
     Largest temporary arrays     est. size (Mb)     dimensions

     Check: negative/imaginary core charge=   -0.000012    0.000000

     Initial potential from superposition of free atoms
     Check: negative starting charge=(component1):   -0.001293
     Check: negative starting charge=(component2):   -0.000448

     starting charge  228.99983, renormalised to  237.00000

     negative rho (up, down):  0.134E-02 0.464E-03
     Number of +U iterations with fixed ns =  0
     Starting occupations:
 --- enter write_ns ---
 LDA+U parameters:
U( 2)     =  4.00000000
alpha( 2) =  0.00000000
atom    3   Tr[ns(na)] (up, down, total) =   5.00000  0.00000  5.00000
   spin  1
    eigenvalues:
  1.000  1.000  1.000  1.000  1.000
    eigenvectors:
  1.000  0.000  0.000  0.000  0.000
  0.000  1.000  0.000  0.000  0.000
  0.000  0.000  1.000  0.000  0.000
  0.000  0.000  0.000  1.000  0.000
  0.000  0.000  0.000  0.000  1.000
    occupations:
  1.000  0.000  0.000  0.000  0.000
  0.000  1.000  0.000  0.000  0.000
  0.000  0.000  1.000  0.000  0.000
  0.000  0.000  0.000  1.000  0.000
  0.000  0.000  0.000  0.000  1.000
   spin  2
    eigenvalues:
  0.000  0.000  0.000  0.000  0.000
    eigenvectors:
  1.000  0.000  0.000  0.000  0.000
  0.000  1.000  0.000  0.000  0.000
  0.000  0.000  1.000  0.000  0.000
  0.000  0.000  0.000  1.000  0.000
  0.000  0.000  0.000  0.000  1.000
    occupations:
  0.000  0.000  0.000  0.000  0.000
  0.000  0.000  0.000  0.000  0.000
  0.000  0.000  0.000  0.000  0.000
  0.000  0.000  0.000  0.000  0.000
  0.000  0.000  0.000  0.000  0.000
atomic mag. moment =     5.000000
atom    4   Tr[ns(na)] (up, down, total) =   5.00000  0.00000  5.00000
   spin  1
    eigenvalues:
  1.000  1.000  1.000  1.000  1.000
    eigenvectors:
  1.000  0.000  0.000  0.000  0.000
  0.000  1.000  0.000  0.000  0.000
  0.000  0.000  1.000  0.000  0.000
  0.000  0.000  0.000  1.000  0.000
  0.000  0.000  0.000  0.000  1.000
    occupations:
  1.000  0.000  0.000  0.000  0.000
  0.000  1.000  0.000  0.000  0.000
  0.000  0.000  1.000  0.000  0.000
  0.000  0.000  0.000  1.000  0.000
  0.000  0.000  0.000  0.000  1.000
   spin  2
    eigenvalues:
  0.000  0.000  0.000  0.000  0.000
    eigenvectors:
  1.000  0.000  0.000  0.000  0.000
  0.000  1.000  0.000  0.000  0.000
  0.000  0.000  1.000  0.000  0.000
  0.000  0.000  0.000  1.000  0.000
  0.000  0.000  0.000  0.000  1.000
    occupations:
  0.000  0.000  0.000  0.000  0.000
  0.000  0.000  0.000  0.000  0.000
  0.000  0.000  0.000  0.000  0.000
  0.000  0.000  0.000  0.000  0.000
  0.000  0.000  0.000  0.000  0.000
[...]
  0.223  0.000  0.003  0.006  0.768
  0.000  0.989  0.009  0.002  0.000
    occupations:
  0.147 -0.002 -0.003  0.114  0.000
 -0.002  0.328  0.000 -0.002  0.010
 -0.003  0.000  0.120  0.007 -0.002
  0.114 -0.002  0.007  0.297  0.000
  0.000  0.010 -0.002  0.000  0.104
atomic mag. moment =     2.621463
atom    4   Tr[ns(na)] (up, down, total) =   3.56943  1.05299  4.62242
   spin  1
    eigenvalues:
  0.489  0.535  0.642  0.915  0.989
    eigenvectors:
  0.002  0.992  0.000  0.001  0.005
  0.000  0.001  0.011  0.987  0.000
  0.000  0.000  0.989  0.011  0.000
  0.000  0.005  0.000  0.000  0.995
  0.998  0.002  0.000  0.000  0.000
    occupations:
  0.537 -0.012 -0.001  0.032  0.002
 -0.012  0.912  0.029  0.002  0.000
 -0.001  0.029  0.645  0.001 -0.001
  0.032  0.002  0.001  0.986  0.000
  0.002  0.000 -0.001  0.000  0.489
   spin  2
    eigenvalues:
  0.092  0.110  0.131  0.354  0.366
    eigenvectors:
  0.004  0.002  0.000  0.006  0.989
  0.003  0.942  0.053  0.000  0.002
  0.000  0.053  0.947  0.000  0.000
  0.993  0.004  0.000  0.000  0.003
  0.000  0.000  0.000  0.994  0.006
    occupations:
  0.365  0.011  0.002 -0.016  0.001
  0.011  0.111 -0.005  0.000  0.000
  0.002 -0.005  0.130  0.000  0.000
 -0.016  0.000  0.000  0.093  0.000
  0.001  0.000  0.000  0.000  0.354
atomic mag. moment =     2.516431
atom    9   Tr[ns(na)] (up, down, total) =   3.58583  1.07871  4.66454
   spin  1
    eigenvalues:
  0.507  0.518  0.673  0.901  0.987
    eigenvectors:
  0.006  0.179  0.000  0.000  0.815
  0.967  0.032  0.000  0.000  0.000
  0.000  0.000  0.995  0.005  0.000
  0.026  0.788  0.000  0.000  0.185
  0.000  0.000  0.005  0.995  0.000
    occupations:
  0.900  0.001  0.000 -0.182  0.000
  0.001  0.507  0.002  0.002  0.000
  0.000  0.002  0.674 -0.001 -0.016
 -0.182  0.002 -0.001  0.605  0.002
  0.000  0.000 -0.016  0.002  0.900
   spin  2
    eigenvalues:
  0.100  0.123  0.131  0.356  0.369
    eigenvectors:
  0.806  0.000  0.000  0.000  0.194
  0.000  0.000  0.000  1.000  0.000
  0.000  0.018  0.981  0.000  0.000
  0.194  0.000  0.000  0.000  0.806
  0.000  0.982  0.018  0.000  0.000
    occupations:
  0.152  0.001  0.001  0.106  0.000
  0.001  0.356  0.000  0.000  0.000
  0.001  0.000  0.131  0.003  0.001
  0.106  0.000  0.003  0.317  0.000
  0.000  0.000  0.001  0.000  0.123
atomic mag. moment =     2.507125
atom   10   Tr[ns(na)] (up, down, total) =   3.68416  0.91732  4.60148
   spin  1
    eigenvalues:
  0.479  0.494  0.816  0.908  0.987
    eigenvectors:
  0.000  0.997  0.000  0.001  0.003
  0.000  0.001  0.001  0.978  0.020
  0.000  0.000  0.999  0.000  0.000
  0.000  0.002  0.000  0.021  0.977
  1.000  0.000  0.000  0.000  0.000
    occupations:
  0.496 -0.013  0.001  0.025  0.000
 -0.013  0.909 -0.002 -0.010 -0.006
  0.001 -0.002  0.816  0.003  0.005
  0.025 -0.010  0.003  0.984  0.000
  0.000 -0.006  0.005  0.000  0.479
   spin  2
    eigenvalues:
  0.084  0.118  0.119  0.264  0.333
    eigenvectors:
  0.008  0.000  0.000  0.992  0.000
  0.001  0.304  0.694  0.000  0.000
  0.000  0.695  0.304  0.000  0.000
  0.990  0.000  0.001  0.008  0.000
  0.000  0.001  0.000  0.000  0.999
    occupations:
  0.262  0.000 -0.001 -0.016  0.000
  0.000  0.118  0.000  0.001  0.003
 -0.001  0.000  0.118 -0.001  0.004
 -0.016  0.001 -0.001  0.086  0.000
  0.000  0.003  0.004  0.000  0.333
atomic mag. moment =     2.766834
atom   16   Tr[ns(na)] (up, down, total) =   3.61535  0.99836  4.61372
   spin  1
    eigenvalues:
  0.463  0.508  0.712  0.945  0.988
    eigenvectors:
  0.003  0.222  0.002  0.000  0.773
  0.987  0.013  0.000  0.000  0.000
  0.000  0.000  0.992  0.005  0.003
  0.010  0.765  0.001  0.000  0.224
  0.000  0.000  0.005  0.994  0.000
    occupations:
  0.879  0.004  0.013 -0.201  0.002
  0.004  0.463  0.002  0.004 -0.009
  0.013  0.002  0.714 -0.007 -0.016
 -0.201  0.004 -0.007  0.615  0.000
  0.002 -0.009 -0.016  0.000  0.944
   spin  2
    eigenvalues:
  0.084  0.104  0.121  0.329  0.360
    eigenvectors:
  0.752  0.000  0.022  0.002  0.224
  0.000  0.002  0.000  0.990  0.008
  0.026  0.010  0.964  0.000  0.000
  0.223  0.000  0.003  0.006  0.767
  0.000  0.988  0.010  0.002  0.000
    occupations:
  0.147  0.002 -0.003  0.115  0.000
  0.002  0.329  0.000  0.002  0.010
 -0.003  0.000  0.120  0.007  0.002
  0.115  0.002  0.007  0.297  0.000
  0.000  0.010  0.002  0.000  0.105
atomic mag. moment =     2.616990
atom   17   Tr[ns(na)] (up, down, total) =   3.58886  1.03308  4.62194
   spin  1
    eigenvalues:
  0.483  0.530  0.680  0.907  0.988
    eigenvectors:
  0.002  0.993  0.000  0.001  0.004
  0.000  0.001  0.013  0.986  0.000
  0.000  0.000  0.987  0.012  0.000
  0.000  0.004  0.000  0.000  0.996
  0.998  0.002  0.000  0.000  0.000
    occupations:
  0.533 -0.013 -0.003  0.030  0.002
 -0.013  0.904  0.025  0.001  0.000
 -0.003  0.025  0.683  0.000  0.002
  0.030  0.001  0.000  0.986  0.000
  0.002  0.000  0.002  0.000  0.483
   spin  2
    eigenvalues:
  0.090  0.107  0.126  0.349  0.360
    eigenvectors:
  0.004  0.002  0.000  0.005  0.988
  0.005  0.922  0.071  0.000  0.002
  0.001  0.070  0.929  0.000  0.000
  0.990  0.006  0.000  0.000  0.004
  0.000  0.000  0.000  0.995  0.005
    occupations:
  0.359  0.012  0.002 -0.017  0.001
  0.012  0.109 -0.005  0.000  0.000
  0.002 -0.005  0.125  0.000  0.000
 -0.017  0.000  0.000  0.091  0.000
  0.001  0.000  0.000  0.000  0.349
atomic mag. moment =     2.555776
atom   22   Tr[ns(na)] (up, down, total) =   3.33700  1.41968  4.75668
   spin  1
    eigenvalues:
  0.552  0.567  0.592  0.791  0.835
    eigenvectors:
  0.639  0.000  0.360  0.000  0.000
  0.000  0.999  0.001  0.000  0.000
  0.000  0.000  0.000  0.047  0.953
  0.360  0.000  0.639  0.000  0.000
  0.000  0.000  0.000  0.953  0.047
    occupations:
  0.566  0.000  0.002 -0.019  0.002
  0.000  0.567  0.001  0.000  0.000
  0.002  0.001  0.833 -0.001  0.009
 -0.019  0.000 -0.001  0.577  0.000
  0.002  0.000  0.009  0.000  0.793
   spin  2
    eigenvalues:
  0.159  0.192  0.220  0.423  0.425
    eigenvectors:
  0.000  0.000  0.938  0.050  0.011
  0.000  0.000  0.000  0.159  0.841
  0.998  0.002  0.000  0.000  0.000
  0.000  0.000  0.061  0.791  0.148
  0.002  0.998  0.000  0.000  0.000
    occupations:
  0.232 -0.002  0.000  0.049  0.000
 -0.002  0.425  0.000  0.000  0.000
  0.000  0.000  0.159  0.002 -0.001
  0.049  0.000  0.002  0.411  0.000
  0.000  0.000 -0.001  0.000  0.192
atomic mag. moment =     1.917327
atom   23   Tr[ns(na)] (up, down, total) =   3.69984  0.89683  4.59667
   spin  1
    eigenvalues:
  0.462  0.468  0.876  0.915  0.978
    eigenvectors:
  0.996  0.002  0.000  0.002  0.000
  0.000  0.000  0.990  0.001  0.008
  0.002  0.000  0.001  0.997  0.000
  0.000  0.000  0.008  0.000  0.991
  0.002  0.998  0.000  0.000  0.000
    occupations:
  0.464  0.005  0.019  0.011  0.000
  0.005  0.877  0.001  0.009 -0.008
  0.019  0.001  0.914 -0.001  0.000
  0.011  0.009 -0.001  0.977  0.000
  0.000 -0.008  0.000  0.000  0.468
   spin  2
    eigenvalues:
  0.083  0.086  0.102  0.289  0.337
    eigenvectors:
  0.002  0.006  0.000  0.992  0.000
  0.000  0.006  0.994  0.000  0.000
  0.996  0.003  0.000  0.001  0.000
  0.002  0.985  0.006  0.007  0.000
  0.000  0.000  0.000  0.000  0.999
    occupations:
  0.287  0.002 -0.008 -0.017  0.000
  0.002  0.102  0.000 -0.001  0.003
 -0.008  0.000  0.084  0.001 -0.005
 -0.017 -0.001  0.001  0.087  0.000
  0.000  0.003 -0.005  0.000  0.337
atomic mag. moment =     2.803004
N of occupied +U levels =  37.0911155
 --- exit write_ns ---

 ------ SPIN UP ------------

[...]

 ------ SPIN DOWN ----------

[...]

          k = 0.2500-0.4682 0.0000 ( 27150 PWs)   bands (ev):

[...]

          k =-0.2500 0.2341 0.0000 ( 27132 PWs)   bands (ev):

   -72.9416 -71.7748 -71.7203 -71.6569 -71.5841 -71.5642 -71.5453 -71.2367
   -44.5475 -44.3476 -43.9853 -43.3827 -43.3192 -43.2271 -43.1964 -43.1826
   -43.1495 -43.1312 -43.0709 -43.0661 -43.0053 -42.9773 -42.8989 -42.8759
   -42.8624 -42.8264 -42.7481 -42.7086 -42.7001 -42.6336 -42.5720 -42.4872
   -25.1559 -20.4171 -20.0487 -19.8455 -19.7987 -19.5655 -19.4287 -19.3485
   -19.3251 -19.2200 -19.1128 -19.0215 -18.9491 -18.9398 -18.9021 -18.8222
   -18.7132 -18.6476 -18.6321 -17.8116  -9.6555  -8.0284  -7.8226  -7.6404
    -7.3609  -7.2022  -7.1252  -7.0665  -6.7628  -6.6522  -6.5729  -6.5405
    -6.4203  -6.2885  -6.1905  -6.1618  -6.0494  -6.0044  -5.8859  -5.8482
    -5.7168  -5.5664  -5.5353  -5.4669  -5.3550  -5.1241  -5.0713  -4.9519
    -4.8317  -4.7965  -4.6192  -4.5754  -4.5523  -4.4849  -4.4225  -4.3306
    -4.2962  -4.2403  -4.1603  -4.0863  -3.9568  -3.8477  -3.6283  -3.5919
    -3.5101  -3.4631  -3.3672  -3.3298  -3.2684  -3.2235  -3.1727  -3.0580
    -2.9669  -2.9014  -2.8170  -2.6376  -2.5629  -2.4823  -2.3626   1.2695
     1.5130   1.5531   1.9121   1.9559   2.0580   2.1192   2.1434   2.2204
     2.2473   2.3601   2.4171   2.4672   2.5199   2.5815   2.6257   2.6531
     2.7199   2.7963   2.8386   2.9163   2.9654   3.0329   3.0944   3.1449
     3.1830   3.2676   3.2880   3.4011   3.5107   3.5823   3.7461   3.7997
     3.8677   3.9262   4.0568   4.1164   4.1825   4.2332   4.3473   4.4712
     4.5586   4.6265   4.7880   4.8923   5.1654   5.4908   5.6915   6.0935
     6.1974   6.3232   6.4357   6.5313   6.8021   6.9189   7.1487   7.4055
     7.5652   7.7235   7.9126   8.1334   8.2582   8.3562   8.4617   8.6482
     8.6899   8.9408   9.0740   9.2640   9.3940   9.4955   9.5771   9.7757
     9.8919   9.9635  10.0721  10.1161  10.1644  10.3823  10.4200  10.4841
    10.5742  10.6885  10.7688  10.9248  11.0475  11.1168  11.2457  11.3338
    11.4192  11.5266  11.6158  11.7655  11.8431  11.9203  12.0473  12.0842
    12.1249  12.2801  12.3609  12.4102  12.4680  12.5856  12.6839  12.7032
    12.8280  12.8685  13.0263  13.0966  13.1839  13.2667  13.3251  13.4395
    13.5001  13.5413  13.6229  13.6801  13.7920  13.8616  13.9470  14.0364
    14.1375  14.1973  14.2655  14.3047  14.3824  14.4593  14.5065  14.5693
    14.7592  14.8438  14.9007  14.9613  15.0843  15.1938  15.2273  15.2762
    15.3645  15.4652  15.5441  15.6276  15.7137  15.7939  15.8277  15.9082
    15.9907  16.0450  16.0930  16.1534  16.1797  16.2383  16.2842  16.3649
    16.4889  16.5464  16.5965  16.6811  16.7683  16.8134  16.9210  16.9715
    17.0262  17.1417  17.1949  17.2731  17.3034  17.3434  17.4614  17.4794
    17.5223  17.5576  17.7393  17.7548  17.8317  17.8636  17.9485  18.0134
    18.0490  18.1630  18.2108  18.3036  18.4135  18.4843  18.5040  18.5623
    18.6196  18.6987  18.7926  18.8724  18.9024  19.0151  19.0422  19.1155
    19.1695  19.2799  19.3659  19.3941  19.4467  19.4945  19.5592  19.6783
    19.7224  19.8062  19.8696  19.9193  20.0296  20.1626  20.1893  20.3053
    20.3366  20.4023  20.5036  20.5907  20.6862  20.8480  20.8892  20.9713
    21.0474  21.0875  21.1866  21.2165  21.3161  21.3919  21.4382  21.5394
    21.6197  21.7293  21.7637  21.8718  21.9323  21.9935  22.0451

     the spin up/dw Fermi energies are    -1.2450   -2.1882 ev

!    total energy              =   -2057.08221257 Ry
     Harris-Foulkes estimate   =   -2057.08221257 Ry
     estimated scf accuracy    <          3.7E-09 Ry

     The total energy is the sum of the following terms:

     one-electron contribution =  -24366.92894095 Ry
     hartree contribution      =   12211.27544715 Ry
     xc contribution           =    -330.11082430 Ry
     ewald contribution        =   10426.84057293 Ry
     Hubbard energy            =       1.84177832 Ry
     smearing contrib. (-TS)   =      -0.00024572 Ry

     total magnetization       =    15.00 Bohr mag/cell
     absolute magnetization    =    25.78 Bohr mag/cell

     convergence has been achieved in  20 iterations

     Forces acting on atoms (Ry/au):

     negative rho (up, down):  0.502E-02 0.173E-02
     atom    1 type  1   force =    -0.00359413   -0.01141132   -0.00009784
     atom    2 type  1   force =    -0.00022930    0.00488152   -0.00018915
     atom    3 type  2   force =     0.02843061    0.00035147   -0.00012861
     atom    4 type  2   force =     0.00186414    0.00645830   -0.00000169
     atom    5 type  1   force =    -0.00211622    0.00633645    0.00005038
     atom    6 type  1   force =    -0.00073661   -0.00470939    0.00004615
     atom    7 type  1   force =     0.00082593   -0.00382662   -0.00007884
     atom    8 type  1   force =    -0.02118987    0.00151492   -0.00028080
     atom    9 type  2   force =     0.00368591   -0.00050121   -0.00015498
     atom   10 type  2   force =    -0.00083022    0.00003187    0.00034448
     atom   11 type  1   force =    -0.02824524   -0.02269210    0.00016195
     atom   12 type  1   force =    -0.02267302    0.02885831   -0.00021441
     atom   13 type  1   force =    -0.03239539   -0.00200516    0.00021404
     atom   14 type  1   force =    -0.00656618   -0.01208105   -0.00004284
     atom   15 type  1   force =     0.00027363    0.00527832   -0.00033171
     atom   16 type  2   force =    -0.03027320    0.00077668   -0.00032691
     atom   17 type  2   force =     0.00706690    0.00666567   -0.00005061
     atom   18 type  1   force =     0.00260493    0.00533350    0.00007156
     atom   19 type  1   force =     0.00349030   -0.00432038    0.00005662
     atom   20 type  1   force =     0.00181774   -0.00443290    0.00096290
     atom   21 type  1   force =     0.01586399    0.00231443   -0.00019406
     atom   22 type  2   force =     0.01426970   -0.00271181   -0.00028459
     atom   23 type  2   force =    -0.00374189   -0.00673354   -0.00033831
     atom   24 type  1   force =     0.02692211   -0.01826242   -0.00002549
     atom   25 type  1   force =     0.02163351    0.02842830   -0.00048700
     atom   26 type  1   force =     0.02548800   -0.00637081    0.00017194
     atom   27 type  3   force =    -0.00002007    0.00031665    0.00020080
     atom   28 type  3   force =     0.00000298    0.00045877    0.00025276
     atom   29 type  3   force =     0.00009668    0.00000988    0.00011864
     atom   30 type  3   force =     0.00010542    0.00006255    0.00017122
     atom   31 type  1   force =    -0.00267066    0.00075284    0.00029034
     atom   32 type  1   force =     0.00082822    0.00045674   -0.00055282
     atom   33 type  3   force =     0.00001131    0.00077154    0.00066689

     Total force =     0.002181     Total SCF correction =     0.000194

     bfgs converged in  12 scf cycles and  11 bfgs steps
     (criteria: energy < 0.10E-03, force < 0.10E-02)

     End of BFGS Geometry Optimization

     Final energy   =   -2057.0822125724 Ry
Begin final coordinates

ATOMIC_POSITIONS (crystal)
O0       0.000000000   0.000000000   0.376652959    0   0   1
O0       0.000000000   0.500000000   0.397970348    0   0   1
Cr1      0.250000000   0.500000000   0.449956214    0   0   1
Cr1      0.000000000   0.000000000   0.449072482    0   0   1
O0       0.250000000   0.800000000   0.449208208    0   0   1
O0       0.250000000   0.200000000   0.449291177    0   0   1
O0       0.000000000   0.500000000   0.497655281    0   0   1
O0       0.000000000   0.000000000   0.523872968    0   0   1
Cr1      0.250000000   0.000000000   0.570209855    0   0   1
Cr1      0.000000000   0.500000000   0.566569655    0   0   1
O0       0.250000000   0.700000000   0.574050555    0   0   1
O0       0.250000000   0.300000000   0.575634458    0   0   1
O0       0.000000000   0.000000000   0.619858214    0   0   1
O0       0.500000000   0.000000000   0.376332833    0   0   1
O0       0.500000000   0.500000000   0.398042447    0   0   1
Cr1      0.750000000   0.500000000   0.449951677    0   0   1
Cr1      0.500000000   0.000000000   0.448953954    0   0   1
O0       0.750000000   0.800000000   0.449239765    0   0   1
O0       0.750000000   0.200000000   0.449266208    0   0   1
O0       0.500000000   0.500000000   0.499073144    0   0   1
O0       0.500000000   0.000000000   0.523941562    0   0   1
Cr1      0.750000000   0.000000000   0.582703294    0   0   1
Cr1      0.500000000   0.500000000   0.574922019    0   0   1
O0       0.750000000   0.700000000   0.576256271    0   0   1
O0       0.750000000   0.300000000   0.577631147    0   0   1
O0       0.500000000   0.000000000   0.619143997    0   0   1
H2      -0.000588481   0.637649207   0.378826854
H2       0.499548723   0.638879832   0.379357761
H2       0.158875940   0.027850735   0.364212640
H2       0.658142895   0.029369218   0.363809073
O0       0.499860000   0.544189402   0.651667649    0   1   1
O0       0.500220000   0.357523551   0.681335101    0   1   1
H2       0.499890000   0.419762084   0.716130230    0   1   1
End final coordinates

     General routines

     Parallel routines
     Hubbard U routines

   This run was terminated on:   8:32:21  13Aug2014

   JOB DONE.