     Program PWSCF v.5.0.2 (svn rev. 9656) starts on 28Apr2014 at  3:19: 2

     Current dimensions of program PWSCF are:
     Max number of different atomic species (ntypx) = 10
     Max number of k-points (npk) =  40000
     Max angular momentum in pseudopotentials (lmaxx) =  3
     Reading input from pwscf.in
Warning: card &CELL ignored
Warning: card / ignored

     Subspace diagonalization in iterative solution of the eigenvalue problem:
     a serial algorithm will be used

     bravais-lattice index     =            0
     lattice parameter (alat)  =      12.2076  a.u.
     unit-cell volume          =    7496.5096 (a.u.)^3
     number of atoms/cell      =           32
     number of atomic types    =            3
     number of electrons       =       247.00
     number of Kohn-Sham states=          370
     kinetic-energy cutoff     =      40.0000  Ry
     charge density cutoff     =     500.0000  Ry
     convergence threshold     =      1.0E-06
     mixing beta               =       0.7000
     number of iterations used =            8  plain     mixing
     Exchange-correlation      = SLA  PW   PBE  PBE ( 1 4 3 4 0)
     EXX-fraction              =        0.00
     nstep                     =           50

     celldm(1)=  12.207631  celldm(2)=   0.000000  celldm(3)=   0.000000
     celldm(4)=   0.000000  celldm(5)=   0.000000  celldm(6)=   0.000000

     crystal axes: (cart. coord. in units of alat)
               a(1) = (   1.000000   0.000000   0.000000 )
               a(2) = (   0.000000   1.004836   0.000000 )
               a(3) = (   0.000000   0.000000   4.100811 )

     reciprocal axes: (cart. coord. in units 2 pi/alat)
               b(1) = (  1.000000  0.000000  0.000000 )
               b(2) = (  0.000000  0.995187  0.000000 )
               b(3) = (  0.000000  0.000000  0.243854 )

     PseudoPot. # 1 for O  read from file:
     /home/camp/zhonxu/pseudo/o_pbe_v1.01.uspp.F.UPF
     MD5 check sum: 2bcb18d16ea4b960afae9ec6d52f22d2
     Pseudo is Ultrasoft + core correction, Zval =  6.0
     Generated by new atomic code, or converted to UPF format
     Using radial grid of  737 points,  5 beta functions with:
                l(1) =   0
                l(2) =   0
                l(3) =   1
                l(4) =   1
                l(5) =   2
     Q(r) pseudized with  8 coefficients,  rinner =    0.900   0.900   0.900
                                                       0.900   0.900

     PseudoPot. # 2 for Pt read from file:
     /home/camp/zhonxu/pseudo/pt_pbe_v1.uspp.F.UPF
     MD5 check sum: 4c71d6ad5ef119f1eb26a4d0b7884226
     Pseudo is Ultrasoft + core correction, Zval = 16.0
     Generated by new atomic code, or converted to UPF format
     Using radial grid of  985 points,  6 beta functions with:
                l(1) =   0
                l(2) =   0
                l(3) =   1
                l(4) =   1
                l(5) =   2
                l(6) =   2
     Q(r) pseudized with  8 coefficients,  rinner =    1.300   1.300   1.300
                                                       1.300   1.300

     PseudoPot. # 3 for H  read from file:
     /home/camp/zhonxu/pseudo/h_pbe_v1.uspp.F.UPF
     MD5 check sum: 3408e3ff4ec8b0a4e358431e7e038a48
     Pseudo is Ultrasoft, Zval =  1.0
     Generated by new atomic code, or converted to UPF format
     Using radial grid of  615 points,  2 beta functions with:
                l(1) =   0
                l(2) =   0
     Q(r) pseudized with  8 coefficients,  rinner =    0.700

     atomic species   valence    mass     pseudopotential
        O0             6.00    15.99940     O ( 1.00)
        Pt1           16.00   195.08000     Pt( 1.00)
        H2             1.00     1.00794     H ( 1.00)

     Simplified LDA+U calculation (l_max = 2) with parameters (eV):
     atomic species    L          U    alpha       J0     beta
        Pt1            2     0.5000   0.0000   0.0000   0.0000

     No symmetry found

   Cartesian axes

     site n.     atom                  positions (alat units)
         1           O0  tau(   1) = (   0.0000000   0.0000000   1.5486303  )
         2           O0  tau(   2) = (   0.0000000   0.5024180   1.6456145  )
         3           Pt1 tau(   3) = (   0.2500000   0.5024180   1.8492198  )
         4           Pt1 tau(   4) = (   0.0000000   0.0000000   1.8561502  )
         5           O0  tau(   5) = (   0.2500000   0.8139171   1.8185047  )
         6           O0  tau(   6) = (   0.2500000   0.1909188   1.8850199  )
         7           O0  tau(   7) = (   0.0000000   0.5024180   2.0364218  )
         8           O0  tau(   8) = (   0.0000000   0.0000000   2.1712565  )
         9           Pt1 tau(   9) = (   0.2500000   0.0000000   2.3611651  )
        10           Pt1 tau(  10) = (   0.0000000   0.5024180   2.3568182  )
        11           O0  tau(  11) = (   0.2500000   0.6933368   2.3352889  )
        12           O0  tau(  12) = (   0.2500000   0.3114991   2.3978263  )
        13           O0  tau(  13) = (   0.0000000   0.0000000   2.5469728  )
        14           O0  tau(  14) = (   0.5000000   0.0000000   1.5487944  )
        15           O0  tau(  15) = (   0.5000000   0.5024180   1.6432360  )
        16           Pt1 tau(  16) = (   0.7500000   0.5024180   1.8492608  )
        17           Pt1 tau(  17) = (   0.5000000   0.0000000   1.8561092  )
        18           O0  tau(  18) = (   0.7500000   0.8139171   1.8183407  )
        19           O0  tau(  19) = (   0.7500000   0.1909188   1.8850199  )
        20           O0  tau(  20) = (   0.5000000   0.5024180   2.0398255  )
        21           O0  tau(  21) = (   0.5000000   0.0000000   2.1711335  )
        22           Pt1 tau(  22) = (   0.7500000   0.0000000   2.3611651  )
        23           Pt1 tau(  23) = (   0.5000000   0.5024180   2.3633795  )
        24           O0  tau(  24) = (   0.7500000   0.6933368   2.3343868  )
        25           O0  tau(  25) = (   0.7500000   0.3114991   2.3965141  )
        26           O0  tau(  26) = (   0.5000000   0.0000000   2.5473419  )
        27           H2  tau(  27) = (   0.0000800   0.6431151   1.5815188  )
        28           H2  tau(  28) = (   0.4999900   0.6432457   1.5795915  )
        29           H2  tau(  29) = (   0.1433600   0.0342348   1.5075812  )
        30           H2  tau(  30) = (   0.6432100   0.0348377   1.5077042  )
        31           O0  tau(  31) = (   0.5002800   0.5276996   2.6647891  )
        32           H2  tau(  32) = (   0.4897800   0.3840985   2.7162543  )

     number of k points=    10  Methfessel-Paxton smearing, width (Ry)=  0.0100
                       cart. coord. in units 2pi/alat
        k(    1) = (   0.0000000   0.0000000   0.0000000), wk =   0.1250000
        k(    2) = (   0.0000000   0.2487968   0.0000000), wk =   0.2500000
        k(    3) = (   0.0000000  -0.4975937   0.0000000), wk =   0.1250000
        k(    4) = (   0.2500000   0.0000000   0.0000000), wk =   0.2500000
        k(    5) = (   0.2500000   0.2487968   0.0000000), wk =   0.2500000
        k(    6) = (   0.2500000  -0.4975937   0.0000000), wk =   0.2500000
        k(    7) = (  -0.5000000   0.0000000   0.0000000), wk =   0.1250000
        k(    8) = (  -0.5000000   0.2487968   0.0000000), wk =   0.2500000
        k(    9) = (  -0.5000000  -0.4975937   0.0000000), wk =   0.1250000
        k(   10) = (  -0.2500000   0.2487968   0.0000000), wk =   0.2500000

     Largest allocated arrays     est. size (Mb)     dimensions
     Largest temporary arrays     est. size (Mb)     dimensions

     Check: negative/imaginary core charge=   -0.000003    0.000000

     Initial potential from superposition of free atoms
     Check: negative starting charge=   -1.535574

     starting charge  242.99984, renormalised to  247.00000

     negative rho (up, down):  0.156E+01 0.000E+00
     Number of +U iterations with fixed ns =  0
     Starting occupations:
 --- enter write_ns ---
 LDA+U parameters:
U( 2)     =  0.50000000
alpha( 2) =  0.00000000
atom    3   Tr[ns(na)] =   8.00000
    eigenvalues:
  0.800  0.800  0.800  0.800  0.800
    eigenvectors:
  1.000  0.000  0.000  0.000  0.000
  0.000  1.000  0.000  0.000  0.000
  0.000  0.000  1.000  0.000  0.000
  0.000  0.000  0.000  1.000  0.000
  0.000  0.000  0.000  0.000  1.000
    occupations:
  0.800  0.000  0.000  0.000  0.000
  0.000  0.800  0.000  0.000  0.000
  0.000  0.000  0.800  0.000  0.000
  0.000  0.000  0.000  0.800  0.000
  0.000  0.000  0.000  0.000  0.800
atom    4   Tr[ns(na)] =   8.00000
    eigenvalues:
  0.800  0.800  0.800  0.800  0.800
    eigenvectors:
  1.000  0.000  0.000  0.000  0.000
  0.000  1.000  0.000  0.000  0.000
  0.000  0.000  1.000  0.000  0.000
  0.000  0.000  0.000  1.000  0.000
  0.000  0.000  0.000  0.000  1.000
    occupations:
  0.800  0.000  0.000  0.000  0.000
  0.000  0.800  0.000  0.000  0.000
  0.000  0.000  0.800  0.000  0.000
  0.000  0.000  0.000  0.800  0.000
  0.000  0.000  0.000  0.000  0.800
atom    9   Tr[ns(na)] =   8.00000
    eigenvalues:
  0.800  0.800  0.800  0.800  0.800
    eigenvectors:
  1.000  0.000  0.000  0.000  0.000
  0.000  1.000  0.000  0.000  0.000
  0.000  0.000  1.000  0.000  0.000
  0.000  0.000  0.000  1.000  0.000
  0.000  0.000  0.000  0.000  1.000
    occupations:
  0.800  0.000  0.000  0.000  0.000
  0.000  0.800  0.000  0.000  0.000
  0.000  0.000  0.800  0.000  0.000
  0.000  0.000  0.000  0.800  0.000
  0.000  0.000  0.000  0.000  0.800
atom   10   Tr[ns(na)] =   8.00000
    eigenvalues:
  0.800  0.800  0.800  0.800  0.800
    eigenvectors:
  1.000  0.000  0.000  0.000  0.000
  0.000  1.000  0.000  0.000  0.000
  0.000  0.000  1.000  0.000  0.000
  0.000  0.000  0.000  1.000  0.000
  0.000  0.000  0.000  0.000  1.000
    occupations:
  0.800  0.000  0.000  0.000  0.000
  0.000  0.800  0.000  0.000  0.000
  0.000  0.000  0.800  0.000  0.000
  0.000  0.000  0.000  0.800  0.000
  0.000  0.000  0.000  0.000  0.800
atom   16   Tr[ns(na)] =   8.00000
    eigenvalues:
  0.800  0.800  0.800  0.800  0.800
    eigenvectors:
  1.000  0.000  0.000  0.000  0.000
  0.000  1.000  0.000  0.000  0.000
  0.000  0.000  1.000  0.000  0.000
  0.000  0.000  0.000  1.000  0.000
  0.000  0.000  0.000  0.000  1.000
    occupations:
  0.800  0.000  0.000  0.000  0.000
  0.000  0.800  0.000  0.000  0.000
  0.000  0.000  0.800  0.000  0.000
  0.000  0.000  0.000  0.800  0.000
  0.000  0.000  0.000  0.000  0.800
atom   17   Tr[ns(na)] =   8.00000
    eigenvalues:
  0.800  0.800  0.800  0.800  0.800
    eigenvectors:
  1.000  0.000  0.000  0.000  0.000
  0.000  1.000  0.000  0.000  0.000
  0.000  0.000  1.000  0.000  0.000
  0.000  0.000  0.000  1.000  0.000
  0.000  0.000  0.000  0.000  1.000
    occupations:
  0.800  0.000  0.000  0.000  0.000
  0.000  0.800  0.000  0.000  0.000
  0.000  0.000  0.800  0.000  0.000
  0.000  0.000  0.000  0.800  0.000
  0.000  0.000  0.000  0.000  0.800
atom   22   Tr[ns(na)] =   8.00000
    eigenvalues:
  0.800  0.800  0.800  0.800  0.800
    eigenvectors:
  1.000  0.000  0.000  0.000  0.000
  0.000  1.000  0.000  0.000  0.000
  0.000  0.000  1.000  0.000  0.000
  0.000  0.000  0.000  1.000  0.000
  0.000  0.000  0.000  0.000  1.000
[...]
 -0.092 -0.000 -0.017  0.755  0.000
  0.000 -0.003  0.001  0.000  0.950
atom   10   Tr[ns(na)] =   8.66959
    eigenvalues:
  0.659  0.746  0.974  0.975  0.981
    eigenvectors:
  0.000  0.985  0.000  0.001  0.014
  0.004  0.000  0.924  0.071  0.000
  0.000  0.000  0.067  0.832  0.101
  0.000  0.015  0.005  0.096  0.885
  0.996  0.000  0.004  0.000  0.000
    occupations:
  0.750 -0.001 -0.004  0.028  0.000
 -0.001  0.972 -0.000  0.000 -0.021
 -0.004 -0.000  0.975 -0.001  0.000
  0.028  0.000 -0.001  0.977 -0.000
  0.000 -0.021  0.000 -0.000  0.660
atom   16   Tr[ns(na)] =   8.64914
    eigenvalues:
  0.679  0.695  0.981  0.983  0.986
    eigenvectors:
  0.022  0.154  0.772  0.002  0.051
  0.879  0.121  0.000  0.000  0.000
  0.000  0.003  0.076  0.003  0.918
  0.100  0.722  0.151  0.001  0.026
  0.000  0.000  0.001  0.995  0.004
    occupations:
  0.931 -0.002  0.006 -0.109 -0.000
 -0.002  0.681 -0.001 -0.005 -0.002
  0.006 -0.001  0.985  0.015  0.000
 -0.109 -0.005  0.015  0.745 -0.000
 -0.000 -0.002  0.000 -0.000  0.983
atom   17   Tr[ns(na)] =   8.63828
    eigenvalues:
  0.683  0.701  0.973  0.979  0.982
    eigenvectors:
  0.000  0.987  0.005  0.001  0.006
  0.007  0.000  0.048  0.942  0.003
  0.000  0.004  0.928  0.042  0.026
  0.000  0.009  0.019  0.008  0.964
  0.993  0.000  0.000  0.007  0.000
    occupations:
  0.705 -0.005 -0.017  0.026 -0.001
 -0.005  0.977  0.001  0.000  0.025
 -0.017  0.001  0.972  0.003  0.000
  0.026  0.000  0.003  0.980  0.000
 -0.001  0.025  0.000  0.000  0.685
atom   22   Tr[ns(na)] =   8.60563
    eigenvalues:
  0.704  0.716  0.949  0.951  0.983
    eigenvectors:
  0.001  0.139  0.006  0.004  0.851
  0.995  0.005  0.000  0.000  0.000
  0.000  0.005  0.668  0.321  0.006
  0.004  0.850  0.001  0.000  0.144
  0.000  0.000  0.325  0.675  0.000
    occupations:
  0.945  0.000 -0.004 -0.092 -0.000
  0.000  0.704  0.000  0.001 -0.003
 -0.004  0.000  0.948 -0.017 -0.001
 -0.092  0.001 -0.017  0.755 -0.000
 -0.000 -0.003 -0.001 -0.000  0.950
atom   23   Tr[ns(na)] =   8.61897
    eigenvalues:
  0.682  0.706  0.958  0.980  0.983
    eigenvectors:
  0.000  0.983  0.000  0.002  0.015
  0.008  0.000  0.988  0.004  0.001
  0.000  0.010  0.004  0.764  0.221
  0.000  0.007  0.000  0.230  0.763
  0.992  0.000  0.008  0.000  0.000
    occupations:
  0.711  0.000  0.028  0.023 -0.000
  0.000  0.956  0.001 -0.000 -0.024
  0.028  0.001  0.978 -0.001 -0.000
  0.023 -0.000 -0.001  0.980 -0.000
 -0.000 -0.024 -0.000 -0.000  0.685
N of occupied +U levels =  69.0757657
 --- exit write_ns ---

     Threshold (ethr) on eigenvalues was too large:
     Diagonalizing with lowered threshold

     Davidson diagonalization with overlap
     ethr =  6.43E-08,  avg # of iterations =  1.0

[...]

     total energy              =   -2282.05182349 Ry
     Harris-Foulkes estimate   =   -2282.05182453 Ry
     estimated scf accuracy    <       0.00000673 Ry

     iteration #  7     ecut=    40.00 Ry     beta=0.70
     Davidson diagonalization with overlap
     ethr =  2.73E-09,  avg # of iterations =  1.0

     negative rho (up, down):  0.158E+01 0.000E+00

     End of self-consistent calculation
 --- enter write_ns ---
 LDA+U parameters:
U( 2)     =  0.50000000
alpha( 2) =  0.00000000
atom    3   Tr[ns(na)] =   8.65004
    eigenvalues:
  0.679  0.696  0.981  0.983  0.986
    eigenvectors:
  0.022  0.153  0.763  0.000  0.061
  0.874  0.126  0.000  0.000  0.000
  0.000  0.003  0.087  0.008  0.903
  0.103  0.719  0.149  0.000  0.029
  0.000  0.000  0.001  0.992  0.006
    occupations:
  0.931  0.003  0.005 -0.109  0.000
  0.003  0.682  0.001  0.005 -0.002
  0.005  0.001  0.985  0.015 -0.000
 -0.109  0.005  0.015  0.745  0.001
  0.000 -0.002 -0.000  0.001  0.983
atom    4   Tr[ns(na)] =   8.63902
    eigenvalues:
  0.683  0.701  0.974  0.980  0.982
    eigenvectors:
  0.000  0.987  0.005  0.001  0.007
  0.007  0.000  0.038  0.952  0.003
  0.000  0.004  0.938  0.033  0.025
  0.000  0.009  0.019  0.006  0.966
  0.993  0.000  0.000  0.007  0.000
    occupations:
  0.705 -0.005 -0.017  0.026 -0.001
 -0.005  0.977  0.001  0.000  0.024
 -0.017  0.001  0.973  0.003  0.000
  0.026  0.000  0.003  0.980  0.000
 -0.001  0.024  0.000  0.000  0.685
atom    9   Tr[ns(na)] =   8.60431
    eigenvalues:
  0.704  0.716  0.949  0.950  0.983
    eigenvectors:
  0.000  0.140  0.006  0.003  0.851
  1.000  0.000  0.000  0.000  0.000
  0.000  0.006  0.699  0.291  0.005
  0.000  0.855  0.001  0.000  0.144
  0.000  0.000  0.294  0.706  0.000
    occupations:
  0.945  0.000 -0.004 -0.092  0.000
  0.000  0.704 -0.000 -0.000 -0.003
 -0.004 -0.000  0.948 -0.017  0.000
 -0.092 -0.000 -0.017  0.755  0.000
  0.000 -0.003  0.000  0.000  0.950
atom   10   Tr[ns(na)] =   8.67552
    eigenvalues:
  0.659  0.749  0.974  0.975  0.981
    eigenvectors:
  0.000  0.985  0.000  0.001  0.015
  0.004  0.000  0.924  0.071  0.000
  0.000  0.000  0.067  0.832  0.100
  0.000  0.015  0.005  0.095  0.885
  0.996  0.000  0.004  0.000  0.000
    occupations:
  0.752 -0.001 -0.004  0.028  0.000
 -0.001  0.972 -0.000  0.000 -0.021
 -0.004 -0.000  0.976 -0.001  0.000
  0.028  0.000 -0.001  0.977 -0.000
  0.000 -0.021  0.000 -0.000  0.660
atom   16   Tr[ns(na)] =   8.65005
    eigenvalues:
  0.680  0.696  0.981  0.983  0.986
    eigenvectors:
  0.023  0.153  0.772  0.002  0.051
  0.874  0.126  0.000  0.000  0.000
  0.000  0.003  0.075  0.003  0.919
  0.103  0.718  0.151  0.001  0.026
  0.000  0.000  0.001  0.995  0.004
    occupations:
  0.931 -0.003  0.006 -0.109 -0.000
 -0.003  0.682 -0.001 -0.005 -0.002
  0.006 -0.001  0.985  0.015  0.000
 -0.109 -0.005  0.015  0.745 -0.000
 -0.000 -0.002  0.000 -0.000  0.983
atom   17   Tr[ns(na)] =   8.63676
    eigenvalues:
  0.683  0.701  0.973  0.979  0.982
    eigenvectors:
  0.000  0.987  0.005  0.001  0.007
  0.007  0.000  0.044  0.946  0.003
  0.000  0.004  0.933  0.039  0.024
  0.000  0.009  0.018  0.007  0.967
  0.993  0.000  0.000  0.007  0.000
    occupations:
  0.705 -0.005 -0.017  0.026 -0.001
 -0.005  0.977  0.001  0.000  0.025
 -0.017  0.001  0.972  0.003  0.000
  0.026  0.000  0.003  0.980  0.000
 -0.001  0.025  0.000  0.000  0.685
atom   22   Tr[ns(na)] =   8.60386
    eigenvalues:
  0.704  0.716  0.949  0.950  0.983
    eigenvectors:
  0.001  0.139  0.006  0.003  0.851
  0.996  0.003  0.000  0.000  0.000
  0.000  0.005  0.760  0.229  0.005
  0.003  0.852  0.001  0.000  0.144
  0.000  0.000  0.232  0.768  0.000
    occupations:
  0.945  0.000 -0.004 -0.092 -0.000
  0.000  0.704  0.000  0.001 -0.003
 -0.004  0.000  0.948 -0.017 -0.001
 -0.092  0.001 -0.017  0.755 -0.000
 -0.000 -0.003 -0.001 -0.000  0.950
atom   23   Tr[ns(na)] =   8.61863
    eigenvalues:
  0.682  0.706  0.958  0.980  0.983
    eigenvectors:
  0.000  0.983  0.000  0.002  0.015
  0.008  0.000  0.988  0.004  0.001
  0.000  0.010  0.004  0.767  0.219
  0.000  0.007  0.000  0.227  0.765
  0.992  0.000  0.008  0.000  0.000
    occupations:
  0.711  0.000  0.028  0.023 -0.000
  0.000  0.956  0.001 -0.000 -0.024
  0.028  0.001  0.978 -0.001 -0.000
  0.023 -0.000 -0.001  0.980 -0.000
 -0.000 -0.024 -0.000 -0.000  0.685
N of occupied +U levels =  69.0781747
 --- exit write_ns ---

[...]

          k = 0.2500-0.4976 0.0000 ( 32026 PWs)   bands (ev):

[...]

          k =-0.2500 0.2488 0.0000 ( 32025 PWs)   bands (ev):

   -55.7938 -55.7545 -55.6977 -55.6764 -55.6720 -55.6600 -55.6341 -55.5957
   -55.5900 -55.5050 -55.5013 -55.4222 -55.4138 -55.3992 -55.3930 -55.3680
   -55.3516 -55.3467 -55.3380 -55.3320 -55.2618 -55.0147 -54.7733 -54.5124
   -21.9240 -21.6543 -21.0589 -20.8537 -20.5524 -20.4297 -20.3782 -20.2779
   -20.2259 -20.1124 -20.0785 -20.0236 -19.9559 -19.8643 -19.8283 -19.7962
   -19.6580 -18.9661 -18.8347 -10.0671  -9.8201  -9.7252  -9.6267  -9.2454
    -9.1939  -9.0868  -8.9472  -8.8882  -8.8665  -8.6984  -8.6722  -8.6013
    -8.4628  -8.4430  -8.3717  -8.2453  -8.1088  -7.8972  -7.7415  -7.6098
    -7.5374  -7.4780  -7.2573  -7.0453  -6.8391  -6.7934  -6.7179  -6.6130
    -6.5810  -6.5277  -6.4416  -6.3568  -6.2570  -6.2207  -6.1903  -5.9895
    -5.9452  -5.8665  -5.7311  -5.6286  -5.4788  -5.3872  -5.3288  -5.0864
    -5.0398  -4.9211  -4.8439  -4.7589  -4.6438  -4.6120  -4.4661  -4.2488
    -4.2216  -4.1026  -3.9658  -3.9043  -3.8391  -3.8065  -3.6118  -3.5619
    -3.5371  -3.4521  -3.4010  -3.3036  -3.2885  -3.2287  -3.1718  -2.9436
    -2.8387  -2.5679  -2.4163  -2.3131  -2.1816  -2.1145  -2.0540  -1.9749
    -1.9143  -1.7317  -1.5555  -1.5093  -1.3939  -0.9287  -0.7096  -0.5003
    -0.1532   0.0300   0.3868   0.6020   0.8441   0.9606   1.0973   1.1527
     1.3931   1.5181   1.5568   1.9409   3.2422   3.9445   4.6574   5.0744
     5.1375   5.2170   5.3000   5.5698   6.0457   6.2037   6.2737   6.3475
     6.5041   6.5966   6.6873   6.7797   6.8997   6.9738   7.1470   7.2325
     7.3951   7.4986   7.5506   7.6759   7.7350   7.8489   7.9616   8.0532
     8.2200   8.3222   8.3555   8.4323   8.4979   8.6013   8.6978   8.7639
     8.8924   8.9782   9.0461   9.1971   9.3422   9.4415   9.5750   9.6396
     9.7446   9.8090   9.9460  10.0754  10.1499  10.2041  10.2692  10.3638
    10.5235  10.5672  10.6226  10.7006  10.7657  10.9469  10.9898  11.0950
    11.1790  11.2236  11.3581  11.4305  11.5054  11.6379  11.7195  11.8064
    11.8850  11.9028  12.0025  12.0347  12.0863  12.2340  12.2868  12.3403
    12.3952  12.4369  12.5237  12.5515  12.6391  12.7099  12.7928  12.8855
    12.9328  13.0137  13.0853  13.1851  13.2162  13.4355  13.5067  13.5576
    13.5982  13.6836  13.7335  13.8021  13.9255  13.9613  14.0534  14.0754
    14.1460  14.2672  14.3707  14.4498  14.5302  14.6117  14.7058  14.8285
    14.8872  14.9874  15.0623  15.1406  15.1987  15.2982  15.3265  15.4004
    15.4548  15.5046  15.5578  15.6287  15.6826  15.7284  15.7677  15.8404
    15.9077  15.9785  16.0111  16.0600  16.1313  16.2100  16.2916  16.3599
    16.4219  16.4380  16.4622  16.5320  16.6133  16.6349  16.6631  16.6644
    16.6829  16.6968  16.7487  16.8019  16.8238  16.9293  16.9786  17.0366
    17.0941  17.1425  17.2068  17.2304  17.2989  17.3139  17.3796  17.4655
    17.4952  17.5392  17.5742  17.6170  17.6481  17.7486  17.8960  17.9378
    18.0134  18.0637  18.1301  18.1771  18.2434  18.3299  18.4662  18.4733
    18.5813  18.6069  18.6440  18.7097  18.7843  18.8367  18.8770  18.9660
    19.0156  19.1151  19.1754  19.2155  19.2834  19.3423  19.4427  19.5297
    19.6586  19.6863  19.8245  19.8612  19.9388  19.9907  20.0349  20.0658
    20.1022  20.1564  20.2647  20.3260  20.3474  20.3977  20.4727  20.5613
    20.6445  20.6645  20.7295  20.8133  20.8871  20.9683  20.9995  21.0428
    21.0842  21.2020  21.2711  21.3116  21.3486  21.3751  21.4688  21.5098
    21.5725  21.6370  21.6983  21.7611  21.7872  21.9029  22.0056  22.0711
    22.1223  22.1814

     the Fermi energy is    -1.4929 ev

!    total energy              =   -2282.05182338 Ry
     Harris-Foulkes estimate   =   -2282.05182413 Ry
     estimated scf accuracy    <       0.00000082 Ry

     The total energy is the sum of the following terms:

     one-electron contribution =  -23698.27001133 Ry
     hartree contribution      =   11891.73360310 Ry
     xc contribution           =    -572.98476921 Ry
     ewald contribution        =   10097.32351576 Ry
     Hubbard energy            =       0.14581792 Ry
     smearing contrib. (-TS)   =       0.00002039 Ry

     convergence has been achieved in   7 iterations

     Forces acting on atoms (Ry/au):

     negative rho (up, down):  0.158E+01 0.000E+00
     atom    1 type  1   force =    -0.00800861   -0.00460435   -0.00030669
     atom    2 type  1   force =     0.00034450    0.00377671    0.00022592
     atom    3 type  2   force =     0.00989211    0.00807411    0.00024654
     atom    4 type  2   force =     0.01065147    0.00342486   -0.00033033
     atom    5 type  1   force =     0.00106486   -0.00435135   -0.00031718
     atom    6 type  1   force =    -0.00000778   -0.00183626    0.00033376
     atom    7 type  1   force =     0.00040119   -0.00130855    0.00065145
     atom    8 type  1   force =    -0.00410249   -0.00156527   -0.00056962
     atom    9 type  2   force =     0.00345333    0.00344184   -0.00016315
     atom   10 type  2   force =    -0.00058575   -0.01912692   -0.00072827
     atom   11 type  1   force =     0.00110761    0.00184073   -0.00034075
     atom   12 type  1   force =    -0.01161256    0.00472322    0.00071003
     atom   13 type  1   force =    -0.00122817   -0.00545907    0.00011226
     atom   14 type  1   force =    -0.00808451   -0.00431919   -0.00035627
     atom   15 type  1   force =     0.00018553    0.00260300    0.00042301
     atom   16 type  2   force =    -0.01102703    0.00825777    0.00007508
     atom   17 type  2   force =     0.01044041    0.00463103   -0.00011093
     atom   18 type  1   force =     0.00116783   -0.00444954   -0.00009182
     atom   19 type  1   force =    -0.00012552   -0.00179629    0.00028247
     atom   20 type  1   force =    -0.00000618   -0.00138285   -0.00013958
     atom   21 type  1   force =    -0.00404459    0.00075910   -0.00001559
     atom   22 type  2   force =     0.00063459    0.00381976   -0.00033660
     atom   23 type  2   force =     0.00005008   -0.00116593    0.00005647
     atom   24 type  1   force =    -0.00097981    0.00283821   -0.00011690
     atom   25 type  1   force =     0.01149641    0.00527431    0.00083940
     atom   26 type  1   force =    -0.00113900   -0.00271417   -0.00033571
     atom   27 type  3   force =    -0.00003347   -0.00009406    0.00018039
     atom   28 type  3   force =     0.00006389   -0.00011707    0.00035173
     atom   29 type  3   force =    -0.00008140    0.00000438   -0.00018550
     atom   30 type  3   force =    -0.00004240   -0.00001612   -0.00024003
     atom   31 type  1   force =    -0.00038194    0.00013024    0.00027059
     atom   32 type  3   force =     0.00053740    0.00070773   -0.00007417

     Total force =     0.002272     Total SCF correction =     0.003112
     SCF correction compared to forces is large: reduce conv_thr to get better values

     bfgs converged in   2 scf cycles and   1 bfgs steps
     (criteria: energy < 0.10E-03, force < 0.10E-02)

     End of BFGS Geometry Optimization

     Final energy   =   -2282.0518233792 Ry
Begin final coordinates

ATOMIC_POSITIONS (crystal)
O0       0.000000000   0.000000000   0.377640858    0   0   1
O0       0.000000000   0.500000000   0.401299824    0   0   1
Pt1      0.250000000   0.500000000   0.450941955    0   0   1
Pt1      0.000000000   0.000000000   0.452610221    0   0   1
O0       0.250000000   0.810000000   0.443444378    0   0   1
O0       0.250000000   0.190000000   0.459677830    0   0   1
O0       0.000000000   0.500000000   0.496609841    0   0   1
O0       0.000000000   0.000000000   0.529466878    0   0   1
Pt1      0.250000000   0.000000000   0.575767139    0   0   1
Pt1      0.000000000   0.500000000   0.574700936    0   0   1
O0       0.250000000   0.690000000   0.569464591    0   0   1
O0       0.250000000   0.310000000   0.584737361    0   0   1
O0       0.000000000   0.000000000   0.621092542    0   0   1
O0       0.500000000   0.000000000   0.377676376    0   0   1
O0       0.500000000   0.500000000   0.400726807    0   0   1
Pt1      0.750000000   0.500000000   0.450945229    0   0   1
Pt1      0.500000000   0.000000000   0.452609535    0   0   1
O0       0.750000000   0.810000000   0.443409802    0   0   1
O0       0.750000000   0.190000000   0.459676855    0   0   1
O0       0.500000000   0.500000000   0.497415087    0   0   1
O0       0.500000000   0.000000000   0.529447273    0   0   1
Pt1      0.750000000   0.000000000   0.575759487    0   0   1
Pt1      0.500000000   0.500000000   0.576317224    0   0   1
O0       0.750000000   0.690000000   0.569249051    0   0   1
O0       0.750000000   0.310000000   0.584420263    0   0   1
O0       0.500000000   0.000000000   0.621182233    0   0   1
H2       0.000076456   0.640041820   0.385659761
H2       0.499996169   0.640176050   0.385192480
H2       0.143355737   0.034071738   0.367625878
H2       0.643203429   0.034668353   0.367655070
O0       0.500252046   0.525238127   0.649825331
H2       0.489820295   0.382253830   0.662371903
End final coordinates

     General routines

     Parallel routines
     Hubbard U routines

   This run was terminated on:   5:32:42  28Apr2014

   JOB DONE.
Running PBS batch system epilogue script
Job id: 340485.audhumbla.fysik.dtu.dk
Username: zhonxu
Groupname: campgst
Jobname: PtO2/Eads-2-layers/OH-U-0.5
Sessionid: 29329
Queuename: verylong
Accounting:
This job has allocated the following 16 nodes:
b028 b028 b028 b028 b028 b028 b028 b028 b008 b008 b008 b008 b008 b008 b008 b008
Finished epilogue job 340485.audhumbla.fysik.dtu.dk for zhonxu