     Program PWSCF v.5.0.2 (svn rev. 9656) starts on 20Apr2014 at  4:40:41

     Current dimensions of program PWSCF are:
     Max number of different atomic species (ntypx) = 10
     Max number of k-points (npk) =  40000
     Max angular momentum in pseudopotentials (lmaxx) =  3
     Reading input from pwscf.in
Warning: card &CELL ignored
Warning: card / ignored

     Subspace diagonalization in iterative solution of the eigenvalue problem:
     a serial algorithm will be used

     bravais-lattice index     =            0
     lattice parameter (alat)  =      11.1872  a.u.
     unit-cell volume          =   10442.1272 (a.u.)^3
     number of atoms/cell      =           49
     number of atomic types    =            2
     number of electrons       =       406.00
     number of Kohn-Sham states=          609
     kinetic-energy cutoff     =      40.0000  Ry
     charge density cutoff     =     500.0000  Ry
     convergence threshold     =      1.0E-06
     mixing beta               =       0.3000
     number of iterations used =            8  plain     mixing
     Exchange-correlation      = SLA  PW   PBE  PBE ( 1 4 3 4 0)
     EXX-fraction              =        0.00
     nstep                     =           50

     celldm(1)=  11.187179  celldm(2)=   0.000000  celldm(3)=   0.000000
     celldm(4)=   0.000000  celldm(5)=   0.000000  celldm(6)=   0.000000

     crystal axes: (cart. coord. in units of alat)
               a(1) = (   1.000000   0.000000   0.000000 )
               a(2) = (   0.000000   1.180104   0.000000 )
               a(3) = (   0.000000   0.000000   6.319854 )

     reciprocal axes: (cart. coord. in units 2 pi/alat)
               b(1) = (  1.000000  0.000000  0.000000 )
               b(2) = (  0.000000  0.847383  0.000000 )
               b(3) = (  0.000000  0.000000  0.158232 )

     PseudoPot. # 1 for O  read from file:
     /home/camp/zhonxu/pseudo/o_pbe_v1.01.uspp.F.UPF
     MD5 check sum: 2bcb18d16ea4b960afae9ec6d52f22d2
     Pseudo is Ultrasoft + core correction, Zval =  6.0
     Generated by new atomic code, or converted to UPF format
     Using radial grid of  737 points,  5 beta functions with:
                l(1) =   0
                l(2) =   0
                l(3) =   1
                l(4) =   1
                l(5) =   2
     Q(r) pseudized with  8 coefficients,  rinner =    0.900   0.900   0.900
                                                       0.900   0.900

     PseudoPot. # 2 for Nb read from file:
     /home/camp/zhonxu/pseudo/nb_pbe_v1.uspp.F.UPF
     MD5 check sum: 573aab8a2fa660278ed4a62cd769473f
     Pseudo is Ultrasoft + core correction, Zval = 13.0
     Generated by new atomic code, or converted to UPF format
     Using radial grid of  887 points,  6 beta functions with:
                l(1) =   0
                l(2) =   0
                l(3) =   1
                l(4) =   1
                l(5) =   2
                l(6) =   2
     Q(r) pseudized with  6 coefficients,  rinner =    1.000   1.000   1.000
                                                       1.000   1.000

     atomic species   valence    mass     pseudopotential
        O0             6.00    15.99940     O ( 1.00)
        Nb1           13.00    92.90640     Nb( 1.00)

      4 Sym. Ops. (no inversion) found

   Cartesian axes

     site n.     atom                  positions (alat units)
         1           O0  tau(   1) = (   0.0000000   0.5900519   2.0270298  )
         2           Nb1 tau(   2) = (   0.2500000   0.5900519   2.2748313  )
         3           Nb1 tau(   3) = (   0.0000000   0.0000000   2.2748313  )
         4           O0  tau(   4) = (   0.2500000   0.9322821   2.2748313  )
         5           O0  tau(   5) = (   0.2500000   0.2478218   2.2748313  )
         6           O0  tau(   6) = (   0.0000000   0.5900519   2.5226959  )
         7           O0  tau(   7) = (   0.0000000   0.0000000   2.6170513  )
         8           Nb1 tau(   8) = (   0.2500000   0.0000000   2.8649160  )
         9           Nb1 tau(   9) = (   0.0000000   0.5900519   2.8649160  )
        10           O0  tau(  10) = (   0.2500000   0.8378738   2.8649160  )
        11           O0  tau(  11) = (   0.2500000   0.3422301   2.8649160  )
        12           O0  tau(  12) = (   0.0000000   0.0000000   3.1127175  )
        13           O0  tau(  13) = (   0.0000000   0.5900519   3.2016378  )
        14           Nb1 tau(  14) = (   0.2500000   0.5900519   3.4436882  )
        15           Nb1 tau(  15) = (   0.0000000   0.0000000   3.4612574  )
        16           O0  tau(  16) = (   0.2500000   0.9310784   3.4611310  )
        17           O0  tau(  17) = (   0.2500000   0.2490255   3.4611310  )
        18           O0  tau(  18) = (   0.0000000   0.5900519   3.6989471  )
        19           O0  tau(  19) = (   0.0000000   0.0000000   3.8174443  )
        20           Nb1 tau(  20) = (   0.2500000   0.0000000   4.0701753  )
        21           Nb1 tau(  21) = (   0.0000000   0.5900519   4.0169621  )
        22           O0  tau(  22) = (   0.2500000   0.8262851   4.0818038  )
        23           O0  tau(  23) = (   0.2500000   0.3538187   4.0818038  )
        24           O0  tau(  24) = (   0.0000000   0.0000000   4.2711466  )
        25           O0  tau(  25) = (   0.5000000   0.5900519   2.0270298  )
        26           Nb1 tau(  26) = (   0.7500000   0.5900519   2.2748313  )
        27           Nb1 tau(  27) = (   0.5000000   0.0000000   2.2748313  )
        28           O0  tau(  28) = (   0.7500000   0.9322821   2.2748313  )
        29           O0  tau(  29) = (   0.7500000   0.2478218   2.2748313  )
        30           O0  tau(  30) = (   0.5000000   0.5900519   2.5226959  )
        31           O0  tau(  31) = (   0.5000000   0.0000000   2.6170513  )
        32           Nb1 tau(  32) = (   0.7500000   0.0000000   2.8649160  )
        33           Nb1 tau(  33) = (   0.5000000   0.5900519   2.8649160  )
        34           O0  tau(  34) = (   0.7500000   0.8378738   2.8649160  )
        35           O0  tau(  35) = (   0.7500000   0.3422301   2.8649160  )
        36           O0  tau(  36) = (   0.5000000   0.0000000   3.1127175  )
        37           O0  tau(  37) = (   0.5000000   0.5900519   3.2016378  )
        38           Nb1 tau(  38) = (   0.7500000   0.5900519   3.4436882  )
        39           Nb1 tau(  39) = (   0.5000000   0.0000000   3.4612574  )
        40           O0  tau(  40) = (   0.7500000   0.9310784   3.4611310  )
        41           O0  tau(  41) = (   0.7500000   0.2490255   3.4611310  )
        42           O0  tau(  42) = (   0.5000000   0.5900519   3.6989471  )
        43           O0  tau(  43) = (   0.5000000   0.0000000   3.8174443  )
        44           Nb1 tau(  44) = (   0.7500000   0.0000000   4.0701753  )
        45           Nb1 tau(  45) = (   0.5000000   0.5900519   4.0169621  )
        46           O0  tau(  46) = (   0.7500000   0.8262851   4.0818038  )
        47           O0  tau(  47) = (   0.7500000   0.3538187   4.0818038  )
        48           O0  tau(  48) = (   0.5000000   0.0000000   4.2711466  )
        49           O0  tau(  49) = (   0.5000000   0.5900519   4.3205047  )

     number of k points=     9  Methfessel-Paxton smearing, width (Ry)=  0.0100
                       cart. coord. in units 2pi/alat
        k(    1) = (   0.0000000   0.0000000   0.0000000), wk =   0.1250000
        k(    2) = (   0.0000000   0.2118458   0.0000000), wk =   0.2500000
        k(    3) = (   0.0000000  -0.4236915   0.0000000), wk =   0.1250000
        k(    4) = (   0.2500000   0.0000000   0.0000000), wk =   0.2500000
        k(    5) = (   0.2500000   0.2118458   0.0000000), wk =   0.5000000
        k(    6) = (   0.2500000  -0.4236915   0.0000000), wk =   0.2500000
        k(    7) = (  -0.5000000   0.0000000   0.0000000), wk =   0.1250000
        k(    8) = (  -0.5000000   0.2118458   0.0000000), wk =   0.2500000
        k(    9) = (  -0.5000000  -0.4236915   0.0000000), wk =   0.1250000

     Largest allocated arrays     est. size (Mb)     dimensions
     Largest temporary arrays     est. size (Mb)     dimensions

     Check: negative/imaginary core charge=   -0.000004    0.000000

     Initial potential from superposition of free atoms
     Check: negative starting charge=   -0.005529

     starting charge  405.95622, renormalised to  406.00000

     negative rho (up, down):  0.553E-02 0.000E+00
     Starting wfc are  340 randomized atomic wfcs

     Self-consistent Calculation

     iteration #  1     ecut=    40.00 Ry     beta=0.30
     Davidson diagonalization with overlap
     ethr =  1.00E-02,  avg # of iterations =  6.4

     negative rho (up, down):  0.497E-02 0.000E+00

     total energy              =   -2949.09536785 Ry
     Harris-Foulkes estimate   =   -2961.11870007 Ry
     estimated scf accuracy    <      26.90404906 Ry

[...]

     End of self-consistent calculation

          k = 0.0000 0.0000 0.0000 ( 44615 PWs)   bands (ev):

   -55.9908 -55.9021 -55.5319 -55.4558 -55.3907 -55.3799 -55.3777 -55.3732
   -55.3647 -55.3264 -55.3021 -55.3016 -55.2910 -55.2895 -55.2477 -54.3279
   -32.8700 -32.1897 -32.0654 -32.0516 -32.0009 -31.9658 -31.9649 -31.9572
   -31.9471 -31.9248 -31.9025 -31.8921 -31.8447 -31.8037 -31.7498 -31.7253
   -31.7148 -31.6931 -31.6628 -31.6224 -31.6196 -31.5875 -31.5844 -31.5565
   -31.5486 -31.5277 -31.5055 -31.4634 -31.4252 -31.4145 -31.3872 -31.3489
   -31.3234 -31.2564 -31.2510 -31.2418 -31.2384 -31.2275 -31.1977 -31.1608
   -31.1450 -31.1148 -31.0966 -31.0875 -31.0300 -30.8126 -30.5236 -30.4996
   -19.0416 -18.8331 -18.7416 -18.6884 -18.6157 -18.5691 -18.4263 -18.3936
   -18.3025 -18.2868 -18.2058 -18.1378 -18.1056 -18.1051 -18.0518 -17.8843
   -17.8199 -17.8136 -17.7889 -17.7324 -17.7134 -17.6872 -17.5496 -17.4611
   -17.4535 -17.3808 -17.3728 -17.3138 -17.1447 -17.1225 -16.2267 -16.1028
   -14.5068  -6.9549  -6.9293  -6.9122  -6.8185  -6.6161  -6.5230  -6.4281
    -6.1359  -6.1152  -6.1111  -6.0968  -5.9150  -5.8515  -5.7612  -5.7526
    -5.6955  -5.6530  -5.6322  -5.6033  -5.5299  -5.4981  -5.4940  -5.4526
    -5.3060  -5.1527  -5.1416  -5.1222  -5.0853  -5.0555  -5.0044  -4.9375
    -4.8862  -4.7459  -4.7290  -4.7183  -4.7089  -4.6698  -4.6498  -4.6323
    -4.6030  -4.5549  -4.4929  -4.4731  -4.4144  -4.4064  -4.3146  -4.2721
    -4.2613  -4.0190  -3.9213  -3.8836  -3.8278  -3.7268  -3.7225  -3.7046
    -3.6973  -3.6109  -3.6017  -3.4522  -3.3690  -3.3243  -3.3120  -3.2386
    -3.1681  -3.0652  -3.0617  -3.0452  -3.0201  -2.9556  -2.9169  -2.9095
    -2.8968  -2.8074  -2.7487  -2.7311  -2.6887  -2.6779  -2.6500  -2.6258
    -2.5567  -2.5189  -2.4795  -2.4646  -2.4232  -2.3308  -2.3079  -2.2322
    -2.2160  -2.2142  -2.1460  -1.9491  -1.9449  -1.7014  -1.4745  -1.3601
    -1.2747  -0.3734   0.1377   0.1583   0.1867   0.1997   0.2374   0.3812
     0.4667   0.6384   1.2027   1.2498   1.4271   1.6071   1.6323   1.7112
     1.7882   1.9002   1.9279   1.9327   2.1011   2.1314   2.1731   2.2359
     2.2782   2.2832   2.2872   2.2951   2.3058   2.3760   2.4353   2.4559
     2.5471   2.6462   2.6889   2.8886   3.0673   3.1070   3.1989   3.2096
[...]
O0       0.250000000   0.790000000   0.359950000    0   0   0
O0       0.250000000   0.210000000   0.359950000    0   0   0
O0       0.000000000   0.500000000   0.399170000    0   0   0
O0       0.000000000   0.000000000   0.414100000    0   0   0
Nb1      0.250000000   0.000000000   0.453320000    0   0   0
Nb1      0.000000000   0.500000000   0.453320000    0   0   0
O0       0.250000000   0.710000000   0.453320000    0   0   0
O0       0.250000000   0.290000000   0.453320000    0   0   0
O0       0.000000000   0.000000000   0.492530000    0   0   0
O0       0.000000000   0.500000000   0.506803656
Nb1      0.277717372   0.500000000   0.546371060
Nb1      0.000000000   0.000000000   0.546415262
O0       0.244065451   0.790898420   0.547260967
O0       0.244065451   0.209101580   0.547260967
O0       0.000000000   0.500000000   0.583442116
O0       0.000000000   0.000000000   0.602873216
Nb1      0.249079451   0.000000000   0.642003331
Nb1      0.000000000   0.500000000   0.632873534
O0       0.239183501   0.702734213   0.641690416
O0       0.239183501   0.297265787   0.641690416
O0       0.000000000   0.000000000   0.673879189
O0       0.500000000   0.500000000   0.320740000    0   0   0
Nb1      0.750000000   0.500000000   0.359950000    0   0   0
Nb1      0.500000000   0.000000000   0.359950000    0   0   0
O0       0.750000000   0.790000000   0.359950000    0   0   0
O0       0.750000000   0.210000000   0.359950000    0   0   0
O0       0.500000000   0.500000000   0.399170000    0   0   0
O0       0.500000000   0.000000000   0.414100000    0   0   0
Nb1      0.750000000   0.000000000   0.453320000    0   0   0
Nb1      0.500000000   0.500000000   0.453320000    0   0   0
O0       0.750000000   0.710000000   0.453320000    0   0   0
O0       0.750000000   0.290000000   0.453320000    0   0   0
O0       0.500000000   0.000000000   0.492530000    0   0   0
O0       0.500000000   0.500000000   0.505268611
Nb1      0.722282628   0.500000000   0.546371060
Nb1      0.500000000   0.000000000   0.546947362
O0       0.755934549   0.790898420   0.547260967
O0       0.755934549   0.209101580   0.547260967
O0       0.500000000   0.500000000   0.587216901
O0       0.500000000   0.000000000   0.602470572
Nb1      0.750920549   0.000000000   0.642003331
Nb1      0.500000000   0.500000000   0.650248401
O0       0.760816499   0.702734213   0.641690416
O0       0.760816499   0.297265787   0.641690416
O0       0.500000000   0.000000000   0.673606580
O0       0.500000000   0.500000000   0.696127366

     Check: negative starting charge=   -0.005411
     NEW-OLD atomic charge density approx. for the potential

     Check: negative/imaginary core charge=   -0.000004    0.000000
     Check: negative starting charge=   -0.005411

[...]

     Self-consistent Calculation

[...]

     Threshold (ethr) on eigenvalues was too large:
     Diagonalizing with lowered threshold

     Davidson diagonalization with overlap
     ethr =  2.46E-09,  avg # of iterations =  2.2

[...]

     total energy              =   -2954.32117281 Ry
     Harris-Foulkes estimate   =   -2954.32117281 Ry
     estimated scf accuracy    <       0.00000001 Ry

     iteration # 11     ecut=    40.00 Ry     beta=0.30
     Davidson diagonalization with overlap
     ethr =  3.43E-12,  avg # of iterations =  1.0

     negative rho (up, down):  0.472E-02 0.000E+00

     End of self-consistent calculation

[...]

          k = 0.2500-0.4237 0.0000 ( 44580 PWs)   bands (ev):

[...]

          k =-0.5000-0.4237 0.0000 ( 44696 PWs)   bands (ev):

   -55.8076 -55.8041 -55.4858 -55.3160 -55.2866 -55.2621 -55.2620 -55.2023
   -55.1849 -55.1849 -55.1661 -55.1157 -55.1115 -54.7689 -54.7267 -54.6437
   -32.2991 -32.2894 -31.9805 -31.9300 -31.9049 -31.8627 -31.8429 -31.6675
   -31.5943 -31.5558 -31.5467 -31.5407 -31.5397 -31.5251 -31.5155 -31.4972
   -31.4964 -31.4947 -31.4894 -31.4830 -31.4669 -31.4545 -31.4498 -31.3698
   -31.3681 -31.3474 -31.3314 -31.3046 -31.2891 -31.2779 -31.2721 -31.2640
   -31.2247 -31.2038 -31.2024 -31.1916 -31.1851 -31.1840 -31.1720 -31.1425
   -31.1009 -31.1003 -31.0741 -30.9640 -30.8202 -30.7999 -30.6302 -30.3990
   -18.3634 -18.2151 -18.1488 -18.1370 -18.1253 -18.0993 -18.0801 -18.0659
   -18.0578 -18.0294 -17.9698 -17.9663 -17.9377 -17.9141 -17.9119 -17.8012
   -17.7631 -17.7343 -17.7005 -17.6620 -17.6581 -17.6545 -17.6253 -17.6249
   -17.6023 -17.5533 -17.5101 -17.5097 -17.0520 -16.8900 -16.1058 -16.1052
   -15.6707  -6.3089  -6.1008  -6.0809  -6.0373  -5.9562  -5.8672  -5.8652
    -5.8081  -5.8058  -5.7728  -5.6502  -5.6480  -5.5881  -5.5703  -5.5063
    -5.5062  -5.4329  -5.3332  -5.3209  -5.2477  -5.1414  -5.1355  -5.0874
    -5.0496  -5.0010  -4.9863  -4.9407  -4.9061  -4.8576  -4.8362  -4.8358
    -4.6466  -4.6320  -4.6281  -4.6116  -4.5892  -4.5322  -4.5295  -4.5178
    -4.5103  -4.4868  -4.4445  -4.4364  -4.4046  -4.2038  -4.1854  -4.1214
    -4.0383  -4.0331  -3.9760  -3.9463  -3.9061  -3.8393  -3.8251  -3.6323
    -3.5846  -3.5582  -3.5039  -3.4904  -3.4148  -3.4146  -3.4090  -3.3962
    -3.3694  -3.3129  -3.2424  -3.2082  -3.1953  -3.1353  -3.1318  -3.1130
    -3.0769  -2.9843  -2.8357  -2.7627  -2.7424  -2.6951  -2.6770  -2.5770
    -2.5661  -2.5230  -2.4347  -2.3773  -2.3318  -2.2582  -2.2223  -2.1025
    -2.0828  -2.0027  -1.9437  -1.9373  -1.6741  -1.5926  -1.5826  -1.5421
    -1.3990  -1.3896  -1.2870  -1.2863   1.2265   1.4621   1.4882   1.5006
     1.6481   1.6772   1.6988   1.7782   1.8052   1.8154   1.8323   1.9563
     1.9782   2.0098   2.0760   2.2057   2.2174   2.3052   2.4496   2.4891
     2.4996   2.5590   2.6439   2.6495   2.6534   2.7187   2.7207   2.7344
     2.7728   2.7890   2.8494   2.9701   3.0616   3.1204   3.1518   3.1777
     3.2389   3.3508   3.3543   3.3704   3.4930   3.5229   3.5728   3.5883
     3.6249   3.7134   3.9340   4.0671   4.3327   4.4033   4.7656   4.9073
     5.0747   5.1127   5.2790   5.2946   5.3016   5.3046   5.4633   5.7428
     5.7567   5.7684   5.9446   6.2824   6.5384   6.5578   6.6547   6.7797
     6.7873   6.8129   6.8380   6.8433   6.9865   7.1845   7.2002   7.3107
     7.3529   7.5206   7.5513   7.5524   7.5810   7.7085   7.7696   7.8374
     7.8459   7.9103   7.9124   7.9920   8.0939   8.1309   8.1358   8.2087
     8.2614   8.3276   8.4158   8.5400   8.5920   8.6213   8.6395   8.8308
     8.9266   8.9907   9.0351   9.0558   9.0840   9.0911   9.1063   9.2600
     9.5800   9.6027   9.7032   9.7095   9.7228   9.7649   9.7671   9.8104
    10.2195  10.3233  10.3890  10.4839  10.4964  10.5274  10.6403  10.7570
    11.1705  11.2379  11.3465  11.5403  11.5785  11.6912  11.7370  11.8322
    12.2502  12.3040  12.4868  12.4944  12.5789  12.5905  12.6724  12.6829
    12.6935  12.7481  12.7782  12.7974  12.8582  12.8644  12.9745  13.0040
    13.0608  13.0961  13.1845  13.2108  13.2355  13.2689  13.5094  13.5371
    13.5605  13.6117  13.6265  13.7185  13.7315  13.7572  13.8365  13.8423
    13.8948  13.9008  13.9311  13.9562  14.0247  14.0695  14.0824  14.0897
    14.0916  14.1467  14.2081  14.2111  14.2869  14.2874  14.3014  14.3491
    14.3776  14.3852  14.4019  14.4610  14.5113  14.5294  14.5869  14.5898
    14.6199  14.6300  14.7031  14.7124  14.8019  14.8476  14.8597  14.9295
    14.9529  15.0325  15.0761  15.1025  15.1803  15.2029  15.2466  15.2812
    15.3745  15.3767  15.4391  15.5411  15.5570  15.5927  15.6284  15.6689
    15.7521  15.7957  15.8370  15.9542  16.1566  16.2169  16.2251  16.3095
    16.3488  16.4019  16.4153  16.4304  16.4526  16.4531  16.4655  16.5081
    16.5221  16.5363  16.6036  16.6234  16.7094  16.7339  16.7686  16.7845
    16.8527  16.8838  16.9791  17.0058  17.0212  17.0418  17.0918  17.1397
    17.2195  17.2436  17.2437  17.2690  17.2950  17.3498  17.3533  17.4348
    17.4433  17.5196  17.5402  17.7012  17.7416  17.7963  17.8075  17.8130
    17.9850  18.0329  18.1059  18.1213  18.1454  18.1500  18.1776  18.1962
    18.1979  18.3097  18.4886  18.5733  18.6373  18.6421  18.6603  18.6781
    18.7115  18.7224  18.7540  18.8078  18.9405  19.0046  19.0308  19.0561
[...]
    19.7821  19.8574  19.9318  19.9321  20.0899  20.0903  20.1098  20.2301
    20.2307  20.2723  20.3092  20.4750  20.6632  20.6669  20.6943  20.7605
    20.8663  20.8702  20.8939  21.0100  21.0343  21.1183  21.1347  21.1930
    21.2216  21.2511  21.2560  21.2721  21.3265  21.4829  21.5395  21.5609
    21.6813  21.7148  21.7152  21.7559  21.7905  21.8662  21.9761  22.0226
    22.1207  22.1430  22.1863  22.1863  22.2216  22.2562  22.2939  22.2946
    22.3976  22.4043  22.4447  22.4643  22.4692  22.4695  22.5035  22.5677
    22.5864  22.5966  22.5969  22.6008  22.6576  22.7320  22.7398  22.7598
    22.7859  22.8119  22.8286  22.9060  22.9090  22.9390  22.9427  22.9496
    23.0417  23.0500  23.0703  23.0893  23.1064  23.1137  23.1277  23.1732
    23.1984  23.2418  23.2736  23.3402  23.3703  23.5177  23.5389  23.5516
    23.5716  23.5815  23.6989  23.7656  23.7993  23.8601  23.8623  23.8914
    23.9109  23.9403  23.9544  23.9982  24.0411  24.0726  24.0995  24.1201
    24.1607  24.2371  24.2535  24.3467  24.4242  24.4831  24.4988  24.5460
    24.5543

     the Fermi energy is     1.5053 ev

!    total energy              =   -2954.32117281 Ry
     Harris-Foulkes estimate   =   -2954.32117281 Ry
     estimated scf accuracy    <          7.2E-09 Ry

     The total energy is the sum of the following terms:

     one-electron contribution =  -65121.12398586 Ry
     hartree contribution      =   32615.17945193 Ry
     xc contribution           =    -531.76069952 Ry
     ewald contribution        =   30083.38618239 Ry
     smearing contrib. (-TS)   =      -0.00212174 Ry

     convergence has been achieved in  11 iterations

     Forces acting on atoms (Ry/au):

     negative rho (up, down):  0.472E-02 0.000E+00
     atom    1 type  1   force =     0.00000000    0.00000000    0.14525065
     atom    2 type  2   force =     0.00254815    0.00000000   -0.15149054
     atom    3 type  2   force =     0.00000000    0.00000000    0.07805956
     atom    4 type  1   force =     0.00028930    0.01569273   -0.01230224
     atom    5 type  1   force =     0.00028930   -0.01569273   -0.01230224
     atom    6 type  1   force =     0.00000000    0.00000000   -0.02570409
     atom    7 type  1   force =     0.00000000    0.00000000   -0.03296700
     atom    8 type  2   force =     0.00008850    0.00000000   -0.00797957
     atom    9 type  2   force =     0.00000000    0.00000000    0.06055591
     atom   10 type  1   force =     0.00164381    0.00174949   -0.00461524
     atom   11 type  1   force =     0.00164381   -0.00174949   -0.00461524
     atom   12 type  1   force =     0.00000000    0.00000000    0.00923534
     atom   13 type  1   force =     0.00000000    0.00000000    0.00036383
     atom   14 type  2   force =    -0.00021831    0.00000000   -0.00038954
     atom   15 type  2   force =     0.00000000    0.00000000   -0.00020441
     atom   16 type  1   force =     0.00009672    0.00027360   -0.00013355
     atom   17 type  1   force =     0.00009672   -0.00027360   -0.00013355
     atom   18 type  1   force =     0.00000000    0.00000000    0.00007271
     atom   19 type  1   force =     0.00000000    0.00000000    0.00021355
     atom   20 type  2   force =     0.00006686    0.00000000    0.00029746
     atom   21 type  2   force =     0.00000000    0.00000000    0.00058079
     atom   22 type  1   force =    -0.00021555    0.00002925    0.00020920
     atom   23 type  1   force =    -0.00021555   -0.00002925    0.00020920
     atom   24 type  1   force =     0.00000000    0.00000000    0.00044552
     atom   25 type  1   force =     0.00000000    0.00000000    0.14487990
     atom   26 type  2   force =    -0.00254815    0.00000000   -0.15149054
     atom   27 type  2   force =     0.00000000    0.00000000    0.07603862
     atom   28 type  1   force =    -0.00028930    0.01569273   -0.01230224
     atom   29 type  1   force =    -0.00028930   -0.01569273   -0.01230224
     atom   30 type  1   force =     0.00000000    0.00000000   -0.02690923
     atom   31 type  1   force =     0.00000000    0.00000000   -0.03273325
     atom   32 type  2   force =    -0.00008850    0.00000000   -0.00797957
     atom   33 type  2   force =     0.00000000    0.00000000   -0.03291058
     atom   34 type  1   force =    -0.00164381    0.00174949   -0.00461524
     atom   35 type  1   force =    -0.00164381   -0.00174949   -0.00461524
     atom   36 type  1   force =     0.00000000    0.00000000    0.02045721
     atom   37 type  1   force =     0.00000000    0.00000000   -0.00039881
     atom   38 type  2   force =     0.00021831    0.00000000   -0.00038954
     atom   39 type  2   force =     0.00000000    0.00000000    0.00001818
     atom   40 type  1   force =    -0.00009672    0.00027360   -0.00013355
     atom   41 type  1   force =    -0.00009672   -0.00027360   -0.00013355
     atom   42 type  1   force =     0.00000000    0.00000000    0.00046038
     atom   43 type  1   force =     0.00000000    0.00000000    0.00019601
     atom   44 type  2   force =    -0.00006686    0.00000000    0.00029746
     atom   45 type  2   force =     0.00000000    0.00000000    0.00073266
     atom   46 type  1   force =     0.00021555    0.00002925    0.00020920
     atom   47 type  1   force =     0.00021555   -0.00002925    0.00020920
     atom   48 type  1   force =     0.00000000    0.00000000    0.00053743
     atom   49 type  1   force =     0.00000000    0.00000000    0.00022085

     Total force =     0.001845     Total SCF correction =     0.000194
     SCF correction compared to forces is large: reduce conv_thr to get better values

     bfgs converged in  19 scf cycles and  18 bfgs steps
     (criteria: energy < 0.10E-03, force < 0.10E-02)

     End of BFGS Geometry Optimization

     Final energy   =   -2954.3211728104 Ry
Begin final coordinates

ATOMIC_POSITIONS (crystal)
O0       0.000000000   0.500000000   0.320740000    0   0   0
Nb1      0.250000000   0.500000000   0.359950000    0   0   0
Nb1      0.000000000   0.000000000   0.359950000    0   0   0
O0       0.250000000   0.790000000   0.359950000    0   0   0
O0       0.250000000   0.210000000   0.359950000    0   0   0
O0       0.000000000   0.500000000   0.399170000    0   0   0
O0       0.000000000   0.000000000   0.414100000    0   0   0
Nb1      0.250000000   0.000000000   0.453320000    0   0   0
Nb1      0.000000000   0.500000000   0.453320000    0   0   0
O0       0.250000000   0.710000000   0.453320000    0   0   0
O0       0.250000000   0.290000000   0.453320000    0   0   0
O0       0.000000000   0.000000000   0.492530000    0   0   0
O0       0.000000000   0.500000000   0.506803656
Nb1      0.277717372   0.500000000   0.546371060
Nb1      0.000000000   0.000000000   0.546415262
O0       0.244065451   0.790898420   0.547260967
O0       0.244065451   0.209101580   0.547260967
O0       0.000000000   0.500000000   0.583442116
O0       0.000000000   0.000000000   0.602873216
Nb1      0.249079451   0.000000000   0.642003331
Nb1      0.000000000   0.500000000   0.632873534
O0       0.239183501   0.702734213   0.641690416
O0       0.239183501   0.297265787   0.641690416
O0       0.000000000   0.000000000   0.673879189
O0       0.500000000   0.500000000   0.320740000    0   0   0
Nb1      0.750000000   0.500000000   0.359950000    0   0   0
Nb1      0.500000000   0.000000000   0.359950000    0   0   0
O0       0.750000000   0.790000000   0.359950000    0   0   0
O0       0.750000000   0.210000000   0.359950000    0   0   0
O0       0.500000000   0.500000000   0.399170000    0   0   0
O0       0.500000000   0.000000000   0.414100000    0   0   0
Nb1      0.750000000   0.000000000   0.453320000    0   0   0
Nb1      0.500000000   0.500000000   0.453320000    0   0   0
O0       0.750000000   0.710000000   0.453320000    0   0   0
O0       0.750000000   0.290000000   0.453320000    0   0   0
O0       0.500000000   0.000000000   0.492530000    0   0   0
O0       0.500000000   0.500000000   0.505268611
Nb1      0.722282628   0.500000000   0.546371060
Nb1      0.500000000   0.000000000   0.546947362
O0       0.755934549   0.790898420   0.547260967
O0       0.755934549   0.209101580   0.547260967
O0       0.500000000   0.500000000   0.587216901
O0       0.500000000   0.000000000   0.602470572
Nb1      0.750920549   0.000000000   0.642003331
Nb1      0.500000000   0.500000000   0.650248401
O0       0.760816499   0.702734213   0.641690416
O0       0.760816499   0.297265787   0.641690416
O0       0.500000000   0.000000000   0.673606580
O0       0.500000000   0.500000000   0.696127366
End final coordinates

     General routines

     Parallel routines

   This run was terminated on:   7:47:45  21Apr2014

   JOB DONE.