     Program PWSCF v.5.0.2 (svn rev. 9656) starts on 12May2014 at  8:13: 6

     Current dimensions of program PWSCF are:
     Max number of different atomic species (ntypx) = 10
     Max number of k-points (npk) =  40000
     Max angular momentum in pseudopotentials (lmaxx) =  3
     Reading input from pwscf.in
Warning: card &CELL ignored
Warning: card / ignored

     Subspace diagonalization in iterative solution of the eigenvalue problem:
     a serial algorithm will be used

     bravais-lattice index     =            0
     lattice parameter (alat)  =      10.1289  a.u.
     unit-cell volume          =    9515.8234 (a.u.)^3
     number of atoms/cell      =           51
     number of atomic types    =            3
     number of electrons       =       445.00
     number of Kohn-Sham states=          667
     kinetic-energy cutoff     =      40.0000  Ry
     charge density cutoff     =     500.0000  Ry
     convergence threshold     =      1.0E-06
     mixing beta               =       0.3000
     number of iterations used =            8  plain     mixing
     Exchange-correlation      = SLA  PW   PBE  PBE ( 1 4 3 4 0)
     EXX-fraction              =        0.00
     nstep                     =           50

     celldm(1)=  10.128932  celldm(2)=   0.000000  celldm(3)=   0.000000
     celldm(4)=   0.000000  celldm(5)=   0.000000  celldm(6)=   0.000000

     crystal axes: (cart. coord. in units of alat)
               a(1) = (   1.000000   0.000000   0.000000 )
               a(2) = (   0.000000   1.306037   0.000000 )
               a(3) = (   0.000000   0.000000   7.011323 )

     reciprocal axes: (cart. coord. in units 2 pi/alat)
               b(1) = (  1.000000  0.000000  0.000000 )
               b(2) = (  0.000000  0.765675  0.000000 )
               b(3) = (  0.000000  0.000000  0.142626 )

     PseudoPot. # 1 for O  read from file:
     /home/camp/zhonxu/pseudo/o_pbe_v1.01.uspp.F.UPF
     MD5 check sum: 2bcb18d16ea4b960afae9ec6d52f22d2
     Pseudo is Ultrasoft + core correction, Zval =  6.0
     Generated by new atomic code, or converted to UPF format
     Using radial grid of  737 points,  5 beta functions with:
                l(1) =   0
                l(2) =   0
                l(3) =   1
                l(4) =   1
                l(5) =   2
     Q(r) pseudized with  8 coefficients,  rinner =    0.900   0.900   0.900
                                                       0.900   0.900

     PseudoPot. # 2 for Re read from file:
     /home/camp/zhonxu/pseudo/re_pbe_v1.uspp.F.UPF
     MD5 check sum: 6f5a5dcaf9c96c20d0ffdde0de57afc6
     Pseudo is Ultrasoft + core correction, Zval = 15.0
     Generated by new atomic code, or converted to UPF format
     Using radial grid of  981 points,  8 beta functions with:
                l(1) =   0
                l(2) =   0
                l(3) =   1
                l(4) =   1
                l(5) =   2
                l(6) =   2
                l(7) =   3
                l(8) =   3
     Q(r) pseudized with  8 coefficients,  rinner =    1.000   1.000   1.000
                                                       1.000   1.000   1.000
                                                       1.000

     PseudoPot. # 3 for H  read from file:
     /home/camp/zhonxu/pseudo/h_pbe_v1.uspp.F.UPF
     MD5 check sum: 3408e3ff4ec8b0a4e358431e7e038a48
     Pseudo is Ultrasoft, Zval =  1.0
     Generated by new atomic code, or converted to UPF format
     Using radial grid of  615 points,  2 beta functions with:
                l(1) =   0
                l(2) =   0
     Q(r) pseudized with  8 coefficients,  rinner =    0.700

     atomic species   valence    mass     pseudopotential
        O0             6.00    15.99940     O ( 1.00)
        Re1           15.00   186.20700     Re( 1.00)
        H2             1.00     1.00794     H ( 1.00)

      2 Sym. Ops. (no inversion) found

   Cartesian axes

     site n.     atom                  positions (alat units)
         1           O0  tau(   1) = (   0.0000000   0.6530184   2.2387856  )
         2           Re1 tau(   2) = (   0.2500000   0.6530184   2.5261097  )
         3           Re1 tau(   3) = (   0.0000000   0.0000000   2.5261097  )
         4           O0  tau(   4) = (   0.2500000   1.0187087   2.5261097  )
         5           O0  tau(   5) = (   0.2500000   0.2873281   2.5261097  )
         6           O0  tau(   6) = (   0.0000000   0.6530184   2.8134337  )
         7           O0  tau(   7) = (   0.0000000   0.0000000   2.8918203  )
         8           Re1 tau(   8) = (   0.2500000   0.0000000   3.1791443  )
         9           Re1 tau(   9) = (   0.0000000   0.6530184   3.1791443  )
        10           O0  tau(  10) = (   0.2500000   0.9403465   3.1791443  )
        11           O0  tau(  11) = (   0.2500000   0.3656903   3.1791443  )
        12           O0  tau(  12) = (   0.0000000   0.0000000   3.4664683  )
        13           O0  tau(  13) = (   0.0000000   0.6530184   3.5433125  )
        14           Re1 tau(  14) = (   0.2453800   0.6530184   3.8274814  )
        15           Re1 tau(  15) = (   0.0000000   0.0000000   3.8418546  )
        16           O0  tau(  16) = (   0.2488800   1.0202106   3.8338617  )
        17           O0  tau(  17) = (   0.2488800   0.2858261   3.8338617  )
        18           O0  tau(  18) = (   0.0000000   0.6530184   4.1169088  )
        19           O0  tau(  19) = (   0.0000000   0.0000000   4.2175213  )
        20           Re1 tau(  20) = (   0.2749000   0.0000000   4.4985351  )
        21           Re1 tau(  21) = (   0.0000000   0.6530184   4.4714714  )
        22           O0  tau(  22) = (   0.2537500   0.9362978   4.4940479  )
        23           O0  tau(  23) = (   0.2537500   0.3697390   4.4940479  )
        24           O0  tau(  24) = (   0.0000000   0.0000000   4.7327133  )
        25           O0  tau(  25) = (   0.5000000   0.6530184   2.2387856  )
        26           Re1 tau(  26) = (   0.7500000   0.6530184   2.5261097  )
        27           Re1 tau(  27) = (   0.5000000   0.0000000   2.5261097  )
        28           O0  tau(  28) = (   0.7500000   1.0187087   2.5261097  )
        29           O0  tau(  29) = (   0.7500000   0.2873281   2.5261097  )
        30           O0  tau(  30) = (   0.5000000   0.6530184   2.8134337  )
        31           O0  tau(  31) = (   0.5000000   0.0000000   2.8918203  )
        32           Re1 tau(  32) = (   0.7500000   0.0000000   3.1791443  )
        33           Re1 tau(  33) = (   0.5000000   0.6530184   3.1791443  )
        34           O0  tau(  34) = (   0.7500000   0.9403465   3.1791443  )
        35           O0  tau(  35) = (   0.7500000   0.3656903   3.1791443  )
        36           O0  tau(  36) = (   0.5000000   0.0000000   3.4664683  )
        37           O0  tau(  37) = (   0.5000000   0.6530184   3.5484307  )
        38           Re1 tau(  38) = (   0.7546200   0.6530184   3.8274814  )
        39           Re1 tau(  39) = (   0.5000000   0.0000000   3.8339318  )
        40           O0  tau(  40) = (   0.7511200   1.0202106   3.8338617  )
        41           O0  tau(  41) = (   0.7511200   0.2858261   3.8338617  )
        42           O0  tau(  42) = (   0.5000000   0.6530184   4.1084251  )
        43           O0  tau(  43) = (   0.5000000   0.0000000   4.1966276  )
        44           Re1 tau(  44) = (   0.7251000   0.0000000   4.4985351  )
        45           Re1 tau(  45) = (   0.5000000   0.6530184   4.4603234  )
        46           O0  tau(  46) = (   0.7462500   0.9362978   4.4940479  )
        47           O0  tau(  47) = (   0.7462500   0.3697390   4.4940479  )
        48           O0  tau(  48) = (   0.5000000   0.0000000   4.7844569  )
        49           O0  tau(  49) = (   0.5000000   0.6530184   4.8334661  )
        50           O0  tau(  50) = (   0.5000000   0.4356677   4.9614928  )
        51           H2  tau(  51) = (   0.5000000   0.4909131   5.1381782  )

     number of k points=     9  Methfessel-Paxton smearing, width (Ry)=  0.0100
                       cart. coord. in units 2pi/alat
        k(    1) = (   0.0000000   0.0000000   0.0000000), wk =   0.1250000
        k(    2) = (   0.0000000   0.1914188   0.0000000), wk =   0.2500000
        k(    3) = (   0.0000000  -0.3828376   0.0000000), wk =   0.1250000
        k(    4) = (   0.2500000   0.0000000   0.0000000), wk =   0.2500000
        k(    5) = (   0.2500000   0.1914188   0.0000000), wk =   0.5000000
        k(    6) = (   0.2500000  -0.3828376   0.0000000), wk =   0.2500000
        k(    7) = (  -0.5000000   0.0000000   0.0000000), wk =   0.1250000
        k(    8) = (  -0.5000000   0.1914188   0.0000000), wk =   0.2500000
        k(    9) = (  -0.5000000  -0.3828376   0.0000000), wk =   0.1250000

     Largest allocated arrays     est. size (Mb)     dimensions
     Largest temporary arrays     est. size (Mb)     dimensions

     Check: negative/imaginary core charge=   -0.000003    0.000000

     Initial potential from superposition of free atoms
     Check: negative starting charge=   -0.473714

     starting charge  436.99922, renormalised to  445.00000

     negative rho (up, down):  0.482E+00 0.000E+00
     Starting wfc are  345 randomized atomic wfcs

     Self-consistent Calculation

     iteration #  1     ecut=    40.00 Ry     beta=0.30
     Davidson diagonalization with overlap
     ethr =  1.00E-02,  avg # of iterations =  5.8

     negative rho (up, down):  0.511E+00 0.000E+00

     total energy              =   -4125.59598918 Ry
     Harris-Foulkes estimate   =   -4217.67182202 Ry
     estimated scf accuracy    <     182.62762332 Ry

[...]

     End of self-consistent calculation

          k = 0.0000 0.0000 0.0000 ( 40685 PWs)   bands (ev):

   -79.5464 -79.5327 -79.4844 -79.4409 -79.4290 -79.4252 -79.4241 -79.4235
   -79.4064 -79.3687 -79.3600 -79.3495 -79.3489 -79.1715 -79.0514 -78.9947
   -42.0203 -41.7181 -41.7101 -41.6976 -41.6532 -41.6273 -41.6114 -41.5130
   -41.4920 -41.4611 -41.4233 -41.3941 -41.3890 -41.3823 -41.3775 -41.3686
   -41.3428 -41.3382 -41.3348 -41.3337 -41.3327 -41.3149 -41.3079 -41.2714
   -41.2705 -41.2388 -41.2324 -41.2162 -41.2154 -41.1976 -41.1914 -41.1842
   -41.1606 -41.1090 -41.0610 -41.0493 -40.9587 -40.9559 -40.8718 -40.8365
   -40.8139 -40.7968 -40.7782 -40.7627 -40.7523 -40.7499 -40.7345 -40.4619
   -22.2602 -19.1341 -18.8606 -18.6356 -18.5761 -18.5538 -18.2794 -18.2341
   -18.0625 -17.9460 -17.8939 -17.7222 -17.6859 -17.6631 -17.6614 -17.6351
   -17.5677 -17.5573 -17.4228 -17.3932 -17.3563 -17.3456 -17.3343 -17.3301
   -17.3227 -17.3013 -17.2941 -17.2386 -17.0722 -16.3244 -15.9999 -15.5239
   -15.1160 -14.4178  -7.6937  -7.5607  -7.5443  -7.4640  -7.3923  -7.0892
    -6.9023  -6.6906  -6.5997  -6.4221  -6.3994  -6.2115  -6.0798  -6.0449
    -6.0217  -5.9796  -5.9478  -5.8319  -5.7604  -5.7564  -5.7361  -5.5907
    -5.5597  -5.4664  -5.4655  -5.3560  -5.3395  -5.3070  -5.2308  -5.2122
    -5.1234  -5.1218  -5.0938  -5.0861  -5.0783  -4.9739  -4.7165  -4.6778
    -4.6010  -4.5376  -4.3766  -4.0183  -3.9931  -3.9773  -3.9459  -3.8660
    -3.8182  -3.7520  -3.7143  -3.6874  -3.6721  -3.6592  -3.6504  -3.5728
[...]
Re1      0.274900000   0.000000000   0.641610000    0   0   0
Re1      0.000000000   0.500000000   0.637750000    0   0   0
O0       0.253750000   0.716900000   0.640970000    0   0   0
O0       0.253750000   0.283100000   0.640970000    0   0   0
O0       0.000000000   0.000000000   0.675010000    0   0   0
O0       0.500000000   0.500000000   0.319310000    0   0   0
Re1      0.750000000   0.500000000   0.360290000    0   0   0
Re1      0.500000000   0.000000000   0.360290000    0   0   0
O0       0.750000000   0.780000000   0.360290000    0   0   0
O0       0.750000000   0.220000000   0.360290000    0   0   0
O0       0.500000000   0.500000000   0.401270000    0   0   0
O0       0.500000000   0.000000000   0.412450000    0   0   0
Re1      0.750000000   0.000000000   0.453430000    0   0   0
Re1      0.500000000   0.500000000   0.453430000    0   0   0
O0       0.750000000   0.720000000   0.453430000    0   0   0
O0       0.750000000   0.280000000   0.453430000    0   0   0
O0       0.500000000   0.000000000   0.494410000    0   0   0
O0       0.500000000   0.500000000   0.506100000    0   0   0
Re1      0.754620000   0.500000000   0.545900000    0   0   0
Re1      0.500000000   0.000000000   0.546820000    0   0   0
O0       0.751120000   0.781150000   0.546810000    0   0   0
O0       0.751120000   0.218850000   0.546810000    0   0   0
O0       0.500000000   0.500000000   0.585970000    0   0   0
O0       0.500000000   0.000000000   0.598550000    0   0   0
Re1      0.725100000   0.000000000   0.641610000    0   0   0
Re1      0.500000000   0.500000000   0.636160000    0   0   0
O0       0.746250000   0.716900000   0.640970000    0   0   0
O0       0.746250000   0.283100000   0.640970000    0   0   0
O0       0.500000000   0.000000000   0.682390000    0   0   0
O0       0.500000000   0.500000000   0.688454221    1   0   1
O0       0.500000000   0.333580000   0.709163460    1   0   1
H2       0.500000000   0.375880000   0.734113261    1   0   1

     Check: negative starting charge=   -0.473688
     NEW-OLD atomic charge density approx. for the potential

     Check: negative/imaginary core charge=   -0.000003    0.000000
     Check: negative starting charge=   -0.473685

[...]

     Self-consistent Calculation

[...]

     Threshold (ethr) on eigenvalues was too large:
     Diagonalizing with lowered threshold

     Davidson diagonalization with overlap
     ethr =  7.65E-08,  avg # of iterations =  1.0

[...]

     total energy              =   -4213.25160317 Ry
     Harris-Foulkes estimate   =   -4213.25160317 Ry
     estimated scf accuracy    <       0.00000005 Ry

     iteration # 26     ecut=    40.00 Ry     beta=0.30
     Davidson diagonalization with overlap
     ethr =  2.43E-12,  avg # of iterations =  1.0

     negative rho (up, down):  0.489E+00 0.000E+00

     End of self-consistent calculation

[...]

          k = 0.2500-0.3828 0.0000 ( 40642 PWs)   bands (ev):

[...]

          k =-0.5000-0.3828 0.0000 ( 40640 PWs)   bands (ev):

   -79.5733 -79.5554 -79.4743 -79.4743 -79.4667 -79.4307 -79.4262 -79.4139
   -79.4138 -79.4019 -79.3943 -79.3890 -79.3789 -79.1976 -79.0460 -79.0362
   -41.8519 -41.5465 -41.5065 -41.5064 -41.4088 -41.4065 -41.3999 -41.3959
   -41.3958 -41.3686 -41.3635 -41.3547 -41.3402 -41.3357 -41.3339 -41.3330
   -41.3318 -41.3281 -41.3242 -41.3119 -41.3029 -41.2962 -41.2879 -41.2741
   -41.2707 -41.2645 -41.2616 -41.2576 -41.2529 -41.2227 -41.2197 -41.2100
   -41.2090 -41.2076 -41.2073 -41.2039 -41.1369 -41.1352 -41.1347 -41.1058
   -41.0406 -40.9919 -40.9391 -40.9321 -40.9311 -40.9276 -40.9139 -40.8964
   -21.4853 -18.4198 -18.3728 -18.2553 -18.2117 -18.1494 -18.1370 -18.0934
   -17.9536 -17.9442 -17.9409 -17.9122 -17.8595 -17.8542 -17.8400 -17.8206
   -17.7613 -17.6123 -17.5835 -17.5798 -17.5376 -17.5248 -17.5123 -17.4769
   -17.4716 -17.4705 -17.4548 -17.4527 -17.0554 -16.3561 -16.2650 -15.4147
   -15.4009 -14.7152  -7.0277  -6.7708  -6.6496  -6.5204  -6.5190  -6.4890
    -6.4849  -6.4671  -6.4184  -6.3709  -6.3616  -6.3285  -6.2828  -6.1274
    -6.0925  -5.9901  -5.9148  -5.4814  -5.4118  -5.3910  -5.2266  -5.2182
    -5.1441  -5.1303  -5.1272  -5.1070  -5.0578  -5.0119  -4.9606  -4.8922
    -4.8795  -4.8681  -4.7797  -4.7527  -4.7510  -4.7252  -4.7023  -4.6740
    -4.5854  -4.5614  -4.5410  -4.4831  -4.4807  -4.3811  -4.3730  -4.3218
    -4.0253  -3.9707  -3.9619  -3.9316  -3.9132  -3.8764  -3.8738  -3.7512
    -3.5332  -3.4984  -3.4376  -3.4303  -3.4181  -3.3794  -3.3333  -3.1989
    -3.1941  -3.1461  -3.1275  -3.1256  -3.1068  -3.0186  -3.0073  -3.0027
    -2.9428  -2.8663  -2.8659  -2.8417  -2.7513  -2.6785  -2.4845  -2.3945
    -2.3706  -2.1078  -2.0321  -2.0034  -1.8734  -1.7950  -1.7209  -1.7110
    -1.6317  -1.5566  -1.4827  -1.4327  -1.3644  -1.3427  -1.2787  -1.0265
    -0.9321  -0.6930  -0.6845  -0.5967  -0.5948  -0.4850   0.3593   0.4620
     0.7597   0.8032   0.8977   0.9125   0.9712   1.0271   1.0534   1.0901
     1.1221   1.1335   1.1496   1.1540   1.3684   1.3686   1.5121   1.6217
     1.7235   1.8056   1.8084   1.9876   2.1655   2.2090   2.2398   2.2987
     2.3339   2.3880   2.4100   2.4723   2.5312   2.6202   2.6862   2.6883
     2.7896   2.9218   2.9541   3.0259   3.1288   3.2069   3.2440   3.3374
     3.3405   3.3553   3.3748   3.3762   3.6160   3.6630   3.6897   3.7123
     4.0105   4.0961   4.4992   4.7291   4.7494   4.7697   4.8783   4.9646
     4.9684   5.0734   5.3749   5.6677   5.7232   5.7779   6.0809   6.5140
     6.5194   6.6198   6.7978   7.0495   7.0540   7.2109   7.2933   7.3815
     7.6847   7.6879   7.7807   7.8127   8.0312   8.0511   8.0569   8.0921
     8.1325   8.1634   8.1707   8.2787   8.6251   8.6875   8.7138   8.9192
     9.0471   9.0948   9.1209   9.3063   9.3696   9.3936   9.4283   9.5836
     9.6049   9.6477   9.7150   9.7627   9.9056   9.9288   9.9781  10.0562
    10.0790  10.1215  10.2130  10.2982  10.5663  10.6233  10.6912  10.7349
    10.7582  10.7593  10.8902  11.0089  11.3963  11.4460  11.4461  11.5291
    11.5679  11.6284  11.6343  11.7900  12.2231  12.2669  12.2829  12.3872
    12.4278  12.4813  12.4929  12.6057  12.8820  12.8852  12.9241  12.9566
    12.9728  13.0713  13.0753  13.0759  13.0953  13.1355  13.3110  13.3613
    13.5280  13.5643  13.6961  13.7992  13.9730  14.0217  14.2843  14.4654
    14.5344  14.5474  14.5934  14.6027  14.7129  14.7601  14.8487  14.9377
    15.0597  15.1185  15.1296  15.1714  15.1831  15.2176  15.2205  15.2663
    15.2763  15.3115  15.3965  15.4135  15.4454  15.4482  15.4958  15.5365
    15.6026  15.6622  15.7248  15.8379  15.8393  15.9431  15.9898  16.0112
    16.0236  16.0379  16.1668  16.1774  16.2128  16.2219  16.2538  16.2643
    16.3805  16.4027  16.4073  16.4281  16.4860  16.4995  16.5074  16.5134
    16.5357  16.5579  16.6009  16.6328  16.6712  16.6973  16.7301  16.8079
    16.8985  16.9281  16.9751  17.1150  17.1353  17.2234  17.2610  17.4253
    17.4475  17.4748  17.5302  17.5427  17.5799  17.5882  17.6250  17.6739
    17.7448  17.8095  17.9136  18.0228  18.0247  18.0353  18.1287  18.2412
    18.2563  18.2834  18.3239  18.4483  18.4601  18.4655  18.5141  18.5277
    18.6023  18.6662  18.7237  18.8179  18.8430  18.9812  19.0423  19.1345
    19.2840  19.3039  19.3503  19.3645  19.4153  19.4308  19.4446  19.4966
    19.5731  19.6119  19.6388  19.6556  19.6845  19.7141  19.7913  19.8089
    19.8564  19.8969  19.9042  19.9307  19.9579  19.9600  19.9724  20.0078
    20.0116  20.0688  20.0932  20.1320  20.1594  20.2127  20.2144  20.2348
[...]
    24.3147  24.3343  24.3420  24.3549  24.4105  24.4531  24.5507  24.5940
    24.6510  24.7081  24.7458  24.7751  24.8150  24.8321  24.9193  24.9921
    25.0425  25.0758  25.1750  25.1815  25.2204  25.2996  25.3156  25.3543
    25.3624  25.4011  25.4236  25.4360  25.5074  25.5468  25.5576  25.5810
    25.6157  25.6252  25.6426  25.6598  25.7249  25.8275  25.8860  25.8862
    25.9005  25.9359  25.9475  26.0011  26.0379  26.1308  26.1883  26.2497
    26.2659  26.2961  26.3024  26.3166  26.3456  26.3607  26.4391  26.4904
    26.5016  26.5438  26.6078  26.6258  26.6573  26.6915  26.7090  26.7370
    26.8396  26.8484  26.8764  26.9117  26.9833  26.9939  27.0295  27.0435
    27.1132  27.1305  27.1380  27.1384  27.2170  27.2403  27.2586  27.2629
    27.2989  27.3087  27.3249  27.3845  27.4309  27.4471  27.4772  27.5731
    27.5971  27.6030  27.6237  27.6611  27.6797  27.6987  27.7075  27.7515
    27.8618  27.8896  27.9000  27.9816  28.0443  28.0596  28.1174  28.1259
    28.1513  28.1720  28.1806  28.2194  28.2447  28.2666  28.3112  28.3263
    28.3374  28.3740  28.4226

     the Fermi energy is     2.3782 ev

!    total energy              =   -4213.25160317 Ry
     Harris-Foulkes estimate   =   -4213.25160317 Ry
     estimated scf accuracy    <          4.2E-09 Ry

     The total energy is the sum of the following terms:

     one-electron contribution =  -85235.24160047 Ry
     hartree contribution      =   42669.82081711 Ry
     xc contribution           =   -1154.67157414 Ry
     ewald contribution        =   39506.84291472 Ry
     smearing contrib. (-TS)   =      -0.00216039 Ry

     convergence has been achieved in  26 iterations

     Forces acting on atoms (Ry/au):

     negative rho (up, down):  0.489E+00 0.000E+00
     atom    1 type  1   force =     0.00000000   -0.00005274    0.10253809
     atom    2 type  2   force =    -0.01617493   -0.00000447   -0.14592839
     atom    3 type  2   force =     0.00000000   -0.00005801    0.05902922
     atom    4 type  1   force =    -0.00023107    0.00407125   -0.01376092
     atom    5 type  1   force =    -0.00023696   -0.00401586   -0.01372889
     atom    6 type  1   force =     0.00000000   -0.00003660    0.04695166
     atom    7 type  1   force =     0.00000000    0.00009400   -0.01121158
     atom    8 type  2   force =     0.00014042    0.00006302    0.00671163
     atom    9 type  2   force =     0.00000000    0.00006398   -0.03727876
     atom   10 type  1   force =     0.00012254   -0.00663844    0.00309311
     atom   11 type  1   force =     0.00005827    0.00665802    0.00322199
     atom   12 type  1   force =     0.00000000    0.00001246    0.00252983
     atom   13 type  1   force =     0.00000000    0.00036875   -0.00203323
     atom   14 type  2   force =    -0.00023165   -0.00165463    0.00006209
     atom   15 type  2   force =     0.00000000   -0.00014019   -0.00234626
     atom   16 type  1   force =    -0.00010046    0.00081785   -0.00035377
     atom   17 type  1   force =    -0.00009610   -0.00054967   -0.00063617
     atom   18 type  1   force =     0.00000000   -0.00076110   -0.00241974
     atom   19 type  1   force =     0.00000000   -0.00074903    0.00651669
     atom   20 type  2   force =     0.00200957    0.00100860    0.00597686
     atom   21 type  2   force =     0.00000000    0.00504030   -0.01603891
     atom   22 type  1   force =    -0.01204885   -0.00551653   -0.01572245
     atom   23 type  1   force =    -0.01093265    0.00238737   -0.01705491
     atom   24 type  1   force =     0.00000000   -0.00004124   -0.00197530
     atom   25 type  1   force =     0.00000000   -0.00005408    0.10861552
     atom   26 type  2   force =     0.01617493   -0.00000447   -0.14592839
     atom   27 type  2   force =     0.00000000   -0.00000250    0.05978599
     atom   28 type  1   force =     0.00023107    0.00407125   -0.01376092
     atom   29 type  1   force =     0.00023696   -0.00401586   -0.01372889
     atom   30 type  1   force =     0.00000000    0.00001487    0.03622107
     atom   31 type  1   force =     0.00000000   -0.00006249   -0.00993860
     atom   32 type  2   force =    -0.00014042    0.00006302    0.00671163
     atom   33 type  2   force =     0.00000000    0.00013783   -0.02164792
     atom   34 type  1   force =    -0.00012254   -0.00663844    0.00309311
     atom   35 type  1   force =    -0.00005827    0.00665802    0.00322199
     atom   36 type  1   force =     0.00000000    0.00005843   -0.01224743
     atom   37 type  1   force =     0.00000000    0.00004152   -0.00191947
     atom   38 type  2   force =     0.00023165   -0.00165463    0.00006209
     atom   39 type  2   force =     0.00000000   -0.00021814   -0.00109987
     atom   40 type  1   force =     0.00010046    0.00081785   -0.00035377
     atom   41 type  1   force =     0.00009610   -0.00054967   -0.00063617
     atom   42 type  1   force =     0.00000000    0.00523506   -0.03365180
     atom   43 type  1   force =     0.00000000    0.00033606    0.00340917
     atom   44 type  2   force =    -0.00200957    0.00100860    0.00597686
     atom   45 type  2   force =     0.00000000   -0.02087993    0.12141680
     atom   46 type  1   force =     0.01204885   -0.00551653   -0.01572245
     atom   47 type  1   force =     0.01093265    0.00238737   -0.01705491
     atom   48 type  1   force =     0.00000000   -0.01625004   -0.01689923
     atom   49 type  1   force =     0.00000000    0.07235379   -0.00014763
     atom   50 type  1   force =     0.00000000   -0.06236490   -0.00052956
     atom   51 type  3   force =     0.00000000    0.02466089    0.00061090

     Total force =     0.000822     Total SCF correction =     0.000006

     bfgs converged in   8 scf cycles and   7 bfgs steps
     (criteria: energy < 0.10E-03, force < 0.10E-02)

     End of BFGS Geometry Optimization

     Final energy   =   -4213.2516031713 Ry
Begin final coordinates

ATOMIC_POSITIONS (crystal)
O0       0.000000000   0.500000000   0.319310000    0   0   0
Re1      0.250000000   0.500000000   0.360290000    0   0   0
Re1      0.000000000   0.000000000   0.360290000    0   0   0
O0       0.250000000   0.780000000   0.360290000    0   0   0
O0       0.250000000   0.220000000   0.360290000    0   0   0
O0       0.000000000   0.500000000   0.401270000    0   0   0
O0       0.000000000   0.000000000   0.412450000    0   0   0
Re1      0.250000000   0.000000000   0.453430000    0   0   0
Re1      0.000000000   0.500000000   0.453430000    0   0   0
O0       0.250000000   0.720000000   0.453430000    0   0   0
O0       0.250000000   0.280000000   0.453430000    0   0   0
O0       0.000000000   0.000000000   0.494410000    0   0   0
O0       0.000000000   0.500000000   0.505370000    0   0   0
Re1      0.245380000   0.500000000   0.545900000    0   0   0
Re1      0.000000000   0.000000000   0.547950000    0   0   0
O0       0.248880000   0.781150000   0.546810000    0   0   0
O0       0.248880000   0.218850000   0.546810000    0   0   0
O0       0.000000000   0.500000000   0.587180000    0   0   0
O0       0.000000000   0.000000000   0.601530000    0   0   0
Re1      0.274900000   0.000000000   0.641610000    0   0   0
Re1      0.000000000   0.500000000   0.637750000    0   0   0
O0       0.253750000   0.716900000   0.640970000    0   0   0
O0       0.253750000   0.283100000   0.640970000    0   0   0
O0       0.000000000   0.000000000   0.675010000    0   0   0
O0       0.500000000   0.500000000   0.319310000    0   0   0
Re1      0.750000000   0.500000000   0.360290000    0   0   0
Re1      0.500000000   0.000000000   0.360290000    0   0   0
O0       0.750000000   0.780000000   0.360290000    0   0   0
O0       0.750000000   0.220000000   0.360290000    0   0   0
O0       0.500000000   0.500000000   0.401270000    0   0   0
O0       0.500000000   0.000000000   0.412450000    0   0   0
Re1      0.750000000   0.000000000   0.453430000    0   0   0
Re1      0.500000000   0.500000000   0.453430000    0   0   0
O0       0.750000000   0.720000000   0.453430000    0   0   0
O0       0.750000000   0.280000000   0.453430000    0   0   0
O0       0.500000000   0.000000000   0.494410000    0   0   0
O0       0.500000000   0.500000000   0.506100000    0   0   0
Re1      0.754620000   0.500000000   0.545900000    0   0   0
Re1      0.500000000   0.000000000   0.546820000    0   0   0
O0       0.751120000   0.781150000   0.546810000    0   0   0
O0       0.751120000   0.218850000   0.546810000    0   0   0
O0       0.500000000   0.500000000   0.585970000    0   0   0
O0       0.500000000   0.000000000   0.598550000    0   0   0
Re1      0.725100000   0.000000000   0.641610000    0   0   0
Re1      0.500000000   0.500000000   0.636160000    0   0   0
O0       0.746250000   0.716900000   0.640970000    0   0   0
O0       0.746250000   0.283100000   0.640970000    0   0   0
O0       0.500000000   0.000000000   0.682390000    0   0   0
O0       0.500000000   0.500000000   0.688454221    1   0   1
O0       0.500000000   0.333580000   0.709163460    1   0   1
H2       0.500000000   0.375880000   0.734113261    1   0   1
End final coordinates

     General routines

     Parallel routines

   This run was terminated on:   6:44:30  13May2014

   JOB DONE.