     Program PWSCF v.5.0.2 (svn rev. 9656) starts on 28Apr2014 at 13:57:11

     Current dimensions of program PWSCF are:
     Max number of different atomic species (ntypx) = 10
     Max number of k-points (npk) =  40000
     Max angular momentum in pseudopotentials (lmaxx) =  3
     Reading input from pwscf.in
Warning: card &CELL ignored
Warning: card / ignored

     Subspace diagonalization in iterative solution of the eigenvalue problem:
     a serial algorithm will be used

     bravais-lattice index     =            0
     lattice parameter (alat)  =      11.2250  a.u.
     unit-cell volume          =    7005.5484 (a.u.)^3
     number of atoms/cell      =           31
     number of atomic types    =            3
     number of electrons       =       214.00
     number of Kohn-Sham states=          309
     kinetic-energy cutoff     =      40.0000  Ry
     charge density cutoff     =     500.0000  Ry
     convergence threshold     =      1.0E-06
     mixing beta               =       0.7000
     number of iterations used =            8  plain     mixing
     Exchange-correlation      = SLA  PW   PBE  PBE ( 1 4 3 4 0)
     EXX-fraction              =        0.00
     nstep                     =           50

     celldm(1)=  11.224973  celldm(2)=   0.000000  celldm(3)=   0.000000
     celldm(4)=   0.000000  celldm(5)=   0.000000  celldm(6)=   0.000000

     crystal axes: (cart. coord. in units of alat)
               a(1) = (   1.000000   0.000000   0.000000 )
               a(2) = (   0.000000   1.107086   0.000000 )
               a(3) = (   0.000000   0.000000   4.474090 )

     reciprocal axes: (cart. coord. in units 2 pi/alat)
               b(1) = (  1.000000  0.000000  0.000000 )
               b(2) = (  0.000000  0.903272  0.000000 )
               b(3) = (  0.000000  0.000000  0.223509 )

     PseudoPot. # 1 for O  read from file:
     /home/camp/zhonxu/pseudo/o_pbe_v1.01.uspp.F.UPF
     MD5 check sum: 2bcb18d16ea4b960afae9ec6d52f22d2
     Pseudo is Ultrasoft + core correction, Zval =  6.0
     Generated by new atomic code, or converted to UPF format
     Using radial grid of  737 points,  5 beta functions with:
                l(1) =   0
                l(2) =   0
                l(3) =   1
                l(4) =   1
                l(5) =   2
     Q(r) pseudized with  8 coefficients,  rinner =    0.900   0.900   0.900
                                                       0.900   0.900

     PseudoPot. # 2 for Ti read from file:
     /home/camp/zhonxu/pseudo/ti_pbe_v1.uspp.F.UPF
     MD5 check sum: bcc8f6961b3b91f0cac3ca967d22d0fb
     Pseudo is Ultrasoft + core correction, Zval = 12.0
     Generated by new atomic code, or converted to UPF format
     Using radial grid of  851 points,  6 beta functions with:
                l(1) =   0
                l(2) =   0
                l(3) =   1
                l(4) =   1
                l(5) =   2
                l(6) =   2
     Q(r) pseudized with  6 coefficients,  rinner =    1.000   1.000   1.000
                                                       1.000   1.000

     PseudoPot. # 3 for H  read from file:
     /home/camp/zhonxu/pseudo/h_pbe_v1.uspp.F.UPF
     MD5 check sum: 3408e3ff4ec8b0a4e358431e7e038a48
     Pseudo is Ultrasoft, Zval =  1.0
     Generated by new atomic code, or converted to UPF format
     Using radial grid of  615 points,  2 beta functions with:
                l(1) =   0
                l(2) =   0
     Q(r) pseudized with  8 coefficients,  rinner =    0.700

     atomic species   valence    mass     pseudopotential
        O0             6.00    15.99940     O ( 1.00)
        Ti1           12.00    47.88000     Ti( 1.00)
        H2             1.00     1.00794     H ( 1.00)

     Simplified LDA+U calculation (l_max = 2) with parameters (eV):
     atomic species    L          U    alpha       J0     beta
        Ti1            2     6.5000   0.0000   0.0000   0.0000

     No symmetry found

   Cartesian axes

     site n.     atom                  positions (alat units)
         1           O0  tau(   1) = (   0.0000000   0.0000000   1.6912507  )
         2           O0  tau(   2) = (   0.0000000   0.5535432   1.7801061  )
         3           Ti1 tau(   3) = (   0.2500000   0.5535432   2.0136983  )
         4           Ti1 tau(   4) = (   0.0000000   0.0000000   2.0256889  )
         5           O0  tau(   5) = (   0.2500000   0.8967400   2.0101638  )
         6           O0  tau(   6) = (   0.2500000   0.2103464   2.0140115  )
         7           O0  tau(   7) = (   0.0000000   0.5535432   2.2264413  )
         8           O0  tau(   8) = (   0.0000000   0.0000000   2.3510894  )
         9           Ti1 tau(   9) = (   0.2500000   0.0000000   2.5997146  )
        10           Ti1 tau(  10) = (   0.0000000   0.5535432   2.5433858  )
        11           O0  tau(  11) = (   0.2500000   0.7638896   2.5969406  )
        12           O0  tau(  12) = (   0.2500000   0.3431968   2.5970301  )
        13           O0  tau(  13) = (   0.0000000   0.0000000   2.7842260  )
        14           O0  tau(  14) = (   0.5000000   0.0000000   1.6905348  )
        15           O0  tau(  15) = (   0.5000000   0.5535432   1.7767953  )
        16           Ti1 tau(  16) = (   0.7500000   0.5535432   2.0136983  )
        17           Ti1 tau(  17) = (   0.5000000   0.0000000   2.0204542  )
        18           O0  tau(  18) = (   0.7500000   0.8967400   2.0103875  )
        19           O0  tau(  19) = (   0.7500000   0.2103464   2.0134299  )
        20           O0  tau(  20) = (   0.5000000   0.5535432   2.2001336  )
        21           O0  tau(  21) = (   0.5000000   0.0000000   2.3501946  )
        22           Ti1 tau(  22) = (   0.7500000   0.0000000   2.5996698  )
        23           Ti1 tau(  23) = (   0.5000000   0.5535432   2.6765794  )
        24           O0  tau(  24) = (   0.7500000   0.7638896   2.5974328  )
        25           O0  tau(  25) = (   0.7500000   0.3431968   2.5965380  )
        26           O0  tau(  26) = (   0.5000000   0.0000000   2.7806915  )
        27           H2  tau(  27) = (  -0.0007400   0.6861389   1.6797970  )
        28           H2  tau(  28) = (   0.4994200   0.6816995   1.6713410  )
        29           H2  tau(  29) = (   0.1486600   0.0377184   1.6265106  )
        30           H2  tau(  30) = (   0.6489300   0.0363456   1.6257052  )
        31           O0  tau(  31) = (   0.4999900   0.5533882   2.9590287  )

     number of k points=    10  Methfessel-Paxton smearing, width (Ry)=  0.0100
                       cart. coord. in units 2pi/alat
        k(    1) = (   0.0000000   0.0000000   0.0000000), wk =   0.1250000
        k(    2) = (   0.0000000   0.2258180   0.0000000), wk =   0.2500000
        k(    3) = (   0.0000000  -0.4516359   0.0000000), wk =   0.1250000
        k(    4) = (   0.2500000   0.0000000   0.0000000), wk =   0.2500000
        k(    5) = (   0.2500000   0.2258180   0.0000000), wk =   0.2500000
        k(    6) = (   0.2500000  -0.4516359   0.0000000), wk =   0.2500000
        k(    7) = (  -0.5000000   0.0000000   0.0000000), wk =   0.1250000
        k(    8) = (  -0.5000000   0.2258180   0.0000000), wk =   0.2500000
        k(    9) = (  -0.5000000  -0.4516359   0.0000000), wk =   0.1250000
        k(   10) = (  -0.2500000   0.2258180   0.0000000), wk =   0.2500000

     Largest allocated arrays     est. size (Mb)     dimensions
     Largest temporary arrays     est. size (Mb)     dimensions

     Check: negative/imaginary core charge=   -0.000006    0.000000

     Initial potential from superposition of free atoms
     Check: negative starting charge=   -0.102438

     starting charge  205.99958, renormalised to  214.00000

     negative rho (up, down):  0.106E+00 0.000E+00
     Number of +U iterations with fixed ns =  0
     Starting occupations:
 --- enter write_ns ---
 LDA+U parameters:
U( 2)     =  6.50000000
alpha( 2) =  0.00000000
atom    3   Tr[ns(na)] =   2.00000
    eigenvalues:
  0.200  0.200  0.200  0.200  0.200
    eigenvectors:
  1.000  0.000  0.000  0.000  0.000
  0.000  1.000  0.000  0.000  0.000
  0.000  0.000  1.000  0.000  0.000
  0.000  0.000  0.000  1.000  0.000
  0.000  0.000  0.000  0.000  1.000
    occupations:
  0.200  0.000  0.000  0.000  0.000
  0.000  0.200  0.000  0.000  0.000
  0.000  0.000  0.200  0.000  0.000
  0.000  0.000  0.000  0.200  0.000
  0.000  0.000  0.000  0.000  0.200
atom    4   Tr[ns(na)] =   2.00000
    eigenvalues:
  0.200  0.200  0.200  0.200  0.200
    eigenvectors:
  1.000  0.000  0.000  0.000  0.000
  0.000  1.000  0.000  0.000  0.000
  0.000  0.000  1.000  0.000  0.000
  0.000  0.000  0.000  1.000  0.000
  0.000  0.000  0.000  0.000  1.000
    occupations:
  0.200  0.000  0.000  0.000  0.000
  0.000  0.200  0.000  0.000  0.000
  0.000  0.000  0.200  0.000  0.000
  0.000  0.000  0.000  0.200  0.000
  0.000  0.000  0.000  0.000  0.200
atom    9   Tr[ns(na)] =   2.00000
    eigenvalues:
  0.200  0.200  0.200  0.200  0.200
    eigenvectors:
  1.000  0.000  0.000  0.000  0.000
  0.000  1.000  0.000  0.000  0.000
  0.000  0.000  1.000  0.000  0.000
  0.000  0.000  0.000  1.000  0.000
  0.000  0.000  0.000  0.000  1.000
    occupations:
  0.200  0.000  0.000  0.000  0.000
  0.000  0.200  0.000  0.000  0.000
  0.000  0.000  0.200  0.000  0.000
  0.000  0.000  0.000  0.200  0.000
  0.000  0.000  0.000  0.000  0.200
atom   10   Tr[ns(na)] =   2.00000
    eigenvalues:
  0.200  0.200  0.200  0.200  0.200
    eigenvectors:
  1.000  0.000  0.000  0.000  0.000
  0.000  1.000  0.000  0.000  0.000
  0.000  0.000  1.000  0.000  0.000
  0.000  0.000  0.000  1.000  0.000
  0.000  0.000  0.000  0.000  1.000
    occupations:
  0.200  0.000  0.000  0.000  0.000
  0.000  0.200  0.000  0.000  0.000
  0.000  0.000  0.200  0.000  0.000
  0.000  0.000  0.000  0.200  0.000
  0.000  0.000  0.000  0.000  0.200
atom   16   Tr[ns(na)] =   2.00000
    eigenvalues:
  0.200  0.200  0.200  0.200  0.200
    eigenvectors:
  1.000  0.000  0.000  0.000  0.000
  0.000  1.000  0.000  0.000  0.000
  0.000  0.000  1.000  0.000  0.000
  0.000  0.000  0.000  1.000  0.000
  0.000  0.000  0.000  0.000  1.000
    occupations:
  0.200  0.000  0.000  0.000  0.000
  0.000  0.200  0.000  0.000  0.000
  0.000  0.000  0.200  0.000  0.000
  0.000  0.000  0.000  0.200  0.000
  0.000  0.000  0.000  0.000  0.200
atom   17   Tr[ns(na)] =   2.00000
    eigenvalues:
  0.200  0.200  0.200  0.200  0.200
    eigenvectors:
  1.000  0.000  0.000  0.000  0.000
  0.000  1.000  0.000  0.000  0.000
  0.000  0.000  1.000  0.000  0.000
  0.000  0.000  0.000  1.000  0.000
  0.000  0.000  0.000  0.000  1.000
    occupations:
  0.200  0.000  0.000  0.000  0.000
  0.000  0.200  0.000  0.000  0.000
  0.000  0.000  0.200  0.000  0.000
  0.000  0.000  0.000  0.200  0.000
  0.000  0.000  0.000  0.000  0.200
atom   22   Tr[ns(na)] =   2.00000
    eigenvalues:
  0.200  0.200  0.200  0.200  0.200
    eigenvectors:
  1.000  0.000  0.000  0.000  0.000
  0.000  1.000  0.000  0.000  0.000
  0.000  0.000  1.000  0.000  0.000
  0.000  0.000  0.000  1.000  0.000
  0.000  0.000  0.000  0.000  1.000
    occupations:
  0.200  0.000  0.000  0.000  0.000
  0.000  0.200  0.000  0.000  0.000
[...]
    eigenvalues:
  0.124  0.147  0.165  0.400  0.460
    eigenvectors:
  0.020  0.741  0.061  0.165  0.013
  0.002  0.006  0.003  0.216  0.773
  0.655  0.001  0.344  0.000  0.000
  0.006  0.152  0.010  0.619  0.213
  0.316  0.100  0.582  0.000  0.002
    occupations:
  0.194  0.016 -0.003  0.097  0.002
  0.016  0.443  0.003 -0.034  0.014
 -0.003  0.003  0.138  0.007 -0.019
  0.097 -0.034  0.007  0.370 -0.002
  0.002  0.014 -0.019 -0.002  0.151
atom    4   Tr[ns(na)] =   2.66798
    eigenvalues:
  0.129  0.153  0.164  0.443  0.444
    eigenvectors:
  0.008  0.002  0.000  0.031  0.959
  0.003  0.678  0.317  0.000  0.003
  0.002  0.315  0.683  0.000  0.000
  0.988  0.005  0.000  0.000  0.007
  0.000  0.000  0.000  0.969  0.031
    occupations:
  0.441  0.015  0.005 -0.026 -0.000
  0.015  0.157 -0.005 -0.000 -0.003
  0.005 -0.005  0.161  0.001 -0.000
 -0.026 -0.000  0.001  0.132 -0.000
 -0.000 -0.003 -0.000 -0.000  0.443
atom    9   Tr[ns(na)] =   2.64104
    eigenvalues:
  0.127  0.161  0.173  0.399  0.461
    eigenvectors:
  0.000  0.000  0.881  0.119  0.000
  0.000  0.000  0.000  0.008  0.991
  0.997  0.003  0.000  0.000  0.000
  0.000  0.000  0.119  0.873  0.008
  0.003  0.996  0.000  0.000  0.000
    occupations:
  0.200  0.003 -0.000  0.073  0.000
  0.003  0.460  0.000 -0.007 -0.000
 -0.000  0.000  0.127 -0.000 -0.002
  0.073 -0.007 -0.000  0.372 -0.000
  0.000 -0.000 -0.002 -0.000  0.160
atom   10   Tr[ns(na)] =   2.56122
    eigenvalues:
  0.128  0.174  0.194  0.317  0.468
    eigenvectors:
  0.021  0.000  0.000  0.979  0.000
  0.000  0.000  1.000  0.000  0.000
  0.000  1.000  0.000  0.000  0.000
  0.979  0.000  0.000  0.021  0.000
  0.000  0.000  0.000  0.000  1.000
    occupations:
  0.313 -0.000 -0.001 -0.027 -0.000
 -0.000  0.194 -0.000  0.000  0.000
 -0.001 -0.000  0.174 -0.000  0.000
 -0.027  0.000 -0.000  0.132  0.000
 -0.000  0.000  0.000  0.000  0.468
atom   16   Tr[ns(na)] =   2.59321
    eigenvalues:
  0.124  0.147  0.165  0.400  0.460
    eigenvectors:
  0.020  0.741  0.061  0.165  0.013
  0.002  0.006  0.003  0.215  0.773
  0.655  0.001  0.344  0.000  0.000
  0.007  0.152  0.010  0.619  0.212
  0.316  0.100  0.581  0.001  0.002
    occupations:
  0.194 -0.016 -0.003  0.097 -0.002
 -0.016  0.443 -0.003  0.034  0.014
 -0.003 -0.003  0.138  0.007  0.019
  0.097  0.034  0.007  0.370  0.002
 -0.002  0.014  0.019  0.002  0.151
atom   17   Tr[ns(na)] =   2.66447
    eigenvalues:
  0.128  0.153  0.165  0.439  0.447
    eigenvectors:
  0.007  0.002  0.000  0.001  0.989
  0.002  0.701  0.294  0.000  0.002
  0.001  0.293  0.705  0.000  0.000
  0.989  0.004  0.000  0.000  0.007
  0.000  0.000  0.000  0.999  0.001
    occupations:
  0.444  0.014  0.005 -0.026 -0.000
  0.014  0.157 -0.005 -0.000 -0.003
  0.005 -0.005  0.162  0.001 -0.000
 -0.026 -0.000  0.001  0.131 -0.000
 -0.000 -0.003 -0.000 -0.000  0.439
atom   22   Tr[ns(na)] =   2.64104
    eigenvalues:
  0.127  0.161  0.173  0.399  0.461
    eigenvectors:
  0.000  0.000  0.881  0.119  0.000
  0.000  0.000  0.000  0.008  0.991
  0.997  0.003  0.000  0.000  0.000
  0.000  0.000  0.119  0.873  0.008
  0.003  0.997  0.000  0.000  0.000
    occupations:
  0.200 -0.003  0.000  0.073  0.000
 -0.003  0.460 -0.000  0.007 -0.000
  0.000 -0.000  0.127 -0.000  0.002
  0.073  0.007 -0.000  0.372 -0.000
  0.000 -0.000  0.002 -0.000  0.160
atom   23   Tr[ns(na)] =   2.80005
    eigenvalues:
  0.075  0.273  0.296  0.302  0.454
    eigenvectors:
  0.003  0.000  0.000  0.000  0.997
  0.000  0.000  1.000  0.000  0.000
  0.000  1.000  0.000  0.000  0.000
  0.997  0.000  0.000  0.000  0.003
  0.000  0.000  0.000  1.000  0.000
    occupations:
  0.453 -0.000  0.000 -0.022 -0.000
 -0.000  0.296  0.000 -0.000  0.000
  0.000  0.000  0.273 -0.000 -0.000
 -0.022 -0.000 -0.000  0.076  0.000
 -0.000  0.000 -0.000  0.000  0.302
N of occupied +U levels =  21.1620720
 --- exit write_ns ---

[...]

     total energy              =   -1563.33685264 Ry
     Harris-Foulkes estimate   =   -1563.33685265 Ry
     estimated scf accuracy    <       0.00000003 Ry

     iteration # 14     ecut=    40.00 Ry     beta=0.70
     Davidson diagonalization with overlap
     ethr =  1.60E-11,  avg # of iterations =  1.0

     negative rho (up, down):  0.107E+00 0.000E+00

     End of self-consistent calculation
 --- enter write_ns ---
 LDA+U parameters:
U( 2)     =  6.50000000
alpha( 2) =  0.00000000
atom    3   Tr[ns(na)] =   2.59277
    eigenvalues:
  0.124  0.147  0.165  0.400  0.460
    eigenvectors:
  0.020  0.741  0.061  0.165  0.013
  0.002  0.006  0.003  0.216  0.773
  0.655  0.001  0.344  0.000  0.000
  0.006  0.152  0.010  0.619  0.213
  0.316  0.100  0.582  0.000  0.002
    occupations:
  0.194  0.016 -0.003  0.097  0.002
  0.016  0.443  0.003 -0.034  0.014
 -0.003  0.003  0.138  0.007 -0.019
  0.097 -0.034  0.007  0.370 -0.002
  0.002  0.014 -0.019 -0.002  0.151
atom    4   Tr[ns(na)] =   2.66882
    eigenvalues:
  0.129  0.153  0.165  0.443  0.444
    eigenvectors:
  0.008  0.002  0.000  0.034  0.956
  0.003  0.679  0.315  0.000  0.003
  0.002  0.314  0.684  0.000  0.000
  0.988  0.005  0.000  0.000  0.007
  0.000  0.000  0.000  0.965  0.035
    occupations:
  0.441  0.015  0.005 -0.026 -0.000
  0.015  0.157 -0.005 -0.000 -0.003
  0.005 -0.005  0.161  0.001 -0.000
 -0.026 -0.000  0.001  0.132 -0.000
 -0.000 -0.003 -0.000 -0.000  0.443
atom    9   Tr[ns(na)] =   2.64068
    eigenvalues:
  0.127  0.161  0.173  0.399  0.461
    eigenvectors:
  0.000  0.000  0.880  0.119  0.000
  0.000  0.000  0.000  0.008  0.992
  0.996  0.004  0.000  0.000  0.000
  0.000  0.000  0.119  0.872  0.008
  0.004  0.996  0.000  0.000  0.000
    occupations:
  0.200  0.003 -0.000  0.073  0.000
  0.003  0.460  0.000 -0.007 -0.000
 -0.000  0.000  0.127 -0.000 -0.002
  0.073 -0.007 -0.000  0.372 -0.000
  0.000 -0.000 -0.002 -0.000  0.160
atom   10   Tr[ns(na)] =   2.56257
    eigenvalues:
  0.128  0.175  0.194  0.317  0.468
    eigenvectors:
  0.021  0.000  0.000  0.979  0.000
  0.000  0.000  1.000  0.000  0.000
  0.000  1.000  0.000  0.000  0.000
  0.979  0.000  0.000  0.021  0.000
  0.000  0.000  0.000  0.000  1.000
    occupations:
  0.313 -0.000 -0.001 -0.027 -0.000
 -0.000  0.194 -0.000  0.000  0.000
 -0.001 -0.000  0.175 -0.000  0.000
 -0.027  0.000 -0.000  0.132  0.000
 -0.000  0.000  0.000  0.000  0.468
atom   16   Tr[ns(na)] =   2.59292
    eigenvalues:
  0.124  0.147  0.165  0.400  0.460
    eigenvectors:
  0.020  0.741  0.061  0.165  0.013
  0.002  0.006  0.003  0.215  0.773
  0.655  0.001  0.344  0.000  0.000
  0.007  0.152  0.010  0.619  0.212
  0.317  0.100  0.581  0.001  0.002
    occupations:
  0.194 -0.016 -0.003  0.097 -0.002
 -0.016  0.443 -0.003  0.034  0.014
 -0.003 -0.003  0.138  0.007  0.019
  0.097  0.034  0.007  0.370  0.002
 -0.002  0.014  0.019  0.002  0.151
atom   17   Tr[ns(na)] =   2.66517
    eigenvalues:
  0.128  0.153  0.165  0.439  0.447
    eigenvectors:
  0.007  0.002  0.000  0.001  0.989
  0.002  0.702  0.293  0.000  0.002
  0.001  0.291  0.707  0.000  0.000
  0.989  0.004  0.000  0.000  0.007
  0.000  0.000  0.000  0.999  0.001
    occupations:
  0.444  0.014  0.005 -0.026 -0.000
  0.014  0.158 -0.005 -0.000 -0.003
  0.005 -0.005  0.162  0.001 -0.000
 -0.026 -0.000  0.001  0.131 -0.000
 -0.000 -0.003 -0.000 -0.000  0.439
atom   22   Tr[ns(na)] =   2.64068
    eigenvalues:
  0.127  0.161  0.173  0.399  0.461
    eigenvectors:
  0.000  0.000  0.880  0.119  0.000
  0.000  0.000  0.000  0.008  0.991
  0.996  0.004  0.000  0.000  0.000
  0.000  0.000  0.119  0.872  0.008
  0.004  0.996  0.000  0.000  0.000
    occupations:
  0.200 -0.003  0.000  0.073  0.000
 -0.003  0.460 -0.000  0.007 -0.000
  0.000 -0.000  0.127 -0.000  0.002
  0.073  0.007 -0.000  0.372 -0.000
  0.000 -0.000  0.002 -0.000  0.160
atom   23   Tr[ns(na)] =   2.80047
    eigenvalues:
  0.075  0.273  0.296  0.301  0.454
    eigenvectors:
  0.003  0.000  0.000  0.000  0.997
  0.000  0.000  1.000  0.000  0.000
  0.000  1.000  0.000  0.000  0.000
  0.997  0.000  0.000  0.000  0.003
  0.000  0.000  0.000  1.000  0.000
    occupations:
  0.453 -0.000  0.000 -0.022 -0.000
 -0.000  0.296  0.000 -0.000  0.000
  0.000  0.000  0.273 -0.000 -0.000
 -0.022 -0.000 -0.000  0.076  0.000
 -0.000  0.000 -0.000  0.000  0.301
N of occupied +U levels =  21.1640846
 --- exit write_ns ---

[...]

          k = 0.2500-0.4516 0.0000 ( 29882 PWs)   bands (ev):

[...]

          k =-0.2500 0.2258 0.0000 ( 29912 PWs)   bands (ev):

   -61.9734 -61.9485 -61.8204 -61.1838 -61.1568 -60.7728 -60.7471 -59.9588
   -38.3312 -38.1645 -38.1310 -38.1203 -38.1146 -38.0990 -38.0124 -37.9305
   -37.9109 -37.6366 -37.4558 -37.3893 -37.3411 -37.2423 -37.2200 -37.0674
   -37.0203 -36.9991 -36.9551 -36.8936 -36.7824 -36.2777 -36.2623 -36.1717
   -22.0443 -21.8058 -20.9615 -20.7867 -20.3154 -20.2870 -20.2610 -20.1898
   -19.9704 -19.9301 -19.8150 -19.7291 -19.6744 -19.5911 -19.3426 -19.2299
   -18.9321 -18.7383 -17.9646  -9.7277  -9.4859  -8.4216  -8.2456  -7.9228
    -7.7435  -7.5649  -7.5259  -7.4932  -7.4481  -7.3174  -7.2146  -7.1778
    -6.9939  -6.9446  -6.8950  -6.8481  -6.7720  -6.5641  -6.4499  -6.3479
    -6.2427  -6.1765  -6.0843  -5.8589  -5.7767  -5.6786  -5.5737  -5.5416
    -5.4846  -5.4191  -5.3751  -5.3126  -5.2056  -5.1665  -5.1038  -5.0673
    -4.9085  -4.8509  -4.7666  -4.6434  -4.5501  -4.3762  -4.2735  -4.2286
    -4.1948  -4.1177  -4.0417  -3.9738  -3.9268  -3.7258  -3.6297  -3.5612
    -3.5415  -3.4673  -3.4339  -3.2966  -0.4654  -0.2887  -0.1452  -0.1041
    -0.0718   0.0230   0.2140   0.3221   0.3453   0.4549   0.4815   0.6251
     0.6867   0.7104   0.8103   0.9840   1.0930   1.1236   1.1569   1.1806
     1.2226   1.2785   1.3224   1.4029   1.4930   1.5513   1.7211   1.8168
     1.9039   2.0399   2.1820   2.2570   2.4144   2.4541   2.5248   2.6121
     2.8317   2.8554   2.9243   2.9815   3.0480   4.1611   4.3763   4.6615
     4.7427   4.9563   5.2262   5.8797   5.9565   6.0045   6.0702   6.3762
     6.4995   6.6435   6.7521   6.9562   7.0113   7.1140   7.2675   7.4328
     7.5795   7.6323   7.7207   7.8514   7.9573   7.9991   8.1581   8.3865
     8.4926   8.5397   8.6830   8.7695   9.0342   9.1073   9.1558   9.2636
     9.3221   9.4516   9.5008   9.5567   9.6267   9.8164   9.8667   9.9419
    10.0073  10.2646  10.3496  10.3771  10.5231  10.5402  10.6588  10.7191
    10.8024  10.9267  10.9524  11.0875  11.1201  11.1961  11.2821  11.3281
    11.4300  11.4457  11.4890  11.6204  11.6573  11.7781  11.8823  11.9227
    11.9780  12.0697  12.1238  12.1568  12.3037  12.3427  12.4191  12.4759
    12.5881  12.6282  12.6959  12.7890  12.8479  12.9110  12.9921  13.0438
    13.1786  13.2254  13.2643  13.3584  13.3864  13.4102  13.5407  13.5821
    13.6512  13.7118  13.8333  13.8904  13.9682  14.0751  14.1376  14.2160
    14.3121  14.4181  14.4948  14.5270  14.6448  14.7125  14.7909  14.8844
    14.9600  15.0738  15.1485  15.2249  15.2840  15.3708  15.3990  15.5134
    15.5757  15.6319  15.7076  15.7616  15.8363  15.9068  15.9494  16.0008
    16.1447  16.1865  16.2486  16.3479  16.4306  16.5293  16.6164  16.6781
    16.6953  16.7925  16.9217  16.9601  17.0058  17.0684  17.0856  17.1503
    17.2573  17.2704  17.3589  17.4635  17.5494  17.6029  17.6916  17.7398
    17.7762  17.8267  17.8722  18.0190  18.0354  18.1482  18.1808  18.2693
    18.3726  18.4796  18.5721  18.6230  18.6642

     the Fermi energy is    -3.3685 ev

!    total energy              =   -1563.33685264 Ry
     Harris-Foulkes estimate   =   -1563.33685265 Ry
     estimated scf accuracy    <          8.4E-09 Ry

     The total energy is the sum of the following terms:

     one-electron contribution =  -18178.28617497 Ry
     hartree contribution      =    9100.94702593 Ry
     xc contribution           =    -276.35119232 Ry
     ewald contribution        =    7786.99317805 Ry
     Hubbard energy            =       3.36044402 Ry
     smearing contrib. (-TS)   =      -0.00013336 Ry

     convergence has been achieved in  14 iterations

     Forces acting on atoms (Ry/au):

     negative rho (up, down):  0.107E+00 0.000E+00
     atom    1 type  1   force =    -0.00307117   -0.01245271    0.00029256
     atom    2 type  1   force =     0.00006604    0.01335357    0.00045184
     atom    3 type  2   force =     0.05537554   -0.00508741    0.00056096
     atom    4 type  2   force =     0.00223503    0.00846381   -0.00082861
     atom    5 type  1   force =    -0.00378133   -0.06911407   -0.00050851
     atom    6 type  1   force =    -0.00566853    0.06774118   -0.00077530
     atom    7 type  1   force =     0.00001107    0.00010024    0.00038522
     atom    8 type  1   force =     0.00026831   -0.00181932    0.00034382
     atom    9 type  2   force =     0.01236601    0.00045119    0.00057417
     atom   10 type  2   force =     0.00000399   -0.00024420   -0.00011620
     atom   11 type  1   force =    -0.02573601   -0.00242025    0.00030026
     atom   12 type  1   force =    -0.02601827    0.00270142    0.00032182
     atom   13 type  1   force =     0.00002173    0.00003736   -0.00043726
     atom   14 type  1   force =    -0.00404141   -0.01252527   -0.00000857
     atom   15 type  1   force =     0.00010428    0.01195259   -0.00004612
     atom   16 type  2   force =    -0.05522060   -0.00550540    0.00056353
     atom   17 type  2   force =     0.00197329    0.00813647   -0.00049045
     atom   18 type  1   force =     0.00634266   -0.06891453   -0.00047415
     atom   19 type  1   force =     0.00561342    0.06810120   -0.00072729
     atom   20 type  1   force =    -0.00009269   -0.00056334    0.00097795
     atom   21 type  1   force =     0.00032508   -0.00162713    0.00034812
     atom   22 type  2   force =    -0.01242827    0.00007528    0.00057268
     atom   23 type  2   force =     0.00000693   -0.00022450   -0.00023423
     atom   24 type  1   force =     0.02603141   -0.00243867    0.00027935
     atom   25 type  1   force =     0.02568510    0.00261841    0.00034121
     atom   26 type  1   force =     0.00005644   -0.00016835   -0.00006775
     atom   27 type  3   force =    -0.00000034   -0.00039435   -0.00025628
     atom   28 type  3   force =    -0.00000914   -0.00028892   -0.00071246
     atom   29 type  3   force =    -0.00021277    0.00009920    0.00005328
     atom   30 type  3   force =    -0.00020745   -0.00003347   -0.00049232
     atom   31 type  1   force =     0.00000164   -0.00001002   -0.00019130

     Total force =     0.002704     Total SCF correction =     0.000177

     bfgs converged in  20 scf cycles and  19 bfgs steps
     (criteria: energy < 0.10E-03, force < 0.10E-02)

     End of BFGS Geometry Optimization

     Final energy   =   -1563.3368526404 Ry
Begin final coordinates

ATOMIC_POSITIONS (crystal)
O0       0.000000000   0.000000000   0.374577751    0   0   1
O0       0.000000000   0.500000000   0.395300529    0   0   1
Ti1      0.250000000   0.500000000   0.448477831    0   0   1
Ti1      0.000000000   0.000000000   0.449149351    0   0   1
O0       0.250000000   0.810000000   0.447662556    0   0   1
O0       0.250000000   0.190000000   0.448703309    0   0   1
O0       0.000000000   0.500000000   0.497418989    0   0   1
O0       0.000000000   0.000000000   0.525852938    0   0   1
Ti1      0.250000000   0.000000000   0.579204532    0   0   1
Ti1      0.000000000   0.500000000   0.570087524    0   0   1
O0       0.250000000   0.690000000   0.583371208    0   0   1
O0       0.250000000   0.310000000   0.583348752    0   0   1
O0       0.000000000   0.000000000   0.624313642    0   0   1
O0       0.500000000   0.000000000   0.374917108    0   0   1
O0       0.500000000   0.500000000   0.394664897    0   0   1
Ti1      0.750000000   0.500000000   0.448482393    0   0   1
Ti1      0.500000000   0.000000000   0.449741656    0   0   1
O0       0.750000000   0.810000000   0.447653442    0   0   1
O0       0.750000000   0.190000000   0.448687383    0   0   1
O0       0.500000000   0.500000000   0.491666093    0   0   1
O0       0.500000000   0.000000000   0.525601773    0   0   1
Ti1      0.750000000   0.000000000   0.579200810    0   0   1
Ti1      0.500000000   0.500000000   0.606187602    0   0   1
O0       0.750000000   0.690000000   0.583384647    0   0   1
O0       0.750000000   0.310000000   0.583329965    0   0   1
O0       0.500000000   0.000000000   0.622870112    0   0   1
H2      -0.000322762   0.626105547   0.374994698
H2       0.499766209   0.627257906   0.374804863
H2       0.150423606   0.035123316   0.361215706
H2       0.649934063   0.036319819   0.361534192
O0       0.500013455   0.499913816   0.669633745
End final coordinates

     General routines

     Parallel routines
     Hubbard U routines

   This run was terminated on:  11: 2: 0  29Apr2014

   JOB DONE.