     Program PWSCF v.5.0.2 (svn rev. 9656) starts on  9May2014 at  9:56: 7

     Current dimensions of program PWSCF are:
     Max number of different atomic species (ntypx) = 10
     Max number of k-points (npk) =  40000
     Max angular momentum in pseudopotentials (lmaxx) =  3
     Reading input from pwscf.in
Warning: card &CELL ignored
Warning: card / ignored

     Subspace diagonalization in iterative solution of the eigenvalue problem:
     a serial algorithm will be used

     Found symmetry operation: I + ( -0.5000  0.0000  0.0000)
     This is a supercell, fractional translations are disabled

     bravais-lattice index     =            0
     lattice parameter (alat)  =      10.7336  a.u.
     unit-cell volume          =    6184.1966 (a.u.)^3
     number of atoms/cell      =           30
     number of atomic types    =            3
     number of electrons       =       232.00 (up: 128.00, down: 104.00)
     number of Kohn-Sham states=          336
     kinetic-energy cutoff     =      40.0000  Ry
     charge density cutoff     =     500.0000  Ry
     convergence threshold     =      1.0E-06
     mixing beta               =       0.7000
     number of iterations used =            8  plain     mixing
     Exchange-correlation      = SLA  PW   PBE  PBE ( 1 4 3 4 0)
     EXX-fraction              =        0.00
     nstep                     =           50

     celldm(1)=  10.733644  celldm(2)=   0.000000  celldm(3)=   0.000000
     celldm(4)=   0.000000  celldm(5)=   0.000000  celldm(6)=   0.000000

     crystal axes: (cart. coord. in units of alat)
               a(1) = (   1.000000   0.000000   0.000000 )
               a(2) = (   0.000000   1.085558   0.000000 )
               a(3) = (   0.000000   0.000000   4.606685 )

     reciprocal axes: (cart. coord. in units 2 pi/alat)
               b(1) = (  1.000000  0.000000  0.000000 )
               b(2) = (  0.000000  0.921185  0.000000 )
               b(3) = (  0.000000  0.000000  0.217076 )

     PseudoPot. # 1 for O  read from file:
     /home/camp/zhonxu/pseudo/o_pbe_v1.01.uspp.F.UPF
     MD5 check sum: 2bcb18d16ea4b960afae9ec6d52f22d2
     Pseudo is Ultrasoft + core correction, Zval =  6.0
     Generated by new atomic code, or converted to UPF format
     Using radial grid of  737 points,  5 beta functions with:
                l(1) =   0
                l(2) =   0
                l(3) =   1
                l(4) =   1
                l(5) =   2
     Q(r) pseudized with  8 coefficients,  rinner =    0.900   0.900   0.900
                                                       0.900   0.900

     PseudoPot. # 2 for Mn read from file:
     /home/camp/zhonxu/pseudo/mn_pbe_v1.uspp.F.UPF
     MD5 check sum: 5fd7c7b5c956fd19902447332617373a
     Pseudo is Ultrasoft + core correction, Zval = 15.0
     Generated by new atomic code, or converted to UPF format
     Using radial grid of  859 points,  6 beta functions with:
                l(1) =   0
                l(2) =   0
                l(3) =   1
                l(4) =   1
                l(5) =   2
                l(6) =   2
     Q(r) pseudized with  6 coefficients,  rinner =    1.150   1.150   1.150
                                                       1.150   1.150

     PseudoPot. # 3 for H  read from file:
     /home/camp/zhonxu/pseudo/h_pbe_v1.uspp.F.UPF
     MD5 check sum: 3408e3ff4ec8b0a4e358431e7e038a48
     Pseudo is Ultrasoft, Zval =  1.0
     Generated by new atomic code, or converted to UPF format
     Using radial grid of  615 points,  2 beta functions with:
                l(1) =   0
                l(2) =   0
     Q(r) pseudized with  8 coefficients,  rinner =    0.700

     atomic species   valence    mass     pseudopotential
        O0             6.00    15.99940     O ( 1.00)
        Mn1           15.00    54.93800     Mn( 1.00)
        H2             1.00     1.00794     H ( 1.00)

     Starting magnetic structure
     atomic species   magnetization
        O0           0.000
        Mn1          0.600
        H2           0.000

     Simplified LDA+U calculation (l_max = 2) with parameters (eV):
     atomic species    L          U    alpha       J0     beta
        Mn1            2     0.5000   0.0000   0.0000   0.0000

     No symmetry found

   Cartesian axes

     site n.     atom                  positions (alat units)
         1           O0  tau(   1) = (   0.0000000   0.0000000   1.7440910  )
         2           O0  tau(   2) = (   0.0000000   0.5427791   1.8348887  )
         3           Mn1 tau(   3) = (   0.2500000   0.5427791   2.0695072  )
         4           Mn1 tau(   4) = (   0.0000000   0.0000000   2.0719487  )
         5           O0  tau(   5) = (   0.2500000   0.8684466   2.0695533  )
         6           O0  tau(   6) = (   0.2500000   0.2171117   2.0770161  )
         7           O0  tau(   7) = (   0.0000000   0.5427791   2.2881405  )
         8           O0  tau(   8) = (   0.0000000   0.0000000   2.4167130  )
         9           Mn1 tau(   9) = (   0.2500000   0.0000000   2.6452046  )
        10           Mn1 tau(  10) = (   0.0000000   0.5427791   2.6189465  )
        11           O0  tau(  11) = (   0.2500000   0.7598908   2.6694358  )
        12           O0  tau(  12) = (   0.2500000   0.3256675   2.6696661  )
        13           O0  tau(  13) = (   0.0000000   0.0000000   2.8462864  )
        14           O0  tau(  14) = (   0.5000000   0.0000000   1.7440910  )
        15           O0  tau(  15) = (   0.5000000   0.5427791   1.8348887  )
        16           Mn1 tau(  16) = (   0.7500000   0.5427791   2.0695072  )
        17           Mn1 tau(  17) = (   0.5000000   0.0000000   2.0719487  )
        18           O0  tau(  18) = (   0.7500000   0.8684466   2.0695533  )
        19           O0  tau(  19) = (   0.7500000   0.2171117   2.0770161  )
        20           O0  tau(  20) = (   0.5000000   0.5427791   2.2881405  )
        21           O0  tau(  21) = (   0.5000000   0.0000000   2.4167130  )
        22           Mn1 tau(  22) = (   0.7500000   0.0000000   2.6452046  )
        23           Mn1 tau(  23) = (   0.5000000   0.5427791   2.6189465  )
        24           O0  tau(  24) = (   0.7500000   0.7598908   2.6694358  )
        25           O0  tau(  25) = (   0.7500000   0.3256675   2.6696661  )
        26           O0  tau(  26) = (   0.5000000   0.0000000   2.8462864  )
        27           H2  tau(  27) = (  -0.0000900   0.7018026   1.7591088  )
        28           H2  tau(  28) = (   0.4999100   0.7018026   1.7591088  )
        29           H2  tau(  29) = (   0.1616900   0.0388738   1.6898703  )
        30           H2  tau(  30) = (   0.6616900   0.0388738   1.6898703  )

     number of k points=    20  Methfessel-Paxton smearing, width (Ry)=  0.0100
                       cart. coord. in units 2pi/alat
        k(    1) = (   0.0000000   0.0000000   0.0000000), wk =   0.0625000
        k(    2) = (   0.0000000   0.2302962   0.0000000), wk =   0.1250000
        k(    3) = (   0.0000000  -0.4605925   0.0000000), wk =   0.0625000
        k(    4) = (   0.2500000   0.0000000   0.0000000), wk =   0.1250000
        k(    5) = (   0.2500000   0.2302962   0.0000000), wk =   0.1250000
        k(    6) = (   0.2500000  -0.4605925   0.0000000), wk =   0.1250000
        k(    7) = (  -0.5000000   0.0000000   0.0000000), wk =   0.0625000
        k(    8) = (  -0.5000000   0.2302962   0.0000000), wk =   0.1250000
        k(    9) = (  -0.5000000  -0.4605925   0.0000000), wk =   0.0625000
        k(   10) = (  -0.2500000   0.2302962   0.0000000), wk =   0.1250000
        k(   11) = (   0.0000000   0.0000000   0.0000000), wk =   0.0625000
        k(   12) = (   0.0000000   0.2302962   0.0000000), wk =   0.1250000
        k(   13) = (   0.0000000  -0.4605925   0.0000000), wk =   0.0625000
        k(   14) = (   0.2500000   0.0000000   0.0000000), wk =   0.1250000
        k(   15) = (   0.2500000   0.2302962   0.0000000), wk =   0.1250000
        k(   16) = (   0.2500000  -0.4605925   0.0000000), wk =   0.1250000
        k(   17) = (  -0.5000000   0.0000000   0.0000000), wk =   0.0625000
        k(   18) = (  -0.5000000   0.2302962   0.0000000), wk =   0.1250000
        k(   19) = (  -0.5000000  -0.4605925   0.0000000), wk =   0.0625000
        k(   20) = (  -0.2500000   0.2302962   0.0000000), wk =   0.1250000

     Largest allocated arrays     est. size (Mb)     dimensions
     Largest temporary arrays     est. size (Mb)     dimensions

     Check: negative/imaginary core charge=   -0.000022    0.000000

     Initial potential from superposition of free atoms
     Check: negative starting charge=(component1):   -0.000776
     Check: negative starting charge=(component2):   -0.000381

     starting charge  223.99987, renormalised to  232.00000

     negative rho (up, down):  0.804E-03 0.395E-03
     Number of +U iterations with fixed ns =  0
     Starting occupations:
 --- enter write_ns ---
 LDA+U parameters:
U( 2)     =  0.50000000
alpha( 2) =  0.00000000
atom    3   Tr[ns(na)] (up, down, total) =   5.00000  0.00000  5.00000
   spin  1
    eigenvalues:
  1.000  1.000  1.000  1.000  1.000
    eigenvectors:
  1.000  0.000  0.000  0.000  0.000
  0.000  1.000  0.000  0.000  0.000
  0.000  0.000  1.000  0.000  0.000
  0.000  0.000  0.000  1.000  0.000
  0.000  0.000  0.000  0.000  1.000
    occupations:
  1.000  0.000  0.000  0.000  0.000
  0.000  1.000  0.000  0.000  0.000
  0.000  0.000  1.000  0.000  0.000
  0.000  0.000  0.000  1.000  0.000
  0.000  0.000  0.000  0.000  1.000
   spin  2
    eigenvalues:
  0.000  0.000  0.000  0.000  0.000
    eigenvectors:
  1.000  0.000  0.000  0.000  0.000
  0.000  1.000  0.000  0.000  0.000
  0.000  0.000  1.000  0.000  0.000
  0.000  0.000  0.000  1.000  0.000
  0.000  0.000  0.000  0.000  1.000
    occupations:
  0.000  0.000  0.000  0.000  0.000
  0.000  0.000  0.000  0.000  0.000
  0.000  0.000  0.000  0.000  0.000
  0.000  0.000  0.000  0.000  0.000
  0.000  0.000  0.000  0.000  0.000
atomic mag. moment =     5.000000
atom    4   Tr[ns(na)] (up, down, total) =   5.00000  0.00000  5.00000
   spin  1
    eigenvalues:
  1.000  1.000  1.000  1.000  1.000
    eigenvectors:
  1.000  0.000  0.000  0.000  0.000
  0.000  1.000  0.000  0.000  0.000
  0.000  0.000  1.000  0.000  0.000
  0.000  0.000  0.000  1.000  0.000
  0.000  0.000  0.000  0.000  1.000
    occupations:
  1.000  0.000  0.000  0.000  0.000
  0.000  1.000  0.000  0.000  0.000
  0.000  0.000  1.000  0.000  0.000
  0.000  0.000  0.000  1.000  0.000
  0.000  0.000  0.000  0.000  1.000
   spin  2
    eigenvalues:
  0.000  0.000  0.000  0.000  0.000
    eigenvectors:
  1.000  0.000  0.000  0.000  0.000
  0.000  1.000  0.000  0.000  0.000
  0.000  0.000  1.000  0.000  0.000
  0.000  0.000  0.000  1.000  0.000
  0.000  0.000  0.000  0.000  1.000
    occupations:
  0.000  0.000  0.000  0.000  0.000
  0.000  0.000  0.000  0.000  0.000
  0.000  0.000  0.000  0.000  0.000
  0.000  0.000  0.000  0.000  0.000
  0.000  0.000  0.000  0.000  0.000
atomic mag. moment =     5.000000
atom    9   Tr[ns(na)] (up, down, total) =   5.00000  0.00000  5.00000
   spin  1
    eigenvalues:
  1.000  1.000  1.000  1.000  1.000
    eigenvectors:
[...]
  0.229  0.000  0.000  0.000  0.771
  0.000  0.997  0.000  0.003  0.000
    occupations:
  0.196 -0.000 -0.001  0.110 -0.000
 -0.000  0.387  0.000 -0.000  0.011
 -0.001  0.000  0.230  0.005 -0.000
  0.110 -0.000  0.005  0.338 -0.000
 -0.000  0.011 -0.000 -0.000  0.183
atomic mag. moment =     2.848141
atom    4   Tr[ns(na)] (up, down, total) =   4.13112  1.39178  5.52289
   spin  1
    eigenvalues:
  0.553  0.593  0.986  0.996  1.002
    eigenvectors:
  0.000  0.999  0.000  0.000  0.001
  0.000  0.001  0.000  0.008  0.991
  0.000  0.000  0.003  0.989  0.008
  0.000  0.000  0.996  0.003  0.000
  1.000  0.000  0.000  0.000  0.000
    occupations:
  0.594 -0.012 -0.004  0.004 -0.000
 -0.012  1.001  0.000 -0.000  0.001
 -0.004  0.000  0.996  0.001  0.000
  0.004 -0.000  0.001  0.986  0.000
 -0.000  0.001  0.000  0.000  0.553
   spin  2
    eigenvalues:
  0.137  0.193  0.236  0.407  0.418
    eigenvectors:
  0.001  0.005  0.000  0.000  0.993
  0.000  0.950  0.044  0.000  0.005
  0.000  0.044  0.956  0.000  0.001
  0.998  0.001  0.000  0.000  0.001
  0.000  0.000  0.000  1.000  0.000
    occupations:
  0.417  0.016  0.005 -0.010 -0.000
  0.016  0.196 -0.009  0.000 -0.002
  0.005 -0.009  0.234  0.001 -0.000
 -0.010  0.000  0.001  0.137 -0.000
 -0.000 -0.002 -0.000 -0.000  0.407
atomic mag. moment =     2.739341
atom    9   Tr[ns(na)] (up, down, total) =   4.02811  1.56032  5.58843
   spin  1
    eigenvalues:
  0.596  0.600  0.896  0.947  0.989
    eigenvectors:
  0.002  0.196  0.000  0.000  0.802
  0.988  0.012  0.000  0.000  0.000
  0.000  0.000  0.000  1.000  0.000
  0.010  0.792  0.000  0.000  0.198
  0.000  0.000  1.000  0.000  0.000
    occupations:
  0.912  0.000 -0.000 -0.155  0.000
  0.000  0.596  0.000  0.000 -0.000
 -0.000  0.000  0.947  0.000 -0.000
 -0.155  0.000  0.000  0.677  0.000
  0.000 -0.000 -0.000  0.000  0.896
   spin  2
    eigenvalues:
  0.210  0.225  0.249  0.420  0.456
    eigenvectors:
  0.842  0.000  0.000  0.158  0.000
  0.000  0.000  0.000  0.000  1.000
  0.000  1.000  0.000  0.000  0.000
  0.158  0.000  0.000  0.842  0.000
  0.000  0.000  1.000  0.000  0.000
    occupations:
  0.243 -0.000  0.000  0.077 -0.000
 -0.000  0.456 -0.000 -0.000 -0.000
  0.000 -0.000  0.225 -0.000 -0.000
  0.077 -0.000 -0.000  0.387 -0.000
 -0.000 -0.000 -0.000 -0.000  0.249
atomic mag. moment =     2.467791
atom   10   Tr[ns(na)] (up, down, total) =   4.32889  1.12383  5.45272
   spin  1
    eigenvalues:
  0.589  0.774  0.974  0.994  0.997
    eigenvectors:
  0.000  0.995  0.000  0.005  0.000
  0.000  0.000  1.000  0.000  0.000
  0.000  0.000  0.000  0.000  1.000
  0.000  0.005  0.000  0.995  0.000
  1.000  0.000  0.000  0.000  0.000
    occupations:
  0.775  0.000  0.001  0.015  0.000
  0.000  0.974 -0.000 -0.000 -0.000
  0.001 -0.000  0.997 -0.000 -0.000
  0.015 -0.000 -0.000  0.993 -0.000
  0.000 -0.000 -0.000 -0.000  0.589
   spin  2
    eigenvalues:
  0.127  0.170  0.177  0.260  0.389
    eigenvectors:
  0.016  0.000  0.000  0.984  0.000
  0.000  1.000  0.000  0.000  0.000
  0.000  0.000  1.000  0.000  0.000
  0.984  0.000  0.000  0.016  0.000
  0.000  0.000  0.000  0.000  1.000
    occupations:
  0.258 -0.000 -0.000 -0.017 -0.000
 -0.000  0.170 -0.000 -0.000  0.000
 -0.000 -0.000  0.177 -0.000  0.000
 -0.017 -0.000 -0.000  0.129 -0.000
 -0.000  0.000  0.000 -0.000  0.389
atomic mag. moment =     3.205056
atom   16   Tr[ns(na)] (up, down, total) =   4.18203  1.33389  5.51591
   spin  1
    eigenvalues:
  0.584  0.612  0.990  0.991  1.005
    eigenvectors:
  0.260  0.000  0.732  0.000  0.008
  0.000  1.000  0.000  0.000  0.000
  0.000  0.000  0.008  0.000  0.991
  0.740  0.000  0.259  0.000  0.001
  0.000  0.000  0.000  0.999  0.000
    occupations:
  0.884  0.000 -0.005 -0.178  0.000
  0.000  0.612  0.000  0.000 -0.008
 -0.005  0.000  1.005 -0.006  0.000
 -0.178  0.000 -0.006  0.690  0.000
  0.000 -0.008  0.000  0.000  0.991
   spin  2
    eigenvalues:
  0.136  0.182  0.230  0.388  0.398
    eigenvectors:
  0.770  0.000  0.002  0.000  0.229
  0.000  0.003  0.000  0.997  0.000
  0.001  0.000  0.998  0.000  0.001
  0.229  0.000  0.000  0.000  0.771
  0.000  0.997  0.000  0.003  0.000
    occupations:
  0.196 -0.000 -0.001  0.110 -0.000
 -0.000  0.387  0.000 -0.000  0.011
 -0.001  0.000  0.230  0.005 -0.000
  0.110 -0.000  0.005  0.338 -0.000
 -0.000  0.011 -0.000 -0.000  0.183
atomic mag. moment =     2.848139
atom   17   Tr[ns(na)] (up, down, total) =   4.13112  1.39177  5.52289
   spin  1
    eigenvalues:
  0.553  0.593  0.986  0.996  1.002
    eigenvectors:
  0.000  0.999  0.000  0.000  0.001
  0.000  0.001  0.000  0.008  0.991
  0.000  0.000  0.003  0.989  0.008
  0.000  0.000  0.996  0.003  0.000
  1.000  0.000  0.000  0.000  0.000
    occupations:
  0.594 -0.012 -0.004  0.004 -0.000
 -0.012  1.001  0.000 -0.000  0.001
 -0.004  0.000  0.996  0.001  0.000
  0.004 -0.000  0.001  0.986  0.000
 -0.000  0.001  0.000  0.000  0.553
   spin  2
    eigenvalues:
  0.137  0.193  0.236  0.407  0.418
    eigenvectors:
  0.001  0.005  0.000  0.000  0.993
  0.000  0.950  0.044  0.000  0.005
  0.000  0.044  0.956  0.000  0.001
  0.998  0.001  0.000  0.000  0.001
  0.000  0.000  0.000  1.000  0.000
    occupations:
  0.417  0.016  0.005 -0.010 -0.000
  0.016  0.196 -0.009  0.000 -0.002
  0.005 -0.009  0.234  0.001 -0.000
 -0.010  0.000  0.001  0.137 -0.000
 -0.000 -0.002 -0.000 -0.000  0.407
atomic mag. moment =     2.739349
atom   22   Tr[ns(na)] (up, down, total) =   4.02811  1.56031  5.58843
   spin  1
    eigenvalues:
  0.596  0.600  0.896  0.947  0.989
    eigenvectors:
  0.002  0.196  0.000  0.000  0.802
  0.988  0.012  0.000  0.000  0.000
  0.000  0.000  0.000  1.000  0.000
  0.010  0.792  0.000  0.000  0.198
  0.000  0.000  1.000  0.000  0.000
    occupations:
  0.912  0.000 -0.000 -0.155  0.000
  0.000  0.596  0.000  0.000 -0.000
 -0.000  0.000  0.947  0.000 -0.000
 -0.155  0.000  0.000  0.677  0.000
  0.000 -0.000 -0.000  0.000  0.896
   spin  2
    eigenvalues:
  0.210  0.225  0.249  0.420  0.456
    eigenvectors:
  0.842  0.000  0.000  0.158  0.000
  0.000  0.000  0.000  0.000  1.000
  0.000  1.000  0.000  0.000  0.000
  0.158  0.000  0.000  0.842  0.000
  0.000  0.000  1.000  0.000  0.000
    occupations:
  0.243 -0.000  0.000  0.077 -0.000
 -0.000  0.456 -0.000 -0.000 -0.000
  0.000 -0.000  0.225 -0.000 -0.000
  0.077 -0.000 -0.000  0.387 -0.000
 -0.000 -0.000 -0.000 -0.000  0.249
atomic mag. moment =     2.467797
atom   23   Tr[ns(na)] (up, down, total) =   4.32889  1.12381  5.45270
   spin  1
    eigenvalues:
  0.589  0.774  0.974  0.994  0.997
    eigenvectors:
  0.000  0.995  0.000  0.005  0.000
  0.000  0.000  1.000  0.000  0.000
  0.000  0.000  0.000  0.000  1.000
  0.000  0.005  0.000  0.995  0.000
  1.000  0.000  0.000  0.000  0.000
    occupations:
  0.775  0.000  0.001  0.015  0.000
  0.000  0.974 -0.000 -0.000 -0.000
  0.001 -0.000  0.997 -0.000 -0.000
  0.015 -0.000 -0.000  0.993 -0.000
  0.000 -0.000 -0.000 -0.000  0.589
   spin  2
    eigenvalues:
  0.127  0.170  0.177  0.260  0.389
    eigenvectors:
  0.016  0.000  0.000  0.984  0.000
  0.000  1.000  0.000  0.000  0.000
  0.000  0.000  1.000  0.000  0.000
  0.984  0.000  0.000  0.016  0.000
  0.000  0.000  0.000  0.000  1.000
    occupations:
  0.258 -0.000 -0.000 -0.017 -0.000
 -0.000  0.170 -0.000 -0.000  0.000
 -0.000 -0.000  0.177 -0.000  0.000
 -0.017 -0.000 -0.000  0.129 -0.000
 -0.000  0.000  0.000 -0.000  0.389
atomic mag. moment =     3.205073
N of occupied +U levels =  44.1598913
 --- exit write_ns ---

 ------ SPIN UP ------------

[...]

 ------ SPIN DOWN ----------

[...]

          k = 0.2500-0.4606 0.0000 ( 26462 PWs)   bands (ev):

[...]

          k =-0.2500 0.2303 0.0000 ( 26396 PWs)   bands (ev):

   -80.8141 -80.8061 -80.6163 -80.6078 -80.5904 -80.5820 -80.1178 -80.1094
   -49.7054 -49.6240 -49.6159 -49.6073 -49.5483 -49.5366 -49.5364 -49.5199
   -49.4970 -49.4892 -49.4465 -49.4328 -49.4153 -49.3981 -49.2005 -49.1968
   -49.1915 -49.1818 -49.1655 -49.0956 -48.9401 -48.9228 -48.6814 -48.6732
   -22.0067 -21.5968 -21.1125 -20.8744 -20.5435 -20.5404 -20.2843 -20.2324
   -20.1734 -20.0646 -20.0404 -19.9304 -19.8941 -19.8341 -19.5563 -19.3538
   -19.0390 -18.9204  -9.5661  -9.2882  -8.7558  -8.5993  -8.4977  -8.2054
    -8.0090  -7.9070  -7.8624  -7.8153  -7.6795  -7.5840  -7.4275  -7.4167
    -7.1799  -7.1714  -7.0541  -7.0447  -6.9052  -6.7487  -6.6131  -6.5462
    -6.5141  -6.4701  -6.2050  -5.9993  -5.9709  -5.8718  -5.6751  -5.6336
    -5.5926  -5.5802  -5.4231  -5.3910  -5.2330  -5.1994  -5.0074  -4.9358
    -4.8236  -4.7241  -4.5884  -4.4027  -4.2781  -4.2193  -4.1506  -3.9867
    -3.7881  -3.7250  -3.6840  -3.4267  -3.2829  -3.2214  -3.0888  -2.8263
    -1.2668  -1.0837  -1.0349  -1.0264  -0.9476  -0.8925  -0.8067  -0.7747
    -0.6985  -0.6666  -0.5022  -0.4900  -0.4582  -0.2546  -0.2035  -0.1149
    -0.1062  -0.0814   0.0284   0.0308   0.2109   0.2273   0.3222   0.4787
     0.5273   0.7643   0.8181   1.2182   1.2452   1.2612   1.3576   1.4165
     1.7763   1.8010   2.1199   2.2066   2.2379   2.4566   2.6110   2.6125
     3.5365   4.1665   4.3242   4.7773   5.2398   5.5086   5.5606   6.0172
     6.1921   6.4041   6.4365   6.5073   6.6618   6.8387   6.8855   7.1945
     7.3759   7.6581   7.6623   7.8465   8.0753   8.2854   8.3948   8.5381
     8.5843   8.7973   8.8577   8.9492   9.0699   9.1739   9.2808   9.4691
     9.5479   9.7097   9.9114   9.9684  10.0229  10.1900  10.2204  10.3623
    10.4619  10.5974  10.6622  10.7475  10.8242  11.0458  11.0554  11.1459
    11.3275  11.4060  11.4757  11.5369  11.6222  11.7173  11.7274  11.8930
    11.9513  12.0579  12.1963  12.2658  12.3237  12.3619  12.4540  12.5713
    12.7003  12.8421  12.8915  12.9370  12.9501  12.9826  13.0672  13.1497
    13.2795  13.3372  13.3707  13.4421  13.6252  13.6653  13.7256  13.7743
    13.8397  13.9197  14.0407  14.1016  14.2493  14.2854  14.3090  14.3621
    14.3962  14.5696  14.5946  14.6669  14.7323  14.7785  14.8571  14.9689
    15.0410  15.1015  15.1060  15.2218  15.3729  15.5204  15.5717  15.6099
    15.6426  15.8223  15.8946  15.9565  15.9697  16.1265  16.2273  16.2435
    16.3552  16.4593  16.5300  16.5824  16.5893  16.7116  16.8525  16.9812
    17.0068  17.0436  17.1485  17.1721  17.2830  17.3616  17.3678  17.4804
    17.4913  17.6030  17.6522  17.6878  17.8630  17.8946  17.9055  18.1121
    18.1439  18.1514  18.2288  18.3269  18.3962  18.4055  18.4915  18.5778
    18.6492  18.7477  18.8289  18.8411  18.9658  19.0604  19.1874  19.2167
    19.2732  19.3334  19.4643  19.4831  19.6063  19.6194  19.7674  19.8233
    19.8658  19.9681  19.9995  20.0624  20.1319  20.2631  20.2823  20.3098
    20.3422  20.4724  20.5608  20.6303  20.6645  20.7843  20.9164  20.9653
    21.0489  21.1294  21.2127  21.3103  21.3783  21.4096  21.4941  21.5090
    21.5652  21.6341  21.7487  21.8092  21.8357  21.9619  21.9871  22.0841

     the spin up/dw Fermi energies are    -1.9466   -2.5007 ev

!    total energy              =   -2288.72400155 Ry
     Harris-Foulkes estimate   =   -2288.72400155 Ry
     estimated scf accuracy    <          8.7E-09 Ry

     The total energy is the sum of the following terms:

     one-electron contribution =  -25950.22864544 Ry
     hartree contribution      =   12990.25139610 Ry
     xc contribution           =    -341.19853232 Ry
     ewald contribution        =   11012.23931714 Ry
     Hubbard energy            =       0.21278311 Ry
     smearing contrib. (-TS)   =      -0.00032014 Ry

     total magnetization       =    24.00 Bohr mag/cell
     absolute magnetization    =    25.33 Bohr mag/cell

     convergence has been achieved in  13 iterations

     Forces acting on atoms (Ry/au):

     negative rho (up, down):  0.228E-02 0.133E-02
     atom    1 type  1   force =    -0.00473419   -0.01622679   -0.00000564
     atom    2 type  1   force =     0.00023374    0.01381871   -0.00028879
     atom    3 type  2   force =    -0.00038292   -0.00455197    0.00016509
     atom    4 type  2   force =     0.00466471    0.01085880    0.00034856
     atom    5 type  1   force =     0.00338478    0.00603485   -0.00033100
     atom    6 type  1   force =    -0.00272715   -0.00872906   -0.00044570
     atom    7 type  1   force =    -0.00004241    0.00068968    0.00090725
     atom    8 type  1   force =    -0.00050793   -0.00187475    0.00052723
     atom    9 type  2   force =     0.00047567    0.00041274    0.00001219
     atom   10 type  2   force =    -0.00006548   -0.00050928   -0.00042006
     atom   11 type  1   force =     0.00004183   -0.06625432    0.00015380
     atom   12 type  1   force =     0.00004845    0.06624372    0.00013660
     atom   13 type  1   force =    -0.00024506   -0.00016997   -0.00005060
     atom   14 type  1   force =    -0.00473311   -0.01622604   -0.00000139
     atom   15 type  1   force =     0.00023253    0.01381920   -0.00028804
     atom   16 type  2   force =    -0.00038455   -0.00455178    0.00016474
     atom   17 type  2   force =     0.00466531    0.01085897    0.00034663
     atom   18 type  1   force =     0.00338403    0.00603471   -0.00032802
     atom   19 type  1   force =    -0.00272825   -0.00872898   -0.00044299
     atom   20 type  1   force =    -0.00003879    0.00068966    0.00091714
     atom   21 type  1   force =    -0.00050269   -0.00187473    0.00052611
     atom   22 type  2   force =     0.00045321    0.00041276    0.00001102
     atom   23 type  2   force =    -0.00005971   -0.00050920   -0.00041619
     atom   24 type  1   force =     0.00003624   -0.06625538    0.00014917
     atom   25 type  1   force =     0.00004288    0.06624473    0.00013196
     atom   26 type  1   force =    -0.00024731   -0.00016998   -0.00007136
     atom   27 type  3   force =     0.00003485    0.00013685   -0.00027823
     atom   28 type  3   force =     0.00003496    0.00013601   -0.00027795
     atom   29 type  3   force =    -0.00016520    0.00012087   -0.00042636
     atom   30 type  3   force =    -0.00016842    0.00011996   -0.00042518

     Total force =     0.002092     Total SCF correction =     0.000446
     SCF correction compared to forces is large: reduce conv_thr to get better values

     bfgs converged in   6 scf cycles and   5 bfgs steps
     (criteria: energy < 0.10E-03, force < 0.10E-02)

     End of BFGS Geometry Optimization

     Final energy   =   -2288.7240015467 Ry
Begin final coordinates

ATOMIC_POSITIONS (crystal)
O0       0.000000000   0.000000000   0.378430827    0   0   1
O0       0.000000000   0.500000000   0.398152195    0   0   1
Mn1      0.250000000   0.500000000   0.449099627    0   0   1
Mn1      0.000000000   0.000000000   0.449627326    0   0   1
O0       0.250000000   0.800000000   0.449260979    0   0   1
O0       0.250000000   0.200000000   0.450788095    0   0   1
O0       0.000000000   0.500000000   0.496462840    0   0   1
O0       0.000000000   0.000000000   0.524646692    0   0   1
Mn1      0.250000000   0.000000000   0.574220616    0   0   1
Mn1      0.000000000   0.500000000   0.568657191    0   0   1
O0       0.250000000   0.700000000   0.579738648    0   0   1
O0       0.250000000   0.300000000   0.579781477    0   0   1
O0       0.000000000   0.000000000   0.618116916    0   0   1
O0       0.500000000   0.000000000   0.378430413    0   0   1
O0       0.500000000   0.500000000   0.398152038    0   0   1
Mn1      0.750000000   0.500000000   0.449099704    0   0   1
Mn1      0.500000000   0.000000000   0.449627182    0   0   1
O0       0.750000000   0.800000000   0.449260224    0   0   1
O0       0.750000000   0.200000000   0.450787454    0   0   1
O0       0.500000000   0.500000000   0.496462421    0   0   1
O0       0.500000000   0.000000000   0.524647008    0   0   1
Mn1      0.750000000   0.000000000   0.574220648    0   0   1
Mn1      0.500000000   0.500000000   0.568657155    0   0   1
O0       0.750000000   0.700000000   0.579739651    0   0   1
O0       0.750000000   0.300000000   0.579782467    0   0   1
O0       0.500000000   0.000000000   0.618117820    0   0   1
H2       0.000006066   0.646863047   0.381903304
H2       0.500006186   0.646863289   0.381903212
H2       0.161686049   0.036051225   0.366723007
H2       0.661686890   0.036051138   0.366722862
End final coordinates

     General routines

     Parallel routines
     Hubbard U routines

   This run was terminated on:  17:21:35   9May2014

   JOB DONE.
Running PBS batch system epilogue script
Job id: 340894.audhumbla.fysik.dtu.dk
Username: zhonxu
Groupname: campgst
Jobname: MnO2/Eads-2-layers/bare-U-0.5
Sessionid: 14466
Queuename: verylong
Accounting:
This job has allocated the following 16 nodes:
c052 c052 c052 c052 c052 c052 c052 c052 c048 c048 c048 c048 c048 c048 c048 c048
Finished epilogue job 340894.audhumbla.fysik.dtu.dk for zhonxu