     Program PWSCF v.5.0.2 (svn rev. 9656) starts on  9Feb2014 at  1:37:27

     Current dimensions of program PWSCF are:
     Max number of different atomic species (ntypx) = 10
     Max number of k-points (npk) =  40000
     Max angular momentum in pseudopotentials (lmaxx) =  3
     Reading input from CrO2-1-pert.in
Warning: card &IONS ignored
Warning: card / ignored
Warning: card &CELL ignored
Warning: card / ignored

     Subspace diagonalization in iterative solution of the eigenvalue problem:
     a serial algorithm will be used

     bravais-lattice index     =            0
     lattice parameter (alat)  =      16.5540  a.u.
     unit-cell volume          =    3003.5358 (a.u.)^3
     number of atoms/cell      =           48
     number of atomic types    =            3
     number of electrons       =       416.00
     number of Kohn-Sham states=          600
     kinetic-energy cutoff     =      40.0000  Ry
     charge density cutoff     =     500.0000  Ry
     convergence threshold     =      1.0E-06
     mixing beta               =       0.7000
     number of iterations used =            8  plain     mixing
     Exchange-correlation      = SLA  PW   PBE  PBE ( 1 4 3 4 0)
     EXX-fraction              =        0.00

     celldm(1)=  16.554001  celldm(2)=   0.000000  celldm(3)=   0.000000
     celldm(4)=   0.000000  celldm(5)=   0.000000  celldm(6)=   0.000000

     crystal axes: (cart. coord. in units of alat)
               a(1) = (   1.000000   0.000000   0.000000 )
               a(2) = (   0.000000   1.000000   0.000000 )
               a(3) = (   0.000000   0.000000   0.662100 )

     reciprocal axes: (cart. coord. in units 2 pi/alat)
               b(1) = (  1.000000  0.000000  0.000000 )
               b(2) = (  0.000000  1.000000  0.000000 )
               b(3) = (  0.000000  0.000000  1.510345 )

     PseudoPot. # 1 for Cr read from file:
     /home/camp/zhonxu/pseudo/cr_pbe_v1.uspp.F.UPF
     MD5 check sum: 68b6f918d1762dccfb11451fe85b0e0e
     Pseudo is Ultrasoft + core correction, Zval = 14.0
     Generated by new atomic code, or converted to UPF format
     Using radial grid of  857 points,  6 beta functions with:
                l(1) =   0
                l(2) =   0
                l(3) =   1
                l(4) =   1
                l(5) =   2
                l(6) =   2
     Q(r) pseudized with  6 coefficients,  rinner =    1.000   1.000   1.000
                                                       1.000   1.000

     PseudoPot. # 2 for Cr read from file:
     /home/camp/zhonxu/pseudo/cr_pbe_v1.uspp.F.UPF
     MD5 check sum: 68b6f918d1762dccfb11451fe85b0e0e
     Pseudo is Ultrasoft + core correction, Zval = 14.0
     Generated by new atomic code, or converted to UPF format
     Using radial grid of  857 points,  6 beta functions with:
                l(1) =   0
                l(2) =   0
                l(3) =   1
                l(4) =   1
                l(5) =   2
                l(6) =   2
     Q(r) pseudized with  6 coefficients,  rinner =    1.000   1.000   1.000
                                                       1.000   1.000

     PseudoPot. # 3 for O  read from file:
     /home/camp/zhonxu/pseudo/o_pbe_v1.01.uspp.F.UPF
     MD5 check sum: 2bcb18d16ea4b960afae9ec6d52f22d2
     Pseudo is Ultrasoft + core correction, Zval =  6.0
     Generated by new atomic code, or converted to UPF format
     Using radial grid of  737 points,  5 beta functions with:
                l(1) =   0
                l(2) =   0
                l(3) =   1
                l(4) =   1
                l(5) =   2
     Q(r) pseudized with  8 coefficients,  rinner =    0.900   0.900   0.900
                                                       0.900   0.900

     atomic species   valence    mass     pseudopotential
        Cr0           14.00    51.99600     Cr( 1.00)
        Cr1           14.00    51.99600     Cr( 1.00)
        O2             6.00    15.99940     O ( 1.00)

     Starting magnetic structure
     atomic species   magnetization
        Cr0          0.600
        Cr1          0.600
        O2           0.000

     Simplified LDA+U calculation (l_max = 2) with parameters (eV):
     atomic species    L          U    alpha       J0     beta
        Cr0            2     0.0000   0.0000   0.0000   0.0000
        Cr1            2     0.0000   0.0000   0.0000   0.0000
        O2             1     0.0000   0.0000   0.0000   0.0000

      8 Sym. Ops., with inversion, found

   Cartesian axes

     site n.     atom                  positions (alat units)
         1           Cr0 tau(   1) = (   0.0000000   0.0000000   0.0000000  )
         2           Cr1 tau(   2) = (   0.2500000   0.2500000   0.1655251  )
         3           Cr1 tau(   3) = (   0.0000000   0.0000000   0.3310502  )
         4           Cr1 tau(   4) = (   0.2500000   0.2500000   0.4965753  )
         5           Cr1 tau(   5) = (   0.0000000   0.5000000   0.0000000  )
         6           Cr1 tau(   6) = (   0.2500000   0.7500000   0.1655251  )
         7           Cr1 tau(   7) = (   0.0000000   0.5000000   0.3310502  )
         8           Cr1 tau(   8) = (   0.2500000   0.7500000   0.4965753  )
         9           Cr1 tau(   9) = (   0.5000000   0.0000000   0.0000000  )
        10           Cr1 tau(  10) = (   0.7500000   0.2500000   0.1655251  )
        11           Cr1 tau(  11) = (   0.5000000   0.0000000   0.3310502  )
        12           Cr1 tau(  12) = (   0.7500000   0.2500000   0.4965753  )
        13           Cr1 tau(  13) = (   0.5000000   0.5000000   0.0000000  )
        14           Cr1 tau(  14) = (   0.7500000   0.7500000   0.1655251  )
        15           Cr1 tau(  15) = (   0.5000000   0.5000000   0.3310502  )
        16           Cr1 tau(  16) = (   0.7500000   0.7500000   0.4965753  )
        17           O2  tau(  17) = (   0.1500000   0.1500000   0.0000000  )
        18           O2  tau(  18) = (  -0.1500000  -0.1500000   0.0000000  )
        19           O2  tau(  19) = (   0.4000000   0.1000000   0.1655251  )
        20           O2  tau(  20) = (   0.1000000   0.4000000   0.1655251  )
        21           O2  tau(  21) = (   0.1500000   0.1500000   0.3310502  )
        22           O2  tau(  22) = (  -0.1500000  -0.1500000   0.3310502  )
        23           O2  tau(  23) = (   0.4000000   0.1000000   0.4965753  )
        24           O2  tau(  24) = (   0.1000000   0.4000000   0.4965753  )
        25           O2  tau(  25) = (   0.1500000   0.6500000   0.0000000  )
        26           O2  tau(  26) = (  -0.1500000   0.3500000   0.0000000  )
        27           O2  tau(  27) = (   0.4000000   0.6000000   0.1655251  )
        28           O2  tau(  28) = (   0.1000000   0.9000000   0.1655251  )
        29           O2  tau(  29) = (   0.1500000   0.6500000   0.3310502  )
        30           O2  tau(  30) = (  -0.1500000   0.3500000   0.3310502  )
        31           O2  tau(  31) = (   0.4000000   0.6000000   0.4965753  )
        32           O2  tau(  32) = (   0.1000000   0.9000000   0.4965753  )
        33           O2  tau(  33) = (   0.6500000   0.1500000   0.0000000  )
        34           O2  tau(  34) = (   0.3500000  -0.1500000   0.0000000  )
        35           O2  tau(  35) = (   0.9000000   0.1000000   0.1655251  )
        36           O2  tau(  36) = (   0.6000000   0.4000000   0.1655251  )
        37           O2  tau(  37) = (   0.6500000   0.1500000   0.3310502  )
        38           O2  tau(  38) = (   0.3500000  -0.1500000   0.3310502  )
        39           O2  tau(  39) = (   0.9000000   0.1000000   0.4965753  )
        40           O2  tau(  40) = (   0.6000000   0.4000000   0.4965753  )
        41           O2  tau(  41) = (   0.6500000   0.6500000   0.0000000  )
        42           O2  tau(  42) = (   0.3500000   0.3500000   0.0000000  )
        43           O2  tau(  43) = (   0.9000000   0.6000000   0.1655251  )
        44           O2  tau(  44) = (   0.6000000   0.9000000   0.1655251  )
        45           O2  tau(  45) = (   0.6500000   0.6500000   0.3310502  )
        46           O2  tau(  46) = (   0.3500000   0.3500000   0.3310502  )
        47           O2  tau(  47) = (   0.9000000   0.6000000   0.4965753  )
        48           O2  tau(  48) = (   0.6000000   0.9000000   0.4965753  )

     number of k points=    42  Methfessel-Paxton smearing, width (Ry)=  0.0100
                       cart. coord. in units 2pi/alat
        k(    1) = (   0.0000000   0.0000000   0.0000000), wk =   0.0156250
        k(    2) = (   0.0000000   0.0000000   0.3775862), wk =   0.0312500
        k(    3) = (   0.0000000   0.0000000  -0.7551724), wk =   0.0156250
        k(    4) = (   0.0000000   0.2500000   0.0000000), wk =   0.0625000
        k(    5) = (   0.0000000   0.2500000   0.3775862), wk =   0.1250000
        k(    6) = (   0.0000000   0.2500000  -0.7551724), wk =   0.0625000
        k(    7) = (   0.0000000  -0.5000000   0.0000000), wk =   0.0312500
        k(    8) = (   0.0000000  -0.5000000   0.3775862), wk =   0.0625000
        k(    9) = (   0.0000000  -0.5000000  -0.7551724), wk =   0.0312500
        k(   10) = (   0.2500000   0.2500000   0.0000000), wk =   0.0312500
        k(   11) = (   0.2500000   0.2500000   0.3775862), wk =   0.0625000
        k(   12) = (   0.2500000   0.2500000  -0.7551724), wk =   0.0312500
        k(   13) = (   0.2500000  -0.5000000   0.0000000), wk =   0.0625000
        k(   14) = (   0.2500000  -0.5000000   0.3775862), wk =   0.1250000
        k(   15) = (   0.2500000  -0.5000000  -0.7551724), wk =   0.0625000
        k(   16) = (  -0.5000000  -0.5000000   0.0000000), wk =   0.0156250
        k(   17) = (  -0.5000000  -0.5000000   0.3775862), wk =   0.0312500
        k(   18) = (  -0.5000000  -0.5000000  -0.7551724), wk =   0.0156250
        k(   19) = (  -0.2500000   0.2500000   0.0000000), wk =   0.0312500
        k(   20) = (  -0.2500000   0.2500000  -0.3775862), wk =   0.0625000
        k(   21) = (  -0.2500000   0.2500000   0.7551724), wk =   0.0312500
        k(   22) = (   0.0000000   0.0000000   0.0000000), wk =   0.0156250
        k(   23) = (   0.0000000   0.0000000   0.3775862), wk =   0.0312500
        k(   24) = (   0.0000000   0.0000000  -0.7551724), wk =   0.0156250
        k(   25) = (   0.0000000   0.2500000   0.0000000), wk =   0.0625000
        k(   26) = (   0.0000000   0.2500000   0.3775862), wk =   0.1250000
        k(   27) = (   0.0000000   0.2500000  -0.7551724), wk =   0.0625000
        k(   28) = (   0.0000000  -0.5000000   0.0000000), wk =   0.0312500
        k(   29) = (   0.0000000  -0.5000000   0.3775862), wk =   0.0625000
        k(   30) = (   0.0000000  -0.5000000  -0.7551724), wk =   0.0312500
        k(   31) = (   0.2500000   0.2500000   0.0000000), wk =   0.0312500
        k(   32) = (   0.2500000   0.2500000   0.3775862), wk =   0.0625000
        k(   33) = (   0.2500000   0.2500000  -0.7551724), wk =   0.0312500
        k(   34) = (   0.2500000  -0.5000000   0.0000000), wk =   0.0625000
        k(   35) = (   0.2500000  -0.5000000   0.3775862), wk =   0.1250000
        k(   36) = (   0.2500000  -0.5000000  -0.7551724), wk =   0.0625000
[...]
  0.854  0.873  0.888
    eigenvectors:
  0.000  0.000  1.000
  0.500  0.500  0.000
  0.500  0.500  0.000
    occupations:
  0.888 -0.000 -0.000
 -0.000  0.863  0.010
 -0.000  0.010  0.863
   spin  2
    eigenvalues:
  0.888  0.899  0.909
    eigenvectors:
  0.000  1.000  0.000
  0.500  0.000  0.500
  0.500  0.000  0.500
    occupations:
  0.899 -0.000 -0.000
 -0.000  0.899 -0.011
 -0.000 -0.011  0.899
atomic mag. moment =    -0.081668
atom   42   Tr[ns(na)] (up, down, total) =   2.61437  2.69604  5.31042
   spin  1
    eigenvalues:
  0.854  0.873  0.888
    eigenvectors:
  0.000  0.000  1.000
  0.500  0.500  0.000
  0.500  0.500  0.000
    occupations:
  0.888 -0.000 -0.000
 -0.000  0.863  0.010
 -0.000  0.010  0.863
   spin  2
    eigenvalues:
  0.888  0.899  0.909
    eigenvectors:
  0.000  1.000  0.000
  0.500  0.000  0.500
  0.500  0.000  0.500
    occupations:
  0.899 -0.000 -0.000
 -0.000  0.899 -0.011
 -0.000 -0.011  0.899
atomic mag. moment =    -0.081668
atom   43   Tr[ns(na)] (up, down, total) =   2.61441  2.69605  5.31046
   spin  1
    eigenvalues:
  0.854  0.873  0.888
    eigenvectors:
  0.000  0.000  1.000
  0.500  0.500  0.000
  0.500  0.500  0.000
    occupations:
  0.888 -0.000  0.000
 -0.000  0.863 -0.010
  0.000 -0.010  0.863
   spin  2
    eigenvalues:
  0.888  0.899  0.909
    eigenvectors:
  0.000  1.000  0.000
  0.500  0.000  0.500
  0.500  0.000  0.500
    occupations:
  0.899 -0.000  0.000
 -0.000  0.899  0.011
  0.000  0.011  0.899
atomic mag. moment =    -0.081644
atom   44   Tr[ns(na)] (up, down, total) =   2.61441  2.69605  5.31046
   spin  1
    eigenvalues:
  0.854  0.873  0.888
    eigenvectors:
  0.000  0.000  1.000
  0.500  0.500  0.000
  0.500  0.500  0.000
    occupations:
  0.888  0.000 -0.000
  0.000  0.863 -0.010
 -0.000 -0.010  0.863
   spin  2
    eigenvalues:
  0.888  0.899  0.909
    eigenvectors:
  0.000  1.000  0.000
  0.500  0.000  0.500
  0.500  0.000  0.500
    occupations:
  0.899  0.000 -0.000
  0.000  0.899  0.011
 -0.000  0.011  0.899
atomic mag. moment =    -0.081644
atom   45   Tr[ns(na)] (up, down, total) =   2.61439  2.69606  5.31045
   spin  1
    eigenvalues:
  0.854  0.873  0.888
    eigenvectors:
  0.000  0.000  1.000
  0.500  0.500  0.000
  0.500  0.500  0.000
    occupations:
  0.888 -0.000 -0.000
 -0.000  0.863  0.010
 -0.000  0.010  0.863
   spin  2
    eigenvalues:
  0.888  0.899  0.909
    eigenvectors:
  0.000  1.000  0.000
  0.500  0.000  0.500
  0.500  0.000  0.500
    occupations:
  0.899 -0.000 -0.000
 -0.000  0.899 -0.011
 -0.000 -0.011  0.899
atomic mag. moment =    -0.081662
atom   46   Tr[ns(na)] (up, down, total) =   2.61439  2.69606  5.31045
   spin  1
    eigenvalues:
  0.854  0.873  0.888
    eigenvectors:
  0.000  0.000  1.000
  0.500  0.500  0.000
  0.500  0.500  0.000
    occupations:
  0.888 -0.000 -0.000
 -0.000  0.863  0.010
 -0.000  0.010  0.863
   spin  2
    eigenvalues:
  0.888  0.899  0.909
    eigenvectors:
  0.000  1.000  0.000
  0.500  0.000  0.500
  0.500  0.000  0.500
    occupations:
  0.899 -0.000 -0.000
 -0.000  0.899 -0.011
 -0.000 -0.011  0.899
atomic mag. moment =    -0.081662
atom   47   Tr[ns(na)] (up, down, total) =   2.61441  2.69605  5.31046
   spin  1
    eigenvalues:
  0.854  0.873  0.888
    eigenvectors:
  0.000  0.000  1.000
  0.500  0.500  0.000
  0.500  0.500  0.000
    occupations:
  0.888  0.000 -0.000
  0.000  0.863 -0.010
 -0.000 -0.010  0.863
   spin  2
    eigenvalues:
  0.888  0.899  0.909
    eigenvectors:
  0.000  1.000  0.000
  0.500  0.000  0.500
  0.500  0.000  0.500
    occupations:
  0.899  0.000 -0.000
  0.000  0.899  0.011
 -0.000  0.011  0.899
atomic mag. moment =    -0.081644
atom   48   Tr[ns(na)] (up, down, total) =   2.61441  2.69605  5.31046
   spin  1
    eigenvalues:
  0.854  0.873  0.888
    eigenvectors:
  0.000  0.000  1.000
  0.500  0.500  0.000
  0.500  0.500  0.000
    occupations:
  0.888 -0.000  0.000
 -0.000  0.863 -0.010
  0.000 -0.010  0.863
   spin  2
    eigenvalues:
  0.888  0.899  0.909
    eigenvectors:
  0.000  1.000  0.000
  0.500  0.000  0.500
  0.500  0.000  0.500
    occupations:
  0.899 -0.000  0.000
 -0.000  0.899  0.011
  0.000  0.011  0.899
atomic mag. moment =    -0.081644
N of occupied +U levels = 245.6986752
 --- exit write_ns ---

 ------ SPIN UP ------------

          k = 0.0000 0.0000 0.0000 ( 12779 PWs)   bands (ev):

   -62.3014 -62.2985 -62.2984 -62.2983 -62.2982 -62.2982 -62.2982 -62.2952
   -62.2839 -62.2839 -62.2837 -62.2837 -62.2836 -62.2836 -62.2835 -62.2835
   -33.6936 -33.6934 -33.6905 -33.6903 -33.6863 -33.6862 -33.6861 -33.6861
   -33.6842 -33.6840 -33.6839 -33.6839 -33.6714 -33.6711 -33.6706 -33.6704
   -33.6590 -33.6588 -33.6588 -33.6586 -33.6445 -33.6444 -33.6443 -33.6443
   -33.5782 -33.5780 -33.5779 -33.5779 -33.5706 -33.5704 -33.5691 -33.5689
   -33.5480 -33.5478 -33.5474 -33.5472 -33.5467 -33.5465 -33.5464 -33.5464
   -33.4955 -33.4865 -33.4864 -33.4862 -33.4861 -33.4861 -33.4861 -33.4770
    -8.7530  -7.8410  -7.8410  -7.8410  -7.8410  -7.7567  -7.7566  -7.1537
    -7.1537  -7.1305  -7.1305  -7.1305  -7.1304  -6.9668  -6.9667  -6.9576
    -6.8963  -6.8963  -6.7571  -6.7571  -6.7571  -6.7571  -6.7486  -6.7486
    -6.7245  -6.7245  -6.6484  -6.6484  -6.6484  -6.6484  -6.5074  -6.5074
     3.3898   3.7482   3.7482   4.0518   4.2937   4.2937   4.2937   4.2937
     4.4841   4.4966   4.4967   4.4967   4.4967   4.5617   4.5617   4.5627
     4.5627   4.7780   4.7781   5.3675   5.3675   5.3676   5.3676   5.6788
     5.6789   5.6973   5.6973   5.7698   5.7698   5.8503   5.8503   5.8812
     5.8813   5.8814   5.8814   5.9368   5.9369   6.1468   6.1468   6.1468
     6.1468   6.2441   6.2441   6.2441   6.2441   6.5075   6.5075   6.5075
     6.5075   6.8884   6.8885   6.9386   6.9386   7.1204   7.1204   7.1308
     7.1308   7.2411   7.2411   7.3405   7.3405   7.3405   7.3405   7.3713
     7.3713   7.5735   7.5735   7.5735   7.5735   7.6387   7.8249   7.8250
     7.8250   7.8250   8.3195   8.3195   8.4903   8.4903   8.6008   8.6008
     8.9662   8.9662   9.2346   9.2347   9.2347   9.2347   9.5091   9.5498
     9.5498   9.5741   9.5741   9.5741   9.5741   9.6115   9.7138   9.7139
     9.8108   9.8109   9.8109   9.8109   9.9411   9.9411   9.9970  10.0483
    10.1069  10.1070  10.1333  10.1335  10.4311  10.4312  10.4313  10.4313
    10.5278  10.6002  10.6004  10.6047  10.6049  10.6052  10.6054  10.6055
    10.6055  11.0193  11.0194  11.0195  11.0195  11.0889  11.0891  11.2512
    11.2514  11.3292  11.3293  11.6117  11.6119  11.6120  11.6120  12.0179
    12.0180  12.2015  12.2016  12.2353  12.2353  12.2353  12.2353  12.5245
    12.5370  12.9539  12.9540  12.9540  12.9540  13.8998  13.8999  14.1724
    14.1726  14.1822  14.1823  14.1859  14.1860  14.5224  14.5226  14.6354
    14.6356  14.6356  14.6356  14.7598  14.7599  14.7600  14.7600  14.9766
    14.9767  15.0002  15.0003  15.6990  15.6991  15.6991  15.6991  16.2108
    18.9355  21.2892  21.2892  21.2892  21.2892  22.0831  22.0831  22.5276
    22.5276  22.6439  22.6439  23.5142  23.5142  23.5142  23.5142  23.5690
    23.5690  23.8562  23.8562  23.8875  23.8875  23.8875  23.8875  24.6672
    24.6672  25.1221  25.2199  25.2199  25.2199  25.2199  25.8264  25.8264
    26.1072  26.1072  26.1212  26.1561  26.1561  26.5552  26.5552  26.6382
    26.7830  26.7830  26.7830  26.7830  27.3014  27.3015  27.3015  27.3015
    27.6195  27.6196  27.7846  27.7846  27.7846  27.7846  28.1088  28.1088
    28.3926  28.3927  28.3927  28.3927  28.4849  28.4849  28.4907  28.4907
    28.4907  28.4907  28.7655  28.7655  28.9459  28.9459  28.9459  28.9459
    29.1731  29.4445  29.4445  29.5442  29.5442  30.2621  30.2621  30.3647
    30.4271  30.5561  30.5561  30.6646  30.6646  30.6646  30.6646  30.6708
    30.6708  32.5094  32.5094  32.5095  32.5095  32.8450  32.8451  32.8451
    32.8451  32.8663  32.8663  32.9203  32.9203  33.1087  33.1087  33.1969
    33.1969  34.1402  34.1402  34.1402  34.1402  34.4210  34.9415  34.9415
    34.9416  34.9416  35.2676  35.2676  35.4244  35.4245  35.7314  36.0647
    36.0647  36.8097  36.8097  36.8422  36.8423  37.0145  37.0145  37.3497
    37.3497  37.3497  37.3497  37.5318  37.8278  37.8278  37.8598  37.8598
    37.8598  37.8598  37.8794  38.3438  38.3439  38.9141  38.9141  38.9141
    38.9141  38.9635  38.9635  38.9635  38.9635  39.0793  39.0793  39.1366
    39.1366  39.1689  39.1689  39.1690  39.1690  39.5251  39.5251  39.5251
    39.5251  39.6341  39.6341  39.8574  40.2608  40.2608  40.5325  40.5325
    40.5325  40.5325  41.2133  41.4804  41.4804  41.8833  41.8833  42.2785
    42.3119  42.3119  42.3822  42.3822  42.3825  42.3825  42.9652  42.9652
    42.9653  42.9653  43.6798  43.6798  43.6798  43.6798  43.9665  43.9665
    44.4328  44.4328  44.5221  44.5221  44.6042  44.6042  44.6389  44.7213
    44.7213  44.7214  44.7214  45.1094  45.1094  45.1676  45.1676  45.1676
    45.1676  45.5980  45.5981  45.7632  45.7633  45.7633  45.7633  46.4811
    46.4821  46.4821  46.8880  46.8880  47.1923  47.1923  47.2025  47.2026
    47.2026  47.2026  47.4226  47.4227  47.6376  47.6376  47.6376  47.6376
    48.0740  48.0740  48.2401  48.2401  48.2402  48.2402  48.4363  48.4363
    48.6054  48.7939  48.7939  49.2334  49.2334  49.2879  49.2879  49.2879
    49.2879  49.5510  49.5510  49.5510  49.5510  49.6637  49.7601  49.7601
    49.7743  49.7743  50.2933  50.2933  50.2934  50.2934  50.3557  50.3557
    50.3723  50.3724  51.0374  51.0374  51.0374  51.0374  51.2527  51.2527
    51.5509  51.6540  51.6540  51.6540  51.6540  51.6901  51.6902  51.8931
    51.8932  51.9891  51.9891  52.3183  52.3183  52.6538  52.6538  52.6539
    52.6539  52.7358  52.7358  52.7358  52.7358  52.9911  53.0069  53.0069
    53.1241  53.1241  53.1241  53.1241  53.6625  53.6625  53.6638  53.6738
    53.6739  53.6739  53.6739  53.7764  53.7764  53.7764  53.7764  54.0099
    54.0099  54.3255  54.3255  54.3942  54.3942  54.4008  54.4008  54.5094
    54.5095  54.7096  54.7096  54.7096  54.7096  55.0365  55.2328  55.2329

[...]

          k =-0.5000-0.5000 0.0000 ( 12832 PWs)   bands (ev):

[...]

 ------ SPIN DOWN ----------

[...]

          k = 0.2500-0.5000-0.7552 ( 12816 PWs)   bands (ev):

[...]

          k =-0.2500 0.2500 0.7552 ( 12844 PWs)   bands (ev):

   -59.9765 -59.9762 -59.9754 -59.9750 -59.9750 -59.9749 -59.9747 -59.9744
   -59.9738 -59.9737 -59.9735 -59.9733 -59.9732 -59.9731 -59.9721 -59.9719
   -31.6417 -31.6411 -31.6405 -31.6405 -31.6404 -31.6402 -31.6401 -31.6400
   -31.6400 -31.6399 -31.6399 -31.6396 -31.6395 -31.6394 -31.6394 -31.6393
   -31.2727 -31.2727 -31.2727 -31.2727 -31.2723 -31.2723 -31.2717 -31.2717
   -31.2716 -31.2715 -31.2715 -31.2714 -31.2704 -31.2704 -31.2702 -31.2702
   -31.1180 -31.1177 -31.1137 -31.1134 -31.1133 -31.1132 -31.1125 -31.1122
   -31.1103 -31.1100 -31.1082 -31.1080 -31.1080 -31.1079 -31.1050 -31.1048
    -8.1100  -8.1099  -7.7559  -7.7559  -7.7559  -7.7559  -7.5561  -7.5560
    -7.3168  -7.3168  -7.2211  -7.2210  -7.2210  -7.2210  -6.8844  -6.8844
    -6.8509  -6.8509  -6.8450  -6.8450  -6.8274  -6.8274  -6.8273  -6.8273
    -6.7946  -6.7946  -6.7724  -6.7724  -6.7724  -6.7724  -6.7193  -6.7192
     4.5967   4.5967   4.6288   4.6288   4.9374   4.9374   4.9374   4.9374
     4.9416   4.9416   5.1409   5.1409   5.1676   5.1676   5.2527   5.2527
     5.3364   5.3364   5.3365   5.3365   5.3515   5.3515   5.4181   5.4181
     5.4181   5.4181   5.7397   5.7397   5.7397   5.7397   5.8108   5.8108
     6.1361   6.1361   6.1831   6.1831   6.1831   6.1831   6.3525   6.3525
     6.6911   6.6911   6.6911   6.6911   6.8134   6.8134   6.8406   6.8406
     6.8406   6.8406   7.1371   7.1372   7.2324   7.2324   7.4250   7.4250
     7.4250   7.4250   7.5469   7.5469   7.7029   7.7029   7.7030   7.7030
     7.7139   7.7139   7.8319   7.8319   8.0432   8.0432   8.1138   8.1138
     8.3246   8.3246   8.4834   8.4834   8.4834   8.4834   8.5842   8.5843
     8.7379   8.7380   8.9115   8.9116   9.0726   9.0726   9.0726   9.0726
     9.1021   9.1021   9.4570   9.4570   9.4571   9.4571   9.5987   9.5988
    12.0853  12.0854  12.2754  12.2756  12.2756  12.2756  12.5323  12.5324
    12.7520  12.7522  12.7522  12.7523  12.7770  12.7771  12.8291  12.8292
    13.0562  13.0562  13.1126  13.1127  13.1617  13.1620  13.1680  13.1684
    13.1684  13.1685  13.1999  13.2002  13.2291  13.2292  13.2430  13.2432
    13.3605  13.3605  13.3605  13.3606  13.4155  13.4156  13.5411  13.5411
    13.5411  13.5411  13.6374  13.6375  13.6375  13.6375  13.8392  13.8393
    14.6303  14.6305  14.6305  14.6305  14.8268  14.8269  15.0484  15.0486
    15.0487  15.0487  15.0552  15.0554  15.2474  15.2475  15.5153  15.5153
    15.5179  15.5180  15.7216  15.7218  15.8710  15.8711  15.8711  15.8711
    16.1439  16.1439  16.5366  16.5368  16.5368  16.5369  16.6395  16.6396
    21.0914  21.0914  22.0491  22.0491  22.0491  22.0491  22.5979  22.5979
    23.3297  23.3297  23.4338  23.4338  23.4338  23.4339  24.4401  24.4401
    24.5852  24.5852  25.0630  25.0630  25.3391  25.3391  25.3391  25.3392
    25.7508  25.7508  25.9347  25.9347  26.2297  26.2298  26.2298  26.2298
    26.3118  26.3118  26.4031  26.4031  26.4965  26.4965  26.5595  26.5595
    26.5595  26.5595  26.9423  26.9423  26.9423  26.9423  27.7325  27.7326
    28.1016  28.1016  28.1016  28.1016  28.1541  28.1541  28.4362  28.4362
    28.8114  28.8114  28.9167  28.9167  28.9167  28.9167  29.0393  29.0393
    29.0393  29.0393  29.1122  29.1122  29.2415  29.2416  29.4893  29.4893
    29.7764  29.7764  30.1043  30.1043  30.1043  30.1044  30.3566  30.3567
    30.3994  30.3994  30.8075  30.8075  30.8075  30.8075  31.2196  31.2196
    31.7831  31.7831  31.7831  31.7831  31.8790  31.8791  32.8150  32.8150
    33.1733  33.1733  33.1733  33.1734  33.6753  33.6754  33.7685  33.7686
    34.8979  34.8980  35.4691  35.4691  35.4691  35.4691  35.7784  35.7784
    35.8091  35.8092  35.8842  35.8842  36.7573  36.7573  36.8593  36.8593
    36.8593  36.8593  37.1741  37.1742  37.2385  37.2385  37.4472  37.4473
    37.4473  37.4473  38.0257  38.0257  38.0257  38.0257  38.2563  38.2563
    38.2597  38.2597  38.2597  38.2597  38.5488  38.5488  38.6589  38.6589
    39.3966  39.3966  39.4349  39.4349  39.4349  39.4349  39.8896  39.8897
    39.8897  39.8897  40.0341  40.0341  40.4563  40.4563  40.6574  40.6574
    40.6629  40.6629  40.6629  40.6629  40.9555  40.9555  41.0467  41.0467
    41.0476  41.0476  41.8608  41.8608  41.8608  41.8608  42.1875  42.1875
    42.4957  42.4958  42.4958  42.4958  42.6605  42.6606  43.3523  43.3524
    43.8544  43.8544  43.8544  43.8544  44.0311  44.0311  44.1219  44.1219
    44.5329  44.5329  44.6254  44.6254  44.9625  44.9625  44.9626  44.9626
    45.1613  45.1613  45.6017  45.6017  45.6017  45.6018  46.0460  46.0460
    46.8418  46.8418  46.8683  46.8683  46.8683  46.8683  47.1467  47.1467
    47.4021  47.4021  47.5256  47.5256  48.0504  48.0505  48.3381  48.3381
    48.3381  48.3381  48.3601  48.3601  48.3601  48.3601  48.4018  48.4018
    48.5566  48.5566  48.8738  48.8738  48.8738  48.8738  48.9917  48.9917
    49.4326  49.4326  49.7032  49.7032  49.9455  49.9455  49.9455  49.9455
    50.0427  50.0427  50.2016  50.2016  50.2017  50.2017  50.5721  50.5721
    50.7302  50.7302  50.8822  50.8822  50.8822  50.8823  50.8905  50.8906
    51.2139  51.2139  51.2139  51.2139  51.3170  51.3170  51.3590  51.3590
    51.4419  51.4419  51.6980  51.6981  51.6981  51.6981  51.9037  51.9037
    51.9037  51.9037  52.0170  52.0170  52.0273  52.0273  52.1467  52.1467
    52.5433  52.5433  52.6110  52.6110  52.6110  52.6110  52.6255  52.6255
    52.6358  52.6358  52.7744  52.7744  52.8135  52.8135  52.9538  52.9538
    52.9538  52.9538  53.4930  53.4930  53.4931  53.4931  53.6931  53.6932
    54.0848  54.0848  54.4130  54.4130  54.4130  54.4130  54.5569  54.5569
    54.5569  54.5569  54.8099  54.8100  54.9908  54.9908  55.0083  55.0083

     the Fermi energy is    11.2587 ev

!    total energy              =   -3849.33262466 Ry
     Harris-Foulkes estimate   =   -3849.33262515 Ry
     estimated scf accuracy    <       0.00000058 Ry

     The total energy is the sum of the following terms:

     one-electron contribution =   -1589.09259814 Ry
     hartree contribution      =    1012.66713518 Ry
     xc contribution           =    -596.48631403 Ry
     ewald contribution        =   -2676.42062880 Ry
     Hubbard energy            =       0.00000000 Ry
     smearing contrib. (-TS)   =      -0.00021888 Ry

     total magnetization       =    32.00 Bohr mag/cell
     absolute magnetization    =    36.72 Bohr mag/cell

     convergence has been achieved in  18 iterations

     Writing output data file pwscf.save

     General routines

     Parallel routines
     Hubbard U routines

   This run was terminated on:   7:47:44   9Feb2014

   JOB DONE.