     Program PWSCF v.5.0.2 (svn rev. 9656) starts on 31May2014 at  8:50: 2

     Current dimensions of program PWSCF are:
     Max number of different atomic species (ntypx) = 10
     Max number of k-points (npk) =  40000
     Max angular momentum in pseudopotentials (lmaxx) =  3
     Reading input from pwscf.in
Warning: card &CELL ignored
Warning: card / ignored

     Subspace diagonalization in iterative solution of the eigenvalue problem:
     a serial algorithm will be used

     bravais-lattice index     =            0
     lattice parameter (alat)  =      12.2076  a.u.
     unit-cell volume          =    7496.5096 (a.u.)^3
     number of atoms/cell      =           33
     number of atomic types    =            3
     number of electrons       =       253.00
     number of Kohn-Sham states=          379
     kinetic-energy cutoff     =      40.0000  Ry
     charge density cutoff     =     500.0000  Ry
     convergence threshold     =      1.0E-06
     mixing beta               =       0.7000
     number of iterations used =            8  plain     mixing
     Exchange-correlation      = SLA  PW   PBE  PBE ( 1 4 3 4 0)
     EXX-fraction              =        0.00
     nstep                     =           50

     celldm(1)=  12.207631  celldm(2)=   0.000000  celldm(3)=   0.000000
     celldm(4)=   0.000000  celldm(5)=   0.000000  celldm(6)=   0.000000

     crystal axes: (cart. coord. in units of alat)
               a(1) = (   1.000000   0.000000   0.000000 )
               a(2) = (   0.000000   1.004836   0.000000 )
               a(3) = (   0.000000   0.000000   4.100811 )

     reciprocal axes: (cart. coord. in units 2 pi/alat)
               b(1) = (  1.000000  0.000000  0.000000 )
               b(2) = (  0.000000  0.995187  0.000000 )
               b(3) = (  0.000000  0.000000  0.243854 )

     PseudoPot. # 1 for O  read from file:
     /home/camp/zhonxu/pseudo/o_pbe_v1.01.uspp.F.UPF
     MD5 check sum: 2bcb18d16ea4b960afae9ec6d52f22d2
     Pseudo is Ultrasoft + core correction, Zval =  6.0
     Generated by new atomic code, or converted to UPF format
     Using radial grid of  737 points,  5 beta functions with:
                l(1) =   0
                l(2) =   0
                l(3) =   1
                l(4) =   1
                l(5) =   2
     Q(r) pseudized with  8 coefficients,  rinner =    0.900   0.900   0.900
                                                       0.900   0.900

     PseudoPot. # 2 for Pt read from file:
     /home/camp/zhonxu/pseudo/pt_pbe_v1.uspp.F.UPF
     MD5 check sum: 4c71d6ad5ef119f1eb26a4d0b7884226
     Pseudo is Ultrasoft + core correction, Zval = 16.0
     Generated by new atomic code, or converted to UPF format
     Using radial grid of  985 points,  6 beta functions with:
                l(1) =   0
                l(2) =   0
                l(3) =   1
                l(4) =   1
                l(5) =   2
                l(6) =   2
     Q(r) pseudized with  8 coefficients,  rinner =    1.300   1.300   1.300
                                                       1.300   1.300

     PseudoPot. # 3 for H  read from file:
     /home/camp/zhonxu/pseudo/h_pbe_v1.uspp.F.UPF
     MD5 check sum: 3408e3ff4ec8b0a4e358431e7e038a48
     Pseudo is Ultrasoft, Zval =  1.0
     Generated by new atomic code, or converted to UPF format
     Using radial grid of  615 points,  2 beta functions with:
                l(1) =   0
                l(2) =   0
     Q(r) pseudized with  8 coefficients,  rinner =    0.700

     atomic species   valence    mass     pseudopotential
        O0             6.00    15.99940     O ( 1.00)
        Pt1           16.00   195.08000     Pt( 1.00)
        H2             1.00     1.00794     H ( 1.00)

     Simplified LDA+U calculation (l_max = 2) with parameters (eV):
     atomic species    L          U    alpha       J0     beta
        Pt1            2     7.0000   0.0000   0.0000   0.0000

     No symmetry found

   Cartesian axes

     site n.     atom                  positions (alat units)
         1           O0  tau(   1) = (   0.0000000   0.0000000   1.5494095  )
         2           O0  tau(   2) = (   0.0000000   0.5024180   1.6475009  )
         3           Pt1 tau(   3) = (   0.2500000   0.5024180   1.8504910  )
         4           Pt1 tau(   4) = (   0.0000000   0.0000000   1.8570523  )
         5           O0  tau(   5) = (   0.2500000   0.8139171   1.8187098  )
         6           O0  tau(   6) = (   0.2500000   0.1909188   1.8864142  )
         7           O0  tau(   7) = (   0.0000000   0.5024180   2.0369959  )
         8           O0  tau(   8) = (   0.0000000   0.0000000   2.1720357  )
         9           Pt1 tau(   9) = (   0.2500000   0.0000000   2.3614521  )
        10           Pt1 tau(  10) = (   0.0000000   0.5024180   2.3598528  )
        11           O0  tau(  11) = (   0.2500000   0.6933368   2.3268823  )
        12           O0  tau(  12) = (   0.2500000   0.3114991   2.4033624  )
        13           O0  tau(  13) = (   0.0000000   0.0000000   2.5482851  )
        14           O0  tau(  14) = (   0.5000000   0.0000000   1.5485073  )
        15           O0  tau(  15) = (   0.5000000   0.5024180   1.6434821  )
        16           Pt1 tau(  16) = (   0.7500000   0.5024180   1.8504910  )
        17           Pt1 tau(  17) = (   0.5000000   0.0000000   1.8561092  )
        18           O0  tau(  18) = (   0.7500000   0.8139171   1.8187918  )
        19           O0  tau(  19) = (   0.7500000   0.1909188   1.8863321  )
        20           O0  tau(  20) = (   0.5000000   0.5024180   2.0428191  )
        21           O0  tau(  21) = (   0.5000000   0.0000000   2.1708874  )
        22           Pt1 tau(  22) = (   0.7500000   0.0000000   2.3614521  )
        23           Pt1 tau(  23) = (   0.5000000   0.5024180   2.3628874  )
        24           O0  tau(  24) = (   0.7500000   0.6933368   2.3268003  )
        25           O0  tau(  25) = (   0.7500000   0.3114991   2.4034034  )
        26           O0  tau(  26) = (   0.5000000   0.0000000   2.5460296  )
        27           H2  tau(  27) = (   0.0000200   0.6429744   1.5830361  )
        28           H2  tau(  28) = (   0.5000600   0.6435874   1.5806577  )
        29           H2  tau(  29) = (   0.1433700   0.0339333   1.5082373  )
        30           H2  tau(  30) = (   0.6430800   0.0354607   1.5076632  )
        31           O0  tau(  31) = (   0.5001100   0.5589199   2.6603192  )
        32           O0  tau(  32) = (   0.4999400   0.3687346   2.7792838  )
        33           H2  tau(  33) = (   0.4999900   0.4305019   2.9192445  )

     number of k points=    10  Methfessel-Paxton smearing, width (Ry)=  0.0100
                       cart. coord. in units 2pi/alat
        k(    1) = (   0.0000000   0.0000000   0.0000000), wk =   0.1250000
        k(    2) = (   0.0000000   0.2487968   0.0000000), wk =   0.2500000
        k(    3) = (   0.0000000  -0.4975937   0.0000000), wk =   0.1250000
        k(    4) = (   0.2500000   0.0000000   0.0000000), wk =   0.2500000
        k(    5) = (   0.2500000   0.2487968   0.0000000), wk =   0.2500000
        k(    6) = (   0.2500000  -0.4975937   0.0000000), wk =   0.2500000
        k(    7) = (  -0.5000000   0.0000000   0.0000000), wk =   0.1250000
        k(    8) = (  -0.5000000   0.2487968   0.0000000), wk =   0.2500000
        k(    9) = (  -0.5000000  -0.4975937   0.0000000), wk =   0.1250000
        k(   10) = (  -0.2500000   0.2487968   0.0000000), wk =   0.2500000

     Largest allocated arrays     est. size (Mb)     dimensions
     Largest temporary arrays     est. size (Mb)     dimensions

     Check: negative/imaginary core charge=   -0.000003    0.000000

     Initial potential from superposition of free atoms
     Check: negative starting charge=   -1.535323

     starting charge  248.99983, renormalised to  253.00000

     negative rho (up, down):  0.156E+01 0.000E+00
     Number of +U iterations with fixed ns =  0
     Starting occupations:
 --- enter write_ns ---
 LDA+U parameters:
U( 2)     =  7.00000000
alpha( 2) =  0.00000000
atom    3   Tr[ns(na)] =   8.00000
    eigenvalues:
  0.800  0.800  0.800  0.800  0.800
    eigenvectors:
  1.000  0.000  0.000  0.000  0.000
  0.000  1.000  0.000  0.000  0.000
  0.000  0.000  1.000  0.000  0.000
  0.000  0.000  0.000  1.000  0.000
  0.000  0.000  0.000  0.000  1.000
    occupations:
  0.800  0.000  0.000  0.000  0.000
  0.000  0.800  0.000  0.000  0.000
  0.000  0.000  0.800  0.000  0.000
  0.000  0.000  0.000  0.800  0.000
  0.000  0.000  0.000  0.000  0.800
atom    4   Tr[ns(na)] =   8.00000
    eigenvalues:
  0.800  0.800  0.800  0.800  0.800
    eigenvectors:
  1.000  0.000  0.000  0.000  0.000
  0.000  1.000  0.000  0.000  0.000
  0.000  0.000  1.000  0.000  0.000
  0.000  0.000  0.000  1.000  0.000
  0.000  0.000  0.000  0.000  1.000
    occupations:
  0.800  0.000  0.000  0.000  0.000
  0.000  0.800  0.000  0.000  0.000
  0.000  0.000  0.800  0.000  0.000
  0.000  0.000  0.000  0.800  0.000
  0.000  0.000  0.000  0.000  0.800
atom    9   Tr[ns(na)] =   8.00000
    eigenvalues:
  0.800  0.800  0.800  0.800  0.800
    eigenvectors:
  1.000  0.000  0.000  0.000  0.000
  0.000  1.000  0.000  0.000  0.000
  0.000  0.000  1.000  0.000  0.000
  0.000  0.000  0.000  1.000  0.000
  0.000  0.000  0.000  0.000  1.000
    occupations:
  0.800  0.000  0.000  0.000  0.000
  0.000  0.800  0.000  0.000  0.000
  0.000  0.000  0.800  0.000  0.000
  0.000  0.000  0.000  0.800  0.000
  0.000  0.000  0.000  0.000  0.800
atom   10   Tr[ns(na)] =   8.00000
    eigenvalues:
  0.800  0.800  0.800  0.800  0.800
    eigenvectors:
  1.000  0.000  0.000  0.000  0.000
  0.000  1.000  0.000  0.000  0.000
  0.000  0.000  1.000  0.000  0.000
  0.000  0.000  0.000  1.000  0.000
  0.000  0.000  0.000  0.000  1.000
    occupations:
  0.800  0.000  0.000  0.000  0.000
  0.000  0.800  0.000  0.000  0.000
  0.000  0.000  0.800  0.000  0.000
  0.000  0.000  0.000  0.800  0.000
  0.000  0.000  0.000  0.000  0.800
atom   16   Tr[ns(na)] =   8.00000
    eigenvalues:
  0.800  0.800  0.800  0.800  0.800
    eigenvectors:
  1.000  0.000  0.000  0.000  0.000
  0.000  1.000  0.000  0.000  0.000
  0.000  0.000  1.000  0.000  0.000
  0.000  0.000  0.000  1.000  0.000
  0.000  0.000  0.000  0.000  1.000
    occupations:
  0.800  0.000  0.000  0.000  0.000
  0.000  0.800  0.000  0.000  0.000
  0.000  0.000  0.800  0.000  0.000
  0.000  0.000  0.000  0.800  0.000
  0.000  0.000  0.000  0.000  0.800
atom   17   Tr[ns(na)] =   8.00000
    eigenvalues:
  0.800  0.800  0.800  0.800  0.800
    eigenvectors:
  1.000  0.000  0.000  0.000  0.000
  0.000  1.000  0.000  0.000  0.000
  0.000  0.000  1.000  0.000  0.000
  0.000  0.000  0.000  1.000  0.000
  0.000  0.000  0.000  0.000  1.000
    occupations:
  0.800  0.000  0.000  0.000  0.000
  0.000  0.800  0.000  0.000  0.000
  0.000  0.000  0.800  0.000  0.000
  0.000  0.000  0.000  0.800  0.000
  0.000  0.000  0.000  0.000  0.800
atom   22   Tr[ns(na)] =   8.00000
    eigenvalues:
  0.800  0.800  0.800  0.800  0.800
    eigenvectors:
  1.000  0.000  0.000  0.000  0.000
  0.000  1.000  0.000  0.000  0.000
  0.000  0.000  1.000  0.000  0.000
[...]
  0.705  0.723  0.989  0.990  0.992
    eigenvectors:
  0.054  0.115  0.823  0.003  0.005
  0.715  0.284  0.000  0.000  0.000
  0.001  0.005  0.012  0.000  0.982
  0.229  0.596  0.162  0.000  0.013
  0.000  0.000  0.003  0.997  0.000
    occupations:
  0.943 -0.008  0.008 -0.101 -0.000
 -0.008  0.710 -0.001 -0.006 -0.002
  0.008 -0.001  0.991  0.019  0.000
 -0.101 -0.006  0.019  0.766 -0.001
 -0.000 -0.002  0.000 -0.001  0.990
atom   17   Tr[ns(na)] =   8.79237
    eigenvalues:
  0.705  0.727  0.987  0.988  0.989
    eigenvectors:
  0.000  0.984  0.010  0.004  0.002
  0.013  0.000  0.076  0.844  0.067
  0.000  0.006  0.743  0.015  0.237
  0.000  0.010  0.170  0.127  0.694
  0.986  0.000  0.001  0.011  0.001
    occupations:
  0.731 -0.004 -0.019  0.025 -0.001
 -0.004  0.984  0.000  0.000  0.033
 -0.019  0.000  0.986  0.003 -0.000
  0.025  0.000  0.003  0.986  0.000
 -0.001  0.033 -0.000  0.000  0.708
atom   22   Tr[ns(na)] =   8.78585
    eigenvalues:
  0.726  0.736  0.966  0.976  0.989
    eigenvectors:
  0.000  0.133  0.000  0.017  0.850
  0.998  0.002  0.000  0.000  0.000
  0.000  0.013  0.030  0.948  0.009
  0.001  0.853  0.000  0.005  0.141
  0.000  0.000  0.970  0.030  0.000
    occupations:
  0.955  0.002 -0.009 -0.085  0.000
  0.002  0.726  0.000 -0.000 -0.003
 -0.009  0.000  0.973 -0.026 -0.002
 -0.085 -0.000 -0.026  0.773  0.000
  0.000 -0.003 -0.002  0.000  0.967
atom   23   Tr[ns(na)] =   8.78883
    eigenvalues:
  0.718  0.722  0.976  0.988  0.990
    eigenvectors:
  0.000  0.956  0.000  0.034  0.009
  0.023  0.000  0.977  0.000  0.000
  0.000  0.034  0.000  0.966  0.000
  0.000  0.009  0.000  0.000  0.990
  0.977  0.000  0.023  0.000  0.000
    occupations:
  0.734  0.000  0.048  0.025 -0.000
  0.000  0.970  0.000 -0.000 -0.038
  0.048  0.000  0.979 -0.005 -0.000
  0.025 -0.000 -0.005  0.987 -0.000
 -0.000 -0.038 -0.000 -0.000  0.724
N of occupied +U levels =  70.4162067
 --- exit write_ns ---

     Threshold (ethr) on eigenvalues was too large:
     Diagonalizing with lowered threshold

     Davidson diagonalization with overlap
     ethr =  1.15E-08,  avg # of iterations =  2.0

[...]

     total energy              =   -2312.28564539 Ry
     Harris-Foulkes estimate   =   -2312.28564539 Ry
     estimated scf accuracy    <       0.00000006 Ry

     iteration # 15     ecut=    40.00 Ry     beta=0.70
     Davidson diagonalization with overlap
     ethr =  8.53E-12,  avg # of iterations =  1.0

     negative rho (up, down):  0.157E+01 0.000E+00

     End of self-consistent calculation
 --- enter write_ns ---
 LDA+U parameters:
U( 2)     =  7.00000000
alpha( 2) =  0.00000000
atom    3   Tr[ns(na)] =   8.79837
    eigenvalues:
  0.705  0.723  0.988  0.990  0.992
    eigenvectors:
  0.054  0.116  0.821  0.005  0.005
  0.717  0.282  0.000  0.000  0.000
  0.001  0.005  0.012  0.000  0.982
  0.228  0.597  0.161  0.001  0.013
  0.000  0.000  0.005  0.994  0.000
    occupations:
  0.943  0.008  0.008 -0.101  0.001
  0.008  0.710  0.001  0.006 -0.002
  0.008  0.001  0.991  0.019 -0.000
 -0.101  0.006  0.019  0.766  0.001
  0.001 -0.002 -0.000  0.001  0.990
atom    4   Tr[ns(na)] =   8.79347
    eigenvalues:
  0.705  0.727  0.987  0.989  0.989
    eigenvectors:
  0.000  0.984  0.011  0.003  0.002
  0.013  0.000  0.051  0.854  0.082
  0.000  0.006  0.774  0.005  0.215
  0.000  0.010  0.164  0.126  0.700
  0.987  0.000  0.001  0.012  0.001
    occupations:
  0.731 -0.004 -0.019  0.026 -0.001
 -0.004  0.985  0.000  0.000  0.032
 -0.019  0.000  0.986  0.003 -0.000
  0.026  0.000  0.003  0.986  0.000
 -0.001  0.032 -0.000  0.000  0.709
atom    9   Tr[ns(na)] =   8.78554
    eigenvalues:
  0.726  0.736  0.966  0.976  0.989
    eigenvectors:
  0.000  0.133  0.000  0.016  0.850
  0.997  0.003  0.000  0.000  0.000
  0.000  0.013  0.026  0.952  0.009
  0.002  0.852  0.000  0.005  0.141
  0.000  0.000  0.973  0.027  0.000
    occupations:
  0.955 -0.001 -0.009 -0.085 -0.000
 -0.001  0.726  0.000  0.001 -0.003
 -0.009  0.000  0.973 -0.026  0.002
 -0.085  0.001 -0.026  0.772  0.000
 -0.000 -0.003  0.002  0.000  0.967
atom   10   Tr[ns(na)] =   8.87333
    eigenvalues:
  0.667  0.804  0.987  0.988  0.991
    eigenvectors:
  0.000  0.976  0.000  0.016  0.008
  0.017  0.000  0.983  0.000  0.000
  0.000  0.001  0.000  0.180  0.820
  0.000  0.024  0.000  0.804  0.172
  0.983  0.000  0.017  0.000  0.000
    occupations:
  0.809 -0.000 -0.006  0.028  0.000
 -0.000  0.981 -0.000  0.000 -0.041
 -0.006 -0.000  0.990 -0.001  0.000
  0.028  0.000 -0.001  0.984 -0.000
  0.000 -0.041  0.000 -0.000  0.672
atom   16   Tr[ns(na)] =   8.79837
    eigenvalues:
  0.705  0.723  0.989  0.990  0.992
    eigenvectors:
  0.054  0.115  0.823  0.003  0.005
  0.716  0.284  0.000  0.000  0.000
  0.001  0.005  0.012  0.000  0.982
  0.229  0.596  0.162  0.000  0.013
  0.000  0.000  0.003  0.997  0.000
    occupations:
  0.943 -0.008  0.008 -0.101 -0.000
 -0.008  0.710 -0.001 -0.006 -0.002
  0.008 -0.001  0.991  0.019  0.000
 -0.101 -0.006  0.019  0.766 -0.001
 -0.000 -0.002  0.000 -0.001  0.990
atom   17   Tr[ns(na)] =   8.79224
    eigenvalues:
  0.705  0.727  0.987  0.988  0.989
    eigenvectors:
  0.000  0.984  0.010  0.003  0.002
  0.013  0.000  0.075  0.845  0.067
  0.000  0.006  0.748  0.015  0.232
  0.000  0.010  0.166  0.126  0.699
  0.986  0.000  0.001  0.012  0.001
    occupations:
  0.731 -0.004 -0.019  0.025 -0.001
 -0.004  0.984  0.000  0.000  0.033
 -0.019  0.000  0.986  0.003 -0.000
  0.025  0.000  0.003  0.986  0.000
 -0.001  0.033 -0.000  0.000  0.708
atom   22   Tr[ns(na)] =   8.78552
    eigenvalues:
  0.726  0.736  0.966  0.976  0.989
    eigenvectors:
  0.000  0.132  0.000  0.016  0.850
  0.998  0.002  0.000  0.000  0.000
  0.000  0.013  0.030  0.948  0.009
  0.001  0.853  0.000  0.005  0.141
  0.000  0.000  0.969  0.030  0.000
    occupations:
  0.955  0.002 -0.009 -0.085  0.000
  0.002  0.726  0.000 -0.000 -0.003
 -0.009  0.000  0.973 -0.026 -0.002
 -0.085 -0.000 -0.026  0.773  0.000
  0.000 -0.003 -0.002  0.000  0.967
atom   23   Tr[ns(na)] =   8.78884
    eigenvalues:
  0.718  0.722  0.976  0.988  0.990
    eigenvectors:
  0.000  0.956  0.000  0.034  0.009
  0.023  0.000  0.977  0.000  0.000
  0.000  0.034  0.000  0.966  0.000
  0.000  0.009  0.000  0.000  0.991
  0.977  0.000  0.023  0.000  0.000
    occupations:
  0.734  0.000  0.048  0.025 -0.000
  0.000  0.971  0.000 -0.000 -0.038
  0.048  0.000  0.979 -0.005 -0.000
  0.025 -0.000 -0.005  0.987 -0.000
 -0.000 -0.038 -0.000 -0.000  0.724
N of occupied +U levels =  70.4156822
 --- exit write_ns ---

[...]

          k = 0.2500-0.4976 0.0000 ( 32026 PWs)   bands (ev):

[...]

          k =-0.2500 0.2488 0.0000 ( 32025 PWs)   bands (ev):

   -54.4137 -54.4052 -54.3661 -54.3530 -54.3113 -54.3097 -54.2846 -54.2448
   -54.2269 -54.2226 -54.1822 -54.1785 -54.1514 -54.0752 -54.0711 -54.0470
   -54.0423 -53.9510 -53.9472 -53.9144 -53.9093 -53.4841 -53.2611 -52.8303
   -24.0479 -21.5119 -21.2551 -20.6313 -20.5042 -20.2718 -20.2314 -20.1179
   -19.9882 -19.8961 -19.7779 -19.7196 -19.6420 -19.5631 -19.4387 -19.3871
   -19.3353 -18.7672 -18.5060 -17.5500 -10.7151 -10.5754 -10.5054 -10.3523
   -10.0705  -9.9871  -9.9400  -9.7360  -9.6718  -9.3613  -9.2294  -9.1084
    -9.0508  -8.9135  -8.7541  -8.7135  -8.6471  -8.5263  -8.4185  -8.2717
    -8.1274  -7.9018  -7.8912  -7.8052  -7.7506  -7.5857  -7.4436  -7.4175
    -7.3656  -7.1668  -7.1305  -7.0836  -6.9822  -6.9471  -6.8431  -6.7108
    -6.6615  -6.5897  -6.5326  -6.3831  -6.3265  -6.1463  -5.9908  -5.7773
    -5.6613  -5.4274  -5.2344  -5.1040  -5.0660  -5.0052  -4.8931  -4.7946
    -4.7559  -4.6080  -4.5050  -4.3272  -4.2519  -4.0411  -3.8529  -3.7953
    -3.7143  -3.5913  -3.5150  -3.4142  -3.2765  -3.2321  -3.1515  -3.0273
    -2.8940  -2.8625  -2.5767  -2.5310  -2.3263  -2.1915  -2.0932  -2.0014
    -1.9401  -1.8924  -1.8427  -1.7251  -1.4566  -1.3553  -1.2800  -1.1618
    -0.5228  -0.3001  -0.1824   0.2720   0.4369   0.7945   1.0009   1.2765
     1.3690   1.5043   1.5819   1.8580   1.9836   2.0532   2.3225   3.3912
     3.8105   4.0348   4.5515   4.8820   5.0791   5.5298   5.7551   5.7962
     5.9680   6.1288   6.2587   6.4317   6.5076   6.7483   6.8677   6.9630
     7.0262   7.1629   7.3029   7.4659   7.6043   7.6763   7.7836   7.8800
     7.9643   8.0938   8.1963   8.2623   8.4274   8.5021   8.6337   8.7076
     8.8097   8.8378   8.9927   9.0408   9.1515   9.2369   9.3636   9.4331
     9.5268   9.5930   9.7041   9.7524   9.8827   9.9723  10.0083  10.1375
    10.2044  10.3007  10.3940  10.4677  10.5626  10.6483  10.7178  10.8037
    10.9396  11.0214  11.0750  11.1992  11.3167  11.3463  11.4605  11.5390
    11.6173  11.7356  11.7950  11.8633  11.9507  12.0493  12.0944  12.1627
    12.2161  12.3100  12.3851  12.4381  12.5840  12.6505  12.7340  12.8292
    12.8844  12.9339  13.0055  13.0935  13.2396  13.3103  13.3637  13.4746
    13.5577  13.6555  13.6771  13.7306  13.8267  13.8649  13.9752  14.0404
    14.1170  14.1696  14.2839  14.4302  14.4361  14.5137  14.6197  14.7279
    14.7786  14.8574  14.9613  14.9874  15.0540  15.1600  15.1994  15.2944
    15.3210  15.3490  15.3736  15.4248  15.5174  15.5727  15.6443  15.6591
    15.7816  15.8586  15.8885  15.9452  15.9926  16.0841  16.1425  16.1769
    16.2435  16.2853  16.3422  16.4301  16.5287  16.6099  16.7419  16.7767
    16.8291  16.9313  16.9822  17.0344  17.0600  17.1558  17.1998  17.2447
    17.3339  17.3566  17.4016  17.4621  17.4885  17.6026  17.6153  17.7129
    17.7579  17.8915  17.9469  17.9765  18.0049  18.0630  18.0795  18.0945
    18.1106  18.1248  18.1551  18.1913  18.2131  18.2925  18.3627  18.3966
    18.4138  18.5090  18.5637  18.6131  18.7117  18.7558  18.8715  18.9606
    18.9803  19.0443  19.1196  19.1329  19.2263  19.2348  19.3138  19.3911
    19.4566  19.5762  19.6308  19.6577  19.7211  19.8535  19.9820  20.0358
    20.1039  20.1686  20.2057  20.2489  20.2897  20.3348  20.3772  20.4424
    20.5445  20.5910  20.6375  20.7047  20.7365  20.8189  20.8297  20.8685
    20.9470  20.9915  21.0454  21.1264  21.1626  21.2377  21.3219  21.3544
    21.4125  21.5022  21.5238  21.5737  21.6234  21.6922  21.7739  21.8816
    21.9486  21.9975  22.0710  22.1446  22.1848  22.2578  22.3139  22.3322
    22.4562  22.4940  22.5201

     the Fermi energy is    -1.2700 ev

!    total energy              =   -2312.28564539 Ry
     Harris-Foulkes estimate   =   -2312.28564539 Ry
     estimated scf accuracy    <          3.5E-09 Ry

     The total energy is the sum of the following terms:

     one-electron contribution =  -24124.93258960 Ry
     hartree contribution      =   12115.02737733 Ry
     xc contribution           =    -580.07919306 Ry
     ewald contribution        =   10275.87744913 Ry
     Hubbard energy            =       1.82139248 Ry
     smearing contrib. (-TS)   =      -0.00008167 Ry

     convergence has been achieved in  15 iterations

     Forces acting on atoms (Ry/au):

     negative rho (up, down):  0.157E+01 0.000E+00
     atom    1 type  1   force =    -0.00702087   -0.00305608    0.00006411
     atom    2 type  1   force =     0.00010546    0.00468127    0.00081451
     atom    3 type  2   force =     0.00677118    0.00525985    0.00000364
     atom    4 type  2   force =     0.00929610    0.00363767    0.00017173
     atom    5 type  1   force =     0.00112821   -0.00323569    0.00051504
     atom    6 type  1   force =     0.00015047   -0.00298276    0.00027314
     atom    7 type  1   force =     0.00011283   -0.00051864   -0.00062733
     atom    8 type  1   force =    -0.00393985   -0.00004884    0.00019830
     atom    9 type  2   force =     0.00660329    0.00370324    0.00016400
     atom   10 type  2   force =    -0.00006999   -0.02303664    0.00054803
     atom   11 type  1   force =    -0.00046581    0.00271736   -0.00053756
     atom   12 type  1   force =    -0.01187733    0.01001462   -0.00038645
     atom   13 type  1   force =    -0.00108997   -0.00761168   -0.00011263
     atom   14 type  1   force =    -0.00728952   -0.00280380   -0.00001472
     atom   15 type  1   force =     0.00011936    0.00110305    0.00028592
     atom   16 type  2   force =    -0.00764646    0.00537141    0.00000728
     atom   17 type  2   force =     0.00922271    0.00521381    0.00009350
     atom   18 type  1   force =     0.00137635   -0.00325901    0.00051507
     atom   19 type  1   force =     0.00009653   -0.00293337    0.00028521
     atom   20 type  1   force =    -0.00002898   -0.00379992   -0.00029276
     atom   21 type  1   force =    -0.00382119    0.00248085    0.00015855
     atom   22 type  2   force =    -0.00314235    0.00363367    0.00016429
     atom   23 type  2   force =     0.00012062    0.00894113    0.00005458
     atom   24 type  1   force =     0.00054982    0.00278223   -0.00054001
     atom   25 type  1   force =     0.01193869    0.01004437   -0.00038149
     atom   26 type  1   force =    -0.00101682   -0.01648046   -0.00004260
     atom   27 type  3   force =     0.00000144   -0.00047202    0.00013327
     atom   28 type  3   force =    -0.00000214   -0.00014389    0.00011134
     atom   29 type  3   force =    -0.00011235   -0.00006854   -0.00042131
     atom   30 type  3   force =    -0.00004731   -0.00012355   -0.00032599
     atom   31 type  1   force =     0.00002656    0.00054976   -0.00048313
     atom   32 type  1   force =    -0.00006992   -0.00002012   -0.00025437
     atom   33 type  3   force =     0.00002122    0.00046070   -0.00014120

     Total force =     0.002167     Total SCF correction =     0.000315
     SCF correction compared to forces is large: reduce conv_thr to get better values

     entering subroutine stress ...

     negative rho (up, down):  0.157E+01 0.000E+00
          total   stress  (Ry/bohr**3)                   (kbar)     P=  -21.51
  -0.00023324   0.00000011   0.00000359        -34.31      0.02      0.53
   0.00000011  -0.00015125  -0.00000779          0.02    -22.25     -1.15
   0.00000359  -0.00000779  -0.00005423          0.53     -1.15     -7.98

     bfgs converged in  10 scf cycles and   9 bfgs steps
     (criteria: energy < 0.10E-03, force < 0.10E-02)

     End of BFGS Geometry Optimization

     Final energy   =   -2312.2856453869 Ry
Begin final coordinates

ATOMIC_POSITIONS (crystal)
O0       0.000000000   0.000000000   0.377559987    0   0   1
O0       0.000000000   0.500000000   0.401619894    0   0   1
Pt1      0.250000000   0.500000000   0.451174949    0   0   1
Pt1      0.000000000   0.000000000   0.452687125    0   0   1
O0       0.250000000   0.810000000   0.442223983    0   0   1
O0       0.250000000   0.190000000   0.461188954    0   0   1
O0       0.000000000   0.500000000   0.496490048    0   0   1
O0       0.000000000   0.000000000   0.529762640    0   0   1
Pt1      0.250000000   0.000000000   0.575737726    0   0   1
Pt1      0.000000000   0.500000000   0.575623151    0   0   1
O0       0.250000000   0.690000000   0.565853112    0   0   1
O0       0.250000000   0.310000000   0.587105620    0   0   1
O0       0.000000000   0.000000000   0.621459549    0   0   1
O0       0.500000000   0.000000000   0.377431302    0   0   1
O0       0.500000000   0.500000000   0.401038352    0   0   1
Pt1      0.750000000   0.500000000   0.451178557    0   0   1
Pt1      0.500000000   0.000000000   0.452542199    0   0   1
O0       0.750000000   0.810000000   0.442233855    0   0   1
O0       0.750000000   0.190000000   0.461173851    0   0   1
O0       0.500000000   0.500000000   0.498084572    0   0   1
O0       0.500000000   0.000000000   0.529545360    0   0   1
Pt1      0.750000000   0.000000000   0.575734836    0   0   1
Pt1      0.500000000   0.500000000   0.575894398    0   0   1
O0       0.750000000   0.690000000   0.565829140    0   0   1
O0       0.750000000   0.310000000   0.587091651    0   0   1
O0       0.500000000   0.000000000   0.621009005    0   0   1
H2       0.000024211   0.641646837   0.386804804
H2       0.500055720   0.641639959   0.386359183
H2       0.144054111   0.034019294   0.368123187
H2       0.643672465   0.035306667   0.367950287
O0       0.500224788   0.556799065   0.649035341
O0       0.499794800   0.368820997   0.677381861
H2       0.500026181   0.428061159   0.711801520
End final coordinates

     General routines

     Parallel routines
     Hubbard U routines

   This run was terminated on:  22:36:25  31May2014

   JOB DONE.
Running PBS batch system epilogue script
Job id: 373321.audhumbla.fysik.dtu.dk
Username: zhonxu
Groupname: campgst
Jobname: PtO2/Eads-2-layers/OOH-U-7.0
Sessionid: 18547
Queuename: verylong
Accounting:
This job has allocated the following 16 nodes:
d040 d040 d040 d040 d040 d040 d040 d040 d029 d029 d029 d029 d029 d029 d029 d029
Finished epilogue job 373321.audhumbla.fysik.dtu.dk for zhonxu