     Program PWSCF v.5.0.2 (svn rev. 9656) starts on 11May2014 at  2:26: 2

     Current dimensions of program PWSCF are:
     Max number of different atomic species (ntypx) = 10
     Max number of k-points (npk) =  40000
     Max angular momentum in pseudopotentials (lmaxx) =  3
     Reading input from pwscf.in
Warning: card &CELL ignored
Warning: card / ignored

     Subspace diagonalization in iterative solution of the eigenvalue problem:
     a serial algorithm will be used

     bravais-lattice index     =            0
     lattice parameter (alat)  =      12.0187  a.u.
     unit-cell volume          =    9939.8055 (a.u.)^3
     number of atoms/cell      =           51
     number of atomic types    =            3
     number of electrons       =       445.00
     number of Kohn-Sham states=          667
     kinetic-energy cutoff     =      40.0000  Ry
     charge density cutoff     =     500.0000  Ry
     convergence threshold     =      1.0E-06
     mixing beta               =       0.3000
     number of iterations used =            8  plain     mixing
     Exchange-correlation      = SLA  PW   PBE  PBE ( 1 4 3 4 0)
     EXX-fraction              =        0.00
     nstep                     =           50

     celldm(1)=  12.018658  celldm(2)=   0.000000  celldm(3)=   0.000000
     celldm(4)=   0.000000  celldm(5)=   0.000000  celldm(6)=   0.000000

     crystal axes: (cart. coord. in units of alat)
               a(1) = (   1.000000   0.000000   0.000000 )
               a(2) = (   0.000000   1.009517   0.000000 )
               a(3) = (   0.000000   0.000000   5.671477 )

     reciprocal axes: (cart. coord. in units 2 pi/alat)
               b(1) = (  1.000000  0.000000  0.000000 )
               b(2) = (  0.000000  0.990572  0.000000 )
               b(3) = (  0.000000  0.000000  0.176321 )

     PseudoPot. # 1 for O  read from file:
     /home/camp/zhonxu/pseudo/o_pbe_v1.01.uspp.F.UPF
     MD5 check sum: 2bcb18d16ea4b960afae9ec6d52f22d2
     Pseudo is Ultrasoft + core correction, Zval =  6.0
     Generated by new atomic code, or converted to UPF format
     Using radial grid of  737 points,  5 beta functions with:
                l(1) =   0
                l(2) =   0
                l(3) =   1
                l(4) =   1
                l(5) =   2
     Q(r) pseudized with  8 coefficients,  rinner =    0.900   0.900   0.900
                                                       0.900   0.900

     PseudoPot. # 2 for Ir read from file:
     /home/camp/zhonxu/pseudo/ir_pbe_v1.uspp.F.UPF
     MD5 check sum: abf987a9674477536ede83817f8f8b70
     Pseudo is Ultrasoft + core correction, Zval = 15.0
     Generated by new atomic code, or converted to UPF format
     Using radial grid of  983 points,  7 beta functions with:
                l(1) =   0
                l(2) =   0
                l(3) =   1
                l(4) =   1
                l(5) =   1
                l(6) =   2
                l(7) =   2
     Q(r) pseudized with  8 coefficients,  rinner =    1.350   1.350   1.350
                                                       1.350   1.350

     PseudoPot. # 3 for H  read from file:
     /home/camp/zhonxu/pseudo/h_pbe_v1.uspp.F.UPF
     MD5 check sum: 3408e3ff4ec8b0a4e358431e7e038a48
     Pseudo is Ultrasoft, Zval =  1.0
     Generated by new atomic code, or converted to UPF format
     Using radial grid of  615 points,  2 beta functions with:
                l(1) =   0
                l(2) =   0
     Q(r) pseudized with  8 coefficients,  rinner =    0.700

     atomic species   valence    mass     pseudopotential
        O0             6.00    15.99940     O ( 1.00)
        Ir1           15.00   192.22000     Ir( 1.00)
        H2             1.00     1.00794     H ( 1.00)

      2 Sym. Ops. (no inversion) found

   Cartesian axes

     site n.     atom                  positions (alat units)
         1           O0  tau(   1) = (   0.0000000   0.5047586   1.8867871  )
         2           Ir1 tau(   2) = (   0.2500000   0.5047586   2.0785964  )
         3           Ir1 tau(   3) = (   0.0000000   0.0000000   2.0785964  )
         4           O0  tau(   4) = (   0.2500000   0.8177090   2.0785964  )
         5           O0  tau(   5) = (   0.2500000   0.1918083   2.0785964  )
         6           O0  tau(   6) = (   0.0000000   0.5047586   2.2704058  )
         7           O0  tau(   7) = (   0.0000000   0.0000000   2.3915485  )
         8           Ir1 tau(   8) = (   0.2500000   0.0000000   2.5833579  )
         9           Ir1 tau(   9) = (   0.0000000   0.5047586   2.5833579  )
        10           O0  tau(  10) = (   0.2500000   0.6965669   2.5833579  )
        11           O0  tau(  11) = (   0.2500000   0.3129503   2.5833579  )
        12           O0  tau(  12) = (   0.0000000   0.0000000   2.7751673  )
        13           O0  tau(  13) = (   0.0000000   0.5047586   2.8930773  )
        14           Ir1 tau(  14) = (   0.2500000   0.5047586   3.0864747  )
        15           Ir1 tau(  15) = (   0.0000000   0.0000000   3.0901611  )
        16           O0  tau(  16) = (   0.2500000   0.8161846   3.0894805  )
        17           O0  tau(  17) = (   0.2500000   0.1933326   3.0894805  )
        18           O0  tau(  18) = (   0.0000000   0.5047586   3.2780572  )
        19           O0  tau(  19) = (   0.0000000   0.0000000   3.4018655  )
        20           Ir1 tau(  20) = (   0.2500000   0.0000000   3.5996299  )
        21           Ir1 tau(  21) = (   0.0000000   0.5047586   3.5839199  )
        22           O0  tau(  22) = (   0.2500000   0.6968899   3.6045641  )
        23           O0  tau(  23) = (   0.2500000   0.3126273   3.6045641  )
        24           O0  tau(  24) = (   0.0000000   0.0000000   3.7852574  )
        25           O0  tau(  25) = (   0.5000000   0.5047586   1.8867871  )
        26           Ir1 tau(  26) = (   0.7500000   0.5047586   2.0785964  )
        27           Ir1 tau(  27) = (   0.5000000   0.0000000   2.0785964  )
        28           O0  tau(  28) = (   0.7500000   0.8177090   2.0785964  )
        29           O0  tau(  29) = (   0.7500000   0.1918083   2.0785964  )
        30           O0  tau(  30) = (   0.5000000   0.5047586   2.2704058  )
        31           O0  tau(  31) = (   0.5000000   0.0000000   2.3915485  )
        32           Ir1 tau(  32) = (   0.7500000   0.0000000   2.5833579  )
        33           Ir1 tau(  33) = (   0.5000000   0.5047586   2.5833579  )
        34           O0  tau(  34) = (   0.7500000   0.6965669   2.5833579  )
        35           O0  tau(  35) = (   0.7500000   0.3129503   2.5833579  )
        36           O0  tau(  36) = (   0.5000000   0.0000000   2.7751673  )
        37           O0  tau(  37) = (   0.5000000   0.5047586   2.8930773  )
        38           Ir1 tau(  38) = (   0.7500000   0.5047586   3.0864747  )
        39           Ir1 tau(  39) = (   0.5000000   0.0000000   3.0901611  )
        40           O0  tau(  40) = (   0.7500000   0.8161846   3.0894805  )
        41           O0  tau(  41) = (   0.7500000   0.1933326   3.0894805  )
        42           O0  tau(  42) = (   0.5000000   0.5047586   3.2780572  )
        43           O0  tau(  43) = (   0.5000000   0.0000000   3.4018655  )
        44           Ir1 tau(  44) = (   0.7500000   0.0000000   3.5996299  )
        45           Ir1 tau(  45) = (   0.5000000   0.5047586   3.5839199  )
        46           O0  tau(  46) = (   0.7500000   0.6968899   3.6045641  )
        47           O0  tau(  47) = (   0.7500000   0.3126273   3.6045641  )
        48           O0  tau(  48) = (   0.5000000   0.0000000   3.7852574  )
        49           O0  tau(  49) = (   0.5000000   0.5047586   3.8984033  )
        50           O0  tau(  50) = (   0.5000000   0.3215817   4.0062748  )
        51           H2  tau(  51) = (   0.5000000   0.3681406   4.1551511  )

     number of k points=     9  Methfessel-Paxton smearing, width (Ry)=  0.0100
                       cart. coord. in units 2pi/alat
        k(    1) = (   0.0000000   0.0000000   0.0000000), wk =   0.1250000
        k(    2) = (   0.0000000   0.2476431   0.0000000), wk =   0.2500000
        k(    3) = (   0.0000000  -0.4952862   0.0000000), wk =   0.1250000
        k(    4) = (   0.2500000   0.0000000   0.0000000), wk =   0.2500000
        k(    5) = (   0.2500000   0.2476431   0.0000000), wk =   0.5000000
        k(    6) = (   0.2500000  -0.4952862   0.0000000), wk =   0.2500000
        k(    7) = (  -0.5000000   0.0000000   0.0000000), wk =   0.1250000
        k(    8) = (  -0.5000000   0.2476431   0.0000000), wk =   0.2500000
        k(    9) = (  -0.5000000  -0.4952862   0.0000000), wk =   0.1250000

     Largest allocated arrays     est. size (Mb)     dimensions
     Largest temporary arrays     est. size (Mb)     dimensions

     Check: negative/imaginary core charge=   -0.000003    0.000000

     Initial potential from superposition of free atoms
     Check: negative starting charge=   -6.666768

     starting charge  436.99944, renormalised to  445.00000

     negative rho (up, down):  0.679E+01 0.000E+00
     Starting wfc are  329 randomized atomic wfcs

     Self-consistent Calculation

     iteration #  1     ecut=    40.00 Ry     beta=0.30
     Davidson diagonalization with overlap
     ethr =  1.00E-02,  avg # of iterations =  8.1

     negative rho (up, down):  0.638E+01 0.000E+00

     total energy              =   -3982.48844763 Ry
     Harris-Foulkes estimate   =   -4086.85606704 Ry
     estimated scf accuracy    <     209.76831276 Ry

[...]

     End of self-consistent calculation

          k = 0.0000 0.0000 0.0000 ( 42445 PWs)   bands (ev):

   -49.0235 -49.0067 -48.9996 -48.9915 -48.9865 -48.9857 -48.9778 -48.9773
   -48.9735 -48.9639 -48.9616 -48.9608 -48.9565 -48.9552 -48.9546 -48.9527
   -48.9466 -48.9428 -48.9203 -48.9027 -48.8918 -48.8712 -48.8208 -48.8135
   -48.8060 -48.7876 -48.7797 -48.7729 -48.7435 -48.7290 -48.7133 -48.7105
   -48.6990 -48.6949 -48.6797 -48.6350 -48.6027 -48.5999 -48.5965 -48.5945
   -48.5925 -48.5015 -48.4985 -48.4869 -48.4840 -48.3381 -48.3231 -48.3143
   -22.6999 -19.5337 -19.2694 -19.0149 -18.9261 -18.8646 -18.6080 -18.3729
   -18.3261 -18.2176 -18.2112 -18.1667 -18.1469 -18.1175 -18.0678 -18.0581
   -18.0546 -18.0264 -17.9830 -17.9474 -17.8577 -17.7684 -17.7448 -17.6848
   -17.6411 -17.5284 -17.4765 -17.4235 -17.3598 -16.4090 -16.3244 -16.1926
   -16.1556 -14.8500  -8.1123  -8.0835  -8.0076  -7.9461  -7.8139  -7.6769
    -7.2479  -6.9041  -6.8655  -6.5567  -6.5302  -6.5182  -6.5124  -6.5024
    -6.4864  -6.4782  -6.4320  -6.3907  -6.3682  -6.3558  -6.3455  -6.3202
    -6.2662  -6.2408  -6.1871  -6.1440  -6.1344  -6.0561  -5.9861  -5.9252
    -5.8384  -5.8116  -5.8018  -5.7767  -5.7302  -5.5729  -5.5494  -5.4995
    -5.3870  -5.2101  -5.1053  -4.9515  -4.7500  -4.3288  -4.2653  -4.2307
    -4.2205  -4.1897  -4.1230  -4.1042  -4.0993  -4.0963  -3.9722  -3.9499
    -3.7934  -3.7803  -3.6377  -3.5843  -3.5686  -3.5565  -3.5279  -3.4385
    -3.4287  -3.2001  -3.1379  -3.0841  -3.0244  -3.0160  -2.9809  -2.9239
    -2.9094  -2.8819  -2.8587  -2.8465  -2.8224  -2.7503  -2.6718  -2.6564
[...]
Ir1      0.500000000   0.000000000   0.366500000    0   0   0
O0       0.750000000   0.810000000   0.366500000    0   0   0
O0       0.750000000   0.190000000   0.366500000    0   0   0
O0       0.500000000   0.500000000   0.400320000    0   0   0
O0       0.500000000   0.000000000   0.421680000    0   0   0
Ir1      0.750000000   0.000000000   0.455500000    0   0   0
Ir1      0.500000000   0.500000000   0.455500000    0   0   0
O0       0.750000000   0.690000000   0.455500000    0   0   0
O0       0.750000000   0.310000000   0.455500000    0   0   0
O0       0.500000000   0.000000000   0.489320000    0   0   0
O0       0.500000000   0.500000000   0.510110000    0   0   0
Ir1      0.750000000   0.500000000   0.544210000    0   0   0
Ir1      0.500000000   0.000000000   0.544860000    0   0   0
O0       0.750000000   0.808490000   0.544740000    0   0   0
O0       0.750000000   0.191510000   0.544740000    0   0   0
O0       0.500000000   0.500000000   0.577990000    0   0   0
O0       0.500000000   0.000000000   0.599820000    0   0   0
Ir1      0.750000000   0.000000000   0.634690000    0   0   0
Ir1      0.500000000   0.500000000   0.631920000    0   0   0
O0       0.750000000   0.690320000   0.635560000    0   0   0
O0       0.750000000   0.309680000   0.635560000    0   0   0
O0       0.500000000   0.000000000   0.667420000    0   0   0
O0       0.500000000   0.500000000   0.686455722    1   0   1
O0       0.500000000   0.318550000   0.707054251    1   0   1
H2       0.500000000   0.364670000   0.733078512    1   0   1

     Check: negative starting charge=   -6.666739
     NEW-OLD atomic charge density approx. for the potential

     Check: negative/imaginary core charge=   -0.000003    0.000000
     Check: negative starting charge=   -6.666740

[...]

     Self-consistent Calculation

[...]

     Threshold (ethr) on eigenvalues was too large:
     Diagonalizing with lowered threshold

     Davidson diagonalization with overlap
     ethr =  2.20E-08,  avg # of iterations =  1.0

[...]

     total energy              =   -4075.08992587 Ry
     Harris-Foulkes estimate   =   -4075.08992587 Ry
     estimated scf accuracy    <       0.00000004 Ry

     iteration # 17     ecut=    40.00 Ry     beta=0.30
     Davidson diagonalization with overlap
     ethr =  3.60E-12,  avg # of iterations =  1.0

     negative rho (up, down):  0.625E+01 0.000E+00

     End of self-consistent calculation

[...]

          k = 0.2500-0.4953 0.0000 ( 42460 PWs)   bands (ev):

[...]

          k =-0.5000-0.4953 0.0000 ( 42596 PWs)   bands (ev):

   -49.0345 -49.0306 -49.0157 -49.0059 -49.0057 -49.0038 -48.9954 -48.9952
   -48.9904 -48.9832 -48.9825 -48.9812 -48.9812 -48.9809 -48.9723 -48.9669
   -48.9668 -48.9639 -48.9637 -48.9613 -48.9472 -48.9407 -48.8362 -48.8362
   -48.8021 -48.8013 -48.7868 -48.7865 -48.7632 -48.7566 -48.7530 -48.7530
   -48.7294 -48.7220 -48.6700 -48.6695 -48.6572 -48.6430 -48.6288 -48.6233
   -48.6221 -48.5168 -48.5167 -48.5142 -48.5142 -48.3538 -48.3538 -48.3361
   -22.1921 -18.8420 -18.7524 -18.7517 -18.7412 -18.5019 -18.4515 -18.4398
   -18.4387 -18.2437 -18.2437 -18.2032 -18.2021 -18.1705 -18.1692 -18.1092
   -18.1078 -18.0929 -18.0532 -18.0524 -18.0520 -18.0132 -17.9836 -17.9535
   -17.9517 -17.8007 -17.7999 -17.7056 -17.7015 -16.5057 -16.4452 -16.2793
   -16.2781 -15.0324  -7.4671  -7.2137  -7.0918  -7.0912  -6.9865  -6.5255
    -6.4771  -6.4658  -6.4644  -6.4475  -6.4364  -6.4276  -6.4250  -6.3263
    -6.3257  -6.3032  -6.2267  -6.0855  -6.0807  -6.0411  -6.0335  -6.0300
    -6.0287  -5.9922  -5.9860  -5.9387  -5.9230  -5.9228  -5.8634  -5.8565
    -5.8411  -5.8400  -5.8327  -5.6985  -5.6705  -5.6566  -5.6469  -5.6046
    -5.5415  -5.5225  -5.5209  -5.3418  -4.9632  -4.9079  -4.8387  -4.8092
    -4.6147  -4.5762  -4.5728  -4.5009  -4.4215  -4.3570  -4.3537  -4.2987
    -4.2552  -4.2002  -4.1956  -4.1807  -4.1573  -4.1218  -4.1119  -3.9672
    -3.9370  -3.9035  -3.8863  -3.8389  -3.8380  -3.6756  -3.6718  -3.6661
    -3.6130  -3.5881  -3.5785  -3.4945  -3.3364  -3.1596  -3.1501  -3.1385
    -3.0906  -2.4651  -2.4485  -2.4436  -2.4358  -2.2052  -2.2044  -2.1970
    -2.1861  -1.9332  -1.9323  -1.9162  -1.9116  -1.7508  -1.7471  -1.7123
    -1.6874  -1.5968  -1.5564  -1.4353  -1.4251  -1.0960  -0.7105  -0.6877
    -0.6807  -0.6576  -0.4333  -0.3575  -0.3486  -0.3348  -0.2558  -0.2551
    -0.2506  -0.0325  -0.0147   0.0154   0.0164   0.0703   0.3341   0.3590
     0.3922   0.4001   0.4066   0.4496   0.5060   0.5061   0.7743   0.7943
     0.7988   0.8306   0.9058   0.9309   0.9310   0.9948   1.0033   1.0087
     1.0911   1.1614   1.1702   1.2241   1.2261   1.2593   1.2784   1.3614
     1.3665   1.3669   1.4174   1.4264   1.4423   1.4427   1.5810   2.0840
     2.0842   2.4474   3.2525   3.2614   3.2777   3.2819   3.3504   3.4783
     3.4820   3.5032   3.6347   3.6850   3.6903   3.7545   4.1828   4.4821
     4.4840   4.5146   4.6634   4.8214   4.8218   4.8658   5.0301   5.3458
     5.3526   5.3971   5.4431   5.6768   5.6924   5.6979   5.6993   6.3300
     7.0582   7.0585   7.0871   7.2932   7.8540   7.9140   7.9697   8.0834
     8.2083   8.2434   8.2621   8.3188   8.4192   8.5109   8.5741   8.6089
     8.6905   8.7709   8.7960   8.8520   9.0202   9.0297   9.0442   9.1499
     9.1739   9.2647   9.3755   9.4189   9.7324   9.7501   9.7866   9.8815
     9.8973   9.9471  10.0902  10.1542  10.5700  10.5957  10.6189  10.7435
    10.7776  10.7802  10.8458  10.9050  10.9050  10.9225  10.9233  10.9284
    10.9364  10.9426  10.9488  10.9553  10.9588  11.0829  11.0830  11.0924
    11.0925  11.2287  11.2296  11.2476  11.4368  11.4685  11.4798  11.4924
    11.6291  11.6393  11.6726  11.7721  12.0764  12.2040  12.2130  12.2267
    12.2481  12.2535  12.2668  12.3261  12.3924  12.4362  12.4535  12.5325
    12.6866  12.8439  12.8506  12.9042  13.0970  13.1022  13.1922  13.2151
    13.4896  13.5448  13.6513  13.6656  13.7230  13.9807  13.9906  14.0705
    14.2620  14.2784  14.3231  14.3457  14.3933  14.4240  14.4952  14.5204
    14.5885  14.6286  14.6491  14.6744  14.6897  14.7724  14.8031  14.8252
    14.8704  14.9227  14.9812  14.9850  15.1480  15.1647  15.2628  15.2768
    15.2970  15.3223  15.3824  15.4255  15.4346  15.4577  15.4756  15.4889
    15.5283  15.5503  15.5748  15.5755  15.6154  15.6234  15.6862  15.7181
    15.7220  15.7550  15.7604  15.7772  15.8617  15.8710  15.8744  15.9032
    15.9328  15.9477  15.9569  16.0402  16.0557  16.0706  16.1407  16.1719
    16.2896  16.2953  16.3192  16.3304  16.3521  16.3758  16.3848  16.4212
    16.4231  16.4560  16.4891  16.5004  16.5700  16.5940  16.6016  16.7033
    16.7261  16.7917  16.8111  16.9702  17.0482  17.0937  17.0992  17.1268
    17.3126  17.3362  17.3460  17.3897  17.3971  17.4125  17.4915  17.5039
    17.5325  17.5548  17.6079  17.6143  17.8076  17.8800  17.9047  17.9917
    18.0365  18.0366  18.0407  18.0840  18.1450  18.1693  18.1955  18.2488
    18.3092  18.3565  18.3747  18.3769  18.5059  18.5352  18.5634  18.5903
    18.6917  18.7486  18.7666  18.8176  18.9178  18.9255  19.0091  19.0907
[...]
    23.1329  23.1930  23.2363  23.2561  23.2782  23.3394  23.3744  23.4064
    23.5278  23.5338  23.5412  23.5582  23.5595  23.6164  23.6424  23.6724
    23.7031  23.7065  23.7205  23.7837  23.8270  23.8541  23.8550  23.9255
    24.0038  24.0623  24.1387  24.1399  24.1736  24.2115  24.2958  24.2999
    24.3311  24.3450  24.3706  24.4351  24.4469  24.5202  24.5229  24.5554
    24.5700  24.5887  24.6585  24.7481  24.7646  24.7915  24.8188  24.8307
    24.8532  24.9426  24.9537  25.0168  25.1244  25.1591  25.1820  25.2666
    25.3316  25.4386  25.4821  25.5304  25.5605  25.5682  25.6136  25.6315
    25.6665  25.6782  25.7504  25.7571  25.8417  25.8686  25.9087  25.9121
    25.9555  26.0422  26.0687  26.1614  26.3018  26.3140  26.3166  26.3288
    26.4024  26.4099  26.4421  26.4878  26.5887  26.6468  26.7152  26.7384
    26.7979  26.8530  26.8809  26.8810  26.9233  26.9496  27.0101  27.0470
    27.0890  27.1243  27.1457  27.1906  27.2187  27.2389  27.2754  27.3617
    27.4196  27.5253  27.5657  27.6320  27.6419  27.6534  27.6845  27.7384
    27.7791  27.7797  27.8201

     the Fermi energy is     1.3873 ev

!    total energy              =   -4075.08992587 Ry
     Harris-Foulkes estimate   =   -4075.08992587 Ry
     estimated scf accuracy    <          3.3E-09 Ry

     The total energy is the sum of the following terms:

     one-electron contribution =  -79110.04246824 Ry
     hartree contribution      =   39664.31617770 Ry
     xc contribution           =   -1119.27136400 Ry
     ewald contribution        =   36489.90751699 Ry
     smearing contrib. (-TS)   =       0.00021169 Ry

     convergence has been achieved in  17 iterations

     Forces acting on atoms (Ry/au):

     negative rho (up, down):  0.625E+01 0.000E+00
     atom    1 type  1   force =     0.00000000    0.00002136    0.02494961
     atom    2 type  2   force =     0.00024966   -0.00016314   -0.03681357
     atom    3 type  2   force =     0.00000000    0.00005165    0.06825564
     atom    4 type  1   force =    -0.00001189   -0.01220217   -0.02660533
     atom    5 type  1   force =     0.00002695    0.01236754   -0.02668844
     atom    6 type  1   force =     0.00000000   -0.00000259    0.01935734
     atom    7 type  1   force =     0.00000000   -0.00006304   -0.01713918
     atom    8 type  2   force =     0.00025609    0.00013806   -0.01100432
     atom    9 type  2   force =     0.00000000    0.00028457   -0.01844245
     atom   10 type  1   force =     0.00010611    0.01147366   -0.00222637
     atom   11 type  1   force =     0.00023423   -0.01154218   -0.00230407
     atom   12 type  1   force =     0.00000000    0.00025964    0.02695605
     atom   13 type  1   force =     0.00000000   -0.00062136    0.00911832
     atom   14 type  2   force =     0.01357651    0.00046773   -0.00545427
     atom   15 type  2   force =     0.00000000   -0.00071171   -0.00102856
     atom   16 type  1   force =    -0.00059528   -0.00103120   -0.00050982
     atom   17 type  1   force =    -0.00046966    0.00104202   -0.00061897
     atom   18 type  1   force =     0.00000000   -0.00114538    0.00249213
     atom   19 type  1   force =     0.00000000   -0.00159873    0.00081497
     atom   20 type  2   force =     0.01048427    0.00267150    0.00342573
     atom   21 type  2   force =     0.00000000    0.00375841    0.01042430
     atom   22 type  1   force =    -0.00967419    0.00746269   -0.02413613
     atom   23 type  1   force =    -0.00903111   -0.00906094   -0.02657251
     atom   24 type  1   force =     0.00000000    0.00052493    0.00138842
     atom   25 type  1   force =     0.00000000   -0.00019477    0.02426296
     atom   26 type  2   force =    -0.00024966   -0.00016314   -0.03681357
     atom   27 type  2   force =     0.00000000    0.00005973    0.06815844
     atom   28 type  1   force =     0.00001189   -0.01220217   -0.02660533
     atom   29 type  1   force =    -0.00002695    0.01236754   -0.02668844
     atom   30 type  1   force =     0.00000000    0.00008566    0.02069813
     atom   31 type  1   force =     0.00000000   -0.00013162   -0.01674221
     atom   32 type  2   force =    -0.00025609    0.00013806   -0.01100432
     atom   33 type  2   force =     0.00000000   -0.00003749   -0.01739043
     atom   34 type  1   force =    -0.00010611    0.01147366   -0.00222637
     atom   35 type  1   force =    -0.00023423   -0.01154218   -0.00230407
     atom   36 type  1   force =     0.00000000    0.00003397    0.02710803
     atom   37 type  1   force =     0.00000000    0.00001709   -0.00216476
     atom   38 type  2   force =    -0.01357651    0.00046773   -0.00545427
     atom   39 type  2   force =     0.00000000    0.00006334    0.00057508
     atom   40 type  1   force =     0.00059528   -0.00103120   -0.00050982
     atom   41 type  1   force =     0.00046966    0.00104202   -0.00061897
     atom   42 type  1   force =     0.00000000    0.00568014   -0.02275280
     atom   43 type  1   force =     0.00000000    0.00008645    0.00104584
     atom   44 type  2   force =    -0.01048427    0.00267150    0.00342573
     atom   45 type  2   force =     0.00000000   -0.03687898    0.12551398
     atom   46 type  1   force =     0.00967419    0.00746269   -0.02413613
     atom   47 type  1   force =     0.00903111   -0.00906094   -0.02657251
     atom   48 type  1   force =     0.00000000   -0.02001813   -0.01651317
     atom   49 type  1   force =     0.00000000    0.09806993   -0.00020331
     atom   50 type  1   force =     0.00000000   -0.07301036   -0.00052789
     atom   51 type  3   force =     0.00000000    0.02217014    0.00080166

     Total force =     0.000981     Total SCF correction =     0.000009

     bfgs converged in   8 scf cycles and   7 bfgs steps
     (criteria: energy < 0.10E-03, force < 0.10E-02)

     End of BFGS Geometry Optimization

     Final energy   =   -4075.0899258672 Ry
Begin final coordinates

ATOMIC_POSITIONS (crystal)
O0       0.000000000   0.500000000   0.332680000    0   0   0
Ir1      0.250000000   0.500000000   0.366500000    0   0   0
Ir1      0.000000000   0.000000000   0.366500000    0   0   0
O0       0.250000000   0.810000000   0.366500000    0   0   0
O0       0.250000000   0.190000000   0.366500000    0   0   0
O0       0.000000000   0.500000000   0.400320000    0   0   0
O0       0.000000000   0.000000000   0.421680000    0   0   0
Ir1      0.250000000   0.000000000   0.455500000    0   0   0
Ir1      0.000000000   0.500000000   0.455500000    0   0   0
O0       0.250000000   0.690000000   0.455500000    0   0   0
O0       0.250000000   0.310000000   0.455500000    0   0   0
O0       0.000000000   0.000000000   0.489320000    0   0   0
O0       0.000000000   0.500000000   0.510110000    0   0   0
Ir1      0.250000000   0.500000000   0.544210000    0   0   0
Ir1      0.000000000   0.000000000   0.544860000    0   0   0
O0       0.250000000   0.808490000   0.544740000    0   0   0
O0       0.250000000   0.191510000   0.544740000    0   0   0
O0       0.000000000   0.500000000   0.577990000    0   0   0
O0       0.000000000   0.000000000   0.599820000    0   0   0
Ir1      0.250000000   0.000000000   0.634690000    0   0   0
Ir1      0.000000000   0.500000000   0.631920000    0   0   0
O0       0.250000000   0.690320000   0.635560000    0   0   0
O0       0.250000000   0.309680000   0.635560000    0   0   0
O0       0.000000000   0.000000000   0.667420000    0   0   0
O0       0.500000000   0.500000000   0.332680000    0   0   0
Ir1      0.750000000   0.500000000   0.366500000    0   0   0
Ir1      0.500000000   0.000000000   0.366500000    0   0   0
O0       0.750000000   0.810000000   0.366500000    0   0   0
O0       0.750000000   0.190000000   0.366500000    0   0   0
O0       0.500000000   0.500000000   0.400320000    0   0   0
O0       0.500000000   0.000000000   0.421680000    0   0   0
Ir1      0.750000000   0.000000000   0.455500000    0   0   0
Ir1      0.500000000   0.500000000   0.455500000    0   0   0
O0       0.750000000   0.690000000   0.455500000    0   0   0
O0       0.750000000   0.310000000   0.455500000    0   0   0
O0       0.500000000   0.000000000   0.489320000    0   0   0
O0       0.500000000   0.500000000   0.510110000    0   0   0
Ir1      0.750000000   0.500000000   0.544210000    0   0   0
Ir1      0.500000000   0.000000000   0.544860000    0   0   0
O0       0.750000000   0.808490000   0.544740000    0   0   0
O0       0.750000000   0.191510000   0.544740000    0   0   0
O0       0.500000000   0.500000000   0.577990000    0   0   0
O0       0.500000000   0.000000000   0.599820000    0   0   0
Ir1      0.750000000   0.000000000   0.634690000    0   0   0
Ir1      0.500000000   0.500000000   0.631920000    0   0   0
O0       0.750000000   0.690320000   0.635560000    0   0   0
O0       0.750000000   0.309680000   0.635560000    0   0   0
O0       0.500000000   0.000000000   0.667420000    0   0   0
O0       0.500000000   0.500000000   0.686455722    1   0   1
O0       0.500000000   0.318550000   0.707054251    1   0   1
H2       0.500000000   0.364670000   0.733078512    1   0   1
End final coordinates

     General routines

     Parallel routines

   This run was terminated on:  16:40:10  11May2014

   JOB DONE.
Running PBS batch system epilogue script
Job id: 349456.audhumbla.fysik.dtu.dk
Username: zhonxu
Groupname: campgst
Jobname: IrO2/Eads-4-layers/OOH
Sessionid: 59878
Queuename: verylong
Accounting:
This job has allocated the following 32 nodes:
g075 g075 g075 g075 g075 g075 g075 g075 g075 g075 g075 g075 g075 g075 g075 g075 g017 g017 g017 g017 g017 g017 g017 g017 g017 g017 g017 g017 g017 g017 g017 g017
Finished epilogue job 349456.audhumbla.fysik.dtu.dk for zhonxu