     Program PWSCF v.5.0.2 (svn rev. 9656) starts on 29Apr2014 at  0:16:58

     Current dimensions of program PWSCF are:
     Max number of different atomic species (ntypx) = 10
     Max number of k-points (npk) =  40000
     Max angular momentum in pseudopotentials (lmaxx) =  3
     Reading input from pwscf.in
Warning: card &CELL ignored
Warning: card / ignored

     Subspace diagonalization in iterative solution of the eigenvalue problem:
     a serial algorithm will be used

     bravais-lattice index     =            0
     lattice parameter (alat)  =      10.3179  a.u.
     unit-cell volume          =    6964.3238 (a.u.)^3
     number of atoms/cell      =           32
     number of atomic types    =            3
     number of electrons       =       231.00
     number of Kohn-Sham states=          346
     kinetic-energy cutoff     =      40.0000  Ry
     charge density cutoff     =     500.0000  Ry
     convergence threshold     =      1.0E-06
     mixing beta               =       0.7000
     number of iterations used =            8  plain     mixing
     Exchange-correlation      = SLA  PW   PBE  PBE ( 1 4 3 4 0)
     EXX-fraction              =        0.00
     nstep                     =           50

     celldm(1)=  10.317905  celldm(2)=   0.000000  celldm(3)=   0.000000
     celldm(4)=   0.000000  celldm(5)=   0.000000  celldm(6)=   0.000000

     crystal axes: (cart. coord. in units of alat)
               a(1) = (   1.000000   0.000000   0.000000 )
               a(2) = (   0.000000   1.282117   0.000000 )
               a(3) = (   0.000000   0.000000   4.945120 )

     reciprocal axes: (cart. coord. in units 2 pi/alat)
               b(1) = (  1.000000  0.000000  0.000000 )
               b(2) = (  0.000000  0.779960  0.000000 )
               b(3) = (  0.000000  0.000000  0.202220 )

     PseudoPot. # 1 for O  read from file:
     /home/camp/zhonxu/pseudo/o_pbe_v1.01.uspp.F.UPF
     MD5 check sum: 2bcb18d16ea4b960afae9ec6d52f22d2
     Pseudo is Ultrasoft + core correction, Zval =  6.0
     Generated by new atomic code, or converted to UPF format
     Using radial grid of  737 points,  5 beta functions with:
                l(1) =   0
                l(2) =   0
                l(3) =   1
                l(4) =   1
                l(5) =   2
     Q(r) pseudized with  8 coefficients,  rinner =    0.900   0.900   0.900
                                                       0.900   0.900

     PseudoPot. # 2 for Mo read from file:
     /home/camp/zhonxu/pseudo/mo_pbe_v1.uspp.F.UPF
     MD5 check sum: 30c4dcd161f5d35cd49bb5239c51a633
     Pseudo is Ultrasoft + core correction, Zval = 14.0
     Generated by new atomic code, or converted to UPF format
     Using radial grid of  889 points,  6 beta functions with:
                l(1) =   0
                l(2) =   0
                l(3) =   1
                l(4) =   1
                l(5) =   2
                l(6) =   2
     Q(r) pseudized with  6 coefficients,  rinner =    1.000   1.000   1.000
                                                       1.000   1.000

     PseudoPot. # 3 for H  read from file:
     /home/camp/zhonxu/pseudo/h_pbe_v1.uspp.F.UPF
     MD5 check sum: 3408e3ff4ec8b0a4e358431e7e038a48
     Pseudo is Ultrasoft, Zval =  1.0
     Generated by new atomic code, or converted to UPF format
     Using radial grid of  615 points,  2 beta functions with:
                l(1) =   0
                l(2) =   0
     Q(r) pseudized with  8 coefficients,  rinner =    0.700

     atomic species   valence    mass     pseudopotential
        O0             6.00    15.99940     O ( 1.00)
        Mo1           14.00    95.94000     Mo( 1.00)
        H2             1.00     1.00794     H ( 1.00)

     Simplified LDA+U calculation (l_max = 2) with parameters (eV):
     atomic species    L          U    alpha       J0     beta
        Mo1            2     1.5000   0.0000   0.0000   0.0000

     No symmetry found

   Cartesian axes

     site n.     atom                  positions (alat units)
         1           O0  tau(   1) = (   0.0000000   0.0000000   1.8362221  )
         2           O0  tau(   2) = (   0.0000000   0.6410583   1.8932888  )
         3           Mo1 tau(   3) = (   0.2500000   0.6410583   2.1787211  )
         4           Mo1 tau(   4) = (   0.0000000   0.0000000   2.1942488  )
         5           O0  tau(   5) = (   0.2500000   1.0000510   2.1917762  )
         6           O0  tau(   6) = (   0.2500000   0.2820657   2.1916279  )
         7           O0  tau(   7) = (   0.0000000   0.6410583   2.4619282  )
         8           O0  tau(   8) = (   0.0000000   0.0000000   2.5552920  )
         9           Mo1 tau(   9) = (   0.2500000   0.0000000   2.8451750  )
        10           Mo1 tau(  10) = (   0.0000000   0.6410583   2.7951798  )
        11           O0  tau(  11) = (   0.2500000   0.9231240   2.8229220  )
        12           O0  tau(  12) = (   0.2500000   0.3589927   2.8238121  )
        13           O0  tau(  13) = (   0.0000000   0.0000000   3.0959420  )
        14           O0  tau(  14) = (   0.5000000   0.0000000   1.8365188  )
        15           O0  tau(  15) = (   0.5000000   0.6410583   1.8939316  )
        16           Mo1 tau(  16) = (   0.7500000   0.6410583   2.1784244  )
        17           Mo1 tau(  17) = (   0.5000000   0.0000000   2.1964741  )
        18           O0  tau(  18) = (   0.7500000   1.0000510   2.1920730  )
        19           O0  tau(  19) = (   0.7500000   0.2820657   2.1913806  )
        20           O0  tau(  20) = (   0.5000000   0.6410583   2.4641535  )
        21           O0  tau(  21) = (   0.5000000   0.0000000   2.5544514  )
        22           Mo1 tau(  22) = (   0.7500000   0.0000000   2.8455212  )
        23           Mo1 tau(  23) = (   0.5000000   0.6410583   2.8262846  )
        24           O0  tau(  24) = (   0.7500000   0.9231240   2.8210923  )
        25           O0  tau(  25) = (   0.7500000   0.3589927   2.8208450  )
        26           O0  tau(  26) = (   0.5000000   0.0000000   3.0950519  )
        27           H2  tau(  27) = (  -0.0007600   0.7828861   1.7821225  )
        28           H2  tau(  28) = (   0.4995000   0.7914763   1.7941391  )
        29           H2  tau(  29) = (   0.1669200   0.0220268   1.7647651  )
        30           H2  tau(  30) = (   0.6653100   0.0245269   1.7632816  )
        31           O0  tau(  31) = (   0.5147600   0.6413532   3.1767948  )
        32           H2  tau(  32) = (   0.3891500   0.6353401   3.3044778  )

     number of k points=    10  Methfessel-Paxton smearing, width (Ry)=  0.0100
                       cart. coord. in units 2pi/alat
        k(    1) = (   0.0000000   0.0000000   0.0000000), wk =   0.1250000
        k(    2) = (   0.0000000   0.1949901   0.0000000), wk =   0.2500000
        k(    3) = (   0.0000000  -0.3899801   0.0000000), wk =   0.1250000
        k(    4) = (   0.2500000   0.0000000   0.0000000), wk =   0.2500000
        k(    5) = (   0.2500000   0.1949901   0.0000000), wk =   0.2500000
        k(    6) = (   0.2500000  -0.3899801   0.0000000), wk =   0.2500000
        k(    7) = (  -0.5000000   0.0000000   0.0000000), wk =   0.1250000
        k(    8) = (  -0.5000000   0.1949901   0.0000000), wk =   0.2500000
        k(    9) = (  -0.5000000  -0.3899801   0.0000000), wk =   0.1250000
        k(   10) = (  -0.2500000   0.1949901   0.0000000), wk =   0.2500000

     Largest allocated arrays     est. size (Mb)     dimensions
     Largest temporary arrays     est. size (Mb)     dimensions

     Check: negative/imaginary core charge=   -0.000003    0.000000

     Initial potential from superposition of free atoms
     Check: negative starting charge=   -0.002345

     starting charge  230.99142, renormalised to  231.00000

     negative rho (up, down):  0.235E-02 0.000E+00
     Number of +U iterations with fixed ns =  0
     Starting occupations:
 --- enter write_ns ---
 LDA+U parameters:
U( 2)     =  1.50000000
alpha( 2) =  0.00000000
atom    3   Tr[ns(na)] =   5.00000
    eigenvalues:
  0.500  0.500  0.500  0.500  0.500
    eigenvectors:
  1.000  0.000  0.000  0.000  0.000
  0.000  1.000  0.000  0.000  0.000
  0.000  0.000  1.000  0.000  0.000
  0.000  0.000  0.000  1.000  0.000
  0.000  0.000  0.000  0.000  1.000
    occupations:
  0.500  0.000  0.000  0.000  0.000
  0.000  0.500  0.000  0.000  0.000
  0.000  0.000  0.500  0.000  0.000
  0.000  0.000  0.000  0.500  0.000
  0.000  0.000  0.000  0.000  0.500
atom    4   Tr[ns(na)] =   5.00000
    eigenvalues:
  0.500  0.500  0.500  0.500  0.500
    eigenvectors:
  1.000  0.000  0.000  0.000  0.000
  0.000  1.000  0.000  0.000  0.000
  0.000  0.000  1.000  0.000  0.000
  0.000  0.000  0.000  1.000  0.000
  0.000  0.000  0.000  0.000  1.000
    occupations:
  0.500  0.000  0.000  0.000  0.000
  0.000  0.500  0.000  0.000  0.000
  0.000  0.000  0.500  0.000  0.000
  0.000  0.000  0.000  0.500  0.000
  0.000  0.000  0.000  0.000  0.500
atom    9   Tr[ns(na)] =   5.00000
    eigenvalues:
  0.500  0.500  0.500  0.500  0.500
    eigenvectors:
  1.000  0.000  0.000  0.000  0.000
  0.000  1.000  0.000  0.000  0.000
  0.000  0.000  1.000  0.000  0.000
  0.000  0.000  0.000  1.000  0.000
  0.000  0.000  0.000  0.000  1.000
    occupations:
  0.500  0.000  0.000  0.000  0.000
  0.000  0.500  0.000  0.000  0.000
  0.000  0.000  0.500  0.000  0.000
  0.000  0.000  0.000  0.500  0.000
  0.000  0.000  0.000  0.000  0.500
atom   10   Tr[ns(na)] =   5.00000
    eigenvalues:
  0.500  0.500  0.500  0.500  0.500
    eigenvectors:
  1.000  0.000  0.000  0.000  0.000
  0.000  1.000  0.000  0.000  0.000
  0.000  0.000  1.000  0.000  0.000
  0.000  0.000  0.000  1.000  0.000
  0.000  0.000  0.000  0.000  1.000
    occupations:
  0.500  0.000  0.000  0.000  0.000
  0.000  0.500  0.000  0.000  0.000
  0.000  0.000  0.500  0.000  0.000
  0.000  0.000  0.000  0.500  0.000
  0.000  0.000  0.000  0.000  0.500
atom   16   Tr[ns(na)] =   5.00000
    eigenvalues:
  0.500  0.500  0.500  0.500  0.500
    eigenvectors:
  1.000  0.000  0.000  0.000  0.000
  0.000  1.000  0.000  0.000  0.000
  0.000  0.000  1.000  0.000  0.000
  0.000  0.000  0.000  1.000  0.000
  0.000  0.000  0.000  0.000  1.000
    occupations:
  0.500  0.000  0.000  0.000  0.000
  0.000  0.500  0.000  0.000  0.000
  0.000  0.000  0.500  0.000  0.000
  0.000  0.000  0.000  0.500  0.000
  0.000  0.000  0.000  0.000  0.500
atom   17   Tr[ns(na)] =   5.00000
    eigenvalues:
  0.500  0.500  0.500  0.500  0.500
    eigenvectors:
  1.000  0.000  0.000  0.000  0.000
  0.000  1.000  0.000  0.000  0.000
  0.000  0.000  1.000  0.000  0.000
  0.000  0.000  0.000  1.000  0.000
  0.000  0.000  0.000  0.000  1.000
    occupations:
  0.500  0.000  0.000  0.000  0.000
  0.000  0.500  0.000  0.000  0.000
  0.000  0.000  0.500  0.000  0.000
  0.000  0.000  0.000  0.500  0.000
  0.000  0.000  0.000  0.000  0.500
atom   22   Tr[ns(na)] =   5.00000
    eigenvalues:
  0.500  0.500  0.500  0.500  0.500
    eigenvectors:
  1.000  0.000  0.000  0.000  0.000
  0.000  1.000  0.000  0.000  0.000
  0.000  0.000  1.000  0.000  0.000
  0.000  0.000  0.000  1.000  0.000
  0.000  0.000  0.000  0.000  1.000
[...]
    occupations:
  0.581  0.004  0.001 -0.005  0.000
  0.004  0.620  0.003 -0.001 -0.000
  0.001  0.003  0.457 -0.001  0.000
 -0.005 -0.001 -0.001  0.728  0.000
  0.000 -0.000  0.000  0.000  0.523
atom    9   Tr[ns(na)] =   5.82272
    eigenvalues:
  0.511  0.534  0.585  0.590  0.692
    eigenvectors:
  0.000  0.000  0.225  0.004  0.771
  0.000  0.000  0.017  0.983  0.000
  0.208  0.792  0.000  0.000  0.000
  0.000  0.000  0.758  0.013  0.229
  0.792  0.208  0.000  0.000  0.000
    occupations:
  0.667 -0.000 -0.001 -0.045 -0.001
 -0.000  0.590 -0.000 -0.001 -0.000
 -0.001 -0.000  0.529  0.000  0.009
 -0.045 -0.001  0.000  0.610  0.000
 -0.001 -0.000  0.009  0.000  0.516
atom   10   Tr[ns(na)] =   5.77312
    eigenvalues:
  0.503  0.513  0.521  0.619  0.730
    eigenvectors:
  0.963  0.035  0.000  0.001  0.001
  0.001  0.000  0.000  0.999  0.000
  0.035  0.965  0.000  0.000  0.000
  0.001  0.000  0.000  0.000  0.999
  0.000  0.000  1.000  0.000  0.000
    occupations:
  0.504 -0.004 -0.002 -0.007 -0.000
 -0.004  0.619 -0.001  0.000  0.000
 -0.002 -0.001  0.513 -0.000 -0.000
 -0.007  0.000 -0.000  0.730 -0.000
 -0.000  0.000 -0.000 -0.000  0.521
atom   16   Tr[ns(na)] =   5.82513
    eigenvalues:
  0.498  0.510  0.563  0.608  0.733
    eigenvectors:
  0.011  0.002  0.335  0.000  0.651
  0.003  0.993  0.003  0.001  0.000
  0.961  0.002  0.003  0.025  0.009
  0.000  0.002  0.658  0.000  0.340
  0.024  0.001  0.000  0.974  0.000
    occupations:
  0.673  0.004  0.020 -0.080  0.002
  0.004  0.510  0.001  0.001 -0.002
  0.020  0.001  0.503 -0.009 -0.017
 -0.080  0.001 -0.009  0.621 -0.001
  0.002 -0.002 -0.017 -0.001  0.606
atom   17   Tr[ns(na)] =   5.82514
    eigenvalues:
  0.468  0.522  0.581  0.612  0.729
    eigenvectors:
  0.000  0.000  0.980  0.018  0.002
  0.001  0.000  0.018  0.981  0.000
  0.999  0.000  0.000  0.001  0.000
  0.000  0.000  0.002  0.000  0.998
  0.000  1.000  0.000  0.000  0.000
    occupations:
  0.582  0.004  0.001 -0.006  0.000
  0.004  0.612  0.004 -0.001 -0.000
  0.001  0.004  0.468  0.001  0.000
 -0.006 -0.001  0.001  0.728  0.000
  0.000 -0.000  0.000  0.000  0.522
atom   22   Tr[ns(na)] =   5.82131
    eigenvalues:
  0.508  0.534  0.585  0.590  0.693
    eigenvectors:
  0.000  0.000  0.218  0.010  0.772
  0.000  0.000  0.043  0.957  0.000
  0.205  0.795  0.000  0.000  0.000
  0.000  0.000  0.740  0.032  0.228
  0.795  0.205  0.000  0.000  0.000
    occupations:
  0.669  0.000 -0.001 -0.045 -0.001
  0.000  0.590 -0.000  0.001 -0.000
 -0.001 -0.000  0.529  0.000 -0.010
 -0.045  0.001  0.000  0.610  0.000
 -0.001 -0.000 -0.010  0.000  0.513
atom   23   Tr[ns(na)] =   5.83046
    eigenvalues:
  0.500  0.529  0.563  0.585  0.739
    eigenvectors:
  0.000  0.000  0.143  0.852  0.005
  0.000  0.000  0.856  0.144  0.000
  0.998  0.002  0.000  0.000  0.000
  0.000  0.000  0.001  0.005  0.995
  0.002  0.998  0.000  0.000  0.000
    occupations:
  0.583  0.008 -0.000 -0.011  0.000
  0.008  0.566  0.001 -0.000  0.000
 -0.000  0.001  0.500 -0.000 -0.001
 -0.011 -0.000 -0.000  0.738 -0.000
  0.000  0.000 -0.001 -0.000  0.529
N of occupied +U levels =  46.5402827
 --- exit write_ns ---

     Threshold (ethr) on eigenvalues was too large:
     Diagonalizing with lowered threshold

     Davidson diagonalization with overlap
     ethr =  1.12E-09,  avg # of iterations =  3.0

[...]

     total energy              =   -1732.65673828 Ry
     Harris-Foulkes estimate   =   -1732.65673829 Ry
     estimated scf accuracy    <       0.00000007 Ry

     iteration # 10     ecut=    40.00 Ry     beta=0.70
     Davidson diagonalization with overlap
     ethr =  1.97E-11,  avg # of iterations =  1.0

     negative rho (up, down):  0.342E-02 0.000E+00

     End of self-consistent calculation
 --- enter write_ns ---
 LDA+U parameters:
U( 2)     =  1.50000000
alpha( 2) =  0.00000000
atom    3   Tr[ns(na)] =   5.82547
    eigenvalues:
  0.499  0.510  0.563  0.609  0.731
    eigenvectors:
  0.012  0.002  0.333  0.000  0.652
  0.002  0.994  0.003  0.000  0.000
  0.962  0.002  0.004  0.024  0.009
  0.000  0.002  0.659  0.000  0.339
  0.024  0.001  0.000  0.975  0.000
    occupations:
  0.672 -0.004  0.020 -0.079 -0.001
 -0.004  0.511 -0.001 -0.001 -0.002
  0.020 -0.001  0.504 -0.009  0.017
 -0.079 -0.001 -0.009  0.620  0.000
 -0.001 -0.002  0.017  0.000  0.606
atom    4   Tr[ns(na)] =   5.81713
    eigenvalues:
  0.457  0.523  0.581  0.620  0.728
    eigenvectors:
  0.000  0.000  0.989  0.010  0.001
  0.000  0.000  0.010  0.989  0.000
  0.999  0.000  0.000  0.000  0.000
  0.000  0.000  0.001  0.000  0.999
  0.000  1.000  0.000  0.000  0.000
    occupations:
  0.581  0.004  0.001 -0.005  0.000
  0.004  0.620  0.003 -0.001 -0.000
  0.001  0.003  0.457 -0.001  0.000
 -0.005 -0.001 -0.001  0.728  0.000
  0.000 -0.000  0.000  0.000  0.523
atom    9   Tr[ns(na)] =   5.82329
    eigenvalues:
  0.511  0.534  0.585  0.590  0.692
    eigenvectors:
  0.000  0.000  0.225  0.004  0.771
  0.000  0.000  0.017  0.983  0.000
  0.208  0.792  0.000  0.000  0.000
  0.000  0.000  0.758  0.013  0.229
  0.792  0.208  0.000  0.000  0.000
    occupations:
  0.667 -0.000 -0.001 -0.045 -0.001
 -0.000  0.590 -0.000 -0.001 -0.000
 -0.001 -0.000  0.529  0.000  0.009
 -0.045 -0.001  0.000  0.610  0.000
 -0.001 -0.000  0.009  0.000  0.516
atom   10   Tr[ns(na)] =   5.77221
    eigenvalues:
  0.503  0.513  0.521  0.619  0.730
    eigenvectors:
  0.963  0.035  0.000  0.001  0.001
  0.001  0.000  0.000  0.999  0.000
  0.035  0.965  0.000  0.000  0.000
  0.001  0.000  0.000  0.000  0.999
  0.000  0.000  1.000  0.000  0.000
    occupations:
  0.503 -0.004 -0.002 -0.007 -0.000
 -0.004  0.619 -0.001  0.000  0.000
 -0.002 -0.001  0.513 -0.000 -0.000
 -0.007  0.000 -0.000  0.730 -0.000
 -0.000  0.000 -0.000 -0.000  0.521
atom   16   Tr[ns(na)] =   5.82512
    eigenvalues:
  0.498  0.510  0.563  0.608  0.733
    eigenvectors:
  0.012  0.002  0.335  0.000  0.651
  0.003  0.993  0.003  0.001  0.000
  0.961  0.002  0.003  0.025  0.009
  0.000  0.002  0.658  0.000  0.340
  0.024  0.001  0.000  0.974  0.000
    occupations:
  0.673  0.004  0.020 -0.080  0.002
  0.004  0.510  0.001  0.001 -0.002
  0.020  0.001  0.503 -0.009 -0.017
 -0.080  0.001 -0.009  0.621 -0.001
  0.002 -0.002 -0.017 -0.001  0.606
atom   17   Tr[ns(na)] =   5.82523
    eigenvalues:
  0.468  0.522  0.581  0.613  0.729
    eigenvectors:
  0.000  0.000  0.980  0.018  0.002
  0.001  0.000  0.018  0.981  0.000
  0.999  0.000  0.000  0.001  0.000
  0.000  0.000  0.002  0.000  0.998
  0.000  1.000  0.000  0.000  0.000
    occupations:
  0.582  0.004  0.001 -0.006  0.000
  0.004  0.612  0.004 -0.001 -0.000
  0.001  0.004  0.468  0.001  0.000
 -0.006 -0.001  0.001  0.728  0.000
  0.000 -0.000  0.000  0.000  0.522
atom   22   Tr[ns(na)] =   5.82096
    eigenvalues:
  0.508  0.534  0.585  0.590  0.693
    eigenvectors:
  0.000  0.000  0.218  0.010  0.772
  0.000  0.000  0.043  0.957  0.000
  0.204  0.796  0.000  0.000  0.000
  0.000  0.000  0.739  0.033  0.228
  0.796  0.204  0.000  0.000  0.000
    occupations:
  0.669  0.000 -0.001 -0.045 -0.001
  0.000  0.590 -0.000  0.001 -0.000
 -0.001 -0.000  0.529  0.000 -0.010
 -0.045  0.001  0.000  0.610  0.000
 -0.001 -0.000 -0.010  0.000  0.513
atom   23   Tr[ns(na)] =   5.83031
    eigenvalues:
  0.500  0.529  0.563  0.585  0.739
    eigenvectors:
  0.000  0.000  0.143  0.851  0.005
  0.000  0.000  0.856  0.144  0.000
  0.998  0.002  0.000  0.000  0.000
  0.000  0.000  0.001  0.005  0.995
  0.002  0.998  0.000  0.000  0.000
    occupations:
  0.583  0.008 -0.000 -0.011  0.000
  0.008  0.566  0.001 -0.000  0.000
 -0.000  0.001  0.500 -0.000 -0.001
 -0.011 -0.000 -0.000  0.738 -0.000
  0.000  0.000 -0.001 -0.000  0.529
N of occupied +U levels =  46.5397280
 --- exit write_ns ---

[...]

          k = 0.2500-0.3900 0.0000 ( 29726 PWs)   bands (ev):

[...]

          k =-0.2500 0.1950 0.0000 ( 29746 PWs)   bands (ev):

   -62.3338 -62.2914 -62.2047 -62.1425 -62.1086 -62.0754 -62.0185 -61.9930
   -36.8661 -36.7128 -36.6516 -36.6447 -36.6226 -36.5531 -36.4558 -36.4435
   -36.3914 -36.3811 -36.3592 -36.2936 -36.2874 -36.2409 -36.2183 -36.2076
   -36.1536 -36.1025 -36.0896 -36.0683 -36.0450 -35.8818 -35.7199 -35.7113
   -20.6127 -20.3607 -19.7866 -19.6508 -19.5796 -19.4546 -19.3507 -19.2598
   -19.2004 -19.1004 -18.8851 -18.7658 -18.7418 -18.7007 -18.6273 -18.5730
   -18.4968 -18.0239 -17.8743  -8.6342  -8.4962  -8.0321  -7.9599  -7.6622
    -7.5611  -7.5271  -7.4456  -7.2760  -7.1588  -7.1104  -6.9786  -6.8268
    -6.7571  -6.5941  -6.3065  -6.2309  -6.1286  -6.0848  -5.9568  -5.8553
    -5.6814  -5.6611  -5.5155  -5.4367  -5.2812  -5.1998  -5.0772  -4.9773
    -4.8504  -4.6615  -4.6143  -4.4540  -4.3957  -4.3589  -4.2723  -4.2499
    -4.1918  -4.1049  -4.0244  -3.9284  -3.8657  -3.7728  -3.6452  -3.5098
    -3.4132  -3.3210  -3.2706  -3.1801  -3.1114  -3.0741  -2.9782  -2.8762
    -2.6973  -2.6533  -2.5979  -2.3429  -1.5561  -1.4357  -1.3282  -0.5256
    -0.3784  -0.2602  -0.1952   0.3216   0.4017   0.7549   0.8629   0.9321
     0.9894   1.1943   1.3189   1.4924   1.6205   1.6518   1.7541   1.9170
     1.9960   2.0258   2.1162   2.3378   2.5712   3.4704   3.6864   3.7656
     3.8571   3.9926   4.0857   4.1916   4.4864   4.6452   4.7410   4.8331
     4.8921   5.0459   5.1044   5.3649   5.6924   5.8601   5.9410   6.0696
     6.1674   6.2629   6.4402   6.4957   6.6267   6.8118   7.1063   7.1732
     7.2971   7.3607   7.6210   7.7125   8.0096   8.1187   8.2783   8.3605
     8.5325   8.6291   8.7421   8.8658   8.9779   9.0614   9.1669   9.3133
     9.4124   9.5062   9.5634   9.6468   9.7163   9.7546   9.8345   9.9804
    10.0899  10.3397  10.3700  10.4507  10.5175  10.6724  10.7346  10.8239
    10.8941  11.0146  11.1318  11.1966  11.3788  11.5024  11.5986  11.6476
    11.7723  11.8866  11.9106  12.0319  12.0895  12.2072  12.3087  12.3643
    12.4107  12.4356  12.5123  12.6339  12.7645  12.8307  12.9503  13.0179
    13.0858  13.1583  13.2407  13.3295  13.3751  13.4683  13.4919  13.5594
    13.6338  13.7190  13.8124  13.8452  13.9332  14.0270  14.0535  14.1050
    14.1688  14.2039  14.2907  14.3459  14.4079  14.4983  14.5330  14.6351
    14.6859  14.7521  14.8621  14.9411  15.0213  15.0871  15.1273  15.2239
    15.3306  15.4335  15.5148  15.5938  15.6064  15.7161  15.7763  15.9364
    15.9584  16.0203  16.0709  16.1408  16.2357  16.3148  16.3760  16.4069
    16.4444  16.4787  16.5623  16.6526  16.7678  16.8124  16.8481  16.9777
    17.0742  17.1440  17.1954  17.2339  17.2661  17.3263  17.4107  17.4904
    17.5433  17.5962  17.7013  17.8240  17.8766  17.9742  18.0580  18.1355
    18.2157  18.2443  18.2917  18.3179  18.4205  18.5408  18.5752  18.6995
    18.7643  18.8369  18.9374  18.9825  19.0494  19.1401  19.2047  19.2566
    19.3752  19.4221  19.5276  19.5967  19.7985  19.8167  19.9166  19.9554
    19.9599  20.0632  20.1243  20.1752  20.2594  20.2887  20.3455  20.3629
    20.3844  20.4630  20.5212  20.6007  20.6479  20.7284  20.7753  20.8189
    20.9136  21.0047  21.0395  21.1331  21.2106  21.2709  21.3193  21.3563
    21.4309  21.4891  21.5411  21.6169  21.6473  21.7354  21.7599  21.7993
    21.8468  21.8790

     the Fermi energy is     0.2169 ev

!    total energy              =   -1732.65673828 Ry
     Harris-Foulkes estimate   =   -1732.65673829 Ry
     estimated scf accuracy    <          9.5E-09 Ry

     The total energy is the sum of the following terms:

     one-electron contribution =  -22252.83767534 Ry
     hartree contribution      =   11151.52424376 Ry
     xc contribution           =    -294.52145505 Ry
     ewald contribution        =    9662.13408636 Ry
     Hubbard energy            =       1.04384410 Ry
     smearing contrib. (-TS)   =       0.00021790 Ry

     convergence has been achieved in  10 iterations

     Forces acting on atoms (Ry/au):

     negative rho (up, down):  0.342E-02 0.000E+00
     atom    1 type  1   force =    -0.00083789   -0.00498919   -0.00023720
     atom    2 type  1   force =    -0.00027497    0.00800052    0.00042760
     atom    3 type  2   force =    -0.00372084   -0.00555989    0.00001912
     atom    4 type  2   force =     0.00017284    0.00543421   -0.00032784
     atom    5 type  1   force =     0.00080905   -0.00388795    0.00007725
     atom    6 type  1   force =    -0.00100900    0.00017847    0.00006168
     atom    7 type  1   force =     0.00021045    0.00026483    0.00044898
     atom    8 type  1   force =     0.00345572    0.00052049    0.00026897
     atom    9 type  2   force =     0.00020095    0.00027823    0.00020235
     atom   10 type  2   force =    -0.00400969    0.00014608   -0.00013938
     atom   11 type  1   force =    -0.01276806   -0.02289564   -0.00021787
     atom   12 type  1   force =    -0.01334461    0.02206488   -0.00019998
     atom   13 type  1   force =     0.00047715    0.00002367   -0.00016045
     atom   14 type  1   force =    -0.00369477   -0.00624681   -0.00027956
     atom   15 type  1   force =    -0.00025863    0.00972081    0.00026867
     atom   16 type  2   force =     0.00765893   -0.00683030    0.00006970
     atom   17 type  2   force =    -0.00090954    0.00453738   -0.00033025
     atom   18 type  1   force =     0.00185930   -0.00404325    0.00008037
     atom   19 type  1   force =     0.00082296    0.00076512    0.00003168
     atom   20 type  1   force =    -0.00583048    0.00114483   -0.00029461
     atom   21 type  1   force =     0.00279745    0.00026171    0.00057728
     atom   22 type  2   force =    -0.00500199   -0.00051783   -0.00022467
     atom   23 type  2   force =     0.00345807    0.00178689    0.00013277
     atom   24 type  1   force =     0.01373471   -0.02078387   -0.00012052
     atom   25 type  1   force =     0.01466709    0.02086148   -0.00011928
     atom   26 type  1   force =     0.00029377    0.00051570   -0.00035477
     atom   27 type  3   force =     0.00000240   -0.00021122   -0.00016826
     atom   28 type  3   force =    -0.00001048   -0.00004951    0.00001748
     atom   29 type  3   force =     0.00024760   -0.00000267    0.00002119
     atom   30 type  3   force =     0.00036634   -0.00001823    0.00008828
     atom   31 type  1   force =     0.00010402    0.00001560    0.00012339
     atom   32 type  3   force =     0.00033218   -0.00048453    0.00025790

     Total force =     0.001561     Total SCF correction =     0.000192
     SCF correction compared to forces is large: reduce conv_thr to get better values

     bfgs converged in   6 scf cycles and   5 bfgs steps
     (criteria: energy < 0.10E-03, force < 0.10E-02)

     End of BFGS Geometry Optimization

     Final energy   =   -1732.6567382782 Ry
Begin final coordinates

ATOMIC_POSITIONS (crystal)
O0       0.000000000   0.000000000   0.371394423    0   0   1
O0       0.000000000   0.500000000   0.382965951    0   0   1
Mo1      0.250000000   0.500000000   0.440613154    0   0   1
Mo1      0.000000000   0.000000000   0.443656456    0   0   1
O0       0.250000000   0.780000000   0.443216731    0   0   1
O0       0.250000000   0.220000000   0.443173656    0   0   1
O0       0.000000000   0.500000000   0.498014656    0   0   1
O0       0.000000000   0.000000000   0.516549692    0   0   1
Mo1      0.250000000   0.000000000   0.575363365    0   0   1
Mo1      0.000000000   0.500000000   0.565253476    0   0   1
O0       0.250000000   0.720000000   0.570876319    0   0   1
O0       0.250000000   0.280000000   0.571054715    0   0   1
O0       0.000000000   0.000000000   0.625933018    0   0   1
O0       0.500000000   0.000000000   0.371529866    0   0   1
O0       0.500000000   0.500000000   0.383008703    0   0   1
Mo1      0.750000000   0.500000000   0.440518404    0   0   1
Mo1      0.500000000   0.000000000   0.444160215    0   0   1
O0       0.750000000   0.780000000   0.443285415    0   0   1
O0       0.750000000   0.220000000   0.443112678    0   0   1
O0       0.500000000   0.500000000   0.498430445    0   0   1
O0       0.500000000   0.000000000   0.516332930    0   0   1
Mo1      0.750000000   0.000000000   0.575289740    0   0   1
Mo1      0.500000000   0.500000000   0.571452532    0   0   1
O0       0.750000000   0.720000000   0.570613784    0   0   1
O0       0.750000000   0.280000000   0.570575327    0   0   1
O0       0.500000000   0.000000000   0.625808841    0   0   1
H2      -0.000757213   0.610233013   0.360377287
H2       0.499496266   0.617210112   0.362804604
H2       0.166868393   0.017150827   0.356919431
H2       0.665212332   0.019051620   0.356658751
O0       0.514523829   0.500218602   0.642216350
H2       0.389860881   0.495221663   0.668189085
End final coordinates

     General routines

     Parallel routines
     Hubbard U routines

   This run was terminated on:   5: 8: 2  29Apr2014

   JOB DONE.