     Program PWSCF v.5.0.2 (svn rev. 9656) starts on 23Jan2014 at 17:46:57

     Current dimensions of program PWSCF are:
     Max number of different atomic species (ntypx) = 10
     Max number of k-points (npk) =  40000
     Max angular momentum in pseudopotentials (lmaxx) =  3
     Reading input from PtO2-v-1.0.in

     Subspace diagonalization in iterative solution of the eigenvalue problem:
     a serial algorithm will be used

     bravais-lattice index     =            0
     lattice parameter (alat)  =       8.6590  a.u.
     unit-cell volume          =     418.3967 (a.u.)^3
     number of atoms/cell      =            6
     number of atomic types    =            2
     number of electrons       =        56.00
     number of Kohn-Sham states=           84
     kinetic-energy cutoff     =      40.0000  Ry
     charge density cutoff     =     500.0000  Ry
     convergence threshold     =      1.0E-06
     mixing beta               =       0.7000
     number of iterations used =            8  plain     mixing
     Exchange-correlation      = SLA  PW   PBE  PBE ( 1 4 3 4 0)
     EXX-fraction              =        0.00
     nstep                     =           50

     celldm(1)=   8.658997  celldm(2)=   0.000000  celldm(3)=   0.000000
     celldm(4)=   0.000000  celldm(5)=   0.000000  celldm(6)=   0.000000

     crystal axes: (cart. coord. in units of alat)
               a(1) = (   1.000000   0.000000   0.000000 )
               a(2) = (   0.000000   1.000000   0.000000 )
               a(3) = (   0.000000   0.000000   0.644444 )

     reciprocal axes: (cart. coord. in units 2 pi/alat)
               b(1) = (  1.000000  0.000000  0.000000 )
               b(2) = (  0.000000  1.000000  0.000000 )
               b(3) = (  0.000000  0.000000  1.551724 )

     PseudoPot. # 1 for Pt read from file:
     /home/camp/zhonxu/pseudo/pt_pbe_v1.uspp.F.UPF
     MD5 check sum: 4c71d6ad5ef119f1eb26a4d0b7884226
     Pseudo is Ultrasoft + core correction, Zval = 16.0
     Generated by new atomic code, or converted to UPF format
     Using radial grid of  985 points,  6 beta functions with:
                l(1) =   0
                l(2) =   0
                l(3) =   1
                l(4) =   1
                l(5) =   2
                l(6) =   2
     Q(r) pseudized with  8 coefficients,  rinner =    1.300   1.300   1.300
                                                       1.300   1.300

     PseudoPot. # 2 for O  read from file:
     /home/camp/zhonxu/pseudo/o_pbe_v1.01.uspp.F.UPF
     MD5 check sum: 2bcb18d16ea4b960afae9ec6d52f22d2
     Pseudo is Ultrasoft + core correction, Zval =  6.0
     Generated by new atomic code, or converted to UPF format
     Using radial grid of  737 points,  5 beta functions with:
                l(1) =   0
                l(2) =   0
                l(3) =   1
                l(4) =   1
                l(5) =   2
     Q(r) pseudized with  8 coefficients,  rinner =    0.900   0.900   0.900
                                                       0.900   0.900

     atomic species   valence    mass     pseudopotential
        Pt0           16.00   195.08000     Pt( 1.00)
        O1             6.00    15.99940     O ( 1.00)

     Starting magnetic structure
     atomic species   magnetization
        Pt0          0.600
        O1           0.000

     16 Sym. Ops., with inversion, found ( 8 have fractional translation)

   Cartesian axes

     site n.     atom                  positions (alat units)
         1           Pt0 tau(   1) = (   0.0000000   0.0000000   0.0000000  )
         2           Pt0 tau(   2) = (   0.5000000   0.5000000   0.3222222  )
         3           O1  tau(   3) = (   0.3050000   0.3050000   0.0000000  )
         4           O1  tau(   4) = (  -0.3050000  -0.3050000   0.0000000  )
         5           O1  tau(   5) = (   0.8050000   0.1950000   0.3222222  )
         6           O1  tau(   6) = (   0.1950000   0.8050000   0.3222222  )

     number of k points=    36  Methfessel-Paxton smearing, width (Ry)=  0.0100
                       cart. coord. in units 2pi/alat
        k(    1) = (   0.0000000   0.0000000   0.0000000), wk =   0.0080000
        k(    2) = (   0.0000000   0.0000000   0.3103448), wk =   0.0160000
        k(    3) = (   0.0000000   0.0000000   0.6206897), wk =   0.0160000
        k(    4) = (   0.0000000   0.2000000   0.0000000), wk =   0.0320000
        k(    5) = (   0.0000000   0.2000000   0.3103448), wk =   0.0640000
        k(    6) = (   0.0000000   0.2000000   0.6206897), wk =   0.0640000
        k(    7) = (   0.0000000   0.4000000   0.0000000), wk =   0.0320000
        k(    8) = (   0.0000000   0.4000000   0.3103448), wk =   0.0640000
        k(    9) = (   0.0000000   0.4000000   0.6206897), wk =   0.0640000
        k(   10) = (   0.2000000   0.2000000   0.0000000), wk =   0.0320000
        k(   11) = (   0.2000000   0.2000000   0.3103448), wk =   0.0640000
        k(   12) = (   0.2000000   0.2000000   0.6206897), wk =   0.0640000
        k(   13) = (   0.2000000   0.4000000   0.0000000), wk =   0.0640000
        k(   14) = (   0.2000000   0.4000000   0.3103448), wk =   0.1280000
        k(   15) = (   0.2000000   0.4000000   0.6206897), wk =   0.1280000
        k(   16) = (   0.4000000   0.4000000   0.0000000), wk =   0.0320000
        k(   17) = (   0.4000000   0.4000000   0.3103448), wk =   0.0640000
        k(   18) = (   0.4000000   0.4000000   0.6206897), wk =   0.0640000
        k(   19) = (   0.0000000   0.0000000   0.0000000), wk =   0.0080000
        k(   20) = (   0.0000000   0.0000000   0.3103448), wk =   0.0160000
        k(   21) = (   0.0000000   0.0000000   0.6206897), wk =   0.0160000
        k(   22) = (   0.0000000   0.2000000   0.0000000), wk =   0.0320000
        k(   23) = (   0.0000000   0.2000000   0.3103448), wk =   0.0640000
        k(   24) = (   0.0000000   0.2000000   0.6206897), wk =   0.0640000
        k(   25) = (   0.0000000   0.4000000   0.0000000), wk =   0.0320000
        k(   26) = (   0.0000000   0.4000000   0.3103448), wk =   0.0640000
        k(   27) = (   0.0000000   0.4000000   0.6206897), wk =   0.0640000
        k(   28) = (   0.2000000   0.2000000   0.0000000), wk =   0.0320000
        k(   29) = (   0.2000000   0.2000000   0.3103448), wk =   0.0640000
        k(   30) = (   0.2000000   0.2000000   0.6206897), wk =   0.0640000
        k(   31) = (   0.2000000   0.4000000   0.0000000), wk =   0.0640000
        k(   32) = (   0.2000000   0.4000000   0.3103448), wk =   0.1280000
        k(   33) = (   0.2000000   0.4000000   0.6206897), wk =   0.1280000
        k(   34) = (   0.4000000   0.4000000   0.0000000), wk =   0.0320000
        k(   35) = (   0.4000000   0.4000000   0.3103448), wk =   0.0640000
        k(   36) = (   0.4000000   0.4000000   0.6206897), wk =   0.0640000

     Largest allocated arrays     est. size (Mb)     dimensions
     Largest temporary arrays     est. size (Mb)     dimensions

     Check: negative/imaginary core charge=   -0.000005    0.000000

     Initial potential from superposition of free atoms
     Check: negative starting charge=(component1):   -0.304906
     Check: negative starting charge=(component2):   -0.075608

     starting charge   54.99997, renormalised to   56.00000

     negative rho (up, down):  0.310E+00 0.770E-01
     Starting wfc are   40 randomized atomic wfcs

     Self-consistent Calculation

     iteration #  1     ecut=    40.00 Ry     beta=0.70
     Davidson diagonalization with overlap
     ethr =  1.00E-02,  avg # of iterations =  6.1

     negative rho (up, down):  0.230E+00 0.150E+00

     total energy              =    -541.17204471 Ry
     Harris-Foulkes estimate   =    -544.79910858 Ry
     estimated scf accuracy    <       6.40870985 Ry

     total magnetization       =     6.22 Bohr mag/cell
     absolute magnetization    =     6.26 Bohr mag/cell

[...]

     End of self-consistent calculation

 ------ SPIN UP ------------

          k = 0.0000 0.0000 0.0000 (  1819 PWs)   bands (ev):

   -40.1877 -40.1779 -40.0731 -40.0731 -39.9915 -39.9915  -6.7206  -5.4495
    -4.3521  -4.3521   4.1757   4.3336   6.0496   6.0496   6.3701   9.4057
     9.4057   9.8599  10.3559  10.7956  10.8568  11.0332  11.0332  11.2137
    11.8537  11.8537  12.9867  14.0824  15.1610  18.0670  18.0670  18.8131
    19.6244  23.5862  23.5862  26.4582  27.1554  27.8232  30.0030  31.0586
    31.0586  31.7974  32.1809  32.2669  32.2906  35.0332  35.5944  35.5944
    37.0025  37.0025  38.5974  40.8575  41.0743  41.1665  41.1665  42.9888
    43.3028  43.4141  44.0510  45.7050  45.7383  45.7383  46.1097  46.1097
    46.9661  46.9661  47.0744  49.3326  51.0124  52.6201  52.8359  52.8359
    53.6851  53.8674  53.8674  55.1368  55.1368  55.1830  55.2197  55.7055
    56.2848  56.7382  56.7721  61.4601

[...]

 ------ SPIN DOWN ----------

[...]

     the Fermi energy is    14.8506 ev

!    total energy              =    -544.87795578 Ry
     Harris-Foulkes estimate   =    -544.87795525 Ry
     estimated scf accuracy    <       0.00000078 Ry

     The total energy is the sum of the following terms:

     one-electron contribution =    -124.59657727 Ry
     hartree contribution      =     102.68397649 Ry
     xc contribution           =    -137.74123150 Ry
     ewald contribution        =    -385.22421106 Ry
     smearing contrib. (-TS)   =       0.00008756 Ry

[...]

     convergence has been achieved in   8 iterations

     Forces acting on atoms (Ry/au):

     negative rho (up, down):  0.196E+00 0.196E+00
     atom    1 type  1   force =     0.00000000    0.00000000   -0.00000000
     atom    2 type  1   force =     0.00000000    0.00000000    0.00000000
     atom    3 type  2   force =    -0.02486837   -0.02486837    0.00000000
     atom    4 type  2   force =     0.02486837    0.02486837   -0.00000000
     atom    5 type  2   force =    -0.02486837    0.02486837   -0.00000000
     atom    6 type  2   force =     0.02486837   -0.02486837    0.00000000

     Total force =     0.070338     Total SCF correction =     0.000284

     entering subroutine stress ...

     negative rho (up, down):  0.196E+00 0.196E+00
          total   stress  (Ry/bohr**3)                   (kbar)     P=  274.33
   0.00111225   0.00000000   0.00000000        163.62      0.00      0.00
   0.00000000   0.00111225   0.00000000          0.00    163.62      0.00
   0.00000000   0.00000000   0.00337010          0.00      0.00    495.76

     Volume is kept fixed: isostatic pressure set to zero

     BFGS Geometry Optimization

     number of scf cycles    =   1
     number of bfgs steps    =   0

     enthalpy new            =    -544.8779557812 Ry

     new trust radius        =       0.1539461661 bohr
     new conv_thr            =       0.0000010000 Ry

     new unit-cell volume =    418.39674 a.u.^3 (    62.00000 Ang^3 )

CELL_PARAMETERS (alat=  8.65899730)
   0.981527787   0.000000000   0.000000000
   0.000000000   0.981527787   0.000000000
   0.000000000   0.000000000   0.668929403

ATOMIC_POSITIONS (crystal)
Pt0      0.000000000   0.000000000   0.000000000    0   0   0
Pt0      0.500000000   0.500000000   0.500000000    0   0   0
[...]
        k(   32) = (   0.2037640   0.4075279   0.2989852), wk =   0.1280000
        k(   33) = (   0.2037640   0.4075279   0.5979704), wk =   0.1280000
        k(   34) = (   0.4075279   0.4075279   0.0000000), wk =   0.0320000
        k(   35) = (   0.4075279   0.4075279   0.2989852), wk =   0.0640000
        k(   36) = (   0.4075279   0.4075279   0.5979704), wk =   0.0640000

     Check: negative/imaginary core charge=   -0.000005    0.000000
     Check: negative starting charge=(component1):   -0.381772

[...]

     enthalpy old            =    -544.8779557812 Ry
     enthalpy new            =    -544.8976242363 Ry

     CASE: enthalpy_new < enthalpy_old

[...]

     Total force =     0.023833     Total SCF correction =     0.000071

[...]

     Total force =     0.000343     Total SCF correction =     0.000048
     SCF correction compared to forces is large: reduce conv_thr to get better values

[...]

     number of scf cycles    =   5
     number of bfgs steps    =   4

     enthalpy old            =    -544.9059429606 Ry
     enthalpy new            =    -544.9067562432 Ry

     CASE: enthalpy_new < enthalpy_old

     new trust radius        =       0.0014540465 bohr
     new conv_thr            =       0.0000000100 Ry

     new unit-cell volume =    418.39674 a.u.^3 (    62.00000 Ang^3 )

[...]

ATOMIC_POSITIONS (crystal)
Pt0      0.000000000   0.000000000   0.000000000    0   0   0
Pt0      0.500000000   0.500000000   0.500000000    0   0   0
O1       0.309653892   0.309653892   0.000000000    1   1   0
O1      -0.309653892  -0.309653892   0.000000000    1   1   0
O1       0.809653892   0.190346108   0.500000000    1   1   0
O1       0.190346108   0.809653892   0.500000000    1   1   0

     Check: negative starting charge=(component1):   -0.382860
     NEW-OLD atomic charge density approx. for the potential
     NEW k-points:
        k(    1) = (   0.0000000   0.0000000   0.0000000), wk =   0.0080000
        k(    2) = (   0.0000000   0.0000000   0.2900598), wk =   0.0160000
        k(    3) = (   0.0000000   0.0000000   0.5801195), wk =   0.0160000
        k(    4) = (   0.0000000   0.2068752   0.0000000), wk =   0.0320000
        k(    5) = (   0.0000000   0.2068752   0.2900598), wk =   0.0640000
        k(    6) = (   0.0000000   0.2068752   0.5801195), wk =   0.0640000
        k(    7) = (   0.0000000   0.4137505   0.0000000), wk =   0.0320000
        k(    8) = (   0.0000000   0.4137505   0.2900598), wk =   0.0640000
        k(    9) = (   0.0000000   0.4137505   0.5801195), wk =   0.0640000
        k(   10) = (   0.2068752   0.2068752   0.0000000), wk =   0.0320000
        k(   11) = (   0.2068752   0.2068752   0.2900598), wk =   0.0640000
        k(   12) = (   0.2068752   0.2068752   0.5801195), wk =   0.0640000
        k(   13) = (   0.2068752   0.4137505   0.0000000), wk =   0.0640000
        k(   14) = (   0.2068752   0.4137505   0.2900598), wk =   0.1280000
        k(   15) = (   0.2068752   0.4137505   0.5801195), wk =   0.1280000
        k(   16) = (   0.4137505   0.4137505   0.0000000), wk =   0.0320000
        k(   17) = (   0.4137505   0.4137505   0.2900598), wk =   0.0640000
        k(   18) = (   0.4137505   0.4137505   0.5801195), wk =   0.0640000
        k(   19) = (   0.0000000   0.0000000   0.0000000), wk =   0.0080000
        k(   20) = (   0.0000000   0.0000000   0.2900598), wk =   0.0160000
        k(   21) = (   0.0000000   0.0000000   0.5801195), wk =   0.0160000
        k(   22) = (   0.0000000   0.2068752   0.0000000), wk =   0.0320000
        k(   23) = (   0.0000000   0.2068752   0.2900598), wk =   0.0640000
        k(   24) = (   0.0000000   0.2068752   0.5801195), wk =   0.0640000
        k(   25) = (   0.0000000   0.4137505   0.0000000), wk =   0.0320000
        k(   26) = (   0.0000000   0.4137505   0.2900598), wk =   0.0640000
        k(   27) = (   0.0000000   0.4137505   0.5801195), wk =   0.0640000
        k(   28) = (   0.2068752   0.2068752   0.0000000), wk =   0.0320000
        k(   29) = (   0.2068752   0.2068752   0.2900598), wk =   0.0640000
        k(   30) = (   0.2068752   0.2068752   0.5801195), wk =   0.0640000
        k(   31) = (   0.2068752   0.4137505   0.0000000), wk =   0.0640000
        k(   32) = (   0.2068752   0.4137505   0.2900598), wk =   0.1280000
        k(   33) = (   0.2068752   0.4137505   0.5801195), wk =   0.1280000
        k(   34) = (   0.4137505   0.4137505   0.0000000), wk =   0.0320000
        k(   35) = (   0.4137505   0.4137505   0.2900598), wk =   0.0640000
        k(   36) = (   0.4137505   0.4137505   0.5801195), wk =   0.0640000

     Check: negative/imaginary core charge=   -0.000005    0.000000
     Check: negative starting charge=(component1):   -0.382852

[...]

     Threshold (ethr) on eigenvalues was too large:
     Diagonalizing with lowered threshold

     Davidson diagonalization with overlap
     ethr =  9.07E-10,  avg # of iterations =  2.0

[...]

     Volume is kept fixed: isostatic pressure set to zero

     bfgs converged in   6 scf cycles and   5 bfgs steps
     (criteria: energy < 0.10E-03, force < 0.10E-02, cell < 0.50E+00)

     End of BFGS Geometry Optimization

     Final enthalpy =    -544.9067571663 Ry
Begin final coordinates
     new unit-cell volume =    418.39674 a.u.^3 (    62.00000 Ang^3 )

CELL_PARAMETERS (alat=  8.65899730)
   0.966766269   0.000000000   0.000000000
   0.000000000   0.966766269   0.000000000
   0.000000000   0.000000000   0.689513074

ATOMIC_POSITIONS (crystal)
Pt0      0.000000000   0.000000000   0.000000000    0   0   0
Pt0      0.500000000   0.500000000   0.500000000    0   0   0
O1       0.309653892   0.309653892   0.000000000    1   1   0
O1      -0.309653892  -0.309653892   0.000000000    1   1   0
O1       0.809653892   0.190346108   0.500000000    1   1   0
O1       0.190346108   0.809653892   0.500000000    1   1   0
End final coordinates

     A final scf calculation at the relaxed structure.
     The G-vectors are recalculated for the final unit cell
     Results may differ from those at the preceding step.

     bravais-lattice index     =            0
     lattice parameter (alat)  =       8.6590  a.u.
     unit-cell volume          =     418.3967 (a.u.)^3
     number of atoms/cell      =            6
     number of atomic types    =            2
     number of electrons       =        56.00
     number of Kohn-Sham states=           84
     kinetic-energy cutoff     =      40.0000  Ry
     charge density cutoff     =     500.0000  Ry
     convergence threshold     =      1.0E-08
     mixing beta               =       0.7000
     number of iterations used =            8  plain     mixing
     Exchange-correlation      = SLA  PW   PBE  PBE ( 1 4 3 4 0)
     EXX-fraction              =        0.00

     celldm(1)=   8.658997  celldm(2)=   0.000000  celldm(3)=   0.000000
     celldm(4)=   0.000000  celldm(5)=   0.000000  celldm(6)=   0.000000

     crystal axes: (cart. coord. in units of alat)
               a(1) = (   0.966766   0.000000   0.000000 )
               a(2) = (   0.000000   0.966766   0.000000 )
               a(3) = (   0.000000   0.000000   0.689513 )

     reciprocal axes: (cart. coord. in units 2 pi/alat)
               b(1) = (  1.034376  0.000000  0.000000 )
               b(2) = (  0.000000  1.034376  0.000000 )
               b(3) = (  0.000000  0.000000  1.450299 )

     PseudoPot. # 1 for Pt read from file:
     /home/camp/zhonxu/pseudo/pt_pbe_v1.uspp.F.UPF
     MD5 check sum: 4c71d6ad5ef119f1eb26a4d0b7884226
     Pseudo is Ultrasoft + core correction, Zval = 16.0
     Generated by new atomic code, or converted to UPF format
     Using radial grid of  985 points,  6 beta functions with:
                l(1) =   0
                l(2) =   0
                l(3) =   1
                l(4) =   1
                l(5) =   2
                l(6) =   2
     Q(r) pseudized with  8 coefficients,  rinner =    1.300   1.300   1.300
                                                       1.300   1.300

     PseudoPot. # 2 for O  read from file:
     /home/camp/zhonxu/pseudo/o_pbe_v1.01.uspp.F.UPF
     MD5 check sum: 2bcb18d16ea4b960afae9ec6d52f22d2
     Pseudo is Ultrasoft + core correction, Zval =  6.0
     Generated by new atomic code, or converted to UPF format
     Using radial grid of  737 points,  5 beta functions with:
                l(1) =   0
                l(2) =   0
                l(3) =   1
                l(4) =   1
                l(5) =   2
     Q(r) pseudized with  8 coefficients,  rinner =    0.900   0.900   0.900
                                                       0.900   0.900

     atomic species   valence    mass     pseudopotential
        Pt0           16.00   195.08000     Pt( 1.00)
        O1             6.00    15.99940     O ( 1.00)

     Starting magnetic structure
     atomic species   magnetization
        Pt0          0.600
        O1           0.000

     16 Sym. Ops., with inversion, found ( 8 have fractional translation)

   Cartesian axes

     site n.     atom                  positions (alat units)
         1           Pt0 tau(   1) = (   0.0000000   0.0000000   0.0000000  )
         2           Pt0 tau(   2) = (   0.4833831   0.4833831   0.3447565  )
         3           O1  tau(   3) = (   0.2993629   0.2993629   0.0000000  )
         4           O1  tau(   4) = (  -0.2993629  -0.2993629   0.0000000  )
         5           O1  tau(   5) = (   0.7827461   0.1840202   0.3447565  )
         6           O1  tau(   6) = (   0.1840202   0.7827461   0.3447565  )

     number of k points=    36  Methfessel-Paxton smearing, width (Ry)=  0.0100
                       cart. coord. in units 2pi/alat
        k(    1) = (   0.0000000   0.0000000   0.0000000), wk =   0.0080000
        k(    2) = (   0.0000000   0.0000000   0.2900598), wk =   0.0160000
        k(    3) = (   0.0000000   0.0000000   0.5801195), wk =   0.0160000
        k(    4) = (   0.0000000   0.2068752   0.0000000), wk =   0.0320000
        k(    5) = (   0.0000000   0.2068752   0.2900598), wk =   0.0640000
        k(    6) = (   0.0000000   0.2068752   0.5801195), wk =   0.0640000
        k(    7) = (   0.0000000   0.4137505   0.0000000), wk =   0.0320000
        k(    8) = (   0.0000000   0.4137505   0.2900598), wk =   0.0640000
        k(    9) = (   0.0000000   0.4137505   0.5801195), wk =   0.0640000
        k(   10) = (   0.2068752   0.2068752   0.0000000), wk =   0.0320000
        k(   11) = (   0.2068752   0.2068752   0.2900598), wk =   0.0640000
        k(   12) = (   0.2068752   0.2068752   0.5801195), wk =   0.0640000
        k(   13) = (   0.2068752   0.4137505   0.0000000), wk =   0.0640000
        k(   14) = (   0.2068752   0.4137505   0.2900598), wk =   0.1280000
        k(   15) = (   0.2068752   0.4137505   0.5801195), wk =   0.1280000
        k(   16) = (   0.4137505   0.4137505   0.0000000), wk =   0.0320000
        k(   17) = (   0.4137505   0.4137505   0.2900598), wk =   0.0640000
        k(   18) = (   0.4137505   0.4137505   0.5801195), wk =   0.0640000
        k(   19) = (   0.0000000   0.0000000   0.0000000), wk =   0.0080000
        k(   20) = (   0.0000000   0.0000000   0.2900598), wk =   0.0160000
        k(   21) = (   0.0000000   0.0000000   0.5801195), wk =   0.0160000
        k(   22) = (   0.0000000   0.2068752   0.0000000), wk =   0.0320000
        k(   23) = (   0.0000000   0.2068752   0.2900598), wk =   0.0640000
        k(   24) = (   0.0000000   0.2068752   0.5801195), wk =   0.0640000
        k(   25) = (   0.0000000   0.4137505   0.0000000), wk =   0.0320000
        k(   26) = (   0.0000000   0.4137505   0.2900598), wk =   0.0640000
        k(   27) = (   0.0000000   0.4137505   0.5801195), wk =   0.0640000
        k(   28) = (   0.2068752   0.2068752   0.0000000), wk =   0.0320000
        k(   29) = (   0.2068752   0.2068752   0.2900598), wk =   0.0640000
        k(   30) = (   0.2068752   0.2068752   0.5801195), wk =   0.0640000
        k(   31) = (   0.2068752   0.4137505   0.0000000), wk =   0.0640000
        k(   32) = (   0.2068752   0.4137505   0.2900598), wk =   0.1280000
        k(   33) = (   0.2068752   0.4137505   0.5801195), wk =   0.1280000
        k(   34) = (   0.4137505   0.4137505   0.0000000), wk =   0.0320000
        k(   35) = (   0.4137505   0.4137505   0.2900598), wk =   0.0640000
        k(   36) = (   0.4137505   0.4137505   0.5801195), wk =   0.0640000

     Largest allocated arrays     est. size (Mb)     dimensions
     Largest temporary arrays     est. size (Mb)     dimensions

     Check: negative/imaginary core charge=   -0.000005    0.000000

     Initial potential from superposition of free atoms
     Check: negative starting charge=(component1):   -0.307045
     Check: negative starting charge=(component2):   -0.076157

     starting charge   54.99997, renormalised to   56.00000

     negative rho (up, down):  0.313E+00 0.775E-01
     Starting wfc are   40 randomized atomic wfcs

     Self-consistent Calculation

     iteration #  1     ecut=    40.00 Ry     beta=0.70
     Davidson diagonalization with overlap
     c_bands:  1 eigenvalues not converged
     ethr =  1.00E-06,  avg # of iterations = 11.6

[...]

     total energy              =    -544.90752890 Ry
     Harris-Foulkes estimate   =    -544.90752914 Ry
     estimated scf accuracy    <       0.00000007 Ry

[...]

     iteration # 11     ecut=    40.00 Ry     beta=0.70
     Davidson diagonalization with overlap
     ethr =  1.31E-10,  avg # of iterations =  2.0

     negative rho (up, down):  0.197E+00 0.197E+00

     End of self-consistent calculation

 ------ SPIN UP ------------

[...]

 ------ SPIN DOWN ----------

[...]

          k = 0.4138 0.4138 0.5801 (  1787 PWs)   bands (ev):

   -40.2385 -40.2382 -39.9711 -39.9708 -39.8697 -39.8696  -5.1701  -5.1178
    -4.8081  -4.8017   5.7665   5.8150   6.2910   6.4065   6.9462   7.3653
     8.7187   8.7999   9.6152   9.8393  10.8652  11.3595  11.3740  11.5291
    12.4187  13.2627  13.3345  14.0126  15.3824  15.9857  17.0880  17.6552
    23.9054  24.4435  24.6053  24.6586  26.3272  26.7604  28.0469  28.6591
    31.5452  31.5728  32.3021  32.3160  33.7578  34.2961  35.3681  36.2179
    36.7671  37.1152  37.2129  38.6942  41.0050  41.3968  41.9438  42.0953
    43.0134  43.7404  45.4604  46.4993  46.7182  46.9881  47.5168  47.9353
    48.6192  48.6250  49.7744  50.0710  50.5502  51.3276  51.8222  52.0674
    52.5998  53.1250  53.3456  54.3130  54.9560  55.4442  55.8025  55.9213
    57.6441  57.7220  58.6029  59.0210

     the Fermi energy is    14.6857 ev

!    total energy              =    -544.90752939 Ry
     Harris-Foulkes estimate   =    -544.90752939 Ry
     estimated scf accuracy    <          3.6E-09 Ry

     The total energy is the sum of the following terms:

     one-electron contribution =    -117.83786613 Ry
     hartree contribution      =      99.37565336 Ry
     xc contribution           =    -137.62821409 Ry
     ewald contribution        =    -388.81687125 Ry
     smearing contrib. (-TS)   =      -0.00023127 Ry

     total magnetization       =     0.00 Bohr mag/cell
     absolute magnetization    =     0.00 Bohr mag/cell

     convergence has been achieved in  11 iterations

     Forces acting on atoms (Ry/au):

     negative rho (up, down):  0.197E+00 0.197E+00
     atom    1 type  1   force =     0.00000000    0.00000000    0.00000000
     atom    2 type  1   force =     0.00000000    0.00000000   -0.00000000
     atom    3 type  2   force =    -0.00009619   -0.00009619    0.00000000
     atom    4 type  2   force =     0.00009619    0.00009619    0.00000000
     atom    5 type  2   force =    -0.00009619    0.00009619   -0.00000000
     atom    6 type  2   force =     0.00009619   -0.00009619    0.00000000

     Total force =     0.000272     Total SCF correction =     0.000050
     SCF correction compared to forces is large: reduce conv_thr to get better values

     entering subroutine stress ...

     negative rho (up, down):  0.197E+00 0.197E+00
          total   stress  (Ry/bohr**3)                   (kbar)     P=  216.54
   0.00145458   0.00000000   0.00000000        213.98      0.00      0.00
   0.00000000   0.00145458   0.00000000          0.00    213.98      0.00
   0.00000000   0.00000000   0.00150686          0.00      0.00    221.67

     General routines

     Parallel routines

   This run was terminated on:  18: 9: 9  23Jan2014

   JOB DONE.
Running PBS batch system epilogue script
Job id: 251193.audhumbla.fysik.dtu.dk
Username: zhonxu
Groupname: campgst
Jobname: PtO2/coarse-EOS/PtO2-v-1.0
Sessionid: 21693
Queuename: verylong
Accounting:
This job has allocated the following 4 nodes:
q094 q094 q094 q094
Finished epilogue job 251193.audhumbla.fysik.dtu.dk for zhonxu