     Program PWSCF v.5.0.2 (svn rev. 9656) starts on 10May2014 at  3:54:20

     Current dimensions of program PWSCF are:
     Max number of different atomic species (ntypx) = 10
     Max number of k-points (npk) =  40000
     Max angular momentum in pseudopotentials (lmaxx) =  3
     Reading input from pwscf.in
Warning: card &CELL ignored
Warning: card / ignored

     Subspace diagonalization in iterative solution of the eigenvalue problem:
     a serial algorithm will be used

     bravais-lattice index     =            0
     lattice parameter (alat)  =      10.1289  a.u.
     unit-cell volume          =    6836.7721 (a.u.)^3
     number of atoms/cell      =           33
     number of atomic types    =            3
     number of electrons       =       245.00
     number of Kohn-Sham states=          367
     kinetic-energy cutoff     =      40.0000  Ry
     charge density cutoff     =     500.0000  Ry
     convergence threshold     =      1.0E-06
     mixing beta               =       0.7000
     number of iterations used =            8  plain     mixing
     Exchange-correlation      = SLA  PW   PBE  PBE ( 1 4 3 4 0)
     EXX-fraction              =        0.00
     nstep                     =           50

     celldm(1)=  10.128932  celldm(2)=   0.000000  celldm(3)=   0.000000
     celldm(4)=   0.000000  celldm(5)=   0.000000  celldm(6)=   0.000000

     crystal axes: (cart. coord. in units of alat)
               a(1) = (   1.000000   0.000000   0.000000 )
               a(2) = (   0.000000   1.306037   0.000000 )
               a(3) = (   0.000000   0.000000   5.037380 )

     reciprocal axes: (cart. coord. in units 2 pi/alat)
               b(1) = (  1.000000  0.000000  0.000000 )
               b(2) = (  0.000000  0.765675  0.000000 )
               b(3) = (  0.000000  0.000000  0.198516 )

     PseudoPot. # 1 for O  read from file:
     /home/camp/zhonxu/pseudo/o_pbe_v1.01.uspp.F.UPF
     MD5 check sum: 2bcb18d16ea4b960afae9ec6d52f22d2
     Pseudo is Ultrasoft + core correction, Zval =  6.0
     Generated by new atomic code, or converted to UPF format
     Using radial grid of  737 points,  5 beta functions with:
                l(1) =   0
                l(2) =   0
                l(3) =   1
                l(4) =   1
                l(5) =   2
     Q(r) pseudized with  8 coefficients,  rinner =    0.900   0.900   0.900
                                                       0.900   0.900

     PseudoPot. # 2 for Re read from file:
     /home/camp/zhonxu/pseudo/re_pbe_v1.uspp.F.UPF
     MD5 check sum: 6f5a5dcaf9c96c20d0ffdde0de57afc6
     Pseudo is Ultrasoft + core correction, Zval = 15.0
     Generated by new atomic code, or converted to UPF format
     Using radial grid of  981 points,  8 beta functions with:
                l(1) =   0
                l(2) =   0
                l(3) =   1
                l(4) =   1
                l(5) =   2
                l(6) =   2
                l(7) =   3
                l(8) =   3
     Q(r) pseudized with  8 coefficients,  rinner =    1.000   1.000   1.000
                                                       1.000   1.000   1.000
                                                       1.000

     PseudoPot. # 3 for H  read from file:
     /home/camp/zhonxu/pseudo/h_pbe_v1.uspp.F.UPF
     MD5 check sum: 3408e3ff4ec8b0a4e358431e7e038a48
     Pseudo is Ultrasoft, Zval =  1.0
     Generated by new atomic code, or converted to UPF format
     Using radial grid of  615 points,  2 beta functions with:
                l(1) =   0
                l(2) =   0
     Q(r) pseudized with  8 coefficients,  rinner =    0.700

     atomic species   valence    mass     pseudopotential
        O0             6.00    15.99940     O ( 1.00)
        Re1           15.00   186.20700     Re( 1.00)
        H2             1.00     1.00794     H ( 1.00)

     No symmetry found

   Cartesian axes

     site n.     atom                  positions (alat units)
         1           O0  tau(   1) = (   0.0000000   0.0000000   1.8688176  )
         2           O0  tau(   2) = (   0.0000000   0.6530184   1.9243296  )
         3           Re1 tau(   3) = (   0.2500000   0.6530184   2.2228951  )
         4           Re1 tau(   4) = (   0.0000000   0.0000000   2.2352367  )
         5           O0  tau(   5) = (   0.2500000   1.0187087   2.2249100  )
         6           O0  tau(   6) = (   0.2500000   0.2873281   2.2250611  )
         7           O0  tau(   7) = (   0.0000000   0.6530184   2.5071041  )
         8           O0  tau(   8) = (   0.0000000   0.0000000   2.5966183  )
         9           Re1 tau(   9) = (   0.2500000   0.0000000   2.8989619  )
        10           Re1 tau(  10) = (   0.0000000   0.6530184   2.8608793  )
        11           O0  tau(  11) = (   0.2500000   0.9403465   2.8908013  )
        12           O0  tau(  12) = (   0.2500000   0.3656903   2.8907005  )
        13           O0  tau(  13) = (   0.0000000   0.0000000   3.1620138  )
        14           O0  tau(  14) = (   0.5000000   0.0000000   1.8688176  )
        15           O0  tau(  15) = (   0.5000000   0.6530184   1.9243296  )
        16           Re1 tau(  16) = (   0.7500000   0.6530184   2.2228951  )
        17           Re1 tau(  17) = (   0.5000000   0.0000000   2.2352367  )
        18           O0  tau(  18) = (   0.7500000   1.0187087   2.2249604  )
        19           O0  tau(  19) = (   0.7500000   0.2873281   2.2250611  )
        20           O0  tau(  20) = (   0.5000000   0.6530184   2.5071041  )
        21           O0  tau(  21) = (   0.5000000   0.0000000   2.5966183  )
        22           Re1 tau(  22) = (   0.7500000   0.0000000   2.8989619  )
        23           Re1 tau(  23) = (   0.5000000   0.6530184   2.8609296  )
        24           O0  tau(  24) = (   0.7500000   0.9403465   2.8908013  )
        25           O0  tau(  25) = (   0.7500000   0.3656903   2.8907005  )
        26           O0  tau(  26) = (   0.5000000   0.0000000   3.1620138  )
        27           H2  tau(  27) = (  -0.0003800   0.8172395   1.8403061  )
        28           H2  tau(  28) = (   0.4996200   0.8172395   1.8403061  )
        29           H2  tau(  29) = (   0.1698700   0.0284977   1.7974380  )
        30           H2  tau(  30) = (   0.6698800   0.0284977   1.7974380  )
        31           O0  tau(  31) = (   0.4996300   0.6530184   3.2254345  )
        32           O0  tau(  32) = (   0.5002900   0.4356677   3.3714177  )
        33           H2  tau(  33) = (   0.4999500   0.4909131   3.5463156  )

     number of k points=    10  Methfessel-Paxton smearing, width (Ry)=  0.0100
                       cart. coord. in units 2pi/alat
        k(    1) = (   0.0000000   0.0000000   0.0000000), wk =   0.1250000
        k(    2) = (   0.0000000   0.1914188   0.0000000), wk =   0.2500000
        k(    3) = (   0.0000000  -0.3828376   0.0000000), wk =   0.1250000
        k(    4) = (   0.2500000   0.0000000   0.0000000), wk =   0.2500000
        k(    5) = (   0.2500000   0.1914188   0.0000000), wk =   0.2500000
        k(    6) = (   0.2500000  -0.3828376   0.0000000), wk =   0.2500000
        k(    7) = (  -0.5000000   0.0000000   0.0000000), wk =   0.1250000
        k(    8) = (  -0.5000000   0.1914188   0.0000000), wk =   0.2500000
        k(    9) = (  -0.5000000  -0.3828376   0.0000000), wk =   0.1250000
        k(   10) = (  -0.2500000   0.1914188   0.0000000), wk =   0.2500000

     Largest allocated arrays     est. size (Mb)     dimensions
     Largest temporary arrays     est. size (Mb)     dimensions

     Check: negative/imaginary core charge=   -0.000003    0.000000

     Initial potential from superposition of free atoms
     Check: negative starting charge=   -0.236736

     starting charge  240.99957, renormalised to  245.00000

     negative rho (up, down):  0.241E+00 0.000E+00
     Starting wfc are  189 randomized atomic wfcs

     Self-consistent Calculation

     iteration #  1     ecut=    40.00 Ry     beta=0.70
     Davidson diagonalization with overlap
     ethr =  1.00E-02,  avg # of iterations =  5.9

     negative rho (up, down):  0.285E+00 0.000E+00

     total energy              =   -2204.61967108 Ry
     Harris-Foulkes estimate   =   -2210.07684018 Ry
     estimated scf accuracy    <       6.90885499 Ry

[...]

     End of self-consistent calculation

          k = 0.0000 0.0000 0.0000 ( 29221 PWs)   bands (ev):

   -81.0886 -81.0323 -80.9505 -80.8408 -80.7847 -80.6599 -80.6044 -80.5752
   -43.3043 -43.1470 -43.1130 -42.9911 -42.9829 -42.9131 -42.8950 -42.8941
   -42.8465 -42.8308 -42.7333 -42.7000 -42.6661 -42.6632 -42.5352 -42.5255
   -42.5185 -42.5161 -42.4621 -42.4507 -42.4357 -42.2230 -42.1531 -42.0288
   -22.9240 -20.6911 -20.1497 -20.0573 -20.0244 -19.7001 -19.3878 -19.3234
   -19.1152 -19.0711 -19.0132 -18.9578 -18.8683 -18.8139 -18.7937 -18.7271
   -18.3376 -17.8161 -17.4810 -16.2172  -9.0994  -8.9753  -8.8409  -8.4075
    -8.2880  -8.0985  -7.7982  -7.7665  -7.5498  -7.4613  -7.3192  -7.1565
    -7.1229  -6.9180  -6.8426  -6.7408  -6.7243  -6.5719  -6.4821  -6.3871
    -6.3645  -6.0675  -6.0300  -5.8562  -5.4743  -5.2026  -5.1556  -5.1081
    -5.0017  -4.9634  -4.9134  -4.8280  -4.6329  -4.6119  -4.5185  -4.2949
    -4.2864  -4.0712  -4.0273  -4.0116  -3.9045  -3.7310  -3.6258  -3.6032
    -3.5429  -3.2215  -3.1291  -3.0158  -3.0130  -2.9017  -2.8551  -2.7946
    -2.7250  -2.7139  -2.6495  -2.5419  -2.3884  -2.3320  -2.1733  -2.0118
    -1.7675  -0.8670  -0.6199  -0.3834  -0.0258   0.2176   0.3673   0.4781
     0.7851   0.9531   0.9787   1.0893   1.1142   1.5415   1.5650   1.5732
     1.6790   2.0024   2.3271   3.0920   3.4620   3.5144   3.5913   3.7743
     3.8285   3.9389   3.9890   4.3406   4.4960   4.4970   4.6290   4.8148
     4.9906   5.0040   5.0842   5.2395   5.2948   5.3159   5.3858   5.4342
     5.5075   5.5831   5.8166   6.2216   6.6317   6.7426   6.8643   7.1642
     7.4541   7.6260   7.7574   7.8854   7.9914   8.0375   8.1688   8.2095
     8.4660   8.6193   8.6455   8.9181   9.0663   9.0953   9.2582   9.2618
     9.2710   9.4092   9.4906   9.5865   9.6318   9.7063   9.8065   9.9344
    10.0010  10.0980  10.1670  10.2193  10.2346  10.3546  10.5249  10.6303
    10.6950  10.7841  10.9576  11.0195  11.2035  11.3538  11.4517  11.5417
    11.6593  11.6984  11.8153  11.9591  12.0884  12.1501  12.1911  12.2508
    12.3335  12.5148  12.5176  12.5358  12.6956  12.8484  12.9698  13.0412
    13.0759  13.1085  13.1260  13.1904  13.2204  13.2451  13.2760  13.3105
    13.3209  13.4761  13.5867  13.6229  13.7283  13.7763  13.8441  13.9227
    13.9326  14.0685  14.1394  14.1516  14.2074  14.2607  14.3139  14.3230
    14.4073  14.4491  14.6573  14.6632  14.7868  14.9117  15.0552  15.0773
    15.1342  15.1943  15.3496  15.3642  15.4302  15.4492  15.5482  15.7909
    15.8515  15.8839  15.9420  16.0995  16.1483  16.1595  16.2318  16.3157
    16.4324  16.4979  16.5858  16.6151  16.7001  16.7464  16.8630  17.0194
    17.0509  17.0673  17.1289  17.1600  17.2187  17.3708  17.4157  17.4264
    17.4792  17.5470  17.7373  17.8422  17.9926  18.0660  18.2660  18.3450
    18.3562  18.4088  18.4867  18.6316  18.6475  18.8130  18.8581  18.8848
[...]
     atom   18 type  1   force =     0.00161182    0.01541520   -0.00039905
     atom   19 type  1   force =     0.00022652   -0.01684920   -0.00103521
     atom   20 type  1   force =    -0.00025613    0.00698976   -0.03200467
     atom   21 type  1   force =     0.00269797   -0.00169133    0.00328247
     atom   22 type  2   force =    -0.00225221    0.00135673    0.00745041
     atom   23 type  2   force =     0.00031503   -0.02420345    0.11684366
     atom   24 type  1   force =     0.01115704   -0.02588056   -0.01202540
     atom   25 type  1   force =     0.01030380    0.02355362   -0.01278122
     atom   26 type  1   force =    -0.00050392   -0.01297901   -0.01667647
     atom   27 type  3   force =     0.00000005   -0.00117828    0.00086931
     atom   28 type  3   force =     0.00000004   -0.00153290   -0.00033387
     atom   29 type  3   force =     0.00029775    0.00031216    0.00065536
     atom   30 type  3   force =    -0.00003283    0.00024010    0.00075069
     atom   31 type  1   force =    -0.00041113    0.07305509    0.00000592
     atom   32 type  1   force =     0.00044035   -0.06656555   -0.00006166
     atom   33 type  3   force =    -0.00012132    0.02541800   -0.00005456

     Total force =     0.163188     Total SCF correction =     0.002958

     BFGS Geometry Optimization

     number of scf cycles    =   1
     number of bfgs steps    =   0

     energy   new            =   -2208.5524513488 Ry

     new trust radius        =       0.1168436575 bohr
     new conv_thr            =       0.0000010000 Ry

ATOMIC_POSITIONS (crystal)
O0       0.000000000   0.000000000   0.370965432    0   0   1
O0       0.000000000   0.500000000   0.382066735    0   0   1
Re1      0.250000000   0.500000000   0.441230858    0   0   1
Re1      0.000000000   0.000000000   0.443755723    0   0   1
O0       0.250000000   0.780000000   0.441673305    0   0   1
O0       0.250000000   0.220000000   0.441689773    0   0   1
O0       0.000000000   0.500000000   0.497653286    0   0   1
O0       0.000000000   0.000000000   0.515471258    0   0   1
Re1      0.250000000   0.000000000   0.575638585    0   0   1
Re1      0.000000000   0.500000000   0.567522758    0   0   1
O0       0.250000000   0.720000000   0.573637276    0   0   1
O0       0.250000000   0.280000000   0.573597263    0   0   1
O0       0.000000000   0.000000000   0.627631192    0   0   1
O0       0.500000000   0.000000000   0.370955715    0   0   1
O0       0.500000000   0.500000000   0.381897445    0   0   1
Re1      0.750000000   0.500000000   0.441232080    0   0   1
Re1      0.500000000   0.000000000   0.443743456    0   0   1
O0       0.750000000   0.780000000   0.441682179    0   0   1
O0       0.750000000   0.220000000   0.441689711    0   0   1
O0       0.500000000   0.500000000   0.497072744    0   0   1
O0       0.500000000   0.000000000   0.515534333    0   0   1
Re1      0.750000000   0.000000000   0.575636020    0   0   1
Re1      0.500000000   0.500000000   0.570230007    0   0   1
O0       0.750000000   0.720000000   0.573634315    0   0   1
O0       0.750000000   0.280000000   0.573599502    0   0   1
O0       0.500000000   0.000000000   0.627383160    0   0   1
H2      -0.000379995   0.625650931   0.365347038
H2       0.499620004   0.625624124   0.365323457
H2       0.169899396   0.021843597   0.356832844
H2       0.669876759   0.021838150   0.356834713
O0       0.499630000   0.505522445   0.640300116    0   1   1
O0       0.500290000   0.328548118   0.669278792    0   1   1
H2       0.499950000   0.377801420   0.703998931    0   1   1

     Check: negative starting charge=   -0.236736
     NEW-OLD atomic charge density approx. for the potential

     Check: negative/imaginary core charge=   -0.000003    0.000000
     Check: negative starting charge=   -0.237013

[...]

     energy   old            =   -2208.5524513488 Ry
     energy   new            =   -2208.5698647661 Ry

     CASE: energy  _new < energy  _old

[...]

     Threshold (ethr) on eigenvalues was too large:
     Diagonalizing with lowered threshold

     Davidson diagonalization with overlap
     ethr =  2.73E-08,  avg # of iterations =  1.0

[...]

     Total force =     0.003417     Total SCF correction =     0.000170

     number of scf cycles    =  22
     number of bfgs steps    =  21

     energy   old            =   -2208.5841119124 Ry
     energy   new            =   -2208.5841429528 Ry

     CASE: energy  _new < energy  _old

     new trust radius        =       0.0053498670 bohr
     new conv_thr            =       0.0000000100 Ry

ATOMIC_POSITIONS (crystal)
O0       0.000000000   0.000000000   0.369702162    0   0   1
O0       0.000000000   0.500000000   0.382211959    0   0   1
Re1      0.250000000   0.500000000   0.442129918    0   0   1
Re1      0.000000000   0.000000000   0.442439318    0   0   1
O0       0.250000000   0.780000000   0.441056249    0   0   1
O0       0.250000000   0.220000000   0.440918163    0   0   1
O0       0.000000000   0.500000000   0.497707899    0   0   1
O0       0.000000000   0.000000000   0.514051973    0   0   1
Re1      0.250000000   0.000000000   0.573595664    0   0   1
Re1      0.000000000   0.500000000   0.567424420    0   0   1
O0       0.250000000   0.720000000   0.570870739    0   0   1
O0       0.250000000   0.280000000   0.573172492    0   0   1
O0       0.000000000   0.000000000   0.625645992    0   0   1
O0       0.500000000   0.000000000   0.369726199    0   0   1
O0       0.500000000   0.500000000   0.382535626    0   0   1
Re1      0.750000000   0.500000000   0.442126974    0   0   1
Re1      0.500000000   0.000000000   0.442179092    0   0   1
O0       0.750000000   0.780000000   0.440992903    0   0   1
O0       0.750000000   0.220000000   0.441002316    0   0   1
O0       0.500000000   0.500000000   0.498001671    0   0   1
O0       0.500000000   0.000000000   0.514154762    0   0   1
Re1      0.750000000   0.000000000   0.573479215    0   0   1
Re1      0.500000000   0.500000000   0.576071114    0   0   1
O0       0.750000000   0.720000000   0.570873185    0   0   1
O0       0.750000000   0.280000000   0.573160106    0   0   1
O0       0.500000000   0.000000000   0.624657149    0   0   1
H2      -0.000205145   0.625554949   0.365611555
H2       0.499642424   0.623798827   0.365051187
H2       0.167836016   0.025165202   0.355091829
H2       0.669751850   0.022298830   0.355443724
O0       0.499630000   0.526544551   0.641362762    0   1   1
O0       0.500290000   0.320687599   0.680742859    0   1   1
H2       0.499950000   0.396353803   0.711548827    0   1   1

     Check: negative starting charge=   -0.236989
     NEW-OLD atomic charge density approx. for the potential

     Check: negative/imaginary core charge=   -0.000003    0.000000
     Check: negative starting charge=   -0.236971

[...]

     Self-consistent Calculation

[...]

     Threshold (ethr) on eigenvalues was too large:
     Diagonalizing with lowered threshold

     Davidson diagonalization with overlap
     ethr =  9.52E-08,  avg # of iterations =  1.0

[...]

     total energy              =   -2208.58416111 Ry
     Harris-Foulkes estimate   =   -2208.58416112 Ry
     estimated scf accuracy    <       0.00000002 Ry

     iteration # 15     ecut=    40.00 Ry     beta=0.70
     Davidson diagonalization with overlap
     ethr =  6.68E-12,  avg # of iterations =  1.0

     negative rho (up, down):  0.249E+00 0.000E+00

     End of self-consistent calculation

[...]

          k = 0.2500-0.3828 0.0000 ( 29202 PWs)   bands (ev):

[...]

          k =-0.2500 0.1914 0.0000 ( 29229 PWs)   bands (ev):

   -81.6251 -81.5562 -81.4551 -81.4132 -81.3358 -81.2166 -81.1776 -81.0460
   -43.7268 -43.6473 -43.5090 -43.5045 -43.5009 -43.4224 -43.4170 -43.3889
   -43.3520 -43.3232 -43.2930 -43.2522 -43.1812 -43.1521 -43.1326 -43.1081
   -43.0826 -43.0695 -43.0566 -43.0030 -42.9992 -42.9506 -42.7115 -42.6779
   -20.8687 -20.4211 -20.3899 -20.2649 -20.1503 -19.9082 -19.8442 -19.7734
   -19.6129 -19.5566 -19.5095 -19.4424 -19.3421 -19.2458 -19.1071 -18.9896
   -18.9684 -18.4328 -18.1677 -16.9033  -8.9940  -8.7976  -8.7111  -8.6319
    -8.4939  -8.3866  -8.3314  -8.2345  -7.9784  -7.7578  -7.7084  -7.5281
    -7.3847  -7.2895  -7.1753  -7.0716  -6.8620  -6.7689  -6.6218  -6.5553
    -6.4722  -6.2038  -6.1045  -6.0032  -5.8232  -5.7638  -5.6623  -5.5890
    -5.4954  -5.3760  -5.1891  -5.1683  -5.0551  -4.9616  -4.8697  -4.8218
    -4.7436  -4.6528  -4.5591  -4.4979  -4.4284  -4.2707  -4.2378  -4.0269
    -3.9259  -3.8307  -3.7965  -3.6970  -3.6562  -3.4705  -3.4114  -3.2944
    -3.2668  -3.0686  -2.9966  -2.8089  -2.7336  -2.6142  -2.1513  -1.9137
    -1.8185  -1.0829  -0.9803  -0.8270  -0.7797  -0.4823  -0.1508   0.0148
     0.2054   0.4612   0.5461   0.7245   0.7802   0.8682   1.0204   1.1088
     1.3039   1.4717   1.5557   1.6254   1.8313   1.9465   1.9975   2.2265
     2.5768   3.5144   3.6064   3.6708   3.7452   3.9130   4.0268   4.2935
     4.4049   4.5079   4.6908   4.8334   4.9711   5.3637   5.4449   5.6270
     5.8200   5.9508   6.0956   6.2410   6.3385   6.5046   6.7430   6.9154
     7.0594   7.2450   7.4239   7.6322   7.7361   7.8549   8.0796   8.1813
     8.2873   8.3613   8.5013   8.6961   8.7227   8.7932   8.9965   9.0386
     9.1898   9.4630   9.5097   9.6324   9.7003   9.8322   9.8672   9.9706
    10.0153  10.0730  10.1334  10.1910  10.2785  10.3849  10.4546  10.5029
    10.5594  10.7080  10.8753  10.9914  11.0901  11.1656  11.3322  11.4449
    11.4916  11.5899  11.7219  11.8109  11.9162  12.0633  12.2062  12.2966
    12.4352  12.5442  12.6116  12.6595  12.7357  12.7743  12.8831  12.9367
    12.9830  13.0864  13.1939  13.2168  13.3633  13.4705  13.5358  13.6283
    13.7479  13.7754  13.8413  13.8921  13.9196  14.0272  14.0736  14.1327
    14.2047  14.2604  14.3812  14.4349  14.5218  14.5728  14.6106  14.6511
    14.7117  14.8108  14.8621  14.9225  14.9780  15.0434  15.1147  15.1621
    15.2272  15.2812  15.3938  15.5064  15.5502  15.6358  15.6887  15.8320
    15.9370  16.1006  16.1230  16.2117  16.2729  16.3422  16.4418  16.4844
    16.5631  16.6289  16.7389  16.7684  16.8311  16.9627  17.0024  17.0848
    17.1733  17.2725  17.3187  17.4024  17.4707  17.5218  17.5716  17.7121
    17.7887  17.8476  17.9133  17.9433  18.0309  18.0982  18.1380  18.2377
    18.3536  18.3662  18.4386  18.4663  18.5500  18.6135  18.6958  18.7688
    18.8229  18.9278  19.0000  19.0796  19.1152  19.2154  19.3047  19.4282
    19.4940  19.5534  19.6752  19.7249  19.8436  19.8913  19.9983  20.0848
    20.1469  20.2025  20.2775  20.3722  20.4393  20.5100  20.5809  20.6815
    20.6961  20.7666  20.8287  20.8862  20.9211  21.0138  21.0829  21.1476
    21.2373  21.2621  21.3207  21.4123  21.4713  21.5486  21.5854  21.6525
    21.7175  21.7853  21.8473  21.8943  21.9839  22.0319  22.1342  22.1738
    22.2453  22.2731  22.3638  22.3899  22.4328  22.5003  22.5325  22.5939
    22.6617  22.7243  22.7580  22.8045  22.8242  22.8771  22.9363  23.0283
    23.0724  23.1120  23.1477  23.1921  23.2411  23.3047  23.3654

     the Fermi energy is     0.4393 ev

!    total energy              =   -2208.58416111 Ry
     Harris-Foulkes estimate   =   -2208.58416112 Ry
     estimated scf accuracy    <          9.8E-09 Ry

     The total energy is the sum of the following terms:

     one-electron contribution =  -24596.92914602 Ry
     hartree contribution      =   12317.47138864 Ry
     xc contribution           =    -601.88301404 Ry
     ewald contribution        =   10672.75639005 Ry
     smearing contrib. (-TS)   =       0.00022026 Ry

     convergence has been achieved in  15 iterations

     Forces acting on atoms (Ry/au):

     negative rho (up, down):  0.249E+00 0.000E+00
     atom    1 type  1   force =    -0.00631883   -0.00708855   -0.00014567
     atom    2 type  1   force =     0.00004737    0.00561792   -0.00058096
     atom    3 type  2   force =     0.01698007   -0.00308106    0.00001410
     atom    4 type  2   force =     0.00187117    0.00808990   -0.00005212
     atom    5 type  1   force =     0.00280916    0.00953400   -0.00030420
     atom    6 type  1   force =     0.00118508   -0.01089189   -0.00028846
     atom    7 type  1   force =    -0.00020299   -0.00247840    0.00023692
     atom    8 type  1   force =     0.00311797    0.00240828    0.00017487
     atom    9 type  2   force =    -0.03872154   -0.00327367    0.00023960
     atom   10 type  2   force =    -0.00007861    0.00235436    0.00024147
     atom   11 type  1   force =    -0.02103698   -0.01360738    0.00002427
     atom   12 type  1   force =    -0.01233969    0.02512789    0.00010037
     atom   13 type  1   force =    -0.00034546   -0.00484826    0.00023784
     atom   14 type  1   force =    -0.00316366   -0.00635452   -0.00000277
     atom   15 type  1   force =    -0.00001650    0.00413066   -0.00075630
     atom   16 type  2   force =    -0.01706462   -0.00293424    0.00002543
     atom   17 type  2   force =     0.00220343    0.00819334   -0.00005698
     atom   18 type  1   force =     0.00056945    0.00941153   -0.00029281
     atom   19 type  1   force =    -0.00088207   -0.01075127   -0.00029848
     atom   20 type  1   force =    -0.00021277    0.00003126    0.00084554
     atom   21 type  1   force =     0.00262656    0.00188757    0.00004088
     atom   22 type  2   force =     0.03524200   -0.00246482    0.00030533
     atom   23 type  2   force =     0.00025474   -0.00765560    0.00007746
     atom   24 type  1   force =     0.02107747   -0.01423134   -0.00000287
     atom   25 type  1   force =     0.01209642    0.02494625    0.00005793
     atom   26 type  1   force =    -0.00069496   -0.01256019    0.00033506
     atom   27 type  3   force =    -0.00000889    0.00003061   -0.00064073
     atom   28 type  3   force =    -0.00001101    0.00026732   -0.00048160
     atom   29 type  3   force =     0.00050422   -0.00010489    0.00076611
     atom   30 type  3   force =     0.00042877   -0.00012103    0.00079770
     atom   31 type  1   force =    -0.00001337    0.00065887   -0.00073396
     atom   32 type  1   force =     0.00010990   -0.00031741   -0.00008525
     atom   33 type  3   force =    -0.00001184    0.00007477    0.00020230

     Total force =     0.002453     Total SCF correction =     0.000444
     SCF correction compared to forces is large: reduce conv_thr to get better values

     bfgs converged in  23 scf cycles and  22 bfgs steps
     (criteria: energy < 0.10E-03, force < 0.10E-02)

     End of BFGS Geometry Optimization

     Final energy   =   -2208.5841611076 Ry
Begin final coordinates

ATOMIC_POSITIONS (crystal)
O0       0.000000000   0.000000000   0.369702162    0   0   1
O0       0.000000000   0.500000000   0.382211959    0   0   1
Re1      0.250000000   0.500000000   0.442129918    0   0   1
Re1      0.000000000   0.000000000   0.442439318    0   0   1
O0       0.250000000   0.780000000   0.441056249    0   0   1
O0       0.250000000   0.220000000   0.440918163    0   0   1
O0       0.000000000   0.500000000   0.497707899    0   0   1
O0       0.000000000   0.000000000   0.514051973    0   0   1
Re1      0.250000000   0.000000000   0.573595664    0   0   1
Re1      0.000000000   0.500000000   0.567424420    0   0   1
O0       0.250000000   0.720000000   0.570870739    0   0   1
O0       0.250000000   0.280000000   0.573172492    0   0   1
O0       0.000000000   0.000000000   0.625645992    0   0   1
O0       0.500000000   0.000000000   0.369726199    0   0   1
O0       0.500000000   0.500000000   0.382535626    0   0   1
Re1      0.750000000   0.500000000   0.442126974    0   0   1
Re1      0.500000000   0.000000000   0.442179092    0   0   1
O0       0.750000000   0.780000000   0.440992903    0   0   1
O0       0.750000000   0.220000000   0.441002316    0   0   1
O0       0.500000000   0.500000000   0.498001671    0   0   1
O0       0.500000000   0.000000000   0.514154762    0   0   1
Re1      0.750000000   0.000000000   0.573479215    0   0   1
Re1      0.500000000   0.500000000   0.576071114    0   0   1
O0       0.750000000   0.720000000   0.570873185    0   0   1
O0       0.750000000   0.280000000   0.573160106    0   0   1
O0       0.500000000   0.000000000   0.624657149    0   0   1
H2      -0.000205145   0.625554949   0.365611555
H2       0.499642424   0.623798827   0.365051187
H2       0.167836016   0.025165202   0.355091829
H2       0.669751850   0.022298830   0.355443724
O0       0.499630000   0.526544551   0.641362762    0   1   1
O0       0.500290000   0.320687599   0.680742859    0   1   1
H2       0.499950000   0.396353803   0.711548827    0   1   1
End final coordinates

     General routines

     Parallel routines

   This run was terminated on:   9: 5: 6  11May2014

   JOB DONE.