     Program PWSCF v.5.0.2 (svn rev. 9656) starts on  4Jun2014 at 19:39:59

     Current dimensions of program PWSCF are:
     Max number of different atomic species (ntypx) = 10
     Max number of k-points (npk) =  40000
     Max angular momentum in pseudopotentials (lmaxx) =  3
     Reading input from pwscf.in
Warning: card &CELL ignored
Warning: card / ignored

     Subspace diagonalization in iterative solution of the eigenvalue problem:
     a serial algorithm will be used

     bravais-lattice index     =            0
     lattice parameter (alat)  =      10.3179  a.u.
     unit-cell volume          =    9693.3575 (a.u.)^3
     number of atoms/cell      =           51
     number of atomic types    =            3
     number of electrons       =       429.00
     number of Kohn-Sham states=          643
     kinetic-energy cutoff     =      40.0000  Ry
     charge density cutoff     =     500.0000  Ry
     convergence threshold     =      1.0E-06
     mixing beta               =       0.3000
     number of iterations used =            8  plain     mixing
     Exchange-correlation      = SLA  PW   PBE  PBE ( 1 4 3 4 0)
     EXX-fraction              =        0.00
     nstep                     =           50

     celldm(1)=  10.317905  celldm(2)=   0.000000  celldm(3)=   0.000000
     celldm(4)=   0.000000  celldm(5)=   0.000000  celldm(6)=   0.000000

     crystal axes: (cart. coord. in units of alat)
               a(1) = (   1.000000   0.000000   0.000000 )
               a(2) = (   0.000000   1.282117   0.000000 )
               a(3) = (   0.000000   0.000000   6.882911 )

     reciprocal axes: (cart. coord. in units 2 pi/alat)
               b(1) = (  1.000000  0.000000  0.000000 )
               b(2) = (  0.000000  0.779960  0.000000 )
               b(3) = (  0.000000  0.000000  0.145287 )

     PseudoPot. # 1 for O  read from file:
     /home/camp/zhonxu/pseudo/o_pbe_v1.01.uspp.F.UPF
     MD5 check sum: 2bcb18d16ea4b960afae9ec6d52f22d2
     Pseudo is Ultrasoft + core correction, Zval =  6.0
     Generated by new atomic code, or converted to UPF format
     Using radial grid of  737 points,  5 beta functions with:
                l(1) =   0
                l(2) =   0
                l(3) =   1
                l(4) =   1
                l(5) =   2
     Q(r) pseudized with  8 coefficients,  rinner =    0.900   0.900   0.900
                                                       0.900   0.900

     PseudoPot. # 2 for Mo read from file:
     /home/camp/zhonxu/pseudo/mo_pbe_v1.uspp.F.UPF
     MD5 check sum: 30c4dcd161f5d35cd49bb5239c51a633
     Pseudo is Ultrasoft + core correction, Zval = 14.0
     Generated by new atomic code, or converted to UPF format
     Using radial grid of  889 points,  6 beta functions with:
                l(1) =   0
                l(2) =   0
                l(3) =   1
                l(4) =   1
                l(5) =   2
                l(6) =   2
     Q(r) pseudized with  6 coefficients,  rinner =    1.000   1.000   1.000
                                                       1.000   1.000

     PseudoPot. # 3 for H  read from file:
     /home/camp/zhonxu/pseudo/h_pbe_v1.uspp.F.UPF
     MD5 check sum: 3408e3ff4ec8b0a4e358431e7e038a48
     Pseudo is Ultrasoft, Zval =  1.0
     Generated by new atomic code, or converted to UPF format
     Using radial grid of  615 points,  2 beta functions with:
                l(1) =   0
                l(2) =   0
     Q(r) pseudized with  8 coefficients,  rinner =    0.700

     atomic species   valence    mass     pseudopotential
        O0             6.00    15.99940     O ( 1.00)
        Mo1           14.00    95.94000     Mo( 1.00)
        H2             1.00     1.00794     H ( 1.00)

      2 Sym. Ops. (no inversion) found

   Cartesian axes

     site n.     atom                  positions (alat units)
         1           O0  tau(   1) = (   0.0000000   0.6410583   2.1977822  )
         2           Mo1 tau(   2) = (   0.2500000   0.6410583   2.4798439  )
         3           Mo1 tau(   3) = (   0.0000000   0.0000000   2.4798439  )
         4           O0  tau(   4) = (   0.2500000   1.0000510   2.4798439  )
         5           O0  tau(   5) = (   0.2500000   0.2820657   2.4798439  )
         6           O0  tau(   6) = (   0.0000000   0.6410583   2.7619056  )
         7           O0  tau(   7) = (   0.0000000   0.0000000   2.8388565  )
         8           Mo1 tau(   8) = (   0.2500000   0.0000000   3.1209182  )
         9           Mo1 tau(   9) = (   0.0000000   0.6410583   3.1209182  )
        10           O0  tau(  10) = (   0.2500000   0.9231240   3.1209182  )
        11           O0  tau(  11) = (   0.2500000   0.3589927   3.1209182  )
        12           O0  tau(  12) = (   0.0000000   0.0000000   3.4029799  )
        13           O0  tau(  13) = (   0.0000000   0.6410583   3.4705701  )
        14           Mo1 tau(  14) = (   0.2286600   0.6410583   3.7488462  )
        15           Mo1 tau(  15) = (   0.0000000   0.0000000   3.7864269  )
        16           O0  tau(  16) = (   0.2460200   1.0042564   3.7683248  )
        17           O0  tau(  17) = (   0.2460200   0.2778603   3.7683248  )
        18           O0  tau(  18) = (   0.0000000   0.6410583   4.0400621  )
        19           O0  tau(  19) = (   0.0000000   0.0000000   4.1500511  )
        20           Mo1 tau(  20) = (   0.2719400   0.0000000   4.4350036  )
        21           Mo1 tau(  21) = (   0.0000000   0.6410583   4.3760858  )
        22           O0  tau(  22) = (   0.2568700   0.9035974   4.4329387  )
        23           O0  tau(  23) = (   0.2568700   0.3785193   4.4329387  )
        24           O0  tau(  24) = (   0.0000000   0.0000000   4.6642045  )
        25           O0  tau(  25) = (   0.5000000   0.6410583   2.1977822  )
        26           Mo1 tau(  26) = (   0.7500000   0.6410583   2.4798439  )
        27           Mo1 tau(  27) = (   0.5000000   0.0000000   2.4798439  )
        28           O0  tau(  28) = (   0.7500000   1.0000510   2.4798439  )
        29           O0  tau(  29) = (   0.7500000   0.2820657   2.4798439  )
        30           O0  tau(  30) = (   0.5000000   0.6410583   2.7619056  )
        31           O0  tau(  31) = (   0.5000000   0.0000000   2.8388565  )
        32           Mo1 tau(  32) = (   0.7500000   0.0000000   3.1209182  )
        33           Mo1 tau(  33) = (   0.5000000   0.6410583   3.1209182  )
        34           O0  tau(  34) = (   0.7500000   0.9231240   3.1209182  )
        35           O0  tau(  35) = (   0.7500000   0.3589927   3.1209182  )
        36           O0  tau(  36) = (   0.5000000   0.0000000   3.4029799  )
        37           O0  tau(  37) = (   0.5000000   0.6410583   3.4927331  )
        38           Mo1 tau(  38) = (   0.7713400   0.6410583   3.7488462  )
        39           Mo1 tau(  39) = (   0.5000000   0.0000000   3.7719728  )
        40           O0  tau(  40) = (   0.7539800   1.0042564   3.7683248  )
        41           O0  tau(  41) = (   0.7539800   0.2778603   3.7683248  )
        42           O0  tau(  42) = (   0.5000000   0.6410583   4.0184498  )
        43           O0  tau(  43) = (   0.5000000   0.0000000   4.1341515  )
        44           Mo1 tau(  44) = (   0.7280600   0.0000000   4.4350036  )
        45           Mo1 tau(  45) = (   0.5000000   0.6410583   4.3550241  )
        46           O0  tau(  46) = (   0.7431300   0.9035974   4.4329387  )
        47           O0  tau(  47) = (   0.7431300   0.3785193   4.4329387  )
        48           O0  tau(  48) = (   0.5000000   0.0000000   4.7053643  )
        49           O0  tau(  49) = (   0.5000000   0.6410583   4.7346167  )
        50           O0  tau(  50) = (   0.5000000   0.4276885   4.8734450  )
        51           H2  tau(  51) = (   0.5000000   0.4819220   5.0454489  )

     number of k points=     9  Methfessel-Paxton smearing, width (Ry)=  0.0100
                       cart. coord. in units 2pi/alat
        k(    1) = (   0.0000000   0.0000000   0.0000000), wk =   0.1250000
        k(    2) = (   0.0000000   0.1949901   0.0000000), wk =   0.2500000
        k(    3) = (   0.0000000  -0.3899801   0.0000000), wk =   0.1250000
        k(    4) = (   0.2500000   0.0000000   0.0000000), wk =   0.2500000
        k(    5) = (   0.2500000   0.1949901   0.0000000), wk =   0.5000000
        k(    6) = (   0.2500000  -0.3899801   0.0000000), wk =   0.2500000
        k(    7) = (  -0.5000000   0.0000000   0.0000000), wk =   0.1250000
        k(    8) = (  -0.5000000   0.1949901   0.0000000), wk =   0.2500000
        k(    9) = (  -0.5000000  -0.3899801   0.0000000), wk =   0.1250000

     Largest allocated arrays     est. size (Mb)     dimensions
     Largest temporary arrays     est. size (Mb)     dimensions

     Check: negative/imaginary core charge=   -0.000004    0.000000

     Initial potential from superposition of free atoms
     Check: negative starting charge=   -0.003259

     starting charge  428.98293, renormalised to  429.00000

     negative rho (up, down):  0.326E-02 0.000E+00
     Starting wfc are  345 randomized atomic wfcs

     Self-consistent Calculation

     iteration #  1     ecut=    40.00 Ry     beta=0.30
     Davidson diagonalization with overlap
     ethr =  1.00E-02,  avg # of iterations =  6.0

     negative rho (up, down):  0.333E-02 0.000E+00

     total energy              =   -3323.85226121 Ry
     Harris-Foulkes estimate   =   -3330.93480055 Ry
     estimated scf accuracy    <      16.17153036 Ry

[...]

     End of self-consistent calculation

          k = 0.0000 0.0000 0.0000 ( 41461 PWs)   bands (ev):

   -61.0180 -60.8588 -60.8153 -60.7861 -60.7426 -60.7082 -60.6791 -60.6556
   -60.6174 -60.5913 -60.5826 -60.5793 -60.5385 -60.5006 -60.4981 -60.4018
   -35.5421 -35.4655 -35.4416 -35.4278 -35.3459 -35.3022 -35.2793 -35.2698
   -35.2282 -35.1788 -35.1700 -35.1013 -35.0591 -35.0135 -34.9852 -34.9584
   -34.9362 -34.9127 -34.8811 -34.8610 -34.8416 -34.8125 -34.8106 -34.7905
   -34.7876 -34.7780 -34.7638 -34.7546 -34.7208 -34.7084 -34.7073 -34.6875
   -34.6145 -34.5978 -34.5761 -34.5679 -34.5631 -34.5375 -34.4894 -34.4523
   -34.4197 -34.3355 -34.2868 -34.2328 -34.1875 -34.1247 -34.0959 -33.9259
   -21.6556 -18.8183 -18.4998 -18.4059 -18.2562 -18.2228 -18.1830 -17.9316
   -17.8159 -17.7165 -17.6347 -17.6280 -17.5207 -17.4975 -17.4951 -17.4177
   -17.4087 -17.3053 -17.1970 -17.1547 -17.1495 -17.1085 -17.1075 -17.1056
   -17.0961 -17.0534 -17.0289 -16.9867 -16.7067 -16.1755 -15.9450 -15.6770
   -15.3955 -14.4713  -6.9377  -6.7171  -6.6973  -6.6381  -6.6289  -6.4928
    -6.4666  -6.3964  -6.1168  -5.8809  -5.8008  -5.6950  -5.6793  -5.6623
    -5.5798  -5.4801  -5.4107  -5.3019  -5.2969  -5.2724  -5.2435  -5.2136
    -5.1427  -5.0946  -5.0856  -4.9944  -4.9549  -4.8263  -4.7820  -4.7301
    -4.7091  -4.6775  -4.6604  -4.6323  -4.6089  -4.5802  -4.5514  -4.2611
    -4.1383  -4.0551  -4.0467  -3.8630  -3.8020  -3.7877  -3.7612  -3.6580
    -3.6052  -3.5905  -3.5390  -3.5161  -3.5118  -3.4084  -3.4031  -3.3557
    -3.2498  -3.1935  -3.1119  -3.0512  -2.9718  -2.9632  -2.9343  -2.8613
    -2.7375  -2.7295  -2.6703  -2.6148  -2.6111  -2.5492  -2.5254  -2.4880
[...]
Mo1      0.250000000   0.000000000   0.453430000    0   0   0
Mo1      0.000000000   0.500000000   0.453430000    0   0   0
O0       0.250000000   0.720000000   0.453430000    0   0   0
O0       0.250000000   0.280000000   0.453430000    0   0   0
O0       0.000000000   0.000000000   0.494410000    0   0   0
O0       0.000000000   0.498416020   0.504901468
Mo1      0.233554480   0.496879872   0.545642790
Mo1      0.000000000  -0.002839338   0.548182361
O0       0.246113705   0.780936927   0.546895766
O0       0.246445837   0.214512072   0.546863021
O0       0.000000000   0.495674236   0.587015665
O0       0.000000000  -0.000389296   0.601072562
Mo1      0.265188114   0.005334357   0.641780821
Mo1      0.000000000   0.503129255   0.635685426
O0       0.245493150   0.715128987   0.638381446
O0       0.251505137   0.287723111   0.640141182
O0       0.000000000   0.011033578   0.675620191
O0       0.500000000   0.500000000   0.319310000    0   0   0
Mo1      0.750000000   0.500000000   0.360290000    0   0   0
Mo1      0.500000000   0.000000000   0.360290000    0   0   0
O0       0.750000000   0.780000000   0.360290000    0   0   0
O0       0.750000000   0.220000000   0.360290000    0   0   0
O0       0.500000000   0.500000000   0.401270000    0   0   0
O0       0.500000000   0.000000000   0.412450000    0   0   0
Mo1      0.750000000   0.000000000   0.453430000    0   0   0
Mo1      0.500000000   0.500000000   0.453430000    0   0   0
O0       0.750000000   0.720000000   0.453430000    0   0   0
O0       0.750000000   0.280000000   0.453430000    0   0   0
O0       0.500000000   0.000000000   0.494410000    0   0   0
O0       0.500000000   0.498444919   0.507477594
Mo1      0.766445520   0.496879872   0.545642790
Mo1      0.500000000  -0.002733912   0.547105164
O0       0.753886295   0.780936927   0.546895766
O0       0.753554163   0.214512072   0.546863021
O0       0.500000000   0.499071910   0.584650060
O0       0.500000000  -0.000189912   0.599340457
Mo1      0.734811886   0.005334357   0.641780821
Mo1      0.500000000   0.505142555   0.638106118
O0       0.754506850   0.715128987   0.638381446
O0       0.748494863   0.287723111   0.640141182
O0       0.500000000  -0.040940299   0.678831830
O0       0.500000000   0.516913609   0.689920643
O0       0.500000000   0.340021370   0.710220127
H2       0.500000000   0.394044367   0.734460219

     Check: negative starting charge=   -0.003251
     NEW-OLD atomic charge density approx. for the potential

     Check: negative/imaginary core charge=   -0.000004    0.000000
     Check: negative starting charge=   -0.003251

[...]

     Self-consistent Calculation

[...]

     Threshold (ethr) on eigenvalues was too large:
     Diagonalizing with lowered threshold

     Davidson diagonalization with overlap
     ethr =  7.40E-09,  avg # of iterations =  2.0

[...]

     total energy              =   -3327.57216432 Ry
     Harris-Foulkes estimate   =   -3327.57216432 Ry
     estimated scf accuracy    <       0.00000001 Ry

     iteration # 17     ecut=    40.00 Ry     beta=0.30
     Davidson diagonalization with overlap
     ethr =  2.93E-12,  avg # of iterations =  1.0

     negative rho (up, down):  0.454E-02 0.000E+00

     End of self-consistent calculation

[...]

          k = 0.2500-0.3900 0.0000 ( 41418 PWs)   bands (ev):

[...]

          k =-0.5000-0.3900 0.0000 ( 41316 PWs)   bands (ev):

   -60.6924 -60.6467 -60.6440 -60.6439 -60.6148 -60.5601 -60.5528 -60.5355
   -60.4841 -60.4839 -60.4740 -60.4437 -60.4401 -60.4391 -60.4330 -60.4167
   -35.1644 -35.0415 -34.9995 -34.9549 -34.9549 -34.9512 -34.9169 -34.8804
   -34.8403 -34.8084 -34.7965 -34.7937 -34.7827 -34.7711 -34.7706 -34.7531
   -34.7479 -34.7427 -34.7342 -34.7155 -34.6813 -34.6712 -34.6694 -34.6603
   -34.6579 -34.6360 -34.6097 -34.6030 -34.6008 -34.5961 -34.5891 -34.5752
   -34.5603 -34.5376 -34.5278 -34.5266 -34.5208 -34.5188 -34.5165 -34.5095
   -34.5069 -34.4961 -34.4937 -34.4929 -34.4772 -34.4743 -34.4558 -34.3692
   -21.3983 -18.3095 -17.8938 -17.6867 -17.6856 -17.6682 -17.6574 -17.6489
   -17.6405 -17.5990 -17.5127 -17.4948 -17.4783 -17.4674 -17.4328 -17.3107
   -17.3064 -17.2585 -17.1973 -17.1535 -17.1529 -17.1528 -17.0537 -17.0414
   -17.0344 -17.0338 -17.0095 -16.9896 -16.7988 -16.5549 -16.3315 -15.4530
   -15.4433 -15.1885  -6.7339  -6.2834  -5.9321  -5.8500  -5.8282  -5.8273
    -5.7552  -5.7452  -5.7398  -5.7371  -5.7352  -5.7273  -5.5454  -5.5224
    -5.4711  -5.3449  -5.2201  -5.1802  -4.9996  -4.9736  -4.8913  -4.8028
    -4.7857  -4.6874  -4.6462  -4.5700  -4.5555  -4.5053  -4.4968  -4.4838
    -4.4628  -4.3745  -4.3335  -4.2994  -4.1700  -4.1440  -4.0976  -4.0749
    -4.0296  -4.0273  -4.0117  -3.9680  -3.9575  -3.9480  -3.9171  -3.8760
    -3.6546  -3.6242  -3.6030  -3.5737  -3.4865  -3.4141  -3.3977  -3.3733
    -3.3578  -3.2537  -3.1912  -3.1448  -3.1033  -2.9994  -2.9638  -2.9218
    -2.9096  -2.8129  -2.8108  -2.7944  -2.7764  -2.7026  -2.6758  -2.6508
    -2.6308  -2.5933  -2.5855  -2.5758  -2.4832  -2.4403  -2.3337  -2.1969
    -2.1906  -2.0031  -1.7730  -1.7069  -1.6781  -1.6633  -1.6283  -1.5604
    -1.5056  -1.4740  -1.3687  -1.3574  -1.3063  -1.2216  -1.1960  -1.1530
    -1.0489  -1.0427  -0.6434  -0.6394  -0.6287  -0.6230   0.0989   0.7084
     1.1283   1.1430   1.2287   1.2408   1.2643   1.4003   1.4222   1.4237
     1.4713   1.5040   1.5353   1.6600   1.7010   1.7891   1.7892   1.8360
     1.8418   1.9891   2.0704   2.2027   2.3026   2.3087   2.3958   2.4720
     2.5214   2.5445   2.5955   2.6008   2.7384   2.7449   2.7991   2.9366
     3.0400   3.0840   3.1218   3.1544   3.2266   3.3035   3.3577   3.3755
     3.4282   3.4448   3.5132   3.5233   3.5282   3.6223   3.6491   3.7352
     3.9016   4.2054   4.6914   4.7563   4.8241   4.8273   4.8388   4.8389
     5.0507   5.0835   5.1447   5.4901   5.6651   5.6746   5.6987   6.1183
     6.4568   6.4987   6.6310   6.7129   6.8448   6.9824   7.1700   7.2082
     7.2242   7.3739   7.4494   7.5487   7.5842   7.6883   7.6962   7.7430
     7.8506   7.8837   7.9721   8.0173   8.0951   8.0984   8.2820   8.2886
     8.4502   8.4678   8.5822   8.6149   8.7592   8.7937   8.8283   8.9240
     9.1287   9.1470   9.2110   9.3698   9.5532   9.6285   9.7400   9.9077
     9.9622   9.9847  10.0416  10.1098  10.3149  10.3822  10.4478  10.5367
    10.5545  10.6215  10.6236  10.6867  11.1490  11.1846  11.2570  11.3145
    11.3292  11.4015  11.4116  11.4766  11.8899  11.9285  11.9823  12.0525
    12.3324  12.3582  12.3816  12.4974  12.8654  13.0899  13.2018  13.2757
    13.4043  13.4319  13.4418  13.4785  13.5290  13.5301  13.6682  13.7055
    13.7568  13.7710  13.8166  13.8676  13.9887  14.0342  14.1122  14.1469
    14.1795  14.2950  14.3029  14.3350  14.4236  14.4306  14.4589  14.4644
    14.5614  14.6400  14.6500  14.7390  14.7803  14.8091  14.8444  14.8655
    14.9274  14.9375  14.9646  15.0005  15.0636  15.1401  15.1605  15.1805
    15.3627  15.3812  15.4407  15.4497  15.4634  15.4860  15.5165  15.5264
    15.5598  15.5965  15.6532  15.8551  15.8558  15.9365  16.0069  16.0152
    16.0257  16.0842  16.0933  16.1339  16.1517  16.1643  16.1774  16.2056
    16.2439  16.2487  16.3010  16.3032  16.3641  16.3842  16.3950  16.3953
    16.4163  16.4400  16.4442  16.7156  16.7266  16.7364  16.8435  16.9265
    17.0342  17.0353  17.1173  17.1424  17.1817  17.2175  17.2528  17.2626
    17.3655  17.3666  17.5112  17.6298  17.6336  17.6489  17.7033  17.7102
    17.9033  17.9400  18.0402  18.0627  18.0789  18.0967  18.1693  18.1820
    18.2391  18.2541  18.3355  18.3497  18.3755  18.4259  18.5275  18.5598
    18.6224  18.6648  18.6817  18.7089  18.7787  18.8322  18.8428  18.8901
    18.9522  18.9587  19.0466  19.0854  19.0974  19.1152  19.1575  19.1928
    19.2778  19.2877  19.3749  19.4465  19.6350  19.7072  19.7355  19.7464
    19.7769  19.7938  19.8070  19.8206  19.8377  19.8755  19.8933  19.9105
[...]
    22.5542  22.6417  22.7617  22.8673  22.8934  22.9610  22.9679  23.0782
    23.0923  23.1263  23.1473  23.2197  23.3082  23.3593  23.4072  23.4253
    23.4423  23.5215  23.5578  23.6389  23.6820  23.6824  23.7232  23.7683
    23.7881  23.7981  23.8457  23.8610  23.8888  23.9867  23.9903  24.0200
    24.0441  24.1451  24.1771  24.2293  24.3150  24.3152  24.3649  24.4147
    24.4294  24.4593  24.5036  24.5608  24.5617  24.6071  24.6242  24.6385
    24.6679  24.7145  24.7201  24.7504  24.7676  24.8083  24.8235  24.8349
    24.9323  24.9539  24.9557  24.9644  24.9999  25.0400  25.0456  25.0730
    25.1541  25.1851  25.2403  25.2829  25.3677  25.4449  25.4650  25.4693
    25.5322  25.5385  25.5470  25.5624  25.6056  25.6975  25.7505  25.8009
    25.8277  25.8782  25.8869  25.9764  25.9839  26.0183  26.0396  26.0965
    26.1450  26.1601  26.1988  26.2057  26.2901  26.3119  26.3126  26.3873
    26.3893  26.4423  26.4631  26.5232  26.5264  26.5517  26.5585  26.5980
    26.6119  26.6399  26.6624  26.7372  26.7538  26.7572  26.8040  26.8667
    26.9062  26.9095  26.9591

     the Fermi energy is     1.8200 ev

!    total energy              =   -3327.57216432 Ry
     Harris-Foulkes estimate   =   -3327.57216432 Ry
     estimated scf accuracy    <          7.9E-09 Ry

     The total energy is the sum of the following terms:

     one-electron contribution =  -77720.80095937 Ry
     hartree contribution      =   38924.79241954 Ry
     xc contribution           =    -553.56190634 Ry
     ewald contribution        =   36021.99942848 Ry
     smearing contrib. (-TS)   =      -0.00114664 Ry

     convergence has been achieved in  17 iterations

     Forces acting on atoms (Ry/au):

     negative rho (up, down):  0.454E-02 0.000E+00
     atom    1 type  1   force =     0.00000000    0.00004252    0.12763312
     atom    2 type  2   force =    -0.00330588    0.00001694   -0.14892486
     atom    3 type  2   force =     0.00000000    0.00019556    0.09295565
     atom    4 type  1   force =     0.00047868    0.02435238   -0.01322664
     atom    5 type  1   force =     0.00035205   -0.02450377   -0.01326228
     atom    6 type  1   force =     0.00000000   -0.00000767   -0.00900103
     atom    7 type  1   force =     0.00000000   -0.00017794   -0.03447761
     atom    8 type  2   force =    -0.00488644    0.00055465    0.01108154
     atom    9 type  2   force =     0.00000000   -0.00021190   -0.02553223
     atom   10 type  1   force =     0.00231668   -0.01716068   -0.00015782
     atom   11 type  1   force =     0.00263801    0.01725590   -0.00110221
     atom   12 type  1   force =     0.00000000   -0.00166459   -0.00250448
     atom   13 type  1   force =     0.00000000   -0.00021199    0.00006413
     atom   14 type  2   force =     0.00011769   -0.00001619    0.00020772
     atom   15 type  2   force =     0.00000000    0.00008300   -0.00060935
     atom   16 type  1   force =    -0.00004230    0.00000786    0.00009156
     atom   17 type  1   force =     0.00008303    0.00000176    0.00005267
     atom   18 type  1   force =     0.00000000   -0.00021204    0.00009494
     atom   19 type  1   force =     0.00000000    0.00028971    0.00006610
     atom   20 type  2   force =     0.00014848    0.00025971   -0.00022318
     atom   21 type  2   force =     0.00000000    0.00028601    0.00013785
     atom   22 type  1   force =     0.00006728    0.00056176    0.00014001
     atom   23 type  1   force =     0.00007033   -0.00044107    0.00052190
     atom   24 type  1   force =     0.00000000    0.00018491   -0.00046161
     atom   25 type  1   force =     0.00000000   -0.00007111    0.12903237
     atom   26 type  2   force =     0.00330588    0.00001694   -0.14892486
     atom   27 type  2   force =     0.00000000   -0.00004758    0.09452319
     atom   28 type  1   force =    -0.00047868    0.02435238   -0.01322664
     atom   29 type  1   force =    -0.00035205   -0.02450377   -0.01326228
     atom   30 type  1   force =     0.00000000    0.00005663    0.00518086
     atom   31 type  1   force =     0.00000000   -0.00004052   -0.03696784
     atom   32 type  2   force =     0.00488644    0.00055465    0.01108154
     atom   33 type  2   force =     0.00000000   -0.00093790    0.00228180
     atom   34 type  1   force =    -0.00231668   -0.01716068   -0.00015782
     atom   35 type  1   force =    -0.00263801    0.01725590   -0.00110221
     atom   36 type  1   force =     0.00000000   -0.00128335   -0.01220133
     atom   37 type  1   force =     0.00000000   -0.00012851    0.00036697
     atom   38 type  2   force =    -0.00011769   -0.00001619    0.00020772
     atom   39 type  2   force =     0.00000000   -0.00001634   -0.00054412
     atom   40 type  1   force =     0.00004230    0.00000786    0.00009156
     atom   41 type  1   force =    -0.00008303    0.00000176    0.00005267
     atom   42 type  1   force =     0.00000000   -0.00003160    0.00062287
     atom   43 type  1   force =     0.00000000    0.00011806   -0.00053922
     atom   44 type  2   force =    -0.00014848    0.00025971   -0.00022318
     atom   45 type  2   force =     0.00000000    0.00022920    0.00022087
     atom   46 type  1   force =    -0.00006728    0.00056176    0.00014001
     atom   47 type  1   force =    -0.00007033   -0.00044107    0.00052190
     atom   48 type  1   force =     0.00000000    0.00063873    0.00024057
     atom   49 type  1   force =     0.00000000    0.00015396   -0.00053102
     atom   50 type  1   force =     0.00000000    0.00091904   -0.00018555
     atom   51 type  3   force =     0.00000000    0.00006724   -0.00026277

     Total force =     0.002437     Total SCF correction =     0.000219

     bfgs converged in  25 scf cycles and  24 bfgs steps
     (criteria: energy < 0.10E-03, force < 0.10E-02)

     End of BFGS Geometry Optimization

     Final energy   =   -3327.5721643204 Ry
Begin final coordinates

ATOMIC_POSITIONS (crystal)
O0       0.000000000   0.500000000   0.319310000    0   0   0
Mo1      0.250000000   0.500000000   0.360290000    0   0   0
Mo1      0.000000000   0.000000000   0.360290000    0   0   0
O0       0.250000000   0.780000000   0.360290000    0   0   0
O0       0.250000000   0.220000000   0.360290000    0   0   0
O0       0.000000000   0.500000000   0.401270000    0   0   0
O0       0.000000000   0.000000000   0.412450000    0   0   0
Mo1      0.250000000   0.000000000   0.453430000    0   0   0
Mo1      0.000000000   0.500000000   0.453430000    0   0   0
O0       0.250000000   0.720000000   0.453430000    0   0   0
O0       0.250000000   0.280000000   0.453430000    0   0   0
O0       0.000000000   0.000000000   0.494410000    0   0   0
O0       0.000000000   0.498416020   0.504901468
Mo1      0.233554480   0.496879872   0.545642790
Mo1      0.000000000  -0.002839338   0.548182361
O0       0.246113705   0.780936927   0.546895766
O0       0.246445837   0.214512072   0.546863021
O0       0.000000000   0.495674236   0.587015665
O0       0.000000000  -0.000389296   0.601072562
Mo1      0.265188114   0.005334357   0.641780821
Mo1      0.000000000   0.503129255   0.635685426
O0       0.245493150   0.715128987   0.638381446
O0       0.251505137   0.287723111   0.640141182
O0       0.000000000   0.011033578   0.675620191
O0       0.500000000   0.500000000   0.319310000    0   0   0
Mo1      0.750000000   0.500000000   0.360290000    0   0   0
Mo1      0.500000000   0.000000000   0.360290000    0   0   0
O0       0.750000000   0.780000000   0.360290000    0   0   0
O0       0.750000000   0.220000000   0.360290000    0   0   0
O0       0.500000000   0.500000000   0.401270000    0   0   0
O0       0.500000000   0.000000000   0.412450000    0   0   0
Mo1      0.750000000   0.000000000   0.453430000    0   0   0
Mo1      0.500000000   0.500000000   0.453430000    0   0   0
O0       0.750000000   0.720000000   0.453430000    0   0   0
O0       0.750000000   0.280000000   0.453430000    0   0   0
O0       0.500000000   0.000000000   0.494410000    0   0   0
O0       0.500000000   0.498444919   0.507477594
Mo1      0.766445520   0.496879872   0.545642790
Mo1      0.500000000  -0.002733912   0.547105164
O0       0.753886295   0.780936927   0.546895766
O0       0.753554163   0.214512072   0.546863021
O0       0.500000000   0.499071910   0.584650060
O0       0.500000000  -0.000189912   0.599340457
Mo1      0.734811886   0.005334357   0.641780821
Mo1      0.500000000   0.505142555   0.638106118
O0       0.754506850   0.715128987   0.638381446
O0       0.748494863   0.287723111   0.640141182
O0       0.500000000  -0.040940299   0.678831830
O0       0.500000000   0.516913609   0.689920643
O0       0.500000000   0.340021370   0.710220127
H2       0.500000000   0.394044367   0.734460219
End final coordinates

     General routines

     Parallel routines

   This run was terminated on:  12:46:42   6Jun2014

   JOB DONE.