     Program PWSCF v.5.0.2 (svn rev. 9656) starts on 30Apr2014 at 21:13: 7

     Current dimensions of program PWSCF are:
     Max number of different atomic species (ntypx) = 10
     Max number of k-points (npk) =  40000
     Max angular momentum in pseudopotentials (lmaxx) =  3
     Reading input from pwscf.in
Warning: card &CELL ignored
Warning: card / ignored

     Subspace diagonalization in iterative solution of the eigenvalue problem:
     a serial algorithm will be used

     bravais-lattice index     =            0
     lattice parameter (alat)  =      11.1872  a.u.
     unit-cell volume          =    7531.8600 (a.u.)^3
     number of atoms/cell      =           31
     number of atomic types    =            3
     number of electrons       =       222.00
     number of Kohn-Sham states=          333
     kinetic-energy cutoff     =      40.0000  Ry
     charge density cutoff     =     500.0000  Ry
     convergence threshold     =      1.0E-06
     mixing beta               =       0.7000
     number of iterations used =            8  plain     mixing
     Exchange-correlation      = SLA  PW   PBE  PBE ( 1 4 3 4 0)
     EXX-fraction              =        0.00
     nstep                     =           50

     celldm(1)=  11.187179  celldm(2)=   0.000000  celldm(3)=   0.000000
     celldm(4)=   0.000000  celldm(5)=   0.000000  celldm(6)=   0.000000

     crystal axes: (cart. coord. in units of alat)
               a(1) = (   1.000000   0.000000   0.000000 )
               a(2) = (   0.000000   1.180104   0.000000 )
               a(3) = (   0.000000   0.000000   4.558482 )

     reciprocal axes: (cart. coord. in units 2 pi/alat)
               b(1) = (  1.000000  0.000000  0.000000 )
               b(2) = (  0.000000  0.847383  0.000000 )
               b(3) = (  0.000000  0.000000  0.219371 )

     PseudoPot. # 1 for O  read from file:
     /home/camp/zhonxu/pseudo/o_pbe_v1.01.uspp.F.UPF
     MD5 check sum: 2bcb18d16ea4b960afae9ec6d52f22d2
     Pseudo is Ultrasoft + core correction, Zval =  6.0
     Generated by new atomic code, or converted to UPF format
     Using radial grid of  737 points,  5 beta functions with:
                l(1) =   0
                l(2) =   0
                l(3) =   1
                l(4) =   1
                l(5) =   2
     Q(r) pseudized with  8 coefficients,  rinner =    0.900   0.900   0.900
                                                       0.900   0.900

     PseudoPot. # 2 for Nb read from file:
     /home/camp/zhonxu/pseudo/nb_pbe_v1.uspp.F.UPF
     MD5 check sum: 573aab8a2fa660278ed4a62cd769473f
     Pseudo is Ultrasoft + core correction, Zval = 13.0
     Generated by new atomic code, or converted to UPF format
     Using radial grid of  887 points,  6 beta functions with:
                l(1) =   0
                l(2) =   0
                l(3) =   1
                l(4) =   1
                l(5) =   2
                l(6) =   2
     Q(r) pseudized with  6 coefficients,  rinner =    1.000   1.000   1.000
                                                       1.000   1.000

     PseudoPot. # 3 for H  read from file:
     /home/camp/zhonxu/pseudo/h_pbe_v1.uspp.F.UPF
     MD5 check sum: 3408e3ff4ec8b0a4e358431e7e038a48
     Pseudo is Ultrasoft, Zval =  1.0
     Generated by new atomic code, or converted to UPF format
     Using radial grid of  615 points,  2 beta functions with:
                l(1) =   0
                l(2) =   0
     Q(r) pseudized with  8 coefficients,  rinner =    0.700

     atomic species   valence    mass     pseudopotential
        O0             6.00    15.99940     O ( 1.00)
        Nb1           13.00    92.90640     Nb( 1.00)
        H2             1.00     1.00794     H ( 1.00)

     Simplified LDA+U calculation (l_max = 2) with parameters (eV):
     atomic species    L          U    alpha       J0     beta
        Nb1            2     2.5000   0.0000   0.0000   0.0000

     No symmetry found

   Cartesian axes

     site n.     atom                  positions (alat units)
         1           O0  tau(   1) = (   0.0000000   0.0000000   1.6934306  )
         2           O0  tau(   2) = (   0.0000000   0.5900519   1.7719732  )
         3           Nb1 tau(   3) = (   0.2500000   0.5900519   2.0266100  )
         4           Nb1 tau(   4) = (   0.0000000   0.0000000   2.0234647  )
         5           O0  tau(   5) = (   0.2500000   0.9322821   2.0339492  )
         6           O0  tau(   6) = (   0.2500000   0.2478218   2.0339492  )
         7           O0  tau(   7) = (   0.0000000   0.5900519   2.2822497  )
         8           O0  tau(   8) = (   0.0000000   0.0000000   2.3837671  )
         9           Nb1 tau(   9) = (   0.2500000   0.0000000   2.6303810  )
        10           Nb1 tau(  10) = (   0.0000000   0.5900519   2.5986084  )
        11           O0  tau(  11) = (   0.2500000   0.8378738   2.6271901  )
        12           O0  tau(  12) = (   0.2500000   0.3422301   2.6272357  )
        13           O0  tau(  13) = (   0.0000000   0.0000000   2.8322306  )
        14           O0  tau(  14) = (   0.5000000   0.0000000   1.6959377  )
        15           O0  tau(  15) = (   0.5000000   0.5900519   1.7815005  )
        16           Nb1 tau(  16) = (   0.7500000   0.5900519   2.0269291  )
        17           Nb1 tau(  17) = (   0.5000000   0.0000000   2.0281143  )
        18           O0  tau(  18) = (   0.7500000   0.9322821   2.0339492  )
        19           O0  tau(  19) = (   0.7500000   0.2478218   2.0339492  )
        20           O0  tau(  20) = (   0.5000000   0.5900519   2.2572692  )
        21           O0  tau(  21) = (   0.5000000   0.0000000   2.3822628  )
        22           Nb1 tau(  22) = (   0.7500000   0.0000000   2.6309736  )
        23           Nb1 tau(  23) = (   0.5000000   0.5900519   2.6831227  )
        24           O0  tau(  24) = (   0.7500000   0.8378738   2.6265975  )
        25           O0  tau(  25) = (   0.7500000   0.3422301   2.6265975  )
        26           O0  tau(  26) = (   0.5000000   0.0000000   2.8320027  )
        27           H2  tau(  27) = (  -0.0004900   0.5918693   1.6065459  )
        28           H2  tau(  28) = (   0.4994900   0.5917631   1.6163466  )
        29           H2  tau(  29) = (   0.1504600   0.0004366   1.6207228  )
        30           H2  tau(  30) = (   0.6496400   0.0004366   1.6219536  )
        31           O0  tau(  31) = (   0.5000300   0.5900519   2.9731333  )

     number of k points=    10  Methfessel-Paxton smearing, width (Ry)=  0.0100
                       cart. coord. in units 2pi/alat
        k(    1) = (   0.0000000   0.0000000   0.0000000), wk =   0.1250000
        k(    2) = (   0.0000000   0.2118458   0.0000000), wk =   0.2500000
        k(    3) = (   0.0000000  -0.4236915   0.0000000), wk =   0.1250000
        k(    4) = (   0.2500000   0.0000000   0.0000000), wk =   0.2500000
        k(    5) = (   0.2500000   0.2118458   0.0000000), wk =   0.2500000
        k(    6) = (   0.2500000  -0.4236915   0.0000000), wk =   0.2500000
        k(    7) = (  -0.5000000   0.0000000   0.0000000), wk =   0.1250000
        k(    8) = (  -0.5000000   0.2118458   0.0000000), wk =   0.2500000
        k(    9) = (  -0.5000000  -0.4236915   0.0000000), wk =   0.1250000
        k(   10) = (  -0.2500000   0.2118458   0.0000000), wk =   0.2500000

     Largest allocated arrays     est. size (Mb)     dimensions
     Largest temporary arrays     est. size (Mb)     dimensions

     Check: negative/imaginary core charge=   -0.000003    0.000000

     Initial potential from superposition of free atoms
     Check: negative starting charge=   -0.003810

     starting charge  221.97807, renormalised to  222.00000

     negative rho (up, down):  0.381E-02 0.000E+00
     Number of +U iterations with fixed ns =  0
     Starting occupations:
 --- enter write_ns ---
 LDA+U parameters:
U( 2)     =  2.50000000
alpha( 2) =  0.00000000
atom    3   Tr[ns(na)] =   3.00000
    eigenvalues:
  0.300  0.300  0.300  0.300  0.300
    eigenvectors:
  1.000  0.000  0.000  0.000  0.000
  0.000  1.000  0.000  0.000  0.000
  0.000  0.000  1.000  0.000  0.000
  0.000  0.000  0.000  1.000  0.000
  0.000  0.000  0.000  0.000  1.000
    occupations:
  0.300  0.000  0.000  0.000  0.000
  0.000  0.300  0.000  0.000  0.000
  0.000  0.000  0.300  0.000  0.000
  0.000  0.000  0.000  0.300  0.000
  0.000  0.000  0.000  0.000  0.300
atom    4   Tr[ns(na)] =   3.00000
    eigenvalues:
  0.300  0.300  0.300  0.300  0.300
    eigenvectors:
  1.000  0.000  0.000  0.000  0.000
  0.000  1.000  0.000  0.000  0.000
  0.000  0.000  1.000  0.000  0.000
  0.000  0.000  0.000  1.000  0.000
  0.000  0.000  0.000  0.000  1.000
    occupations:
  0.300  0.000  0.000  0.000  0.000
  0.000  0.300  0.000  0.000  0.000
  0.000  0.000  0.300  0.000  0.000
  0.000  0.000  0.000  0.300  0.000
  0.000  0.000  0.000  0.000  0.300
atom    9   Tr[ns(na)] =   3.00000
    eigenvalues:
  0.300  0.300  0.300  0.300  0.300
    eigenvectors:
  1.000  0.000  0.000  0.000  0.000
  0.000  1.000  0.000  0.000  0.000
  0.000  0.000  1.000  0.000  0.000
  0.000  0.000  0.000  1.000  0.000
  0.000  0.000  0.000  0.000  1.000
    occupations:
  0.300  0.000  0.000  0.000  0.000
  0.000  0.300  0.000  0.000  0.000
  0.000  0.000  0.300  0.000  0.000
  0.000  0.000  0.000  0.300  0.000
  0.000  0.000  0.000  0.000  0.300
atom   10   Tr[ns(na)] =   3.00000
    eigenvalues:
  0.300  0.300  0.300  0.300  0.300
    eigenvectors:
  1.000  0.000  0.000  0.000  0.000
  0.000  1.000  0.000  0.000  0.000
  0.000  0.000  1.000  0.000  0.000
  0.000  0.000  0.000  1.000  0.000
  0.000  0.000  0.000  0.000  1.000
    occupations:
  0.300  0.000  0.000  0.000  0.000
  0.000  0.300  0.000  0.000  0.000
  0.000  0.000  0.300  0.000  0.000
  0.000  0.000  0.000  0.300  0.000
  0.000  0.000  0.000  0.000  0.300
atom   16   Tr[ns(na)] =   3.00000
    eigenvalues:
  0.300  0.300  0.300  0.300  0.300
    eigenvectors:
  1.000  0.000  0.000  0.000  0.000
  0.000  1.000  0.000  0.000  0.000
  0.000  0.000  1.000  0.000  0.000
  0.000  0.000  0.000  1.000  0.000
  0.000  0.000  0.000  0.000  1.000
    occupations:
  0.300  0.000  0.000  0.000  0.000
  0.000  0.300  0.000  0.000  0.000
  0.000  0.000  0.300  0.000  0.000
  0.000  0.000  0.000  0.300  0.000
  0.000  0.000  0.000  0.000  0.300
atom   17   Tr[ns(na)] =   3.00000
    eigenvalues:
  0.300  0.300  0.300  0.300  0.300
    eigenvectors:
  1.000  0.000  0.000  0.000  0.000
  0.000  1.000  0.000  0.000  0.000
  0.000  0.000  1.000  0.000  0.000
  0.000  0.000  0.000  1.000  0.000
  0.000  0.000  0.000  0.000  1.000
    occupations:
  0.300  0.000  0.000  0.000  0.000
  0.000  0.300  0.000  0.000  0.000
  0.000  0.000  0.300  0.000  0.000
  0.000  0.000  0.000  0.300  0.000
  0.000  0.000  0.000  0.000  0.300
atom   22   Tr[ns(na)] =   3.00000
    eigenvalues:
  0.300  0.300  0.300  0.300  0.300
    eigenvectors:
  1.000  0.000  0.000  0.000  0.000
  0.000  1.000  0.000  0.000  0.000
  0.000  0.000  1.000  0.000  0.000
  0.000  0.000  0.000  1.000  0.000
  0.000  0.000  0.000  0.000  1.000
    occupations:
  0.300  0.000  0.000  0.000  0.000
  0.000  0.300  0.000  0.000  0.000
[...]
    eigenvalues:
  0.406  0.444  0.553  0.584  0.633
    eigenvectors:
  0.000  0.005  0.000  0.992  0.003
  0.000  0.994  0.000  0.005  0.001
  1.000  0.000  0.000  0.000  0.000
  0.000  0.001  0.000  0.003  0.996
  0.000  0.000  1.000  0.000  0.000
    occupations:
  0.583  0.010  0.000  0.003 -0.000
  0.010  0.445 -0.000 -0.005  0.000
  0.000 -0.000  0.406  0.000  0.001
  0.003 -0.005  0.000  0.633  0.000
 -0.000  0.000  0.001  0.000  0.553
atom    9   Tr[ns(na)] =   5.26376
    eigenvalues:
  0.457  0.461  0.489  0.611  0.614
    eigenvectors:
  0.000  0.873  0.000  0.118  0.009
  0.000  0.000  0.000  0.064  0.936
  0.657  0.000  0.343  0.000  0.000
  0.000  0.127  0.000  0.817  0.056
  0.343  0.000  0.657  0.000  0.000
    occupations:
  0.480 -0.001 -0.000  0.050 -0.000
 -0.001  0.614 -0.000 -0.001  0.000
 -0.000 -0.000  0.468  0.000  0.015
  0.050 -0.001  0.000  0.592  0.000
 -0.000  0.000  0.015  0.000  0.478
atom   10   Tr[ns(na)] =   5.07040
    eigenvalues:
  0.365  0.469  0.513  0.551  0.638
    eigenvectors:
  0.000  0.000  0.977  0.000  0.022
  0.000  0.998  0.000  0.000  0.001
  1.000  0.000  0.000  0.000  0.000
  0.000  0.002  0.022  0.000  0.976
  0.000  0.000  0.000  1.000  0.000
    occupations:
  0.516  0.000  0.000  0.018  0.000
  0.000  0.469  0.000  0.006 -0.000
  0.000  0.000  0.365 -0.000 -0.001
  0.018  0.006 -0.000  0.635 -0.000
  0.000 -0.000 -0.001 -0.000  0.551
atom   16   Tr[ns(na)] =   5.23126
    eigenvalues:
  0.384  0.433  0.535  0.583  0.680
    eigenvectors:
  0.000  0.000  0.050  0.399  0.551
  0.000  0.000  0.917  0.081  0.002
  0.135  0.865  0.000  0.000  0.000
  0.000  0.000  0.034  0.520  0.447
  0.865  0.135  0.000  0.000  0.000
    occupations:
  0.634  0.014  0.000 -0.050  0.000
  0.014  0.539  0.000  0.006  0.000
  0.000  0.000  0.427 -0.000  0.017
 -0.050  0.006 -0.000  0.625 -0.000
  0.000  0.000  0.017 -0.000  0.391
atom   17   Tr[ns(na)] =   5.23358
    eigenvalues:
  0.410  0.447  0.551  0.585  0.624
    eigenvectors:
  0.000  0.005  0.000  0.993  0.003
  0.000  0.994  0.000  0.005  0.001
  1.000  0.000  0.000  0.000  0.000
  0.000  0.001  0.000  0.002  0.997
  0.000  0.000  1.000  0.000  0.000
    occupations:
  0.585  0.010  0.000  0.002  0.000
  0.010  0.447 -0.000 -0.005 -0.000
  0.000 -0.000  0.410  0.000  0.001
  0.002 -0.005  0.000  0.624  0.000
  0.000 -0.000  0.001  0.000  0.551
atom   22   Tr[ns(na)] =   5.26653
    eigenvalues:
  0.458  0.462  0.488  0.611  0.614
    eigenvectors:
  0.000  0.877  0.000  0.116  0.007
  0.000  0.000  0.000  0.056  0.944
  0.654  0.000  0.346  0.000  0.000
  0.000  0.123  0.000  0.828  0.049
  0.346  0.000  0.654  0.000  0.000
    occupations:
  0.480  0.001 -0.000  0.049 -0.000
  0.001  0.614 -0.000  0.001  0.000
 -0.000 -0.000  0.468  0.000 -0.014
  0.049  0.001  0.000  0.593  0.000
 -0.000  0.000 -0.014  0.000  0.478
atom   23   Tr[ns(na)] =   5.35177
    eigenvalues:
  0.491  0.515  0.521  0.542  0.606
    eigenvectors:
  0.000  0.000  0.000  0.003  0.997
  0.000  0.000  0.997  0.003  0.000
  1.000  0.000  0.000  0.000  0.000
  0.000  0.000  0.003  0.994  0.003
  0.000  1.000  0.000  0.000  0.000
    occupations:
  0.606 -0.000 -0.000 -0.004 -0.000
 -0.000  0.521  0.000 -0.001 -0.000
 -0.000  0.000  0.491  0.000  0.000
 -0.004 -0.001  0.000  0.542 -0.000
 -0.000 -0.000  0.000 -0.000  0.515
N of occupied +U levels =  41.8869752
 --- exit write_ns ---

     Threshold (ethr) on eigenvalues was too large:
     Diagonalizing with lowered threshold

     Davidson diagonalization with overlap
     ethr =  2.49E-09,  avg # of iterations =  3.0

[...]

     total energy              =   -1560.75992253 Ry
     Harris-Foulkes estimate   =   -1560.75992253 Ry
     estimated scf accuracy    <       0.00000001 Ry

     iteration # 10     ecut=    40.00 Ry     beta=0.70
     Davidson diagonalization with overlap
     ethr =  4.81E-12,  avg # of iterations =  1.0

     negative rho (up, down):  0.347E-02 0.000E+00

     End of self-consistent calculation
 --- enter write_ns ---
 LDA+U parameters:
U( 2)     =  2.50000000
alpha( 2) =  0.00000000
atom    3   Tr[ns(na)] =   5.23061
    eigenvalues:
  0.381  0.435  0.535  0.583  0.681
    eigenvectors:
  0.000  0.000  0.049  0.399  0.552
  0.000  0.000  0.918  0.080  0.002
  0.179  0.821  0.000  0.000  0.000
  0.000  0.000  0.033  0.521  0.446
  0.821  0.179  0.000  0.000  0.000
    occupations:
  0.635 -0.014  0.000 -0.050 -0.000
 -0.014  0.539 -0.000 -0.005  0.000
  0.000 -0.000  0.425 -0.000 -0.020
 -0.050 -0.005 -0.000  0.625  0.000
 -0.000  0.000 -0.020  0.000  0.391
atom    4   Tr[ns(na)] =   5.23895
    eigenvalues:
  0.406  0.444  0.553  0.584  0.633
    eigenvectors:
  0.000  0.005  0.000  0.992  0.003
  0.000  0.994  0.000  0.005  0.001
  1.000  0.000  0.000  0.000  0.000
  0.000  0.001  0.000  0.003  0.996
  0.000  0.000  1.000  0.000  0.000
    occupations:
  0.583  0.010  0.000  0.003 -0.000
  0.010  0.444 -0.000 -0.005  0.000
  0.000 -0.000  0.406  0.000  0.001
  0.003 -0.005  0.000  0.633  0.000
 -0.000  0.000  0.001  0.000  0.553
atom    9   Tr[ns(na)] =   5.26436
    eigenvalues:
  0.457  0.461  0.489  0.611  0.615
    eigenvectors:
  0.000  0.873  0.000  0.118  0.009
  0.000  0.000  0.000  0.065  0.935
  0.656  0.000  0.344  0.000  0.000
  0.000  0.127  0.000  0.817  0.056
  0.344  0.000  0.656  0.000  0.000
    occupations:
  0.480 -0.001 -0.000  0.050 -0.000
 -0.001  0.614 -0.000 -0.001  0.000
 -0.000 -0.000  0.468  0.000  0.015
  0.050 -0.001  0.000  0.592  0.000
 -0.000  0.000  0.015  0.000  0.478
atom   10   Tr[ns(na)] =   5.07110
    eigenvalues:
  0.365  0.469  0.513  0.551  0.638
    eigenvectors:
  0.000  0.000  0.978  0.000  0.022
  0.000  0.998  0.000  0.000  0.001
  1.000  0.000  0.000  0.000  0.000
  0.000  0.002  0.022  0.000  0.976
  0.000  0.000  0.000  1.000  0.000
    occupations:
  0.516  0.000  0.000  0.018  0.000
  0.000  0.469  0.000  0.007 -0.000
  0.000  0.000  0.365 -0.000 -0.001
  0.018  0.007 -0.000  0.635 -0.000
  0.000 -0.000 -0.001 -0.000  0.551
atom   16   Tr[ns(na)] =   5.23136
    eigenvalues:
  0.384  0.433  0.535  0.583  0.680
    eigenvectors:
  0.000  0.000  0.050  0.399  0.551
  0.000  0.000  0.917  0.081  0.002
  0.135  0.865  0.000  0.000  0.000
  0.000  0.000  0.034  0.520  0.447
  0.865  0.135  0.000  0.000  0.000
    occupations:
  0.634  0.014  0.000 -0.050  0.000
  0.014  0.539  0.000  0.006  0.000
  0.000  0.000  0.427 -0.000  0.017
 -0.050  0.006 -0.000  0.625 -0.000
  0.000  0.000  0.017 -0.000  0.391
atom   17   Tr[ns(na)] =   5.23349
    eigenvalues:
  0.410  0.447  0.551  0.585  0.624
    eigenvectors:
  0.000  0.005  0.000  0.993  0.003
  0.000  0.994  0.000  0.005  0.001
  1.000  0.000  0.000  0.000  0.000
  0.000  0.001  0.000  0.002  0.997
  0.000  0.000  1.000  0.000  0.000
    occupations:
  0.585  0.010  0.000  0.002  0.000
  0.010  0.447 -0.000 -0.005 -0.000
  0.000 -0.000  0.410  0.000  0.001
  0.002 -0.005  0.000  0.624  0.000
  0.000 -0.000  0.001  0.000  0.551
atom   22   Tr[ns(na)] =   5.26651
    eigenvalues:
  0.458  0.462  0.488  0.611  0.614
    eigenvectors:
  0.000  0.877  0.000  0.116  0.007
  0.000  0.000  0.000  0.057  0.943
  0.653  0.000  0.347  0.000  0.000
  0.000  0.123  0.000  0.827  0.050
  0.347  0.000  0.653  0.000  0.000
    occupations:
  0.480  0.001 -0.000  0.049 -0.000
  0.001  0.614 -0.000  0.001  0.000
 -0.000 -0.000  0.468  0.000 -0.014
  0.049  0.001  0.000  0.593  0.000
 -0.000  0.000 -0.014  0.000  0.477
atom   23   Tr[ns(na)] =   5.35074
    eigenvalues:
  0.491  0.515  0.521  0.542  0.606
    eigenvectors:
  0.000  0.000  0.000  0.003  0.997
  0.000  0.000  0.997  0.003  0.000
  1.000  0.000  0.000  0.000  0.000
  0.000  0.000  0.003  0.993  0.003
  0.000  1.000  0.000  0.000  0.000
    occupations:
  0.606 -0.000 -0.000 -0.004 -0.000
 -0.000  0.521  0.000 -0.001 -0.000
 -0.000  0.000  0.491  0.000  0.000
 -0.004 -0.001  0.000  0.542 -0.000
 -0.000 -0.000  0.000 -0.000  0.515
N of occupied +U levels =  41.8871280
 --- exit write_ns ---

[...]

          k = 0.2500-0.4237 0.0000 ( 32188 PWs)   bands (ev):

[...]

          k =-0.2500 0.2118 0.0000 ( 32165 PWs)   bands (ev):

   -56.8426 -56.7764 -56.3893 -56.3761 -56.3326 -56.2853 -56.2277 -55.5432
   -33.6168 -33.0527 -32.9507 -32.9313 -32.8844 -32.8728 -32.8382 -32.8212
   -32.7226 -32.6989 -32.6939 -32.6412 -32.6024 -32.5160 -32.3960 -32.3217
   -32.2679 -32.2608 -32.2097 -32.1732 -32.1397 -32.0515 -31.6706 -31.5938
   -20.9943 -20.5039 -19.8553 -19.5924 -19.4303 -19.3300 -19.3198 -19.2802
   -19.2218 -19.1646 -19.1045 -18.6142 -18.5170 -18.4723 -18.4033 -18.3850
   -18.2416 -18.1191 -16.8156  -9.4583  -8.8398  -8.0728  -7.5611  -7.3544
    -7.1738  -7.0334  -7.0026  -6.8181  -6.7186  -6.6792  -6.6249  -6.3962
    -6.3668  -6.3574  -6.2438  -6.0907  -6.0573  -5.9416  -5.8271  -5.6276
    -5.5217  -5.3950  -5.2785  -5.0984  -4.9643  -4.9134  -4.8084  -4.7307
    -4.6658  -4.6267  -4.5048  -4.4885  -4.4430  -4.3964  -4.3585  -4.3045
    -4.1313  -4.0926  -4.0154  -3.9368  -3.8736  -3.7676  -3.6871  -3.6395
    -3.5298  -3.4426  -3.3866  -3.2933  -3.2708  -3.1866  -3.0648  -2.9920
    -2.9531  -2.7848  -2.7018  -2.4567  -0.3980  -0.1340   0.1692   0.5476
     0.5886   0.9079   1.2068   1.2671   1.3453   1.6170   1.6515   1.7231
     1.8289   1.9726   2.0193   2.1049   2.1708   2.2652   2.3023   2.3466
     2.5711   2.6343   2.8059   2.8959   3.2740   3.6179   4.0845   4.1533
     4.3913   4.5641   4.6259   4.6451   4.9051   4.9665   5.0301   5.0861
     5.2092   5.2710   5.4204   5.6028   5.6401   5.7382   5.9748   6.0639
     6.1992   6.2231   6.5168   6.5524   6.5782   6.6120   6.7905   6.8842
     6.9008   7.0761   7.1967   7.2925   7.4359   7.4924   7.8002   7.9207
     8.0096   8.0349   8.1276   8.1785   8.2497   8.5180   8.6259   8.6985
     8.8125   8.8930   9.0089   9.0801   9.1650   9.2611   9.2763   9.4779
     9.5407   9.5987   9.7422   9.8589   9.9000  10.0079  10.0711  10.1506
    10.2592  10.3750  10.5685  10.7203  10.7590  10.9025  10.9677  10.9987
    11.1180  11.1451  11.2138  11.2781  11.3984  11.4415  11.5054  11.5445
    11.6473  11.7579  11.8972  11.9038  12.0023  12.1100  12.1355  12.2005
    12.2614  12.3443  12.3881  12.4715  12.6000  12.6659  12.6895  12.7343
    12.7648  12.8610  12.9588  12.9849  13.0407  13.0943  13.2273  13.2795
    13.3538  13.3893  13.5166  13.6261  13.7023  13.7487  13.7889  13.8524
    13.9221  13.9466  14.0025  14.1283  14.1515  14.2889  14.3768  14.3981
    14.4745  14.5854  14.6614  14.7732  14.9083  14.9217  15.0313  15.1024
    15.1985  15.2529  15.2910  15.3231  15.3862  15.4464  15.5239  15.5716
    15.6420  15.6944  15.7945  15.8601  15.9088  15.9960  16.0356  16.0829
    16.2002  16.2667  16.3633  16.3941  16.4627  16.4924  16.5704  16.6729
    16.7211  16.7725  16.8568  16.9398  17.0208  17.1072  17.1414  17.2135
    17.2833  17.3452  17.3659  17.4227  17.4702  17.5786  17.6189  17.7076
    17.7524  17.8561  17.9541  17.9726  18.0797  18.1411  18.1955  18.3796
    18.3843  18.4302  18.4695  18.5384  18.6143  18.6569  18.6964  18.7795
    18.8571  18.9185  18.9730  19.0772  19.1374  19.1703  19.2268  19.3299
    19.3587  19.3967  19.4886  19.5193  19.5876  19.6432  19.6582  19.6872
    19.7584  19.8811  19.9071  19.9986  20.0672

     the Fermi energy is     0.4705 ev

!    total energy              =   -1560.75992253 Ry
     Harris-Foulkes estimate   =   -1560.75992253 Ry
     estimated scf accuracy    <          4.0E-09 Ry

     The total energy is the sum of the following terms:

     one-electron contribution =  -18854.54183458 Ry
     hartree contribution      =    9452.81541095 Ry
     xc contribution           =    -286.84522788 Ry
     ewald contribution        =    8126.03020704 Ry
     Hubbard energy            =       1.78125489 Ry
     smearing contrib. (-TS)   =       0.00026704 Ry

     convergence has been achieved in  10 iterations

     Forces acting on atoms (Ry/au):

     negative rho (up, down):  0.347E-02 0.000E+00
     atom    1 type  1   force =     0.00126878   -0.00004485   -0.00033701
     atom    2 type  1   force =    -0.00035523    0.00026014    0.00038124
     atom    3 type  2   force =    -0.04904810   -0.00020474    0.00018310
     atom    4 type  2   force =    -0.00454769    0.00003744    0.00043689
     atom    5 type  1   force =    -0.00462671   -0.00753301    0.00005431
     atom    6 type  1   force =    -0.00464656    0.00752620    0.00005350
     atom    7 type  1   force =    -0.00032819    0.00002900   -0.00017531
     atom    8 type  1   force =     0.00236475    0.00000626    0.00080830
     atom    9 type  2   force =    -0.00129768    0.00000090   -0.00039264
     atom   10 type  2   force =    -0.00091027   -0.00000463   -0.00070459
     atom   11 type  1   force =    -0.01829413   -0.01405979    0.00034574
     atom   12 type  1   force =    -0.01829473    0.01406489    0.00034444
     atom   13 type  1   force =     0.00094262   -0.00000252   -0.00020002
     atom   14 type  1   force =     0.00058293   -0.00005226    0.00013316
     atom   15 type  1   force =    -0.00036131    0.00011822    0.00018156
     atom   16 type  2   force =     0.04971900   -0.00019837    0.00018002
     atom   17 type  2   force =    -0.00421800    0.00004938   -0.00053250
     atom   18 type  1   force =     0.00584911   -0.00728729    0.00005455
     atom   19 type  1   force =     0.00573716    0.00727891    0.00005447
     atom   20 type  1   force =     0.00012999    0.00008826   -0.00010629
     atom   21 type  1   force =     0.00141037    0.00000364    0.00067233
     atom   22 type  2   force =     0.00103227    0.00000582    0.00048553
     atom   23 type  2   force =     0.00209141   -0.00000146   -0.00046146
     atom   24 type  1   force =     0.01800581   -0.01385450   -0.00058596
     atom   25 type  1   force =     0.01800193    0.01384893   -0.00058450
     atom   26 type  1   force =    -0.00059929   -0.00000001   -0.00013798
     atom   27 type  3   force =     0.00000890   -0.00006064    0.00009063
     atom   28 type  3   force =    -0.00000580   -0.00001914   -0.00019104
     atom   29 type  3   force =     0.00039148    0.00000421   -0.00001364
     atom   30 type  3   force =     0.00002832    0.00000281    0.00009512
     atom   31 type  1   force =    -0.00003113   -0.00000181   -0.00013194

     Total force =     0.002079     Total SCF correction =     0.000226
     SCF correction compared to forces is large: reduce conv_thr to get better values

     bfgs converged in   8 scf cycles and   7 bfgs steps
     (criteria: energy < 0.10E-03, force < 0.10E-02)

     End of BFGS Geometry Optimization

     Final energy   =   -1560.7599225306 Ry
Begin final coordinates

ATOMIC_POSITIONS (crystal)
O0       0.000000000   0.000000000   0.371726839    0   0   1
O0       0.000000000   0.500000000   0.388315655    0   0   1
Nb1      0.250000000   0.500000000   0.444665479    0   0   1
Nb1      0.000000000   0.000000000   0.444126581    0   0   1
O0       0.250000000   0.790000000   0.446142900    0   0   1
O0       0.250000000   0.210000000   0.446142206    0   0   1
O0       0.000000000   0.500000000   0.501174944    0   0   1
O0       0.000000000   0.000000000   0.522905729    0   0   1
Nb1      0.250000000   0.000000000   0.576876181    0   0   1
Nb1      0.000000000   0.500000000   0.570501424    0   0   1
O0       0.250000000   0.710000000   0.576618738    0   0   1
O0       0.250000000   0.290000000   0.576620353    0   0   1
O0       0.000000000   0.000000000   0.621150588    0   0   1
O0       0.500000000   0.000000000   0.372109646    0   0   1
O0       0.500000000   0.500000000   0.390867663    0   0   1
Nb1      0.750000000   0.500000000   0.444702242    0   0   1
Nb1      0.500000000   0.000000000   0.444882875    0   0   1
O0       0.750000000   0.790000000   0.446139496    0   0   1
O0       0.750000000   0.210000000   0.446139062    0   0   1
O0       0.500000000   0.500000000   0.495088078    0   0   1
O0       0.500000000   0.000000000   0.522660265    0   0   1
Nb1      0.750000000   0.000000000   0.577175921    0   0   1
Nb1      0.500000000   0.500000000   0.588037933    0   0   1
O0       0.750000000   0.710000000   0.576299784    0   0   1
O0       0.750000000   0.290000000   0.576299816    0   0   1
O0       0.500000000   0.000000000   0.621091711    0   0   1
H2      -0.000474647   0.501470284   0.352046084
H2       0.499488498   0.501418211   0.354667566
H2       0.149996504   0.000376396   0.355646249
H2       0.649499356   0.000377139   0.355846110
O0       0.499986252   0.500003678   0.651621883
End final coordinates

     General routines

     Parallel routines
     Hubbard U routines

   This run was terminated on:   3:20:47   1May2014

   JOB DONE.