     Program PWSCF v.5.0.2 (svn rev. 9656) starts on 26May2014 at  4:33: 7

     Current dimensions of program PWSCF are:
     Max number of different atomic species (ntypx) = 10
     Max number of k-points (npk) =  40000
     Max angular momentum in pseudopotentials (lmaxx) =  3
     Reading input from pwscf.in
Warning: card &CELL ignored
Warning: card / ignored

     Subspace diagonalization in iterative solution of the eigenvalue problem:
     a serial algorithm will be used

     bravais-lattice index     =            0
     lattice parameter (alat)  =      10.7336  a.u.
     unit-cell volume          =    6184.1966 (a.u.)^3
     number of atoms/cell      =           31
     number of atomic types    =            3
     number of electrons       =       238.00 (up: 130.00, down: 108.00)
     number of Kohn-Sham states=          345
     kinetic-energy cutoff     =      40.0000  Ry
     charge density cutoff     =     500.0000  Ry
     convergence threshold     =      1.0E-06
     mixing beta               =       0.2000
     number of iterations used =            8  plain     mixing
     Exchange-correlation      = SLA  PW   PBE  PBE ( 1 4 3 4 0)
     EXX-fraction              =        0.00
     nstep                     =           50

     celldm(1)=  10.733644  celldm(2)=   0.000000  celldm(3)=   0.000000
     celldm(4)=   0.000000  celldm(5)=   0.000000  celldm(6)=   0.000000

     crystal axes: (cart. coord. in units of alat)
               a(1) = (   1.000000   0.000000   0.000000 )
               a(2) = (   0.000000   1.085558   0.000000 )
               a(3) = (   0.000000   0.000000   4.606685 )

     reciprocal axes: (cart. coord. in units 2 pi/alat)
               b(1) = (  1.000000  0.000000  0.000000 )
               b(2) = (  0.000000  0.921185  0.000000 )
               b(3) = (  0.000000  0.000000  0.217076 )

     PseudoPot. # 1 for O  read from file:
     /home/camp/zhonxu/pseudo/o_pbe_v1.01.uspp.F.UPF
     MD5 check sum: 2bcb18d16ea4b960afae9ec6d52f22d2
     Pseudo is Ultrasoft + core correction, Zval =  6.0
     Generated by new atomic code, or converted to UPF format
     Using radial grid of  737 points,  5 beta functions with:
                l(1) =   0
                l(2) =   0
                l(3) =   1
                l(4) =   1
                l(5) =   2
     Q(r) pseudized with  8 coefficients,  rinner =    0.900   0.900   0.900
                                                       0.900   0.900

     PseudoPot. # 2 for Mn read from file:
     /home/camp/zhonxu/pseudo/mn_pbe_v1.uspp.F.UPF
     MD5 check sum: 5fd7c7b5c956fd19902447332617373a
     Pseudo is Ultrasoft + core correction, Zval = 15.0
     Generated by new atomic code, or converted to UPF format
     Using radial grid of  859 points,  6 beta functions with:
                l(1) =   0
                l(2) =   0
                l(3) =   1
                l(4) =   1
                l(5) =   2
                l(6) =   2
     Q(r) pseudized with  6 coefficients,  rinner =    1.150   1.150   1.150
                                                       1.150   1.150

     PseudoPot. # 3 for H  read from file:
     /home/camp/zhonxu/pseudo/h_pbe_v1.uspp.F.UPF
     MD5 check sum: 3408e3ff4ec8b0a4e358431e7e038a48
     Pseudo is Ultrasoft, Zval =  1.0
     Generated by new atomic code, or converted to UPF format
     Using radial grid of  615 points,  2 beta functions with:
                l(1) =   0
                l(2) =   0
     Q(r) pseudized with  8 coefficients,  rinner =    0.700

     atomic species   valence    mass     pseudopotential
        O0             6.00    15.99940     O ( 1.00)
        Mn1           15.00    54.93800     Mn( 1.00)
        H2             1.00     1.00794     H ( 1.00)

     Starting magnetic structure
     atomic species   magnetization
        O0           0.000
        Mn1          0.600
        H2           0.000

     Simplified LDA+U calculation (l_max = 2) with parameters (eV):
     atomic species    L          U    alpha       J0     beta
        Mn1            2     5.5000   0.0000   0.0000   0.0000

     No symmetry found

   Cartesian axes

     site n.     atom                  positions (alat units)
         1           O0  tau(   1) = (   0.0000000   0.0000000   1.7236373  )
         2           O0  tau(   2) = (   0.0000000   0.5427791   1.8210226  )
         3           Mn1 tau(   3) = (   0.2500000   0.5427791   2.0632882  )
         4           Mn1 tau(   4) = (   0.0000000   0.0000000   2.0607084  )
         5           O0  tau(   5) = (   0.2500000   0.8684466   2.0553647  )
         6           O0  tau(   6) = (   0.2500000   0.2171117   2.0707510  )
         7           O0  tau(   7) = (   0.0000000   0.5427791   2.2805855  )
         8           O0  tau(   8) = (   0.0000000   0.0000000   2.4205366  )
         9           Mn1 tau(   9) = (   0.2500000   0.0000000   2.6471855  )
        10           Mn1 tau(  10) = (   0.0000000   0.5427791   2.6400451  )
        11           O0  tau(  11) = (   0.2500000   0.7598908   2.6817817  )
        12           O0  tau(  12) = (   0.2500000   0.3256675   2.6834401  )
        13           O0  tau(  13) = (   0.0000000   0.0000000   2.8684446  )
        14           O0  tau(  14) = (   0.5000000   0.0000000   1.7229463  )
        15           O0  tau(  15) = (   0.5000000   0.5427791   1.8201473  )
        16           Mn1 tau(  16) = (   0.7500000   0.5427791   2.0632421  )
        17           Mn1 tau(  17) = (   0.5000000   0.0000000   2.0594186  )
        18           O0  tau(  18) = (   0.7500000   0.8684466   2.0553647  )
        19           O0  tau(  19) = (   0.7500000   0.2171117   2.0708431  )
        20           O0  tau(  20) = (   0.5000000   0.5427791   2.2912730  )
        21           O0  tau(  21) = (   0.5000000   0.0000000   2.4209512  )
        22           Mn1 tau(  22) = (   0.7500000   0.0000000   2.6471855  )
        23           Mn1 tau(  23) = (   0.5000000   0.5427791   2.6411968  )
        24           O0  tau(  24) = (   0.7500000   0.7598908   2.6818738  )
        25           O0  tau(  25) = (   0.7500000   0.3256675   2.6833480  )
        26           O0  tau(  26) = (   0.5000000   0.0000000   2.8713468  )
        27           H2  tau(  27) = (   0.0005300   0.7037457   1.7496651  )
        28           H2  tau(  28) = (   0.5005200   0.7029207   1.7478684  )
        29           H2  tau(  29) = (   0.1612200   0.0466573   1.6743918  )
        30           H2  tau(  30) = (   0.6612600   0.0471349   1.6742076  )
        31           O0  tau(  31) = (   0.4999000   0.5434848   2.9780376  )

     number of k points=    20  Methfessel-Paxton smearing, width (Ry)=  0.0100
                       cart. coord. in units 2pi/alat
        k(    1) = (   0.0000000   0.0000000   0.0000000), wk =   0.0625000
        k(    2) = (   0.0000000   0.2302962   0.0000000), wk =   0.1250000
        k(    3) = (   0.0000000  -0.4605925   0.0000000), wk =   0.0625000
        k(    4) = (   0.2500000   0.0000000   0.0000000), wk =   0.1250000
        k(    5) = (   0.2500000   0.2302962   0.0000000), wk =   0.1250000
        k(    6) = (   0.2500000  -0.4605925   0.0000000), wk =   0.1250000
        k(    7) = (  -0.5000000   0.0000000   0.0000000), wk =   0.0625000
        k(    8) = (  -0.5000000   0.2302962   0.0000000), wk =   0.1250000
        k(    9) = (  -0.5000000  -0.4605925   0.0000000), wk =   0.0625000
        k(   10) = (  -0.2500000   0.2302962   0.0000000), wk =   0.1250000
        k(   11) = (   0.0000000   0.0000000   0.0000000), wk =   0.0625000
        k(   12) = (   0.0000000   0.2302962   0.0000000), wk =   0.1250000
        k(   13) = (   0.0000000  -0.4605925   0.0000000), wk =   0.0625000
        k(   14) = (   0.2500000   0.0000000   0.0000000), wk =   0.1250000
        k(   15) = (   0.2500000   0.2302962   0.0000000), wk =   0.1250000
        k(   16) = (   0.2500000  -0.4605925   0.0000000), wk =   0.1250000
        k(   17) = (  -0.5000000   0.0000000   0.0000000), wk =   0.0625000
        k(   18) = (  -0.5000000   0.2302962   0.0000000), wk =   0.1250000
        k(   19) = (  -0.5000000  -0.4605925   0.0000000), wk =   0.0625000
        k(   20) = (  -0.2500000   0.2302962   0.0000000), wk =   0.1250000

     Largest allocated arrays     est. size (Mb)     dimensions
     Largest temporary arrays     est. size (Mb)     dimensions

     Check: negative/imaginary core charge=   -0.000023    0.000000

     Initial potential from superposition of free atoms
     Check: negative starting charge=(component1):   -0.000742
     Check: negative starting charge=(component2):   -0.000363

     starting charge  229.99987, renormalised to  238.00000

     negative rho (up, down):  0.768E-03 0.376E-03
     Number of +U iterations with fixed ns =  0
     Starting occupations:
 --- enter write_ns ---
 LDA+U parameters:
U( 2)     =  5.50000000
alpha( 2) =  0.00000000
atom    3   Tr[ns(na)] (up, down, total) =   5.00000  0.00000  5.00000
   spin  1
    eigenvalues:
  1.000  1.000  1.000  1.000  1.000
    eigenvectors:
  1.000  0.000  0.000  0.000  0.000
  0.000  1.000  0.000  0.000  0.000
  0.000  0.000  1.000  0.000  0.000
  0.000  0.000  0.000  1.000  0.000
  0.000  0.000  0.000  0.000  1.000
    occupations:
  1.000  0.000  0.000  0.000  0.000
  0.000  1.000  0.000  0.000  0.000
  0.000  0.000  1.000  0.000  0.000
  0.000  0.000  0.000  1.000  0.000
  0.000  0.000  0.000  0.000  1.000
   spin  2
    eigenvalues:
  0.000  0.000  0.000  0.000  0.000
    eigenvectors:
  1.000  0.000  0.000  0.000  0.000
  0.000  1.000  0.000  0.000  0.000
  0.000  0.000  1.000  0.000  0.000
  0.000  0.000  0.000  1.000  0.000
  0.000  0.000  0.000  0.000  1.000
    occupations:
  0.000  0.000  0.000  0.000  0.000
  0.000  0.000  0.000  0.000  0.000
  0.000  0.000  0.000  0.000  0.000
  0.000  0.000  0.000  0.000  0.000
  0.000  0.000  0.000  0.000  0.000
atomic mag. moment =     5.000000
atom    4   Tr[ns(na)] (up, down, total) =   5.00000  0.00000  5.00000
   spin  1
    eigenvalues:
  1.000  1.000  1.000  1.000  1.000
    eigenvectors:
  1.000  0.000  0.000  0.000  0.000
  0.000  1.000  0.000  0.000  0.000
  0.000  0.000  1.000  0.000  0.000
  0.000  0.000  0.000  1.000  0.000
  0.000  0.000  0.000  0.000  1.000
    occupations:
  1.000  0.000  0.000  0.000  0.000
  0.000  1.000  0.000  0.000  0.000
  0.000  0.000  1.000  0.000  0.000
  0.000  0.000  0.000  1.000  0.000
  0.000  0.000  0.000  0.000  1.000
   spin  2
    eigenvalues:
  0.000  0.000  0.000  0.000  0.000
    eigenvectors:
  1.000  0.000  0.000  0.000  0.000
  0.000  1.000  0.000  0.000  0.000
  0.000  0.000  1.000  0.000  0.000
  0.000  0.000  0.000  1.000  0.000
  0.000  0.000  0.000  0.000  1.000
    occupations:
  0.000  0.000  0.000  0.000  0.000
  0.000  0.000  0.000  0.000  0.000
  0.000  0.000  0.000  0.000  0.000
  0.000  0.000  0.000  0.000  0.000
  0.000  0.000  0.000  0.000  0.000
atomic mag. moment =     5.000000
atom    9   Tr[ns(na)] (up, down, total) =   5.00000  0.00000  5.00000
   spin  1
    eigenvalues:
  1.000  1.000  1.000  1.000  1.000
    eigenvectors:
  1.000  0.000  0.000  0.000  0.000
[...]
 -0.002  0.329  0.000  0.006  0.009
 -0.002  0.000  0.114  0.000  0.002
  0.112  0.006  0.000  0.290  0.000
 -0.000  0.009  0.002  0.000  0.100
atomic mag. moment =     3.433422
atom    4   Tr[ns(na)] (up, down, total) =   4.40947  0.95794  5.36740
   spin  1
    eigenvalues:
  0.673  0.732  0.996  1.004  1.004
    eigenvectors:
  0.000  0.998  0.001  0.001  0.000
  0.000  0.001  0.000  0.815  0.184
  0.000  0.000  0.000  0.184  0.816
  0.000  0.001  0.999  0.000  0.000
  1.000  0.000  0.000  0.000  0.000
    occupations:
  0.732 -0.009 -0.006  0.006 -0.001
 -0.009  1.004 -0.000  0.000  0.002
 -0.006 -0.000  1.004  0.000 -0.000
  0.006  0.000  0.000  0.996  0.000
 -0.001  0.002 -0.000  0.000  0.673
   spin  2
    eigenvalues:
  0.080  0.098  0.108  0.320  0.352
    eigenvectors:
  0.005  0.002  0.000  0.993  0.000
  0.002  0.688  0.307  0.002  0.001
  0.003  0.303  0.693  0.001  0.000
  0.990  0.006  0.000  0.004  0.000
  0.000  0.000  0.000  0.000  0.999
    occupations:
  0.319  0.009  0.006 -0.015  0.000
  0.009  0.102 -0.004  0.000 -0.007
  0.006 -0.004  0.105  0.001  0.000
 -0.015  0.000  0.001  0.081 -0.000
  0.000 -0.007  0.000 -0.000  0.352
atomic mag. moment =     3.451532
atom    9   Tr[ns(na)] (up, down, total) =   4.39179  1.01103  5.40282
   spin  1
    eigenvalues:
  0.699  0.718  0.984  0.992  0.999
    eigenvectors:
  0.224  0.000  0.000  0.000  0.776
  0.000  1.000  0.000  0.000  0.000
  0.000  0.000  0.059  0.941  0.000
  0.776  0.000  0.000  0.000  0.224
  0.000  0.000  0.941  0.059  0.000
    occupations:
  0.932  0.002 -0.000 -0.125  0.000
  0.002  0.718 -0.000 -0.001  0.000
 -0.000 -0.000  0.991 -0.000 -0.002
 -0.125 -0.001 -0.000  0.766  0.000
  0.000  0.000 -0.002  0.000  0.984
   spin  2
    eigenvalues:
  0.092  0.105  0.108  0.345  0.361
    eigenvectors:
  0.809  0.000  0.000  0.187  0.004
  0.000  0.000  0.000  0.024  0.976
  0.000  0.020  0.980  0.000  0.000
  0.191  0.000  0.000  0.789  0.020
  0.000  0.980  0.020  0.000  0.000
    occupations:
  0.140 -0.000  0.000  0.100  0.000
 -0.000  0.360 -0.000  0.003 -0.000
  0.000 -0.000  0.108  0.000 -0.000
  0.100  0.003  0.000  0.297 -0.000
  0.000 -0.000 -0.000 -0.000  0.106
atomic mag. moment =     3.380765
atom   10   Tr[ns(na)] (up, down, total) =   4.62822  0.66863  5.29684
   spin  1
    eigenvalues:
  0.672  0.968  0.994  0.996  0.998
    eigenvectors:
  0.000  0.973  0.000  0.027  0.000
  0.000  0.000  1.000  0.000  0.000
  0.000  0.000  0.000  0.000  1.000
  0.000  0.027  0.000  0.973  0.000
  1.000  0.000  0.000  0.000  0.000
    occupations:
  0.969  0.000  0.000  0.005  0.000
  0.000  0.994  0.000  0.000 -0.001
  0.000  0.000  0.998  0.000 -0.000
  0.005  0.000  0.000  0.996 -0.000
  0.000 -0.001 -0.000 -0.000  0.672
   spin  2
    eigenvalues:
  0.069  0.070  0.080  0.141  0.309
    eigenvectors:
  0.033  0.000  0.000  0.967  0.000
  0.000  0.000  1.000  0.000  0.000
  0.006  0.994  0.000  0.000  0.000
  0.961  0.006  0.000  0.033  0.000
  0.000  0.000  0.000  0.000  1.000
    occupations:
  0.139  0.000 -0.000 -0.013 -0.000
  0.000  0.080  0.000 -0.000  0.001
 -0.000  0.000  0.070 -0.000  0.000
 -0.013 -0.000 -0.000  0.071 -0.000
 -0.000  0.001  0.000 -0.000  0.309
atomic mag. moment =     3.959591
atom   16   Tr[ns(na)] (up, down, total) =   4.40393  0.97085  5.37478
   spin  1
    eigenvalues:
  0.687  0.714  0.999  1.001  1.004
    eigenvectors:
  0.215  0.032  0.000  0.702  0.052
  0.176  0.822  0.001  0.001  0.000
  0.000  0.000  0.000  0.065  0.934
  0.609  0.146  0.000  0.232  0.014
  0.000  0.001  0.999  0.000  0.000
    occupations:
  0.924 -0.015 -0.002 -0.133 -0.000
 -0.015  0.710 -0.001 -0.003 -0.008
 -0.002 -0.001  1.004 -0.003 -0.000
 -0.133 -0.003 -0.003  0.768 -0.000
 -0.000 -0.008 -0.000 -0.000  0.999
   spin  2
    eigenvalues:
  0.079  0.099  0.115  0.328  0.351
    eigenvectors:
  0.777  0.000  0.003  0.014  0.206
  0.000  0.002  0.000  0.949  0.049
  0.003  0.024  0.972  0.000  0.000
  0.219  0.000  0.001  0.035  0.744
  0.000  0.974  0.024  0.002  0.000
    occupations:
  0.138  0.002 -0.002  0.112  0.000
  0.002  0.329  0.000 -0.006  0.009
 -0.002  0.000  0.114  0.000 -0.002
  0.112 -0.006  0.000  0.290 -0.001
  0.000  0.009 -0.002 -0.001  0.100
atomic mag. moment =     3.433077
atom   17   Tr[ns(na)] (up, down, total) =   4.41066  0.95659  5.36725
   spin  1
    eigenvalues:
  0.674  0.731  0.996  1.004  1.005
    eigenvectors:
  0.000  0.998  0.000  0.001  0.000
  0.000  0.001  0.000  0.962  0.036
  0.000  0.000  0.000  0.036  0.963
  0.000  0.000  0.999  0.000  0.000
  1.000  0.000  0.000  0.000  0.000
    occupations:
  0.732 -0.009 -0.006  0.006 -0.001
 -0.009  1.004 -0.000  0.000  0.002
 -0.006 -0.000  1.005  0.000 -0.000
  0.006  0.000  0.000  0.996 -0.000
 -0.001  0.002 -0.000 -0.000  0.674
   spin  2
    eigenvalues:
  0.080  0.098  0.108  0.319  0.352
    eigenvectors:
  0.005  0.002  0.000  0.993  0.000
  0.003  0.678  0.317  0.002  0.001
  0.003  0.314  0.682  0.001  0.000
  0.990  0.006  0.000  0.004  0.000
  0.000  0.000  0.000  0.000  0.999
    occupations:
  0.317  0.010  0.006 -0.015  0.000
  0.010  0.102 -0.004  0.000 -0.007
  0.006 -0.004  0.105  0.001  0.000
 -0.015  0.000  0.001  0.081 -0.000
  0.000 -0.007  0.000 -0.000  0.352
atomic mag. moment =     3.454073
atom   22   Tr[ns(na)] (up, down, total) =   4.39183  1.01096  5.40279
   spin  1
    eigenvalues:
  0.699  0.718  0.984  0.992  0.999
    eigenvectors:
  0.224  0.001  0.000  0.000  0.776
  0.001  0.999  0.000  0.000  0.000
  0.000  0.000  0.059  0.941  0.000
  0.775  0.001  0.000  0.000  0.224
  0.000  0.000  0.941  0.059  0.000
    occupations:
  0.932 -0.001 -0.000 -0.125 -0.000
 -0.001  0.718  0.000  0.002  0.000
 -0.000  0.000  0.991 -0.000  0.002
 -0.125  0.002 -0.000  0.766 -0.000
 -0.000  0.000  0.002 -0.000  0.984
   spin  2
    eigenvalues:
  0.092  0.105  0.108  0.345  0.361
    eigenvectors:
  0.809  0.000  0.000  0.187  0.004
  0.000  0.000  0.000  0.024  0.976
  0.000  0.016  0.984  0.000  0.000
  0.191  0.000  0.000  0.789  0.020
  0.000  0.984  0.016  0.000  0.000
    occupations:
  0.140  0.000  0.000  0.100 -0.000
  0.000  0.360 -0.000 -0.003 -0.000
  0.000 -0.000  0.108  0.000  0.000
  0.100 -0.003  0.000  0.297  0.000
 -0.000 -0.000  0.000  0.000  0.106
atomic mag. moment =     3.380864
atom   23   Tr[ns(na)] (up, down, total) =   4.46022  0.90108  5.36130
   spin  1
    eigenvalues:
  0.705  0.758  0.997  1.000  1.001
    eigenvectors:
  0.000  0.999  0.000  0.001  0.000
  0.000  0.000  0.000  0.000  1.000
  0.000  0.000  1.000  0.000  0.000
  0.000  0.001  0.000  0.999  0.000
  1.000  0.000  0.000  0.000  0.000
    occupations:
  0.758 -0.000  0.001  0.007 -0.000
 -0.000  1.001 -0.000  0.000 -0.001
  0.001 -0.000  0.997 -0.000  0.000
  0.007  0.000 -0.000  0.999  0.000
 -0.000 -0.001  0.000  0.000  0.705
   spin  2
    eigenvalues:
  0.076  0.093  0.097  0.300  0.334
    eigenvectors:
  0.005  0.000  0.000  0.995  0.000
  0.000  0.000  1.000  0.000  0.000
  0.000  1.000  0.000  0.000  0.000
  0.995  0.000  0.000  0.005  0.000
  0.000  0.000  0.000  0.000  1.000
    occupations:
  0.299  0.000 -0.001 -0.015  0.000
  0.000  0.097 -0.000  0.000  0.001
 -0.001 -0.000  0.093 -0.000 -0.000
 -0.015  0.000 -0.000  0.078 -0.000
  0.000  0.001 -0.000 -0.000  0.334
atomic mag. moment =     3.559133
N of occupied +U levels =  42.9480602
 --- exit write_ns ---

 ------ SPIN UP ------------

[...]

 ------ SPIN DOWN ----------

[...]

          k = 0.2500-0.4606 0.0000 ( 26462 PWs)   bands (ev):

[...]

          k =-0.2500 0.2303 0.0000 ( 26396 PWs)   bands (ev):

   -80.4491 -80.4411 -80.3372 -80.3049 -80.2968 -80.2710 -80.2608 -79.4891
   -49.3398 -49.2848 -49.2793 -49.2490 -49.2445 -49.2412 -49.1934 -49.1745
   -49.1671 -49.1604 -49.1499 -49.1473 -49.1441 -49.1066 -49.0927 -49.0882
   -49.0381 -48.9983 -48.9801 -48.8970 -48.8887 -48.5939 -48.4935 -47.8824
   -21.8418 -21.5123 -21.3474 -21.0297 -20.8248 -20.6934 -20.4742 -20.4213
   -20.3585 -20.2993 -20.1576 -20.1347 -19.9963 -19.9560 -19.9358 -19.8118
   -19.7970 -19.6576 -19.6291  -9.1685  -8.9077  -8.5749  -8.4553  -8.3987
    -8.1422  -8.0334  -7.9083  -7.6126  -7.4722  -7.4068  -7.2766  -7.2522
    -7.1449  -7.0639  -7.0510  -6.9087  -6.7818  -6.7597  -6.6213  -6.5200
    -6.4946  -6.4066  -6.3517  -6.2397  -6.2025  -5.9987  -5.9455  -5.9297
    -5.8374  -5.7614  -5.6157  -5.5818  -5.5009  -5.3465  -5.3245  -5.1668
    -5.0936  -4.9809  -4.8921  -4.8119  -4.7282  -4.6397  -4.5764  -4.4854
    -4.4558  -4.3335  -4.1982  -4.1497  -4.0672  -3.9307  -3.7862  -3.7569
    -3.6569  -3.3456  -3.3187  -3.0050   0.8573   0.8914   0.8994   0.9434
     0.9689   0.9915   1.0307   1.1056   1.1839   1.1932   1.2682   1.3203
     1.3721   1.4486   1.4811   1.5237   1.6156   1.6453   1.6734   1.7370
     1.8085   1.8378   1.9236   1.9377   1.9932   2.0374   2.1158   2.1810
     2.2141   2.2885   2.3755   2.4315   2.5017   2.5871   2.6682   2.7203
     2.7813   2.9799   3.1002   3.1640   3.7214   4.3732   4.6027   5.0573
     5.4967   5.6940   5.7716   6.2602   6.3817   6.5851   6.6385   6.6838
     6.8493   6.9996   7.1124   7.3995   7.5514   7.7386   7.9049   8.0565
     8.3875   8.4681   8.5075   8.6029   8.6481   8.7150   8.8905   9.0916
     9.2066   9.3444   9.4530   9.5359   9.6273   9.9051   9.9752  10.0903
    10.1646  10.2224  10.3398  10.4895  10.6130  10.6823  10.7671  10.8848
    10.9861  11.0701  11.1863  11.2715  11.3450  11.4006  11.5845  11.6394
    11.6743  11.7754  11.7970  11.9408  11.9973  12.1327  12.2219  12.3142
    12.4297  12.5209  12.5855  12.6134  12.7113  12.8288  12.9536  12.9731
    13.0626  13.1043  13.1500  13.2245  13.2918  13.3267  13.4457  13.5355
    13.5931  13.6216  13.6739  13.7468  13.7950  13.8261  13.9049  14.0545
    14.1527  14.2075  14.2381  14.2893  14.3300  14.4182  14.5393  14.5685
    14.6943  14.7717  14.8140  14.9436  15.0222  15.0861  15.1463  15.2174
    15.2993  15.4310  15.4702  15.6692  15.7114  15.8510  15.9361  15.9894
    16.1069  16.1736  16.3019  16.3263  16.3969  16.5181  16.5551  16.6001
    16.6486  16.7343  16.7965  16.8963  17.0179  17.0911  17.1501  17.2124
    17.2611  17.3714  17.4429  17.5131  17.5767  17.6257  17.7254  17.7859
    17.8548  17.9411  17.9554  18.1032  18.1646  18.2269  18.3345  18.3889
    18.4384  18.5638  18.6210  18.7149  18.7776  18.8258  18.8744  18.9841
    19.0986  19.1288  19.1435  19.2485  19.2859  19.3463  19.4055  19.5049
    19.6736  19.7405  19.7857  19.9274  19.9455  20.0242  20.0764  20.1352
    20.1908  20.2575  20.3040  20.3421  20.4094  20.4430  20.5837  20.6451
    20.8068  20.9230  20.9695  21.0164  21.1146  21.1690  21.1973  21.2436
    21.3527  21.4285  21.5195  21.5561  21.6168  21.7147  21.7732  21.8273
    21.9307  22.0428  22.1194  22.2147  22.2842  22.3635  22.4065  22.4792
    22.5500

     the spin up/dw Fermi energies are    -2.5115   -0.3933 ev

!    total energy              =   -2318.81032986 Ry
     Harris-Foulkes estimate   =   -2318.81032518 Ry
     estimated scf accuracy    <          7.9E-09 Ry

     The total energy is the sum of the following terms:

     one-electron contribution =  -26123.13446697 Ry
     hartree contribution      =   13078.83645542 Ry
     xc contribution           =    -348.78388461 Ry
     ewald contribution        =   11072.51493390 Ry
     Hubbard energy            =       1.75645315 Ry
     smearing contrib. (-TS)   =       0.00017924 Ry

     total magnetization       =    22.00 Bohr mag/cell
     absolute magnetization    =    35.31 Bohr mag/cell

     convergence has been achieved in  14 iterations

     Forces acting on atoms (Ry/au):

     negative rho (up, down):  0.182E-02 0.143E-02
     atom    1 type  1   force =    -0.00550627   -0.01388712    0.00013754
     atom    2 type  1   force =     0.00042682    0.00816276   -0.00042664
     atom    3 type  2   force =     0.00085661    0.00150058   -0.00014965
     atom    4 type  2   force =     0.00702791    0.01200516    0.00025073
     atom    5 type  1   force =     0.00211761    0.01165343    0.00013135
     atom    6 type  1   force =    -0.00094256   -0.01813599    0.00021379
     atom    7 type  1   force =     0.00005318    0.00169509   -0.00043606
     atom    8 type  1   force =    -0.00145275   -0.00301082    0.00030999
     atom    9 type  2   force =     0.00716634    0.00061453    0.00059779
     atom   10 type  2   force =    -0.00008794   -0.00105961   -0.00013637
     atom   11 type  1   force =    -0.00518646   -0.02136562   -0.00043965
     atom   12 type  1   force =    -0.00496011    0.02194415   -0.00040056
     atom   13 type  1   force =    -0.00042657   -0.00042796    0.00058531
     atom   14 type  1   force =    -0.00509250   -0.01334704    0.00015230
     atom   15 type  1   force =     0.00042393    0.00752534   -0.00040050
     atom   16 type  2   force =    -0.00241294    0.00147109   -0.00014076
     atom   17 type  2   force =     0.00684229    0.01208435    0.00037692
     atom   18 type  1   force =     0.00120981    0.01166462    0.00013737
     atom   19 type  1   force =    -0.00286634   -0.01810258    0.00019338
     atom   20 type  1   force =     0.00002549    0.00232043    0.00007598
     atom   21 type  1   force =    -0.00145559   -0.00269464    0.00027738
     atom   22 type  2   force =    -0.00569793    0.00076108    0.00059683
     atom   23 type  2   force =    -0.00001069   -0.00143089    0.00021074
     atom   24 type  1   force =     0.00520421   -0.02133320   -0.00043582
     atom   25 type  1   force =     0.00514731    0.02200167   -0.00038371
     atom   26 type  1   force =    -0.00043003   -0.00058001    0.00041095
     atom   27 type  3   force =    -0.00000891    0.00015854   -0.00065338
     atom   28 type  3   force =     0.00001013   -0.00000130   -0.00067096
     atom   29 type  3   force =     0.00005648   -0.00014651    0.00011100
     atom   30 type  3   force =    -0.00001876   -0.00011053   -0.00006043
     atom   31 type  1   force =    -0.00001176    0.00007102   -0.00003486

     Total force =     0.002015     Total SCF correction =     0.000149

     entering subroutine stress ...

     negative rho (up, down):  0.182E-02 0.143E-02
          total   stress  (Ry/bohr**3)                   (kbar)     P=   30.83
   0.00033997  -0.00000259   0.00000429         50.01     -0.38      0.63
  -0.00000259   0.00033411   0.00000558         -0.38     49.15      0.82
   0.00000429   0.00000558  -0.00004536          0.63      0.82     -6.67

     bfgs converged in   3 scf cycles and   2 bfgs steps
     (criteria: energy < 0.10E-03, force < 0.10E-02)

     End of BFGS Geometry Optimization

     Final energy   =   -2318.8103298611 Ry
Begin final coordinates

ATOMIC_POSITIONS (crystal)
O0       0.000000000   0.000000000   0.374164957    0   0   1
O0       0.000000000   0.500000000   0.395257945    0   0   1
Mn1      0.250000000   0.500000000   0.447844726    0   0   1
Mn1      0.000000000   0.000000000   0.447354969    0   0   1
O0       0.250000000   0.800000000   0.446180416    0   0   1
O0       0.250000000   0.200000000   0.449524674    0   0   1
O0       0.000000000   0.500000000   0.495047091    0   0   1
O0       0.000000000   0.000000000   0.525481234    0   0   1
Mn1      0.250000000   0.000000000   0.574657376    0   0   1
Mn1      0.000000000   0.500000000   0.573093480    0   0   1
O0       0.250000000   0.700000000   0.582110406    0   0   1
O0       0.250000000   0.300000000   0.582474405    0   0   1
O0       0.000000000   0.000000000   0.622743097    0   0   1
O0       0.500000000   0.000000000   0.374014855    0   0   1
O0       0.500000000   0.500000000   0.395089989    0   0   1
Mn1      0.750000000   0.500000000   0.447837711    0   0   1
Mn1      0.500000000   0.000000000   0.447084001    0   0   1
O0       0.750000000   0.800000000   0.446181052    0   0   1
O0       0.750000000   0.200000000   0.449543027    0   0   1
O0       0.500000000   0.500000000   0.497339961    0   0   1
O0       0.500000000   0.000000000   0.525610265    0   0   1
Mn1      0.750000000   0.000000000   0.574656875    0   0   1
Mn1      0.500000000   0.500000000   0.573481423    0   0   1
O0       0.750000000   0.700000000   0.582132446    0   0   1
O0       0.750000000   0.300000000   0.582454178    0   0   1
O0       0.500000000   0.000000000   0.623320403    0   0   1
H2       0.000526693   0.648224903   0.379776059
H2       0.500523582   0.647432915   0.379380106
H2       0.161243998   0.042932415   0.363478021
H2       0.661255876   0.043383074   0.363421930
O0       0.499895801   0.500669602   0.646372923
End final coordinates

     General routines

     Parallel routines
     Hubbard U routines

   This run was terminated on:   9:41:19  26May2014

   JOB DONE.