     Program PWSCF v.5.0.2 (svn rev. 9656) starts on 11Aug2014 at 20:15:37

     Current dimensions of program PWSCF are:
     Max number of different atomic species (ntypx) = 10
     Max number of k-points (npk) =  40000
     Max angular momentum in pseudopotentials (lmaxx) =  3
     Reading input from pwscf.in
Warning: card &CELL ignored
Warning: card / ignored

     Subspace diagonalization in iterative solution of the eigenvalue problem:
     a serial algorithm will be used

     bravais-lattice index     =            0
     lattice parameter (alat)  =      11.7919  a.u.
     unit-cell volume          =    7123.6633 (a.u.)^3
     number of atoms/cell      =           33
     number of atomic types    =            3
     number of electrons       =       253.00
     number of Kohn-Sham states=          379
     kinetic-energy cutoff     =      40.0000  Ry
     charge density cutoff     =     500.0000  Ry
     convergence threshold     =      1.0E-06
     mixing beta               =       0.3000
     number of iterations used =            8  plain     mixing
     Exchange-correlation      = SLA  PW   PBE  PBE ( 1 4 3 4 0)
     EXX-fraction              =        0.00
     nstep                     =           50

     celldm(1)=  11.791891  celldm(2)=   0.000000  celldm(3)=   0.000000
     celldm(4)=   0.000000  celldm(5)=   0.000000  celldm(6)=   0.000000

     crystal axes: (cart. coord. in units of alat)
               a(1) = (   1.000000   0.000000   0.000000 )
               a(2) = (   0.000000   1.026665   0.000000 )
               a(3) = (   0.000000   0.000000   4.231793 )

     reciprocal axes: (cart. coord. in units 2 pi/alat)
               b(1) = (  1.000000  0.000000  0.000000 )
               b(2) = (  0.000000  0.974028  0.000000 )
               b(3) = (  0.000000  0.000000  0.236306 )

     PseudoPot. # 1 for O  read from file:
     /home-research/zhongnanxu/gbrv_espresso_pseudo_v1.01/o_pbe_v1.01.uspp.F.UPF
     MD5 check sum: 2bcb18d16ea4b960afae9ec6d52f22d2
     Pseudo is Ultrasoft + core correction, Zval =  6.0
     Generated by new atomic code, or converted to UPF format
     Using radial grid of  737 points,  5 beta functions with:
                l(1) =   0
                l(2) =   0
                l(3) =   1
                l(4) =   1
                l(5) =   2
     Q(r) pseudized with  8 coefficients,  rinner =    0.900   0.900   0.900
                                                       0.900   0.900

     PseudoPot. # 2 for Ru read from file:
     /home-research/zhongnanxu/gbrv_espresso_pseudo_v1.01/ru_pbe_v1.uspp.F.UPF
     MD5 check sum: df00be1c11b23341d9806d8f1dfa10cf
     Pseudo is Ultrasoft + core correction, Zval = 16.0
     Generated by new atomic code, or converted to UPF format
     Using radial grid of  967 points,  6 beta functions with:
                l(1) =   0
                l(2) =   0
                l(3) =   1
                l(4) =   1
                l(5) =   2
                l(6) =   2
     Q(r) pseudized with  8 coefficients,  rinner =    1.300   1.300   1.300
                                                       1.300   1.300

     PseudoPot. # 3 for H  read from file:
     /home-research/zhongnanxu/gbrv_espresso_pseudo_v1.01/h_pbe_v1.uspp.F.UPF
     MD5 check sum: 3408e3ff4ec8b0a4e358431e7e038a48
     Pseudo is Ultrasoft, Zval =  1.0
     Generated by new atomic code, or converted to UPF format
     Using radial grid of  615 points,  2 beta functions with:
                l(1) =   0
                l(2) =   0
     Q(r) pseudized with  8 coefficients,  rinner =    0.700

     atomic species   valence    mass     pseudopotential
        O0             6.00    15.99940     O ( 1.00)
        Ru1           16.00   101.07000     Ru( 1.00)
        H2             1.00     1.00794     H ( 1.00)

     Simplified LDA+U calculation (l_max = 2) with parameters (eV):
     atomic species    L          U    alpha       J0     beta
        Ru1            2     7.5000   0.0000   0.0000   0.0000

     No symmetry found

   Cartesian axes

     site n.     atom                  positions (alat units)
         1           O0  tau(   1) = (   0.0000000   0.0000000   1.5976288  )
         2           O0  tau(   2) = (   0.0000000   0.5133323   1.7135376  )
         3           Ru1 tau(   3) = (   0.2500000   0.5133323   1.9265237  )
         4           Ru1 tau(   4) = (   0.0000000   0.0000000   1.9104429  )
         5           O0  tau(   5) = (   0.2500000   0.8315984   1.9133628  )
         6           O0  tau(   6) = (   0.2500000   0.1950663   1.9137014  )
         7           O0  tau(   7) = (   0.0000000   0.5133323   2.1143307  )
         8           O0  tau(   8) = (   0.0000000   0.0000000   2.2232570  )
         9           Ru1 tau(   9) = (   0.2500000   0.0000000   2.4362008  )
        10           Ru1 tau(  10) = (   0.0000000   0.5133323   2.4139839  )
        11           O0  tau(  11) = (   0.2500000   0.7083986   2.4352275  )
        12           O0  tau(  12) = (   0.2500000   0.3182660   2.4428024  )
        13           O0  tau(  13) = (   0.0000000   0.0000000   2.6141054  )
        14           O0  tau(  14) = (   0.5000000   0.0000000   1.5980943  )
        15           O0  tau(  15) = (   0.5000000   0.5133323   1.7110408  )
        16           Ru1 tau(  16) = (   0.7500000   0.5133323   1.9265660  )
        17           Ru1 tau(  17) = (   0.5000000   0.0000000   1.9113316  )
        18           O0  tau(  18) = (   0.7500000   0.8315984   1.9134475  )
        19           O0  tau(  19) = (   0.7500000   0.1950663   1.9137014  )
        20           O0  tau(  20) = (   0.5000000   0.5133323   2.1248255  )
        21           O0  tau(  21) = (   0.5000000   0.0000000   2.2236379  )
        22           Ru1 tau(  22) = (   0.7500000   0.0000000   2.4362855  )
        23           Ru1 tau(  23) = (   0.5000000   0.5133323   2.4472458  )
        24           O0  tau(  24) = (   0.7500000   0.7083986   2.4352698  )
        25           O0  tau(  25) = (   0.7500000   0.3182660   2.4426755  )
        26           O0  tau(  26) = (   0.5000000   0.0000000   2.6042453  )
        27           H2  tau(  27) = (  -0.0003700   0.6408749   1.6195494  )
        28           H2  tau(  28) = (   0.4997300   0.6446633   1.6222578  )
        29           H2  tau(  29) = (   0.1462300   0.0299786   1.5449853  )
        30           H2  tau(  30) = (   0.6457400   0.0313441   1.5450699  )
        31           O0  tau(  31) = (   0.5000700   0.5415759   2.7547279  )
        32           O0  tau(  32) = (   0.4999900   0.3417972   2.8749108  )
        33           H2  tau(  33) = (   0.4999600   0.4009947   3.0215847  )

     number of k points=    10  Methfessel-Paxton smearing, width (Ry)=  0.0100
                       cart. coord. in units 2pi/alat
        k(    1) = (   0.0000000   0.0000000   0.0000000), wk =   0.1250000
        k(    2) = (   0.0000000   0.2435070   0.0000000), wk =   0.2500000
        k(    3) = (   0.0000000  -0.4870139   0.0000000), wk =   0.1250000
        k(    4) = (   0.2500000   0.0000000   0.0000000), wk =   0.2500000
        k(    5) = (   0.2500000   0.2435070   0.0000000), wk =   0.2500000
        k(    6) = (   0.2500000  -0.4870139   0.0000000), wk =   0.2500000
        k(    7) = (  -0.5000000   0.0000000   0.0000000), wk =   0.1250000
        k(    8) = (  -0.5000000   0.2435070   0.0000000), wk =   0.2500000
        k(    9) = (  -0.5000000  -0.4870139   0.0000000), wk =   0.1250000
        k(   10) = (  -0.2500000   0.2435070   0.0000000), wk =   0.2500000

     Largest allocated arrays     est. size (Mb)     dimensions
     Largest temporary arrays     est. size (Mb)     dimensions

     Check: negative/imaginary core charge=   -0.000003    0.000000

     Initial potential from superposition of free atoms
     Check: negative starting charge=   -0.523679

     starting charge  244.99980, renormalised to  253.00000

     negative rho (up, down):  0.541E+00 0.000E+00
     Number of +U iterations with fixed ns =  0
     Starting occupations:
 --- enter write_ns ---
 LDA+U parameters:
U( 2)     =  7.50000000
alpha( 2) =  0.00000000
atom    3   Tr[ns(na)] =   6.00000
    eigenvalues:
  0.600  0.600  0.600  0.600  0.600
    eigenvectors:
  1.000  0.000  0.000  0.000  0.000
  0.000  1.000  0.000  0.000  0.000
  0.000  0.000  1.000  0.000  0.000
  0.000  0.000  0.000  1.000  0.000
  0.000  0.000  0.000  0.000  1.000
    occupations:
  0.600  0.000  0.000  0.000  0.000
  0.000  0.600  0.000  0.000  0.000
  0.000  0.000  0.600  0.000  0.000
  0.000  0.000  0.000  0.600  0.000
  0.000  0.000  0.000  0.000  0.600
atom    4   Tr[ns(na)] =   6.00000
    eigenvalues:
  0.600  0.600  0.600  0.600  0.600
    eigenvectors:
  1.000  0.000  0.000  0.000  0.000
  0.000  1.000  0.000  0.000  0.000
  0.000  0.000  1.000  0.000  0.000
  0.000  0.000  0.000  1.000  0.000
  0.000  0.000  0.000  0.000  1.000
    occupations:
  0.600  0.000  0.000  0.000  0.000
  0.000  0.600  0.000  0.000  0.000
  0.000  0.000  0.600  0.000  0.000
  0.000  0.000  0.000  0.600  0.000
  0.000  0.000  0.000  0.000  0.600
atom    9   Tr[ns(na)] =   6.00000
    eigenvalues:
  0.600  0.600  0.600  0.600  0.600
    eigenvectors:
  1.000  0.000  0.000  0.000  0.000
  0.000  1.000  0.000  0.000  0.000
  0.000  0.000  1.000  0.000  0.000
  0.000  0.000  0.000  1.000  0.000
  0.000  0.000  0.000  0.000  1.000
    occupations:
  0.600  0.000  0.000  0.000  0.000
  0.000  0.600  0.000  0.000  0.000
  0.000  0.000  0.600  0.000  0.000
  0.000  0.000  0.000  0.600  0.000
  0.000  0.000  0.000  0.000  0.600
atom   10   Tr[ns(na)] =   6.00000
    eigenvalues:
  0.600  0.600  0.600  0.600  0.600
    eigenvectors:
  1.000  0.000  0.000  0.000  0.000
  0.000  1.000  0.000  0.000  0.000
  0.000  0.000  1.000  0.000  0.000
  0.000  0.000  0.000  1.000  0.000
  0.000  0.000  0.000  0.000  1.000
    occupations:
  0.600  0.000  0.000  0.000  0.000
  0.000  0.600  0.000  0.000  0.000
  0.000  0.000  0.600  0.000  0.000
  0.000  0.000  0.000  0.600  0.000
  0.000  0.000  0.000  0.000  0.600
atom   16   Tr[ns(na)] =   6.00000
    eigenvalues:
  0.600  0.600  0.600  0.600  0.600
    eigenvectors:
  1.000  0.000  0.000  0.000  0.000
  0.000  1.000  0.000  0.000  0.000
  0.000  0.000  1.000  0.000  0.000
  0.000  0.000  0.000  1.000  0.000
  0.000  0.000  0.000  0.000  1.000
    occupations:
  0.600  0.000  0.000  0.000  0.000
  0.000  0.600  0.000  0.000  0.000
  0.000  0.000  0.600  0.000  0.000
  0.000  0.000  0.000  0.600  0.000
  0.000  0.000  0.000  0.000  0.600
atom   17   Tr[ns(na)] =   6.00000
    eigenvalues:
  0.600  0.600  0.600  0.600  0.600
    eigenvectors:
  1.000  0.000  0.000  0.000  0.000
  0.000  1.000  0.000  0.000  0.000
  0.000  0.000  1.000  0.000  0.000
  0.000  0.000  0.000  1.000  0.000
  0.000  0.000  0.000  0.000  1.000
    occupations:
  0.600  0.000  0.000  0.000  0.000
  0.000  0.600  0.000  0.000  0.000
  0.000  0.000  0.600  0.000  0.000
  0.000  0.000  0.000  0.600  0.000
  0.000  0.000  0.000  0.000  0.600
atom   22   Tr[ns(na)] =   6.00000
    eigenvalues:
  0.600  0.600  0.600  0.600  0.600
    eigenvectors:
[...]
  0.000  0.000  0.000  0.002  0.998
  0.064  0.002  0.933  0.000  0.000
  0.000  0.000  0.000  0.997  0.002
    occupations:
  0.562  0.000 -0.002 -0.018  0.006
  0.000  0.603  0.002  0.001 -0.001
 -0.002  0.002  0.935 -0.005 -0.002
 -0.018  0.001 -0.005  0.626 -0.003
  0.006 -0.001 -0.002 -0.003  0.886
atom   10   Tr[ns(na)] =   7.28698
    eigenvalues:
  0.517  0.532  0.690  0.920  0.985
    eigenvectors:
  0.972  0.009  0.000  0.000  0.019
  0.000  0.000  0.002  0.993  0.005
  0.000  0.000  0.998  0.002  0.000
  0.019  0.000  0.000  0.005  0.976
  0.009  0.990  0.000  0.001  0.000
    occupations:
  0.526 -0.001  0.001  0.065 -0.001
 -0.001  0.919 -0.009  0.005 -0.009
  0.001 -0.009  0.691 -0.001  0.004
  0.065  0.005 -0.001  0.976  0.000
 -0.001 -0.009  0.004  0.000  0.532
atom   16   Tr[ns(na)] =   7.22734
    eigenvalues:
  0.503  0.557  0.611  0.955  0.988
    eigenvectors:
  0.008  0.163  0.001  0.000  0.828
  0.970  0.028  0.001  0.000  0.001
  0.000  0.022  0.911  0.056  0.011
  0.022  0.786  0.032  0.000  0.160
  0.000  0.001  0.054  0.943  0.001
    occupations:
  0.913  0.015  0.039 -0.158  0.010
  0.015  0.505  0.006  0.004 -0.008
  0.039  0.006  0.633 -0.009 -0.078
 -0.158  0.004 -0.009  0.627 -0.003
  0.010 -0.008 -0.078 -0.003  0.936
atom   17   Tr[ns(na)] =   7.26361
    eigenvalues:
  0.547  0.590  0.609  0.898  0.987
    eigenvectors:
  0.003  0.000  0.978  0.000  0.018
  0.000  0.022  0.000  0.977  0.000
  0.000  0.978  0.000  0.022  0.000
  0.000  0.000  0.018  0.000  0.982
  0.997  0.000  0.003  0.000  0.000
    occupations:
  0.616 -0.005  0.000  0.050  0.004
 -0.005  0.891  0.045  0.001 -0.002
  0.000  0.045  0.596  0.003  0.000
  0.050  0.001  0.003  0.981  0.000
  0.004 -0.002  0.000  0.000  0.548
atom   22   Tr[ns(na)] =   7.31178
    eigenvalues:
  0.533  0.563  0.675  0.908  0.977
    eigenvectors:
  0.006  0.148  0.000  0.000  0.846
  0.977  0.022  0.000  0.000  0.000
  0.000  0.000  0.987  0.013  0.000
  0.017  0.830  0.000  0.000  0.153
  0.000  0.000  0.012  0.987  0.001
    occupations:
  0.913  0.010  0.000 -0.149  0.002
  0.010  0.534  0.002  0.001  0.000
  0.000  0.002  0.678 -0.003 -0.026
 -0.149  0.001 -0.003  0.626  0.000
  0.002  0.000 -0.026  0.000  0.905
atom   23   Tr[ns(na)] =   7.31155
    eigenvalues:
  0.529  0.566  0.655  0.930  0.976
    eigenvectors:
  0.000  0.996  0.001  0.001  0.001
  0.003  0.002  0.992  0.001  0.002
  0.001  0.001  0.001  0.996  0.002
  0.000  0.001  0.002  0.001  0.996
  0.995  0.000  0.003  0.001  0.000
    occupations:
  0.567 -0.004  0.011  0.012 -0.001
 -0.004  0.655 -0.008 -0.014 -0.007
  0.011 -0.008  0.929 -0.002 -0.013
  0.012 -0.014 -0.002  0.974  0.001
 -0.001 -0.007 -0.013  0.001  0.530
N of occupied +U levels =  58.1056158
 --- exit write_ns ---

     Threshold (ethr) on eigenvalues was too large:
     Diagonalizing with lowered threshold

     Davidson diagonalization with overlap
     ethr =  1.52E-08,  avg # of iterations =  2.1

[...]

     total energy              =   -2192.87380838 Ry
     Harris-Foulkes estimate   =   -2192.87380838 Ry
     estimated scf accuracy    <       0.00000002 Ry

     iteration # 16     ecut=    40.00 Ry     beta=0.30
     Davidson diagonalization with overlap
     ethr =  6.86E-12,  avg # of iterations =  1.0

     negative rho (up, down):  0.571E+00 0.000E+00

     End of self-consistent calculation
 --- enter write_ns ---
 LDA+U parameters:
U( 2)     =  7.50000000
alpha( 2) =  0.00000000
atom    3   Tr[ns(na)] =   7.22638
    eigenvalues:
  0.503  0.560  0.608  0.955  0.988
    eigenvectors:
  0.012  0.164  0.001  0.000  0.823
  0.954  0.042  0.003  0.001  0.001
  0.001  0.027  0.852  0.110  0.010
  0.034  0.763  0.038  0.000  0.164
  0.000  0.003  0.105  0.890  0.001
    occupations:
  0.912 -0.016  0.038 -0.159 -0.014
 -0.016  0.506 -0.008 -0.006 -0.008
  0.038 -0.008  0.648 -0.010  0.108
 -0.159 -0.006 -0.010  0.630  0.002
 -0.014 -0.008  0.108  0.002  0.917
atom    4   Tr[ns(na)] =   7.25333
    eigenvalues:
  0.550  0.567  0.609  0.913  0.987
    eigenvectors:
  0.003  0.000  0.977  0.000  0.020
  0.000  0.014  0.000  0.986  0.000
  0.003  0.983  0.000  0.014  0.000
  0.000  0.000  0.020  0.000  0.980
  0.994  0.003  0.003  0.000  0.000
    occupations:
  0.617 -0.002  0.000  0.053  0.003
 -0.002  0.908  0.041  0.000 -0.001
  0.000  0.041  0.572  0.001  0.001
  0.053  0.000  0.001  0.980  0.000
  0.003 -0.001  0.001  0.000  0.551
atom    9   Tr[ns(na)] =   7.22563
    eigenvalues:
  0.558  0.603  0.631  0.886  0.935
    eigenvectors:
  0.934  0.000  0.065  0.000  0.000
  0.000  0.998  0.002  0.000  0.000
  0.000  0.000  0.000  0.002  0.998
  0.065  0.002  0.932  0.000  0.000
  0.000  0.000  0.000  0.997  0.002
    occupations:
  0.563  0.000 -0.002 -0.018  0.006
  0.000  0.603  0.002  0.001 -0.001
 -0.002  0.002  0.935 -0.005 -0.002
 -0.018  0.001 -0.005  0.626 -0.003
  0.006 -0.001 -0.002 -0.003  0.886
atom   10   Tr[ns(na)] =   7.28715
    eigenvalues:
  0.517  0.532  0.690  0.920  0.985
    eigenvectors:
  0.972  0.009  0.000  0.000  0.019
  0.000  0.000  0.002  0.993  0.005
  0.000  0.000  0.998  0.002  0.000
  0.019  0.000  0.000  0.005  0.976
  0.009  0.990  0.000  0.001  0.000
    occupations:
  0.526 -0.001  0.001  0.065 -0.001
 -0.001  0.919 -0.009  0.005 -0.009
  0.001 -0.009  0.691 -0.001  0.004
  0.065  0.005 -0.001  0.976  0.000
 -0.001 -0.009  0.004  0.000  0.532
atom   16   Tr[ns(na)] =   7.22831
    eigenvalues:
  0.503  0.557  0.611  0.955  0.988
    eigenvectors:
  0.008  0.163  0.002  0.000  0.828
  0.970  0.028  0.001  0.000  0.001
  0.000  0.021  0.911  0.057  0.011
  0.022  0.787  0.031  0.000  0.160
  0.000  0.001  0.055  0.943  0.001
    occupations:
  0.913  0.015  0.039 -0.158  0.010
  0.015  0.505  0.006  0.004 -0.008
  0.039  0.006  0.634 -0.009 -0.078
 -0.158  0.004 -0.009  0.627 -0.003
  0.010 -0.008 -0.078 -0.003  0.936
atom   17   Tr[ns(na)] =   7.26357
    eigenvalues:
  0.547  0.590  0.609  0.898  0.987
    eigenvectors:
  0.003  0.000  0.978  0.000  0.018
  0.000  0.022  0.000  0.978  0.000
  0.000  0.978  0.000  0.022  0.000
  0.000  0.000  0.018  0.000  0.982
  0.997  0.000  0.003  0.000  0.000
    occupations:
  0.616 -0.005  0.000  0.050  0.004
 -0.005  0.891  0.045  0.001 -0.002
  0.000  0.045  0.597  0.003  0.000
  0.050  0.001  0.003  0.981  0.000
  0.004 -0.002  0.000  0.000  0.548
atom   22   Tr[ns(na)] =   7.31142
    eigenvalues:
  0.533  0.563  0.675  0.908  0.977
    eigenvectors:
  0.006  0.148  0.000  0.000  0.846
  0.977  0.022  0.000  0.000  0.000
  0.000  0.000  0.987  0.013  0.000
  0.017  0.830  0.000  0.000  0.153
  0.000  0.000  0.012  0.987  0.001
    occupations:
  0.913  0.010  0.000 -0.149  0.002
  0.010  0.534  0.002  0.001  0.000
  0.000  0.002  0.678 -0.003 -0.026
 -0.149  0.001 -0.003  0.626  0.000
  0.002  0.000 -0.026  0.000  0.905
atom   23   Tr[ns(na)] =   7.31163
    eigenvalues:
  0.529  0.566  0.655  0.930  0.976
    eigenvectors:
  0.000  0.996  0.001  0.001  0.001
  0.003  0.002  0.992  0.001  0.002
  0.001  0.001  0.001  0.996  0.002
  0.000  0.001  0.002  0.001  0.996
  0.995  0.000  0.003  0.001  0.000
    occupations:
  0.567 -0.004  0.011  0.012 -0.001
 -0.004  0.655 -0.008 -0.014 -0.007
  0.011 -0.008  0.929 -0.002 -0.013
  0.012 -0.014 -0.002  0.974  0.001
 -0.001 -0.007 -0.013  0.001  0.530
N of occupied +U levels =  58.1074245
 --- exit write_ns ---

[...]

          k = 0.2500-0.4870 0.0000 ( 30468 PWs)   bands (ev):

[...]

          k =-0.2500 0.2435 0.0000 ( 30434 PWs)   bands (ev):

   -73.6762 -73.0897 -73.0558 -72.8105 -72.8084 -72.7899 -72.7392 -72.6685
   -44.0471 -43.8675 -43.4192 -43.3834 -43.2708 -43.1700 -43.1538 -43.1061
   -43.0606 -43.0521 -43.0395 -42.9796 -42.9640 -42.9141 -42.9083 -42.8136
   -42.7531 -42.7257 -42.6905 -42.6010 -42.5824 -42.4809 -42.3775 -42.1474
   -23.4836 -20.2976 -19.8782 -19.7140 -19.5813 -19.4556 -19.3896 -19.3525
   -19.3005 -19.1018 -19.0050 -18.8694 -18.7863 -18.7348 -18.6486 -18.5870
   -18.5205 -18.4733 -18.4135 -17.1755  -9.2930  -8.9268  -8.8286  -8.7919
    -8.6800  -8.6268  -8.3576  -8.2899  -8.0368  -7.4934  -7.4617  -7.3310
    -7.2808  -7.2399  -7.1198  -7.1003  -7.0132  -6.9555  -6.8348  -6.7536
    -6.4400  -6.2940  -6.1777  -6.0685  -5.9688  -5.8245  -5.7327  -5.6317
    -5.5313  -5.4381  -5.3433  -5.2627  -5.1996  -5.0758  -5.0360  -4.9458
    -4.8241  -4.7216  -4.6883  -4.5281  -4.4830  -4.4130  -4.3579  -4.1779
    -4.1148  -3.8697  -3.7634  -3.6445  -3.5901  -3.5355  -3.4548  -3.3542
    -3.2768  -3.1775  -3.0810  -2.8370  -2.7426  -2.6481  -2.6007  -2.5109
    -2.5006  -2.3076  -2.2625  -2.1761  -2.0838  -1.9964  -1.9170  -1.8729
    -1.7694  -1.7074  -1.5445  -1.3590  -1.2533  -0.8949  -0.8452  -0.4554
    -0.2318  -0.1021  -0.0449   0.0885   0.2325   0.3616   0.6537   1.7994
     2.0449   2.4027   2.5413   2.6255   3.1308   3.2762   3.4555   3.5656
     3.8247   3.8856   4.0145   4.1119   4.2235   4.2919   4.3252   4.3663
     4.5207   4.5945   4.8711   5.1506   5.6003   5.7504   5.9498   6.0682
     6.1307   6.4457   6.4818   6.6423   6.9167   7.0138   7.1283   7.4319
     7.5913   7.6761   7.8879   8.0910   8.1626   8.3216   8.3899   8.5340
     8.6688   8.8086   8.9563   9.0805   9.0913   9.3202   9.4341   9.4491
     9.6263   9.7053   9.8010   9.8793  10.0263  10.0722  10.1839  10.2916
    10.3185  10.4003  10.4795  10.6278  10.6774  10.7380  10.8826  10.9794
    11.0335  11.1890  11.2499  11.3392  11.4377  11.5721  11.6547  11.7572
    11.8058  11.8972  11.9381  12.0279  12.1165  12.1851  12.2038  12.2802
    12.3744  12.4697  12.5188  12.6248  12.7625  12.7822  12.8508  12.9237
    12.9894  13.0283  13.1778  13.2881  13.3584  13.3951  13.4672  13.5453
    13.6085  13.7250  13.8134  13.8805  13.9528  13.9871  14.1040  14.2042
    14.2830  14.3744  14.4702  14.5312  14.6116  14.6966  14.7856  14.8692
    14.9588  15.0159  15.1000  15.2155  15.2498  15.3428  15.3538  15.4366
    15.5121  15.5586  15.6003  15.7071  15.7538  15.8118  15.8683  15.9215
    15.9932  16.0295  16.0849  16.1266  16.1909  16.2307  16.2507  16.3407
    16.3877  16.4712  16.5516  16.6254  16.7132  16.7507  16.8032  16.9239
    16.9814  17.0227  17.0789  17.2045  17.2455  17.3094  17.3759  17.4679
    17.4992  17.5830  17.6408  17.7137  17.7673  17.8103  17.8562  17.9116
    17.9660  18.0559  18.0755  18.1316  18.2278  18.2825  18.3424  18.4168
    18.4707  18.5418  18.6130  18.7315  18.7862  18.8558  18.9115  19.0047
    19.0325  19.1428  19.2351  19.2693  19.3399  19.4045  19.5347  19.6262
    19.6735  19.7708  19.8339  19.8797  19.9473  19.9902  20.0615  20.1778
    20.2684  20.3431  20.4598  20.5121  20.5748  20.6055  20.6731  20.7514
    20.8714  20.9485  20.9812  21.0912  21.0983  21.1536  21.2140  21.2842
    21.2945  21.3425  21.4472  21.5137  21.5382  21.5955  21.6310  21.6895
    21.8086  21.8473  21.9106  21.9315  21.9554  22.0584  22.1114  22.1825
    22.2517  22.3452  22.3886  22.4231  22.4849  22.5527  22.6673  22.7332
    22.8058  22.8267  22.9065  22.9244  22.9897  23.0836  23.1006  23.1596
    23.1948  23.2694  23.3351

     the Fermi energy is    -0.7818 ev

!    total energy              =   -2192.87380838 Ry
     Harris-Foulkes estimate   =   -2192.87380839 Ry
     estimated scf accuracy    <          5.2E-09 Ry

     The total energy is the sum of the following terms:

     one-electron contribution =  -25534.69689173 Ry
     hartree contribution      =   12800.73768267 Ry
     xc contribution           =    -345.81148283 Ry
     ewald contribution        =   10883.28846658 Ry
     Hubbard energy            =       3.60823701 Ry
     smearing contrib. (-TS)   =       0.00017990 Ry

     convergence has been achieved in  16 iterations

     Forces acting on atoms (Ry/au):

     negative rho (up, down):  0.571E+00 0.000E+00
     atom    1 type  1   force =    -0.00573752   -0.00470544   -0.00071545
     atom    2 type  1   force =     0.00321672    0.00053810   -0.00072402
     atom    3 type  2   force =     0.05930077    0.00501224    0.00029018
     atom    4 type  2   force =     0.00973667    0.00398954   -0.00062627
     atom    5 type  1   force =    -0.00541476   -0.05398909    0.00006620
     atom    6 type  1   force =     0.00806099    0.05152055    0.00016891
     atom    7 type  1   force =    -0.00409384   -0.00734880    0.00009745
     atom    8 type  1   force =     0.03427522    0.00157331   -0.00084093
     atom    9 type  2   force =    -0.01928556    0.00032449    0.00069248
     atom   10 type  2   force =     0.02223494    0.00275375    0.00055422
     atom   11 type  1   force =    -0.01987062    0.00534071    0.00002358
     atom   12 type  1   force =    -0.00543549   -0.00013938    0.00032071
     atom   13 type  1   force =     0.04554986   -0.00250422    0.00061476
     atom   14 type  1   force =    -0.00487851   -0.00835558   -0.00021050
     atom   15 type  1   force =     0.00102130    0.00187423    0.00060825
     atom   16 type  2   force =    -0.05380457    0.00592414    0.00025845
     atom   17 type  2   force =     0.00287383    0.00608824    0.00007725
     atom   18 type  1   force =    -0.00539995   -0.05433509    0.00015153
     atom   19 type  1   force =     0.00550142    0.05455316    0.00050635
     atom   20 type  1   force =    -0.00877213   -0.00341343   -0.00015331
     atom   21 type  1   force =    -0.03650263    0.00093347   -0.00066711
     atom   22 type  2   force =    -0.01030566   -0.00268705   -0.00029347
     atom   23 type  2   force =    -0.00914519   -0.00160793   -0.00007101
     atom   24 type  1   force =     0.00786669    0.04199307    0.00039988
     atom   25 type  1   force =     0.00700842   -0.03639229    0.00012856
     atom   26 type  1   force =    -0.02651865   -0.00698207   -0.00038860
     atom   27 type  3   force =     0.00000341   -0.00048355    0.00008400
     atom   28 type  3   force =     0.00001522   -0.00018303    0.00024027
     atom   29 type  3   force =     0.00014176    0.00012194   -0.00024066
     atom   30 type  3   force =    -0.00002246    0.00021247   -0.00024549
     atom   31 type  1   force =     0.00589650    0.00017081   -0.00006149
     atom   32 type  1   force =     0.00418582   -0.00009995    0.00017382
     atom   33 type  3   force =    -0.00170200    0.00030268   -0.00021854

     Total force =     0.002435     Total SCF correction =     0.000102

     bfgs converged in  27 scf cycles and  26 bfgs steps
     (criteria: energy < 0.10E-03, force < 0.10E-02)

     End of BFGS Geometry Optimization

     Final energy   =   -2192.8738083847 Ry
Begin final coordinates

ATOMIC_POSITIONS (crystal)
O0       0.000000000   0.000000000   0.380195980    0   0   1
O0       0.000000000   0.500000000   0.404605025    0   0   1
Ru1      0.250000000   0.500000000   0.453245628    0   0   1
Ru1      0.000000000   0.000000000   0.453231222    0   0   1
O0       0.250000000   0.810000000   0.452672842    0   0   1
O0       0.250000000   0.190000000   0.452520483    0   0   1
O0       0.000000000   0.500000000   0.500869090    0   0   1
O0       0.000000000   0.000000000   0.525986785    0   0   1
Ru1      0.250000000   0.000000000   0.581259014    0   0   1
Ru1      0.000000000   0.500000000   0.569483352    0   0   1
O0       0.250000000   0.690000000   0.577299761    0   0   1
O0       0.250000000   0.310000000   0.579673804    0   0   1
O0       0.000000000   0.000000000   0.618247288    0   0   1
O0       0.500000000   0.000000000   0.379014923    0   0   1
O0       0.500000000   0.500000000   0.401139672    0   0   1
Ru1      0.750000000   0.500000000   0.453145618    0   0   1
Ru1      0.500000000   0.000000000   0.452069672    0   0   1
O0       0.750000000   0.810000000   0.452610743    0   0   1
O0       0.750000000   0.190000000   0.452528854    0   0   1
O0       0.500000000   0.500000000   0.500391726    0   0   1
O0       0.500000000   0.000000000   0.524721590    0   0   1
Ru1      0.750000000   0.000000000   0.572300494    0   0   1
Ru1      0.500000000   0.500000000   0.579441387    0   0   1
O0       0.750000000   0.690000000   0.572737037    0   0   1
O0       0.750000000   0.310000000   0.574914849    0   0   1
O0       0.500000000   0.000000000   0.616549477    0   0   1
H2      -0.000233000   0.593318560   0.375109684
H2       0.499683143   0.634536512   0.382959273
H2       0.148385778   0.021835234   0.368112721
H2       0.647351922   0.025686716   0.366754382
O0       0.500070000   0.530761112   0.650432128    0   1   1
O0       0.499990000   0.341168689   0.680060276    0   1   1
H2       0.499960000   0.402871090   0.714335223    0   1   1
End final coordinates

     General routines

     Parallel routines
     Hubbard U routines

   This run was terminated on:   9:56:35  13Aug2014

   JOB DONE.