     Program PWSCF v.5.0.2 (svn rev. 9656) starts on  8Aug2014 at 17:31: 8

     Current dimensions of program PWSCF are:
     Max number of different atomic species (ntypx) = 10
     Max number of k-points (npk) =  40000
     Max angular momentum in pseudopotentials (lmaxx) =  3
     Reading input from pwscf.in
Warning: card &CELL ignored
Warning: card / ignored

     Subspace diagonalization in iterative solution of the eigenvalue problem:
     a serial algorithm will be used

     bravais-lattice index     =            0
     lattice parameter (alat)  =      11.2250  a.u.
     unit-cell volume          =    7005.5484 (a.u.)^3
     number of atoms/cell      =           33
     number of atomic types    =            3
     number of electrons       =       221.00
     number of Kohn-Sham states=          319
     kinetic-energy cutoff     =      40.0000  Ry
     charge density cutoff     =     500.0000  Ry
     convergence threshold     =      1.0E-06
     mixing beta               =       0.7000
     number of iterations used =            8  plain     mixing
     Exchange-correlation      = SLA  PW   PBE  PBE ( 1 4 3 4 0)
     EXX-fraction              =        0.00
     nstep                     =           50

     celldm(1)=  11.224973  celldm(2)=   0.000000  celldm(3)=   0.000000
     celldm(4)=   0.000000  celldm(5)=   0.000000  celldm(6)=   0.000000

     crystal axes: (cart. coord. in units of alat)
               a(1) = (   1.000000   0.000000   0.000000 )
               a(2) = (   0.000000   1.107086   0.000000 )
               a(3) = (   0.000000   0.000000   4.474090 )

     reciprocal axes: (cart. coord. in units 2 pi/alat)
               b(1) = (  1.000000  0.000000  0.000000 )
               b(2) = (  0.000000  0.903272  0.000000 )
               b(3) = (  0.000000  0.000000  0.223509 )

     PseudoPot. # 1 for O  read from file:
     /home-research/zhongnanxu/gbrv_espresso_pseudo_v1.01/o_pbe_v1.01.uspp.F.UPF
     MD5 check sum: 2bcb18d16ea4b960afae9ec6d52f22d2
     Pseudo is Ultrasoft + core correction, Zval =  6.0
     Generated by new atomic code, or converted to UPF format
     Using radial grid of  737 points,  5 beta functions with:
                l(1) =   0
                l(2) =   0
                l(3) =   1
                l(4) =   1
                l(5) =   2
     Q(r) pseudized with  8 coefficients,  rinner =    0.900   0.900   0.900
                                                       0.900   0.900

     PseudoPot. # 2 for Ti read from file:
     /home-research/zhongnanxu/gbrv_espresso_pseudo_v1.01/ti_pbe_v1.uspp.F.UPF
     MD5 check sum: bcc8f6961b3b91f0cac3ca967d22d0fb
     Pseudo is Ultrasoft + core correction, Zval = 12.0
     Generated by new atomic code, or converted to UPF format
     Using radial grid of  851 points,  6 beta functions with:
                l(1) =   0
                l(2) =   0
                l(3) =   1
                l(4) =   1
                l(5) =   2
                l(6) =   2
     Q(r) pseudized with  6 coefficients,  rinner =    1.000   1.000   1.000
                                                       1.000   1.000

     PseudoPot. # 3 for H  read from file:
     /home-research/zhongnanxu/gbrv_espresso_pseudo_v1.01/h_pbe_v1.uspp.F.UPF
     MD5 check sum: 3408e3ff4ec8b0a4e358431e7e038a48
     Pseudo is Ultrasoft, Zval =  1.0
     Generated by new atomic code, or converted to UPF format
     Using radial grid of  615 points,  2 beta functions with:
                l(1) =   0
                l(2) =   0
     Q(r) pseudized with  8 coefficients,  rinner =    0.700

     atomic species   valence    mass     pseudopotential
        O0             6.00    15.99940     O ( 1.00)
        Ti1           12.00    47.88000     Ti( 1.00)
        H2             1.00     1.00794     H ( 1.00)

     Simplified LDA+U calculation (l_max = 2) with parameters (eV):
     atomic species    L          U    alpha       J0     beta
        Ti1            2     7.5000   0.0000   0.0000   0.0000

     No symmetry found

   Cartesian axes

     site n.     atom                  positions (alat units)
         1           O0  tau(   1) = (   0.0000000   0.0000000   1.6912954  )
         2           O0  tau(   2) = (   0.0000000   0.5535432   1.7865040  )
         3           Ti1 tau(   3) = (   0.2500000   0.5535432   2.0182619  )
         4           Ti1 tau(   4) = (   0.0000000   0.0000000   2.0215280  )
         5           O0  tau(   5) = (   0.2500000   0.8967400   2.0132062  )
         6           O0  tau(   6) = (   0.2500000   0.2103464   2.0173223  )
         7           O0  tau(   7) = (   0.0000000   0.5535432   2.2297074  )
         8           O0  tau(   8) = (   0.0000000   0.0000000   2.3520737  )
         9           Ti1 tau(   9) = (   0.2500000   0.0000000   2.5974328  )
        10           Ti1 tau(  10) = (   0.0000000   0.5535432   2.5411040  )
        11           O0  tau(  11) = (   0.2500000   0.7638896   2.5876345  )
        12           O0  tau(  12) = (   0.2500000   0.3431968   2.5923323  )
        13           O0  tau(  13) = (   0.0000000   0.0000000   2.7826601  )
        14           O0  tau(  14) = (   0.5000000   0.0000000   1.6946510  )
        15           O0  tau(  15) = (   0.5000000   0.5535432   1.7849381  )
        16           Ti1 tau(  16) = (   0.7500000   0.5535432   2.0183066  )
        17           Ti1 tau(  17) = (   0.5000000   0.0000000   2.0277470  )
        18           O0  tau(  18) = (   0.7500000   0.8967400   2.0129377  )
        19           O0  tau(  19) = (   0.7500000   0.2103464   2.0175013  )
        20           O0  tau(  20) = (   0.5000000   0.5535432   2.2179405  )
        21           O0  tau(  21) = (   0.5000000   0.0000000   2.3528791  )
        22           Ti1 tau(  22) = (   0.7500000   0.0000000   2.5974328  )
        23           Ti1 tau(  23) = (   0.5000000   0.5535432   2.6181478  )
        24           O0  tau(  24) = (   0.7500000   0.7638896   2.5875898  )
        25           O0  tau(  25) = (   0.7500000   0.3431968   2.5922429  )
        26           O0  tau(  26) = (   0.5000000   0.0000000   2.7811837  )
        27           H2  tau(  27) = (  -0.0004600   0.6930693   1.6949194  )
        28           H2  tau(  28) = (   0.4997200   0.6918293   1.6916086  )
        29           H2  tau(  29) = (   0.1490000   0.0365781   1.6268238  )
        30           H2  tau(  30) = (   0.6482800   0.0381834   1.6297319  )
        31           O0  tau(  31) = (   0.5003100   0.5833902   2.9430115  )
        32           O0  tau(  32) = (   0.4991200   0.3876242   3.0783974  )
        33           H2  tau(  33) = (   0.5003600   0.4575034   3.2295322  )

     number of k points=    10  Methfessel-Paxton smearing, width (Ry)=  0.0100
                       cart. coord. in units 2pi/alat
        k(    1) = (   0.0000000   0.0000000   0.0000000), wk =   0.1250000
        k(    2) = (   0.0000000   0.2258180   0.0000000), wk =   0.2500000
        k(    3) = (   0.0000000  -0.4516359   0.0000000), wk =   0.1250000
        k(    4) = (   0.2500000   0.0000000   0.0000000), wk =   0.2500000
        k(    5) = (   0.2500000   0.2258180   0.0000000), wk =   0.2500000
        k(    6) = (   0.2500000  -0.4516359   0.0000000), wk =   0.2500000
        k(    7) = (  -0.5000000   0.0000000   0.0000000), wk =   0.1250000
        k(    8) = (  -0.5000000   0.2258180   0.0000000), wk =   0.2500000
        k(    9) = (  -0.5000000  -0.4516359   0.0000000), wk =   0.1250000
        k(   10) = (  -0.2500000   0.2258180   0.0000000), wk =   0.2500000

     Largest allocated arrays     est. size (Mb)     dimensions
     Largest temporary arrays     est. size (Mb)     dimensions

     Check: negative/imaginary core charge=   -0.000006    0.000000

     Initial potential from superposition of free atoms
     Check: negative starting charge=   -0.102033

     starting charge  212.99957, renormalised to  221.00000

     negative rho (up, down):  0.106E+00 0.000E+00
     Number of +U iterations with fixed ns =  0
     Starting occupations:
 --- enter write_ns ---
 LDA+U parameters:
U( 2)     =  7.50000000
alpha( 2) =  0.00000000
atom    3   Tr[ns(na)] =   2.00000
    eigenvalues:
  0.200  0.200  0.200  0.200  0.200
    eigenvectors:
  1.000  0.000  0.000  0.000  0.000
  0.000  1.000  0.000  0.000  0.000
  0.000  0.000  1.000  0.000  0.000
  0.000  0.000  0.000  1.000  0.000
  0.000  0.000  0.000  0.000  1.000
    occupations:
  0.200  0.000  0.000  0.000  0.000
  0.000  0.200  0.000  0.000  0.000
  0.000  0.000  0.200  0.000  0.000
  0.000  0.000  0.000  0.200  0.000
  0.000  0.000  0.000  0.000  0.200
atom    4   Tr[ns(na)] =   2.00000
    eigenvalues:
  0.200  0.200  0.200  0.200  0.200
    eigenvectors:
  1.000  0.000  0.000  0.000  0.000
  0.000  1.000  0.000  0.000  0.000
  0.000  0.000  1.000  0.000  0.000
  0.000  0.000  0.000  1.000  0.000
  0.000  0.000  0.000  0.000  1.000
    occupations:
  0.200  0.000  0.000  0.000  0.000
  0.000  0.200  0.000  0.000  0.000
  0.000  0.000  0.200  0.000  0.000
  0.000  0.000  0.000  0.200  0.000
  0.000  0.000  0.000  0.000  0.200
atom    9   Tr[ns(na)] =   2.00000
    eigenvalues:
  0.200  0.200  0.200  0.200  0.200
    eigenvectors:
  1.000  0.000  0.000  0.000  0.000
  0.000  1.000  0.000  0.000  0.000
  0.000  0.000  1.000  0.000  0.000
  0.000  0.000  0.000  1.000  0.000
  0.000  0.000  0.000  0.000  1.000
    occupations:
  0.200  0.000  0.000  0.000  0.000
  0.000  0.200  0.000  0.000  0.000
  0.000  0.000  0.200  0.000  0.000
  0.000  0.000  0.000  0.200  0.000
  0.000  0.000  0.000  0.000  0.200
atom   10   Tr[ns(na)] =   2.00000
    eigenvalues:
  0.200  0.200  0.200  0.200  0.200
    eigenvectors:
  1.000  0.000  0.000  0.000  0.000
  0.000  1.000  0.000  0.000  0.000
  0.000  0.000  1.000  0.000  0.000
  0.000  0.000  0.000  1.000  0.000
  0.000  0.000  0.000  0.000  1.000
    occupations:
  0.200  0.000  0.000  0.000  0.000
  0.000  0.200  0.000  0.000  0.000
  0.000  0.000  0.200  0.000  0.000
  0.000  0.000  0.000  0.200  0.000
  0.000  0.000  0.000  0.000  0.200
atom   16   Tr[ns(na)] =   2.00000
    eigenvalues:
  0.200  0.200  0.200  0.200  0.200
    eigenvectors:
  1.000  0.000  0.000  0.000  0.000
  0.000  1.000  0.000  0.000  0.000
  0.000  0.000  1.000  0.000  0.000
  0.000  0.000  0.000  1.000  0.000
  0.000  0.000  0.000  0.000  1.000
    occupations:
  0.200  0.000  0.000  0.000  0.000
  0.000  0.200  0.000  0.000  0.000
  0.000  0.000  0.200  0.000  0.000
  0.000  0.000  0.000  0.200  0.000
  0.000  0.000  0.000  0.000  0.200
atom   17   Tr[ns(na)] =   2.00000
    eigenvalues:
  0.200  0.200  0.200  0.200  0.200
    eigenvectors:
  1.000  0.000  0.000  0.000  0.000
  0.000  1.000  0.000  0.000  0.000
  0.000  0.000  1.000  0.000  0.000
  0.000  0.000  0.000  1.000  0.000
  0.000  0.000  0.000  0.000  1.000
    occupations:
  0.200  0.000  0.000  0.000  0.000
  0.000  0.200  0.000  0.000  0.000
  0.000  0.000  0.200  0.000  0.000
  0.000  0.000  0.000  0.200  0.000
  0.000  0.000  0.000  0.000  0.200
atom   22   Tr[ns(na)] =   2.00000
    eigenvalues:
  0.200  0.200  0.200  0.200  0.200
    eigenvectors:
[...]
  0.126 -0.011  0.008  0.370 -0.001
  0.000  0.015 -0.006 -0.001  0.130
atom    4   Tr[ns(na)] =   2.62610
    eigenvalues:
  0.118  0.141  0.155  0.441  0.458
    eigenvectors:
  0.007  0.002  0.000  0.000  0.990
  0.003  0.797  0.198  0.000  0.003
  0.002  0.196  0.802  0.000  0.000
  0.988  0.005  0.000  0.000  0.007
  0.000  0.000  0.000  1.000  0.000
    occupations:
  0.455  0.016  0.005 -0.028  0.000
  0.016  0.145 -0.005  0.000 -0.003
  0.005 -0.005  0.152  0.001  0.000
 -0.028  0.000  0.001  0.120  0.000
  0.000 -0.003  0.000  0.000  0.441
atom    9   Tr[ns(na)] =   2.61932
    eigenvalues:
  0.118  0.161  0.169  0.385  0.477
    eigenvectors:
  0.000  0.002  0.895  0.103  0.000
  0.000  0.000  0.000  0.000  1.000
  0.999  0.001  0.000  0.000  0.000
  0.000  0.000  0.103  0.897  0.000
  0.001  0.996  0.003  0.000  0.000
    occupations:
  0.191  0.002  0.001  0.066  0.000
  0.002  0.477  0.000 -0.002  0.000
  0.001  0.000  0.118  0.002 -0.002
  0.066 -0.002  0.002  0.363  0.000
  0.000  0.000 -0.002  0.000  0.161
atom   10   Tr[ns(na)] =   2.55039
    eigenvalues:
  0.127  0.156  0.181  0.324  0.488
    eigenvectors:
  0.022  0.000  0.000  0.978  0.000
  0.000  0.000  1.000  0.000  0.000
  0.001  0.999  0.000  0.000  0.000
  0.977  0.001  0.000  0.022  0.000
  0.000  0.000  0.000  0.000  1.000
    occupations:
  0.319  0.000 -0.001 -0.029  0.000
  0.000  0.181  0.000  0.000  0.004
 -0.001  0.000  0.156 -0.001  0.000
 -0.029  0.000 -0.001  0.131  0.000
  0.000  0.004  0.000  0.000  0.487
atom   16   Tr[ns(na)] =   2.51115
    eigenvalues:
  0.113  0.127  0.139  0.427  0.450
    eigenvectors:
  0.713  0.042  0.049  0.156  0.040
  0.000  0.001  0.001  0.224  0.774
  0.101  0.197  0.701  0.000  0.000
  0.179  0.008  0.009  0.619  0.185
  0.006  0.752  0.240  0.001  0.002
    occupations:
  0.177  0.000 -0.004  0.126 -0.001
  0.000  0.444 -0.001  0.011  0.014
 -0.004 -0.001  0.134  0.007  0.006
  0.126  0.011  0.007  0.370  0.000
 -0.001  0.014  0.006  0.000  0.130
atom   17   Tr[ns(na)] =   2.62507
    eigenvalues:
  0.117  0.143  0.155  0.438  0.460
    eigenvectors:
  0.007  0.002  0.000  0.000  0.991
  0.002  0.806  0.190  0.000  0.002
  0.001  0.188  0.810  0.000  0.000
  0.990  0.003  0.000  0.000  0.007
  0.000  0.000  0.000  1.000  0.000
    occupations:
  0.457  0.015  0.005 -0.028  0.000
  0.015  0.146 -0.004  0.000 -0.003
  0.005 -0.004  0.153  0.001  0.000
 -0.028  0.000  0.001  0.119  0.000
  0.000 -0.003  0.000  0.000  0.438
atom   22   Tr[ns(na)] =   2.61943
    eigenvalues:
  0.118  0.161  0.169  0.385  0.477
    eigenvectors:
  0.000  0.003  0.894  0.103  0.000
  0.000  0.000  0.000  0.000  1.000
  0.999  0.001  0.000  0.000  0.000
  0.000  0.000  0.102  0.897  0.000
  0.001  0.995  0.003  0.000  0.000
    occupations:
  0.191 -0.002  0.001  0.066  0.000
 -0.002  0.477  0.000  0.002  0.000
  0.001  0.000  0.118  0.002  0.002
  0.066  0.002  0.002  0.363  0.001
  0.000  0.000  0.002  0.001  0.161
atom   23   Tr[ns(na)] =   2.54306
    eigenvalues:
  0.110  0.130  0.163  0.382  0.486
    eigenvectors:
  0.001  0.011  0.000  0.988  0.000
  0.000  0.000  1.000  0.000  0.000
  0.999  0.000  0.000  0.001  0.000
  0.000  0.989  0.000  0.011  0.000
  0.000  0.000  0.000  0.000  1.000
    occupations:
  0.379  0.000 -0.008 -0.026  0.000
  0.000  0.163  0.000  0.000  0.003
 -0.008  0.000  0.110  0.001  0.000
 -0.026  0.000  0.001  0.133  0.000
  0.000  0.003  0.000  0.000  0.486
N of occupied +U levels =  20.6054709
 --- exit write_ns ---

[...]

     total energy              =   -1596.23937699 Ry
     Harris-Foulkes estimate   =   -1596.23937699 Ry
     estimated scf accuracy    <       0.00000002 Ry

     iteration # 13     ecut=    40.00 Ry     beta=0.70
     Davidson diagonalization with overlap
     ethr =  8.54E-12,  avg # of iterations =  1.0

     negative rho (up, down):  0.109E+00 0.000E+00

     End of self-consistent calculation
 --- enter write_ns ---
 LDA+U parameters:
U( 2)     =  7.50000000
alpha( 2) =  0.00000000
atom    3   Tr[ns(na)] =   2.51125
    eigenvalues:
  0.113  0.127  0.139  0.427  0.450
    eigenvectors:
  0.712  0.043  0.049  0.156  0.040
  0.000  0.001  0.001  0.226  0.772
  0.103  0.201  0.696  0.000  0.000
  0.179  0.009  0.009  0.617  0.186
  0.007  0.746  0.245  0.000  0.002
    occupations:
  0.177  0.000 -0.004  0.126  0.000
  0.000  0.444  0.001 -0.011  0.015
 -0.004  0.001  0.134  0.007 -0.006
  0.126 -0.011  0.007  0.370 -0.001
  0.000  0.015 -0.006 -0.001  0.130
atom    4   Tr[ns(na)] =   2.62594
    eigenvalues:
  0.118  0.141  0.155  0.441  0.458
    eigenvectors:
  0.007  0.002  0.000  0.000  0.990
  0.003  0.796  0.198  0.000  0.003
  0.002  0.196  0.802  0.000  0.000
  0.988  0.005  0.000  0.000  0.007
  0.000  0.000  0.000  1.000  0.000
    occupations:
  0.455  0.016  0.005 -0.028  0.000
  0.016  0.145 -0.005  0.000 -0.003
  0.005 -0.005  0.152  0.001  0.000
 -0.028  0.000  0.001  0.120  0.000
  0.000 -0.003  0.000  0.000  0.441
atom    9   Tr[ns(na)] =   2.61996
    eigenvalues:
  0.118  0.161  0.169  0.385  0.477
    eigenvectors:
  0.000  0.002  0.895  0.103  0.000
  0.000  0.000  0.000  0.000  1.000
  0.999  0.001  0.000  0.000  0.000
  0.000  0.000  0.103  0.897  0.000
  0.001  0.996  0.002  0.000  0.000
    occupations:
  0.191  0.002  0.001  0.066  0.000
  0.002  0.477  0.000 -0.002  0.000
  0.001  0.000  0.118  0.002 -0.002
  0.066 -0.002  0.002  0.363  0.000
  0.000  0.000 -0.002  0.000  0.161
atom   10   Tr[ns(na)] =   2.54955
    eigenvalues:
  0.127  0.156  0.180  0.324  0.487
    eigenvectors:
  0.022  0.000  0.000  0.978  0.000
  0.000  0.000  1.000  0.000  0.000
  0.001  0.999  0.000  0.000  0.000
  0.977  0.001  0.000  0.022  0.000
  0.000  0.000  0.000  0.000  1.000
    occupations:
  0.319  0.000 -0.001 -0.029  0.000
  0.000  0.180  0.000  0.000  0.004
 -0.001  0.000  0.156 -0.001  0.000
 -0.029  0.000 -0.001  0.131  0.000
  0.000  0.004  0.000  0.000  0.487
atom   16   Tr[ns(na)] =   2.51146
    eigenvalues:
  0.113  0.127  0.139  0.427  0.450
    eigenvectors:
  0.714  0.041  0.049  0.156  0.039
  0.000  0.001  0.001  0.224  0.774
  0.100  0.197  0.702  0.000  0.000
  0.179  0.008  0.009  0.619  0.185
  0.006  0.752  0.240  0.001  0.002
    occupations:
  0.177  0.000 -0.004  0.126 -0.001
  0.000  0.444 -0.001  0.011  0.014
 -0.004 -0.001  0.134  0.007  0.006
  0.126  0.011  0.007  0.370  0.000
 -0.001  0.014  0.006  0.000  0.130
atom   17   Tr[ns(na)] =   2.62478
    eigenvalues:
  0.117  0.143  0.155  0.438  0.460
    eigenvectors:
  0.007  0.002  0.000  0.000  0.991
  0.002  0.807  0.189  0.000  0.002
  0.001  0.188  0.810  0.000  0.000
  0.990  0.003  0.000  0.000  0.007
  0.000  0.000  0.000  1.000  0.000
    occupations:
  0.457  0.015  0.005 -0.028  0.000
  0.015  0.146 -0.004  0.000 -0.003
  0.005 -0.004  0.153  0.001  0.000
 -0.028  0.000  0.001  0.119  0.000
  0.000 -0.003  0.000  0.000  0.438
atom   22   Tr[ns(na)] =   2.62008
    eigenvalues:
  0.118  0.161  0.169  0.385  0.477
    eigenvectors:
  0.000  0.003  0.894  0.103  0.000
  0.000  0.000  0.000  0.000  1.000
  0.999  0.001  0.000  0.000  0.000
  0.000  0.000  0.102  0.897  0.000
  0.001  0.995  0.003  0.000  0.000
    occupations:
  0.191 -0.002  0.001  0.066  0.000
 -0.002  0.477  0.000  0.002  0.000
  0.001  0.000  0.118  0.002  0.002
  0.066  0.002  0.002  0.363  0.001
  0.000  0.000  0.002  0.001  0.161
atom   23   Tr[ns(na)] =   2.54196
    eigenvalues:
  0.110  0.130  0.163  0.382  0.486
    eigenvectors:
  0.001  0.011  0.000  0.988  0.000
  0.000  0.000  1.000  0.000  0.000
  0.999  0.000  0.000  0.001  0.000
  0.000  0.989  0.000  0.011  0.000
  0.000  0.000  0.000  0.000  1.000
    occupations:
  0.379  0.000 -0.008 -0.026  0.000
  0.000  0.163  0.000  0.000  0.003
 -0.008  0.000  0.110  0.001  0.000
 -0.026  0.000  0.001  0.133  0.000
  0.000  0.003  0.000  0.000  0.486
N of occupied +U levels =  20.6049863
 --- exit write_ns ---

[...]

          k = 0.2500-0.4516 0.0000 ( 29882 PWs)   bands (ev):

[...]

          k =-0.2500 0.2258 0.0000 ( 29912 PWs)   bands (ev):

   -61.4973 -61.4733 -61.2596 -60.9581 -60.1692 -60.1381 -59.6674 -59.6419
   -37.8649 -37.6646 -37.6433 -37.5881 -37.5688 -37.5613 -37.5484 -37.4253
   -37.3516 -37.1450 -37.1283 -37.0655 -36.6268 -36.4520 -36.3840 -36.3323
   -36.1903 -36.1591 -35.9811 -35.9607 -35.9119 -35.8248 -35.7644 -35.6281
   -24.8150 -21.3312 -21.1125 -20.1828 -19.7260 -19.6798 -19.2969 -19.2538
   -19.1295 -19.0322 -18.9773 -18.9638 -18.9416 -18.7832 -18.7127 -18.0927
   -17.8416 -17.6030 -17.3622 -17.3427  -9.4738  -8.9325  -8.7319  -7.8695
    -7.2639  -7.1470  -7.1246  -7.0236  -6.9196  -6.7169  -6.6819  -6.6232
    -6.5659  -6.5346  -6.4626  -6.3045  -6.2472  -6.1949  -6.0957  -5.9915
    -5.9017  -5.6724  -5.6180  -5.3931  -5.3039  -5.0800  -4.9995  -4.8666
    -4.8430  -4.7667  -4.7432  -4.6425  -4.5714  -4.5173  -4.4341  -4.3563
    -4.3266  -4.2549  -4.2107  -4.0787  -4.0301  -3.8955  -3.8161  -3.6821
    -3.6170  -3.4584  -3.2847  -3.0571  -2.9124  -2.7579  -2.7107  -2.6612
    -2.5500  -2.3599  -2.2893  -2.2620  -2.2004  -2.0849  -2.0355   0.3667
     0.6789   0.7347   0.8078   0.8348   0.8774   0.9662   1.0663   1.2067
     1.2470   1.3315   1.4040   1.4877   1.6215   1.6798   1.7128   1.8772
     1.9719   2.0180   2.0928   2.1326   2.2027   2.3046   2.3623   2.4978
     2.5909   2.6895   2.7073   2.7656   2.9688   3.0628   3.1494   3.1916
     3.2523   3.2747   3.3956   3.4757   3.7543   3.8261   3.8898   3.9908
     4.1110   4.1562   4.2351   4.7290   5.1440   5.2624   5.6301   5.6719
     5.7337   6.0316   6.1113   6.3166   6.3925   6.6568   6.7436   7.0302
     7.1910   7.3677   7.4984   7.6225   7.7737   8.0020   8.0478   8.1068
     8.2005   8.2688   8.4530   8.4929   8.7061   8.7655   8.8748   8.9668
     9.0888   9.1337   9.2648   9.3903   9.5160   9.6188   9.6878   9.7595
     9.8575   9.9591  10.1050  10.3047  10.3322  10.3965  10.4755  10.5541
    10.6363  10.7203  10.8715  10.9320  11.0248  11.0819  11.1730  11.2265
    11.3311  11.4396  11.5006  11.5403  11.6322  11.7047  11.7749  11.8414
    11.9272  12.0418  12.0597  12.1410  12.2058  12.2718  12.3373  12.4041
    12.5095  12.5526  12.5855  12.6930  12.7668  12.9180  12.9881  13.0200
    13.0505  13.1025  13.1407  13.3100  13.4329  13.5465  13.5678  13.6962
    13.7457  13.8597  13.8834  13.9721  14.0460  14.0828  14.1646  14.2042
    14.2660  14.3235  14.3721  14.4806  14.5409  14.5800  14.6304  14.7433
    14.8019  14.9178  14.9632  15.0961  15.1217  15.2032  15.2937  15.3548
    15.4777  15.5159  15.5402  15.6220  15.6549  15.7328  15.7978  15.8575
    15.9482  16.0001  16.0713  16.1388  16.1799  16.2845  16.3569  16.4407
    16.5117  16.5746  16.6103  16.7069  16.7799  16.8504  16.8869  16.9302
    17.0003  17.0841  17.1456  17.2192  17.2638  17.3584  17.4081  17.4565
    17.5390  17.5982  17.6549  17.7647  17.8177  17.9187  17.9439  18.0497
    18.1193  18.1689  18.2809  18.3554  18.4147  18.4840  18.6284  18.6431
    18.6872  18.7514  18.8063  18.8574  18.9538  19.0442  19.1067

     the Fermi energy is    -2.0231 ev

!    total energy              =   -1596.23937699 Ry
     Harris-Foulkes estimate   =   -1596.23937699 Ry
     estimated scf accuracy    <          3.5E-09 Ry

     The total energy is the sum of the following terms:

     one-electron contribution =  -19017.44159930 Ry
     hartree contribution      =    9528.91337184 Ry
     xc contribution           =    -284.38261507 Ry
     ewald contribution        =    8172.93938835 Ry
     Hubbard energy            =       3.73302296 Ry
     smearing contrib. (-TS)   =      -0.00094577 Ry

     convergence has been achieved in  13 iterations

     Forces acting on atoms (Ry/au):

     negative rho (up, down):  0.109E+00 0.000E+00
     atom    1 type  1   force =    -0.00374845   -0.01527411   -0.00049268
     atom    2 type  1   force =     0.00009237    0.01674053    0.00058191
     atom    3 type  2   force =     0.03780030   -0.00624265   -0.00021812
     atom    4 type  2   force =     0.00263196    0.01006008   -0.00023338
     atom    5 type  1   force =    -0.00121975   -0.09005836    0.00053873
     atom    6 type  1   force =    -0.00398724    0.08757854    0.00054963
     atom    7 type  1   force =     0.00007523   -0.00107275   -0.00047130
     atom    8 type  1   force =     0.00024112   -0.00089887    0.00024661
     atom    9 type  2   force =     0.00241850    0.00010260   -0.00086031
     atom   10 type  2   force =     0.00005112   -0.00129458    0.00039354
     atom   11 type  1   force =    -0.02442950   -0.01098152   -0.00037509
     atom   12 type  1   force =    -0.02196822    0.01577207    0.00013559
     atom   13 type  1   force =     0.00002048   -0.00226919    0.00013315
     atom   14 type  1   force =    -0.00537748   -0.01536788   -0.00049472
     atom   15 type  1   force =     0.00014729    0.01674822    0.00085273
     atom   16 type  2   force =    -0.03770795   -0.00671436   -0.00021623
     atom   17 type  2   force =     0.00268411    0.00960640   -0.00004595
     atom   18 type  1   force =     0.00475302   -0.09019492    0.00053056
     atom   19 type  1   force =     0.00313576    0.08789274    0.00056935
     atom   20 type  1   force =    -0.00006525   -0.00067914   -0.00051946
     atom   21 type  1   force =     0.00012116   -0.00024225    0.00025883
     atom   22 type  2   force =    -0.00249177    0.00012021   -0.00086153
     atom   23 type  2   force =    -0.00010947   -0.00293187   -0.00086280
     atom   24 type  1   force =     0.02452295   -0.01085768   -0.00037983
     atom   25 type  1   force =     0.02186591    0.01561606    0.00012963
     atom   26 type  1   force =     0.00006886   -0.00519961    0.00019595
     atom   27 type  3   force =    -0.00002720   -0.00035004    0.00039197
     atom   28 type  3   force =    -0.00002513   -0.00033991    0.00074932
     atom   29 type  3   force =     0.00022905   -0.00030863   -0.00004229
     atom   30 type  3   force =     0.00028619   -0.00028629    0.00002983
     atom   31 type  1   force =     0.00020279    0.00060332   -0.00014906
     atom   32 type  1   force =    -0.00026157    0.00070583   -0.00044073
     atom   33 type  3   force =     0.00007080    0.00001800    0.00037616

     Total force =     0.002961     Total SCF correction =     0.000268

     bfgs converged in  15 scf cycles and  14 bfgs steps
     (criteria: energy < 0.10E-03, force < 0.10E-02)

     End of BFGS Geometry Optimization

     Final energy   =   -1596.2393769858 Ry
Begin final coordinates

ATOMIC_POSITIONS (crystal)
O0       0.000000000   0.000000000   0.375668116    0   0   1
O0       0.000000000   0.500000000   0.397493980    0   0   1
Ti1      0.250000000   0.500000000   0.450366205    0   0   1
Ti1      0.000000000   0.000000000   0.450174804    0   0   1
O0       0.250000000   0.810000000   0.448984014    0   0   1
O0       0.250000000   0.190000000   0.450138482    0   0   1
O0       0.000000000   0.500000000   0.498328206    0   0   1
O0       0.000000000   0.000000000   0.526902374    0   0   1
Ti1      0.250000000   0.000000000   0.580977921    0   0   1
Ti1      0.000000000   0.500000000   0.570769421    0   0   1
O0       0.250000000   0.690000000   0.579589367    0   0   1
O0       0.250000000   0.310000000   0.581021108    0   0   1
O0       0.000000000   0.000000000   0.625039162    0   0   1
O0       0.500000000   0.000000000   0.376394088    0   0   1
O0       0.500000000   0.500000000   0.397565327    0   0   1
Ti1      0.750000000   0.500000000   0.450375725    0   0   1
Ti1      0.500000000   0.000000000   0.451620160    0   0   1
O0       0.750000000   0.810000000   0.448976524    0   0   1
O0       0.750000000   0.190000000   0.450189944    0   0   1
O0       0.500000000   0.500000000   0.498361901    0   0   1
O0       0.500000000   0.000000000   0.527033006    0   0   1
Ti1      0.750000000   0.000000000   0.580990890    0   0   1
Ti1      0.500000000   0.500000000   0.582072405    0   0   1
O0       0.750000000   0.690000000   0.579588400    0   0   1
O0       0.750000000   0.310000000   0.581014392    0   0   1
O0       0.500000000   0.000000000   0.624373380    0   0   1
H2      -0.000084739   0.630640626   0.378664416
H2       0.499945631   0.631023376   0.378870359
H2       0.152213626   0.031700182   0.362866317
H2       0.651263503   0.033029583   0.363308340
O0       0.500310000   0.537357156   0.659225996    0   1   1
O0       0.499120000   0.355306410   0.686924819    0   1   1
H2       0.500360000   0.410184725   0.721600448    0   1   1
End final coordinates

     General routines

     Parallel routines
     Hubbard U routines

   This run was terminated on:   9:24:52   9Aug2014

   JOB DONE.