     Program PWSCF v.5.0.2 (svn rev. 9656) starts on  1Jun2014 at 11:31:22

     Current dimensions of program PWSCF are:
     Max number of different atomic species (ntypx) = 10
     Max number of k-points (npk) =  40000
     Max angular momentum in pseudopotentials (lmaxx) =  3
     Reading input from pwscf.in
Warning: card &CELL ignored
Warning: card / ignored

     Subspace diagonalization in iterative solution of the eigenvalue problem:
     a serial algorithm will be used

     bravais-lattice index     =            0
     lattice parameter (alat)  =      10.1289  a.u.
     unit-cell volume          =    6836.7721 (a.u.)^3
     number of atoms/cell      =           33
     number of atomic types    =            3
     number of electrons       =       245.00
     number of Kohn-Sham states=          367
     kinetic-energy cutoff     =      40.0000  Ry
     charge density cutoff     =     500.0000  Ry
     convergence threshold     =      1.0E-06
     mixing beta               =       0.7000
     number of iterations used =            8  plain     mixing
     Exchange-correlation      = SLA  PW   PBE  PBE ( 1 4 3 4 0)
     EXX-fraction              =        0.00
     nstep                     =           50

     celldm(1)=  10.128932  celldm(2)=   0.000000  celldm(3)=   0.000000
     celldm(4)=   0.000000  celldm(5)=   0.000000  celldm(6)=   0.000000

     crystal axes: (cart. coord. in units of alat)
               a(1) = (   1.000000   0.000000   0.000000 )
               a(2) = (   0.000000   1.306037   0.000000 )
               a(3) = (   0.000000   0.000000   5.037380 )

     reciprocal axes: (cart. coord. in units 2 pi/alat)
               b(1) = (  1.000000  0.000000  0.000000 )
               b(2) = (  0.000000  0.765675  0.000000 )
               b(3) = (  0.000000  0.000000  0.198516 )

     PseudoPot. # 1 for O  read from file:
     /home/camp/zhonxu/pseudo/o_pbe_v1.01.uspp.F.UPF
     MD5 check sum: 2bcb18d16ea4b960afae9ec6d52f22d2
     Pseudo is Ultrasoft + core correction, Zval =  6.0
     Generated by new atomic code, or converted to UPF format
     Using radial grid of  737 points,  5 beta functions with:
                l(1) =   0
                l(2) =   0
                l(3) =   1
                l(4) =   1
                l(5) =   2
     Q(r) pseudized with  8 coefficients,  rinner =    0.900   0.900   0.900
                                                       0.900   0.900

     PseudoPot. # 2 for Re read from file:
     /home/camp/zhonxu/pseudo/re_pbe_v1.uspp.F.UPF
     MD5 check sum: 6f5a5dcaf9c96c20d0ffdde0de57afc6
     Pseudo is Ultrasoft + core correction, Zval = 15.0
     Generated by new atomic code, or converted to UPF format
     Using radial grid of  981 points,  8 beta functions with:
                l(1) =   0
                l(2) =   0
                l(3) =   1
                l(4) =   1
                l(5) =   2
                l(6) =   2
                l(7) =   3
                l(8) =   3
     Q(r) pseudized with  8 coefficients,  rinner =    1.000   1.000   1.000
                                                       1.000   1.000   1.000
                                                       1.000

     PseudoPot. # 3 for H  read from file:
     /home/camp/zhonxu/pseudo/h_pbe_v1.uspp.F.UPF
     MD5 check sum: 3408e3ff4ec8b0a4e358431e7e038a48
     Pseudo is Ultrasoft, Zval =  1.0
     Generated by new atomic code, or converted to UPF format
     Using radial grid of  615 points,  2 beta functions with:
                l(1) =   0
                l(2) =   0
     Q(r) pseudized with  8 coefficients,  rinner =    0.700

     atomic species   valence    mass     pseudopotential
        O0             6.00    15.99940     O ( 1.00)
        Re1           15.00   186.20700     Re( 1.00)
        H2             1.00     1.00794     H ( 1.00)

     Simplified LDA+U calculation (l_max = 2) with parameters (eV):
     atomic species    L          U    alpha       J0     beta
        Re1            2     0.0000   0.0000   0.0000   0.0000

     No symmetry found

   Cartesian axes

     site n.     atom                  positions (alat units)
         1           O0  tau(   1) = (   0.0000000   0.0000000   1.8623194  )
         2           O0  tau(   2) = (   0.0000000   0.6530184   1.9253370  )
         3           Re1 tau(   3) = (   0.2500000   0.6530184   2.2271768  )
         4           Re1 tau(   4) = (   0.0000000   0.0000000   2.2287384  )
         5           O0  tau(   5) = (   0.2500000   1.0187087   2.2217869  )
         6           O0  tau(   6) = (   0.2500000   0.2873281   2.2210816  )
         7           O0  tau(   7) = (   0.0000000   0.6530184   2.5071544  )
         8           O0  tau(   8) = (   0.0000000   0.0000000   2.5894652  )
         9           Re1 tau(   9) = (   0.2500000   0.0000000   2.8894412  )
        10           Re1 tau(  10) = (   0.0000000   0.6530184   2.8583102  )
        11           O0  tau(  11) = (   0.2500000   0.9403465   2.8756892  )
        12           O0  tau(  12) = (   0.2500000   0.3656903   2.8872751  )
        13           O0  tau(  13) = (   0.0000000   0.0000000   3.1516368  )
        14           O0  tau(  14) = (   0.5000000   0.0000000   1.8624705  )
        15           O0  tau(  15) = (   0.5000000   0.6530184   1.9269994  )
        16           Re1 tau(  16) = (   0.7500000   0.6530184   2.2271768  )
        17           Re1 tau(  17) = (   0.5000000   0.0000000   2.2274287  )
        18           O0  tau(  18) = (   0.7500000   1.0187087   2.2214342  )
        19           O0  tau(  19) = (   0.7500000   0.2873281   2.2214846  )
        20           O0  tau(  20) = (   0.5000000   0.6530184   2.5086153  )
        21           O0  tau(  21) = (   0.5000000   0.0000000   2.5899690  )
        22           Re1 tau(  22) = (   0.7500000   0.0000000   2.8888367  )
        23           Re1 tau(  23) = (   0.5000000   0.6530184   2.9018835  )
        24           O0  tau(  24) = (   0.7500000   0.9403465   2.8756892  )
        25           O0  tau(  25) = (   0.7500000   0.3656903   2.8872248  )
        26           O0  tau(  26) = (   0.5000000   0.0000000   3.1466498  )
        27           H2  tau(  27) = (  -0.0002100   0.8169913   1.8417165  )
        28           H2  tau(  28) = (   0.4996400   0.8147057   1.8388956  )
        29           H2  tau(  29) = (   0.1678400   0.0328729   1.7887233  )
        30           H2  tau(  30) = (   0.6697500   0.0291246   1.7904864  )
        31           O0  tau(  31) = (   0.4996300   0.6876806   3.2307741  )
        32           O0  tau(  32) = (   0.5002900   0.4188329   3.4291461  )
        33           H2  tau(  33) = (   0.4999500   0.5176477   3.5843478  )

     number of k points=    10  Methfessel-Paxton smearing, width (Ry)=  0.0100
                       cart. coord. in units 2pi/alat
        k(    1) = (   0.0000000   0.0000000   0.0000000), wk =   0.1250000
        k(    2) = (   0.0000000   0.1914188   0.0000000), wk =   0.2500000
        k(    3) = (   0.0000000  -0.3828376   0.0000000), wk =   0.1250000
        k(    4) = (   0.2500000   0.0000000   0.0000000), wk =   0.2500000
        k(    5) = (   0.2500000   0.1914188   0.0000000), wk =   0.2500000
        k(    6) = (   0.2500000  -0.3828376   0.0000000), wk =   0.2500000
        k(    7) = (  -0.5000000   0.0000000   0.0000000), wk =   0.1250000
        k(    8) = (  -0.5000000   0.1914188   0.0000000), wk =   0.2500000
        k(    9) = (  -0.5000000  -0.3828376   0.0000000), wk =   0.1250000
        k(   10) = (  -0.2500000   0.1914188   0.0000000), wk =   0.2500000

     Largest allocated arrays     est. size (Mb)     dimensions
     Largest temporary arrays     est. size (Mb)     dimensions

     Check: negative/imaginary core charge=   -0.000003    0.000000

     Initial potential from superposition of free atoms
     Check: negative starting charge=   -0.236968

     starting charge  240.99957, renormalised to  245.00000

     negative rho (up, down):  0.241E+00 0.000E+00
     Number of +U iterations with fixed ns =  0
     Starting occupations:
 --- enter write_ns ---
 LDA+U parameters:
U( 2)     =  0.00000000
alpha( 2) =  0.00000000
atom    3   Tr[ns(na)] =   5.00000
    eigenvalues:
  0.500  0.500  0.500  0.500  0.500
    eigenvectors:
  1.000  0.000  0.000  0.000  0.000
  0.000  1.000  0.000  0.000  0.000
  0.000  0.000  1.000  0.000  0.000
  0.000  0.000  0.000  1.000  0.000
  0.000  0.000  0.000  0.000  1.000
    occupations:
  0.500  0.000  0.000  0.000  0.000
  0.000  0.500  0.000  0.000  0.000
  0.000  0.000  0.500  0.000  0.000
  0.000  0.000  0.000  0.500  0.000
  0.000  0.000  0.000  0.000  0.500
atom    4   Tr[ns(na)] =   5.00000
    eigenvalues:
  0.500  0.500  0.500  0.500  0.500
    eigenvectors:
  1.000  0.000  0.000  0.000  0.000
  0.000  1.000  0.000  0.000  0.000
  0.000  0.000  1.000  0.000  0.000
  0.000  0.000  0.000  1.000  0.000
  0.000  0.000  0.000  0.000  1.000
    occupations:
  0.500  0.000  0.000  0.000  0.000
  0.000  0.500  0.000  0.000  0.000
  0.000  0.000  0.500  0.000  0.000
  0.000  0.000  0.000  0.500  0.000
  0.000  0.000  0.000  0.000  0.500
atom    9   Tr[ns(na)] =   5.00000
    eigenvalues:
  0.500  0.500  0.500  0.500  0.500
    eigenvectors:
  1.000  0.000  0.000  0.000  0.000
  0.000  1.000  0.000  0.000  0.000
  0.000  0.000  1.000  0.000  0.000
  0.000  0.000  0.000  1.000  0.000
  0.000  0.000  0.000  0.000  1.000
    occupations:
  0.500  0.000  0.000  0.000  0.000
  0.000  0.500  0.000  0.000  0.000
  0.000  0.000  0.500  0.000  0.000
  0.000  0.000  0.000  0.500  0.000
  0.000  0.000  0.000  0.000  0.500
atom   10   Tr[ns(na)] =   5.00000
    eigenvalues:
  0.500  0.500  0.500  0.500  0.500
    eigenvectors:
  1.000  0.000  0.000  0.000  0.000
  0.000  1.000  0.000  0.000  0.000
  0.000  0.000  1.000  0.000  0.000
  0.000  0.000  0.000  1.000  0.000
  0.000  0.000  0.000  0.000  1.000
    occupations:
  0.500  0.000  0.000  0.000  0.000
  0.000  0.500  0.000  0.000  0.000
  0.000  0.000  0.500  0.000  0.000
  0.000  0.000  0.000  0.500  0.000
  0.000  0.000  0.000  0.000  0.500
atom   16   Tr[ns(na)] =   5.00000
    eigenvalues:
  0.500  0.500  0.500  0.500  0.500
    eigenvectors:
  1.000  0.000  0.000  0.000  0.000
  0.000  1.000  0.000  0.000  0.000
  0.000  0.000  1.000  0.000  0.000
  0.000  0.000  0.000  1.000  0.000
  0.000  0.000  0.000  0.000  1.000
    occupations:
  0.500  0.000  0.000  0.000  0.000
  0.000  0.500  0.000  0.000  0.000
  0.000  0.000  0.500  0.000  0.000
  0.000  0.000  0.000  0.500  0.000
  0.000  0.000  0.000  0.000  0.500
atom   17   Tr[ns(na)] =   5.00000
    eigenvalues:
  0.500  0.500  0.500  0.500  0.500
    eigenvectors:
  1.000  0.000  0.000  0.000  0.000
  0.000  1.000  0.000  0.000  0.000
  0.000  0.000  1.000  0.000  0.000
  0.000  0.000  0.000  1.000  0.000
  0.000  0.000  0.000  0.000  1.000
    occupations:
  0.500  0.000  0.000  0.000  0.000
  0.000  0.500  0.000  0.000  0.000
  0.000  0.000  0.500  0.000  0.000
  0.000  0.000  0.000  0.500  0.000
  0.000  0.000  0.000  0.000  0.500
atom   22   Tr[ns(na)] =   5.00000
    eigenvalues:
  0.500  0.500  0.500  0.500  0.500
[...]
atom    4   Tr[ns(na)] =   6.48648
    eigenvalues:
  0.562  0.600  0.629  0.688  0.764
    eigenvectors:
  0.000  0.980  0.000  0.001  0.019
  0.000  0.001  0.010  0.989  0.000
  0.000  0.000  0.990  0.010  0.000
  0.000  0.019  0.000  0.000  0.981
  1.000  0.000  0.000  0.000  0.000
    occupations:
  0.603  0.003  0.000 -0.022  0.000
  0.003  0.687  0.006 -0.000 -0.001
  0.000  0.006  0.630  0.000 -0.000
 -0.022 -0.000  0.000  0.761 -0.000
  0.000 -0.001 -0.000 -0.000  0.562
atom    9   Tr[ns(na)] =   6.48227
    eigenvalues:
  0.596  0.609  0.620  0.691  0.726
    eigenvectors:
  0.269  0.000  0.001  0.002  0.729
  0.000  0.997  0.002  0.000  0.000
  0.002  0.002  0.938  0.058  0.000
  0.729  0.000  0.002  0.000  0.269
  0.000  0.000  0.057  0.940  0.002
    occupations:
  0.691  0.001 -0.000 -0.058  0.001
  0.001  0.609 -0.001 -0.001  0.000
 -0.000 -0.001  0.624 -0.001 -0.017
 -0.058 -0.001 -0.001  0.631 -0.001
  0.001  0.000 -0.017 -0.001  0.687
atom   10   Tr[ns(na)] =   6.45895
    eigenvalues:
  0.496  0.545  0.653  0.735  0.800
    eigenvectors:
  0.998  0.000  0.000  0.002  0.000
  0.000  0.000  0.000  0.000  1.000
  0.000  0.000  0.997  0.003  0.000
  0.002  0.000  0.003  0.994  0.000
  0.000  1.000  0.000  0.000  0.000
    occupations:
  0.497  0.000 -0.001 -0.012  0.000
  0.000  0.800  0.001  0.000 -0.003
 -0.001  0.001  0.653  0.005  0.000
 -0.012  0.000  0.005  0.735 -0.000
  0.000 -0.003  0.000 -0.000  0.545
atom   16   Tr[ns(na)] =   6.50320
    eigenvalues:
  0.549  0.574  0.631  0.741  0.756
    eigenvectors:
  0.011  0.363  0.002  0.005  0.618
  0.983  0.014  0.000  0.001  0.002
  0.000  0.000  0.986  0.007  0.007
  0.005  0.622  0.003  0.003  0.366
  0.001  0.000  0.008  0.984  0.007
    occupations:
  0.688  0.008  0.008 -0.088  0.000
  0.008  0.550 -0.000 -0.003 -0.006
  0.008 -0.000  0.633 -0.005 -0.010
 -0.088 -0.003 -0.005  0.641  0.001
  0.000 -0.006 -0.010  0.001  0.740
atom   17   Tr[ns(na)] =   6.48183
    eigenvalues:
  0.563  0.601  0.620  0.692  0.765
    eigenvectors:
  0.000  0.983  0.000  0.001  0.016
  0.000  0.001  0.004  0.995  0.000
  0.000  0.000  0.995  0.004  0.000
  0.000  0.016  0.000  0.000  0.984
  1.000  0.000  0.000  0.000  0.000
    occupations:
  0.603  0.002  0.000 -0.021  0.000
  0.002  0.692  0.005 -0.000 -0.001
  0.000  0.005  0.620  0.001 -0.000
 -0.021 -0.000  0.001  0.763 -0.000
  0.000 -0.001 -0.000 -0.000  0.563
atom   22   Tr[ns(na)] =   6.48374
    eigenvalues:
  0.596  0.608  0.619  0.691  0.728
    eigenvectors:
  0.269  0.001  0.001  0.001  0.728
  0.002  0.992  0.007  0.000  0.000
  0.003  0.006  0.933  0.058  0.000
  0.726  0.001  0.002  0.001  0.270
  0.000  0.000  0.057  0.940  0.002
    occupations:
  0.692 -0.001  0.000 -0.059  0.002
 -0.001  0.608  0.001  0.001  0.000
  0.000  0.001  0.623 -0.001  0.017
 -0.059  0.001 -0.001  0.631 -0.000
  0.002  0.000  0.017 -0.000  0.687
atom   23   Tr[ns(na)] =   6.53325
    eigenvalues:
  0.557  0.599  0.608  0.733  0.770
    eigenvectors:
  0.000  0.000  0.956  0.006  0.039
  0.009  0.991  0.000  0.000  0.000
  0.000  0.000  0.012  0.956  0.032
  0.000  0.000  0.032  0.039  0.929
  0.991  0.009  0.000  0.000  0.000
    occupations:
  0.615  0.000 -0.015 -0.029 -0.000
  0.000  0.598 -0.001 -0.000 -0.004
 -0.015 -0.001  0.733  0.004  0.000
 -0.029 -0.000  0.004  0.763  0.000
 -0.000 -0.004  0.000  0.000  0.557
N of occupied +U levels =  51.9333040
 --- exit write_ns ---

          k = 0.0000 0.0000 0.0000 ( 29221 PWs)   bands (ev):

   -81.6306 -81.5515 -81.4626 -81.4047 -81.3373 -81.2244 -81.1693 -81.0448
   -43.8480 -43.7710 -43.5923 -43.5255 -43.5193 -43.4316 -43.4150 -43.4128
   -43.3699 -43.3397 -43.3257 -43.2730 -43.2008 -43.1404 -43.1270 -43.0733
   -43.0623 -43.0559 -42.9976 -42.9776 -42.9324 -42.8678 -42.6076 -42.5444
   -21.0833 -20.6142 -20.5420 -20.3677 -20.1032 -19.9476 -19.6604 -19.6356
   -19.5721 -19.4846 -19.4184 -19.4095 -19.3317 -19.2764 -19.1874 -18.9519
   -18.8831 -18.4094 -18.0545 -16.9045  -9.6021  -9.4469  -9.1827  -8.8017
    -8.4976  -8.3742  -8.0479  -8.0063  -7.8727  -7.8454  -7.7133  -7.5224
    -7.3646  -7.2970  -7.2551  -7.1950  -7.1232  -6.9454  -6.9359  -6.6721
    -6.5891  -6.3137  -6.2336  -5.6988  -5.6849  -5.5842  -5.5514  -5.4735
    -5.4448  -5.3262  -5.2117  -5.1512  -5.0757  -4.9632  -4.8348  -4.7876
    -4.5482  -4.4655  -4.4232  -4.3740  -4.2955  -4.0997  -4.0394  -3.8585
    -3.8052  -3.6462  -3.5623  -3.4280  -3.4020  -3.3105  -3.2883  -3.2745
    -3.1598  -3.1154  -3.0633  -2.9181  -2.9060  -2.8128  -2.6667  -2.5121
    -2.4230  -1.0649  -0.7946  -0.7844  -0.5223  -0.1963  -0.0699   0.0787
     0.1878   0.3432   0.3675   0.5034   0.5541   0.9060   1.0438   1.1362
     1.3362   1.5957   1.8053   2.1398   2.7573   2.9351   3.0561   3.1723
     3.2932   3.3513   3.4524   3.6945   4.0931   4.1310   4.3685   4.4672
     4.5927   4.5931   4.7543   4.7986   4.8062   5.0007   5.0103   5.0807
     5.3458   5.3510   5.5779   6.1584   6.2319   6.3192   6.6376   6.9714
     7.4128   7.6156   7.7529   7.9257   7.9914   8.1351   8.1748   8.2336
     8.3337   8.5530   8.6528   8.7212   8.8303   8.9359   8.9916   9.1300
     9.1408   9.2389   9.3126   9.3855   9.5729   9.7638   9.7688   9.8060
     9.8791  10.0878  10.1273  10.2586  10.2726  10.3699  10.5446  10.6349
    10.6803  10.7807  10.8343  11.0081  11.0611  11.2388  11.3309  11.3579
    11.5535  11.6378  11.7123  11.8340  11.8353  11.9924  12.0398  12.1570
    12.1892  12.3570  12.5933  12.6363  12.7505  12.7595  12.8368  12.9026
    13.0257  13.1017  13.1551  13.1790  13.2490  13.2619  13.3057  13.3640
    13.4443  13.4539  13.4984  13.5196  13.5650  13.7657  13.7840  13.8817
    13.9340  13.9381  14.0035  14.0713  14.1258  14.1826  14.1949  14.3283
    14.3779  14.4801  14.5366  14.6547  14.7894  14.8582  14.9509  15.0480
    15.0612  15.1302  15.1624  15.2844  15.3581  15.4616  15.4960  15.5022
    15.7111  15.7590  15.8540  15.9915  15.9979  16.1005  16.1577  16.2428
    16.3755  16.5025  16.5799  16.6132  16.6493  16.8327  16.9196  16.9677
    17.0139  17.1065  17.2141  17.2829  17.3138  17.3331  17.4586  17.5408
    17.6074  17.6764  17.7270  17.8790  17.9362  17.9712  18.0440  18.2050
    18.2672  18.3919  18.4711  18.5223  18.5987  18.6279  18.8791  18.9087
    18.9371  18.9640  19.0116  19.1908  19.2547  19.2668  19.2797  19.4105
    19.4890  19.5257  19.6689  19.8217  19.9352  19.9488  20.0133  20.0573
    20.0744  20.1644  20.1977  20.2830  20.4335  20.4567  20.6048  20.6796
    20.7640  20.8153  20.9051  20.9352  21.0123  21.0471  21.1481  21.1942
    21.3993  21.4613  21.4672  21.5171  21.6229  21.6909  21.7563  21.7682
    21.9792  22.0051  22.0732  22.1119  22.2007  22.2226  22.2730  22.3895
    22.4041  22.4592  22.4721  22.5079  22.5545  22.5858  22.6163  22.6883
    22.7673  22.7940  22.8532  22.9123  22.9868  23.0673  23.0904  23.1093
    23.1252  23.1953  23.2118  23.2351  23.2680  23.4019  23.4589

[...]

          k = 0.2500-0.3828 0.0000 ( 29202 PWs)   bands (ev):

[...]

          k =-0.5000 0.0000 0.0000 ( 29180 PWs)   bands (ev):

[...]

          k =-0.2500 0.1914 0.0000 ( 29229 PWs)   bands (ev):

   -81.6254 -81.5567 -81.4547 -81.4127 -81.3361 -81.2164 -81.1774 -81.0460
   -43.7272 -43.6467 -43.5095 -43.5049 -43.5011 -43.4228 -43.4167 -43.3894
   -43.3516 -43.3236 -43.2929 -43.2518 -43.1810 -43.1516 -43.1326 -43.1084
   -43.0825 -43.0694 -43.0567 -43.0025 -42.9994 -42.9507 -42.7115 -42.6778
   -20.8688 -20.4210 -20.3898 -20.2650 -20.1505 -19.9084 -19.8442 -19.7733
   -19.6127 -19.5563 -19.5097 -19.4424 -19.3420 -19.2460 -19.1071 -18.9894
   -18.9683 -18.4324 -18.1673 -16.9031  -8.9943  -8.7979  -8.7110  -8.6319
    -8.4937  -8.3866  -8.3314  -8.2342  -7.9788  -7.7582  -7.7083  -7.5279
    -7.3850  -7.2897  -7.1754  -7.0715  -6.8621  -6.7689  -6.6218  -6.5550
    -6.4723  -6.2040  -6.1044  -6.0032  -5.8233  -5.7635  -5.6624  -5.5892
    -5.4955  -5.3761  -5.1892  -5.1684  -5.0552  -4.9617  -4.8698  -4.8217
    -4.7435  -4.6529  -4.5593  -4.4979  -4.4284  -4.2707  -4.2378  -4.0268
    -3.9258  -3.8306  -3.7963  -3.6967  -3.6562  -3.4704  -3.4112  -3.2944
    -3.2666  -3.0685  -2.9964  -2.8087  -2.7333  -2.6141  -2.1516  -1.9138
    -1.8184  -1.0829  -0.9804  -0.8270  -0.7797  -0.4823  -0.1508   0.0150
     0.2054   0.4612   0.5462   0.7246   0.7803   0.8683   1.0205   1.1088
     1.3041   1.4719   1.5555   1.6256   1.8313   1.9465   1.9976   2.2268
     2.5769   3.5142   3.6063   3.6708   3.7451   3.9130   4.0268   4.2936
     4.4047   4.5077   4.6906   4.8333   4.9710   5.3636   5.4449   5.6269
     5.8198   5.9507   6.0955   6.2408   6.3384   6.5044   6.7430   6.9153
     7.0593   7.2450   7.4239   7.6321   7.7359   7.8548   8.0795   8.1812
     8.2872   8.3612   8.5012   8.6961   8.7226   8.7932   8.9965   9.0386
     9.1898   9.4629   9.5097   9.6324   9.7003   9.8322   9.8672   9.9707
    10.0153  10.0730  10.1334  10.1909  10.2784  10.3848  10.4546  10.5028
    10.5594  10.7079  10.8752  10.9914  11.0900  11.1655  11.3321  11.4449
    11.4915  11.5898  11.7218  11.8108  11.9162  12.0632  12.2062  12.2966
    12.4351  12.5442  12.6116  12.6595  12.7357  12.7742  12.8830  12.9367
    12.9829  13.0863  13.1939  13.2167  13.3632  13.4704  13.5357  13.6283
    13.7479  13.7753  13.8413  13.8919  13.9196  14.0271  14.0736  14.1327
    14.2046  14.2604  14.3811  14.4349  14.5219  14.5729  14.6106  14.6511
    14.7117  14.8108  14.8621  14.9224  14.9780  15.0434  15.1146  15.1620
    15.2272  15.2812  15.3938  15.5064  15.5502  15.6356  15.6887  15.8319
    15.9369  16.1006  16.1229  16.2116  16.2728  16.3421  16.4418  16.4844
    16.5630  16.6289  16.7388  16.7683  16.8309  16.9626  17.0023  17.0848
    17.1732  17.2725  17.3186  17.4023  17.4706  17.5218  17.5715  17.7120
    17.7887  17.8476  17.9133  17.9432  18.0309  18.0981  18.1379  18.2377
    18.3536  18.3662  18.4386  18.4663  18.5499  18.6135  18.6958  18.7688
    18.8230  18.9278  18.9999  19.0795  19.1152  19.2153  19.3047  19.4282
    19.4939  19.5533  19.6752  19.7248  19.8436  19.8913  19.9983  20.0847
    20.1468  20.2025  20.2774  20.3722  20.4392  20.5099  20.5809  20.6815
    20.6961  20.7666  20.8287  20.8861  20.9210  21.0137  21.0829  21.1476
    21.2373  21.2620  21.3206  21.4122  21.4713  21.5485  21.5853  21.6524
    21.7174  21.7853  21.8473  21.8942  21.9839  22.0318  22.1341  22.1737
    22.2452  22.2731  22.3638  22.3898  22.4327  22.5003  22.5325  22.5939
    22.6617  22.7243  22.7580  22.8044  22.8242  22.8771  22.9362  23.0282
    23.0724  23.1119  23.1477  23.1921  23.2411  23.3048  23.3655

     the Fermi energy is     0.4394 ev

!    total energy              =   -2208.58416030 Ry
     Harris-Foulkes estimate   =   -2208.58416088 Ry
     estimated scf accuracy    <       0.00000060 Ry

     The total energy is the sum of the following terms:

     one-electron contribution =  -24597.04417048 Ry
     hartree contribution      =   12317.53682827 Ry
     xc contribution           =    -601.88294567 Ry
     ewald contribution        =   10672.80590672 Ry
     Hubbard energy            =       0.00000000 Ry
     smearing contrib. (-TS)   =       0.00022087 Ry

     convergence has been achieved in  26 iterations

     Forces acting on atoms (Ry/au):

     negative rho (up, down):  0.249E+00 0.000E+00
     atom    1 type  1   force =    -0.00636712   -0.00709318   -0.00018511
     atom    2 type  1   force =     0.00002890    0.00546430   -0.00052269
     atom    3 type  2   force =     0.01690450   -0.00306498   -0.00007067
     atom    4 type  2   force =     0.00190406    0.00809146   -0.00020829
     atom    5 type  1   force =     0.00283544    0.00950089   -0.00026030
     atom    6 type  1   force =     0.00121097   -0.01084781   -0.00023874
     atom    7 type  1   force =    -0.00022220   -0.00247536    0.00023224
     atom    8 type  1   force =     0.00311264    0.00241398    0.00048410
     atom    9 type  2   force =    -0.03873027   -0.00326265    0.00000785
     atom   10 type  2   force =    -0.00007270    0.00235147    0.00027756
     atom   11 type  1   force =    -0.02106327   -0.01354157    0.00012304
     atom   12 type  1   force =    -0.01236531    0.02507285    0.00020002
     atom   13 type  1   force =    -0.00034347   -0.00484955    0.00002402
     atom   14 type  1   force =    -0.00313147   -0.00634019   -0.00014091
     atom   15 type  1   force =     0.00000386    0.00416227   -0.00087052
     atom   16 type  2   force =    -0.01699261   -0.00292137   -0.00013819
     atom   17 type  2   force =     0.00217830    0.00819639   -0.00016733
     atom   18 type  1   force =     0.00055087    0.00935101   -0.00019869
     atom   19 type  1   force =    -0.00089958   -0.01067934   -0.00021110
     atom   20 type  1   force =    -0.00018341    0.00003787    0.00098893
     atom   21 type  1   force =     0.00264087    0.00189171    0.00036376
     atom   22 type  2   force =     0.03524497   -0.00245347    0.00010354
     atom   23 type  2   force =     0.00025368   -0.00768210   -0.00008638
     atom   24 type  1   force =     0.02110692   -0.01416880    0.00010250
     atom   25 type  1   force =     0.01213415    0.02489883    0.00013661
     atom   26 type  1   force =    -0.00068718   -0.01256500    0.00013215
     atom   27 type  3   force =    -0.00000591    0.00011339   -0.00065448
     atom   28 type  3   force =    -0.00000565    0.00016396   -0.00039620
     atom   29 type  3   force =     0.00049733   -0.00010338    0.00079495
     atom   30 type  3   force =     0.00036922   -0.00013072    0.00086991
     atom   31 type  1   force =    -0.00000993    0.00068119   -0.00068203
     atom   32 type  1   force =     0.00011239   -0.00021756    0.00010243
     atom   33 type  3   force =    -0.00000900    0.00000544    0.00008802

     Total force =     0.002533     Total SCF correction =     0.003281
     SCF correction compared to forces is large: reduce conv_thr to get better values

     entering subroutine stress ...

     negative rho (up, down):  0.249E+00 0.000E+00
          total   stress  (Ry/bohr**3)                   (kbar)     P=   -5.59
  -0.00001836  -0.00000011   0.00000258         -2.70     -0.02      0.38
  -0.00000011  -0.00005180  -0.00000788         -0.02     -7.62     -1.16
   0.00000258  -0.00000788  -0.00004377          0.38     -1.16     -6.44

     BFGS Geometry Optimization

     bfgs converged in   1 scf cycles and   0 bfgs steps
     (criteria: energy < 0.10E-03, force < 0.10E-02)

     End of BFGS Geometry Optimization

     Final energy   =   -2208.5841602965 Ry
Begin final coordinates

ATOMIC_POSITIONS (crystal)
O0       0.000000000   0.000000000   0.369700000    0   0   1
O0       0.000000000   0.500000000   0.382210000    0   0   1
Re1      0.250000000   0.500000000   0.442130000    0   0   1
Re1      0.000000000   0.000000000   0.442440000    0   0   1
O0       0.250000000   0.780000000   0.441060000    0   0   1
O0       0.250000000   0.220000000   0.440920000    0   0   1
O0       0.000000000   0.500000000   0.497710000    0   0   1
O0       0.000000000   0.000000000   0.514050000    0   0   1
Re1      0.250000000   0.000000000   0.573600000    0   0   1
Re1      0.000000000   0.500000000   0.567420000    0   0   1
O0       0.250000000   0.720000000   0.570870000    0   0   1
O0       0.250000000   0.280000000   0.573170000    0   0   1
O0       0.000000000   0.000000000   0.625650000    0   0   1
O0       0.500000000   0.000000000   0.369730000    0   0   1
O0       0.500000000   0.500000000   0.382540000    0   0   1
Re1      0.750000000   0.500000000   0.442130000    0   0   1
Re1      0.500000000   0.000000000   0.442180000    0   0   1
O0       0.750000000   0.780000000   0.440990000    0   0   1
O0       0.750000000   0.220000000   0.441000000    0   0   1
O0       0.500000000   0.500000000   0.498000000    0   0   1
O0       0.500000000   0.000000000   0.514150000    0   0   1
Re1      0.750000000   0.000000000   0.573480000    0   0   1
Re1      0.500000000   0.500000000   0.576070000    0   0   1
O0       0.750000000   0.720000000   0.570870000    0   0   1
O0       0.750000000   0.280000000   0.573160000    0   0   1
O0       0.500000000   0.000000000   0.624660000    0   0   1
H2      -0.000210000   0.625550000   0.365610000
H2       0.499640000   0.623800000   0.365050000
H2       0.167840000   0.025170000   0.355090000
H2       0.669750000   0.022300000   0.355440000
O0       0.499630000   0.526540000   0.641360000
O0       0.500290000   0.320690000   0.680740000
H2       0.499950000   0.396350000   0.711550000
End final coordinates

     General routines

     Parallel routines
     Hubbard U routines

   This run was terminated on:  13:52:10   1Jun2014

   JOB DONE.