     Program PWSCF v.5.0.2 (svn rev. 9656) starts on 31Jan2014 at 16:41:13

     Current dimensions of program PWSCF are:
     Max number of different atomic species (ntypx) = 10
     Max number of k-points (npk) =  40000
     Max angular momentum in pseudopotentials (lmaxx) =  3
     Waiting for input...
     Reading input from standard input

     Subspace diagonalization in iterative solution of the eigenvalue problem:
     a serial algorithm will be used

     bravais-lattice index     =            0
     lattice parameter (alat)  =       9.1128  a.u.
     unit-cell volume          =     487.6886 (a.u.)^3
     number of atoms/cell      =            6
     number of atomic types    =            2
     number of electrons       =        50.00
     number of Kohn-Sham states=           75
     kinetic-energy cutoff     =      40.0000  Ry
     charge density cutoff     =     500.0000  Ry
     convergence threshold     =      1.0E-06
     mixing beta               =       0.3000
     number of iterations used =            8  plain     mixing
     Exchange-correlation      = SLA  PW   PBE  PBE ( 1 4 3 4 0)
     EXX-fraction              =        0.00
     nstep                     =           50

     celldm(1)=   9.112811  celldm(2)=   0.000000  celldm(3)=   0.000000
     celldm(4)=   0.000000  celldm(5)=   0.000000  celldm(6)=   0.000000

     crystal axes: (cart. coord. in units of alat)
               a(1) = (   1.000000   0.000000   0.000000 )
               a(2) = (   0.000000   1.000000   0.000000 )
               a(3) = (   0.000000   0.000000   0.644444 )

     reciprocal axes: (cart. coord. in units 2 pi/alat)
               b(1) = (  1.000000  0.000000  0.000000 )
               b(2) = (  0.000000  1.000000  0.000000 )
               b(3) = (  0.000000  0.000000  1.551724 )

     PseudoPot. # 1 for Nb read from file:
     /home/camp/zhonxu/pseudo/nb_pbe_v1.uspp.F.UPF
     MD5 check sum: 573aab8a2fa660278ed4a62cd769473f
     Pseudo is Ultrasoft + core correction, Zval = 13.0
     Generated by new atomic code, or converted to UPF format
     Using radial grid of  887 points,  6 beta functions with:
                l(1) =   0
                l(2) =   0
                l(3) =   1
                l(4) =   1
                l(5) =   2
                l(6) =   2
     Q(r) pseudized with  6 coefficients,  rinner =    1.000   1.000   1.000
                                                       1.000   1.000

     PseudoPot. # 2 for O  read from file:
     /home/camp/zhonxu/pseudo/o_pbe_v1.01.uspp.F.UPF
     MD5 check sum: 2bcb18d16ea4b960afae9ec6d52f22d2
     Pseudo is Ultrasoft + core correction, Zval =  6.0
     Generated by new atomic code, or converted to UPF format
     Using radial grid of  737 points,  5 beta functions with:
                l(1) =   0
                l(2) =   0
                l(3) =   1
                l(4) =   1
                l(5) =   2
     Q(r) pseudized with  8 coefficients,  rinner =    0.900   0.900   0.900
                                                       0.900   0.900

     atomic species   valence    mass     pseudopotential
        Nb0           13.00    92.90640     Nb( 1.00)
        O1             6.00    15.99940     O ( 1.00)

     Starting magnetic structure
     atomic species   magnetization
        Nb0          0.000
        O1           0.000

      8 Sym. Ops., with inversion, found
          (note:  8 additional sym.ops. were found but ignored
           their fractional translations are incommensurate with FFT grid)

   Cartesian axes

     site n.     atom                  positions (alat units)
         1           Nb0 tau(   1) = (   0.0000000   0.0000000   0.0000000  )
         2           Nb0 tau(   2) = (   0.5000000   0.5000000   0.3222222  )
         3           O1  tau(   3) = (   0.3050000   0.3050000   0.0000000  )
         4           O1  tau(   4) = (  -0.3050000  -0.3050000   0.0000000  )
         5           O1  tau(   5) = (   0.8050000   0.1950000   0.3222222  )
         6           O1  tau(   6) = (   0.1950000   0.8050000   0.3222222  )

     number of k points=    54  Methfessel-Paxton smearing, width (Ry)=  0.0100
                       cart. coord. in units 2pi/alat
        k(    1) = (   0.0000000   0.0000000   0.0000000), wk =   0.0080000
        k(    2) = (   0.0000000   0.0000000   0.3103448), wk =   0.0160000
        k(    3) = (   0.0000000   0.0000000   0.6206897), wk =   0.0160000
        k(    4) = (   0.0000000   0.2000000   0.0000000), wk =   0.0320000
        k(    5) = (   0.0000000   0.2000000   0.3103448), wk =   0.0640000
        k(    6) = (   0.0000000   0.2000000   0.6206897), wk =   0.0640000
        k(    7) = (   0.0000000   0.4000000   0.0000000), wk =   0.0320000
        k(    8) = (   0.0000000   0.4000000   0.3103448), wk =   0.0640000
        k(    9) = (   0.0000000   0.4000000   0.6206897), wk =   0.0640000
        k(   10) = (   0.2000000   0.2000000   0.0000000), wk =   0.0160000
        k(   11) = (   0.2000000   0.2000000   0.3103448), wk =   0.0320000
        k(   12) = (   0.2000000   0.2000000   0.6206897), wk =   0.0320000
        k(   13) = (   0.2000000   0.4000000   0.0000000), wk =   0.0320000
        k(   14) = (   0.2000000   0.4000000   0.3103448), wk =   0.0640000
        k(   15) = (   0.2000000   0.4000000   0.6206897), wk =   0.0640000
        k(   16) = (   0.4000000   0.4000000   0.0000000), wk =   0.0160000
        k(   17) = (   0.4000000   0.4000000   0.3103448), wk =   0.0320000
        k(   18) = (   0.4000000   0.4000000   0.6206897), wk =   0.0320000
        k(   19) = (  -0.2000000   0.2000000   0.0000000), wk =   0.0160000
        k(   20) = (  -0.2000000   0.2000000  -0.3103448), wk =   0.0320000
        k(   21) = (  -0.2000000   0.2000000  -0.6206897), wk =   0.0320000
        k(   22) = (  -0.2000000   0.4000000   0.0000000), wk =   0.0320000
        k(   23) = (  -0.2000000   0.4000000  -0.3103448), wk =   0.0640000
        k(   24) = (  -0.2000000   0.4000000  -0.6206897), wk =   0.0640000
        k(   25) = (  -0.4000000   0.4000000   0.0000000), wk =   0.0160000
        k(   26) = (  -0.4000000   0.4000000  -0.3103448), wk =   0.0320000
        k(   27) = (  -0.4000000   0.4000000  -0.6206897), wk =   0.0320000
        k(   28) = (   0.0000000   0.0000000   0.0000000), wk =   0.0080000
        k(   29) = (   0.0000000   0.0000000   0.3103448), wk =   0.0160000
        k(   30) = (   0.0000000   0.0000000   0.6206897), wk =   0.0160000
        k(   31) = (   0.0000000   0.2000000   0.0000000), wk =   0.0320000
        k(   32) = (   0.0000000   0.2000000   0.3103448), wk =   0.0640000
        k(   33) = (   0.0000000   0.2000000   0.6206897), wk =   0.0640000
        k(   34) = (   0.0000000   0.4000000   0.0000000), wk =   0.0320000
        k(   35) = (   0.0000000   0.4000000   0.3103448), wk =   0.0640000
        k(   36) = (   0.0000000   0.4000000   0.6206897), wk =   0.0640000
        k(   37) = (   0.2000000   0.2000000   0.0000000), wk =   0.0160000
        k(   38) = (   0.2000000   0.2000000   0.3103448), wk =   0.0320000
        k(   39) = (   0.2000000   0.2000000   0.6206897), wk =   0.0320000
        k(   40) = (   0.2000000   0.4000000   0.0000000), wk =   0.0320000
        k(   41) = (   0.2000000   0.4000000   0.3103448), wk =   0.0640000
        k(   42) = (   0.2000000   0.4000000   0.6206897), wk =   0.0640000
        k(   43) = (   0.4000000   0.4000000   0.0000000), wk =   0.0160000
        k(   44) = (   0.4000000   0.4000000   0.3103448), wk =   0.0320000
        k(   45) = (   0.4000000   0.4000000   0.6206897), wk =   0.0320000
        k(   46) = (  -0.2000000   0.2000000   0.0000000), wk =   0.0160000
        k(   47) = (  -0.2000000   0.2000000  -0.3103448), wk =   0.0320000
        k(   48) = (  -0.2000000   0.2000000  -0.6206897), wk =   0.0320000
        k(   49) = (  -0.2000000   0.4000000   0.0000000), wk =   0.0320000
        k(   50) = (  -0.2000000   0.4000000  -0.3103448), wk =   0.0640000
        k(   51) = (  -0.2000000   0.4000000  -0.6206897), wk =   0.0640000
        k(   52) = (  -0.4000000   0.4000000   0.0000000), wk =   0.0160000
        k(   53) = (  -0.4000000   0.4000000  -0.3103448), wk =   0.0320000
        k(   54) = (  -0.4000000   0.4000000  -0.6206897), wk =   0.0320000

     Largest allocated arrays     est. size (Mb)     dimensions
     Largest temporary arrays     est. size (Mb)     dimensions

     Check: negative/imaginary core charge=   -0.000007    0.000000

     Initial potential from superposition of free atoms

     starting charge   49.99453, renormalised to   50.00000
     Starting wfc are   42 randomized atomic wfcs

     Self-consistent Calculation

     iteration #  1     ecut=    40.00 Ry     beta=0.30
     Davidson diagonalization with overlap
     ethr =  1.00E-02,  avg # of iterations =  5.5

     total energy              =    -364.77286628 Ry
     Harris-Foulkes estimate   =    -366.07500910 Ry
     estimated scf accuracy    <       2.92863854 Ry

     total magnetization       =    -0.00 Bohr mag/cell
     absolute magnetization    =     0.00 Bohr mag/cell

[...]

     End of self-consistent calculation

 ------ SPIN UP ------------

          k = 0.0000 0.0000 0.0000 (  2063 PWs)   bands (ev):

   -43.9847 -43.9649 -20.1987 -20.1987 -20.0199 -19.9681 -19.9438 -19.9438
    -7.8233  -7.2271  -6.0751  -6.0751   4.2096   4.2846   5.2173   5.8455
     5.8455   7.6948   7.6948   8.1347   8.9341   9.0670   9.0670   9.6683
    12.3868  12.5203  13.1581  13.3218  13.3218  15.8682  15.9522  16.4840
    18.6697  18.6697  19.8805  20.5462  20.5463  23.8378  25.8664  26.1548
    26.8795  27.2504  27.8630  27.8630  30.3848  30.6690  31.3904  31.3904
    32.1075  32.1075  33.2716  36.8963  36.8963  37.2510  37.5973  37.6746
    39.1312  39.9826  39.9826  40.3271  40.3271  40.7722  40.8608  40.9811
    41.9597  42.5194  42.5194  43.1552  44.1817  46.2163  46.2163  46.6320
    47.1913  47.6634  47.6634

[...]

          k =-0.2000 0.2000 0.0000 (  2069 PWs)   bands (ev):

[...]

 ------ SPIN DOWN ----------

[...]

     the Fermi energy is    13.0262 ev

!    total energy              =    -365.28003472 Ry
     Harris-Foulkes estimate   =    -365.28003326 Ry
     estimated scf accuracy    <       0.00000004 Ry

     The total energy is the sum of the following terms:

     one-electron contribution =     -97.86902717 Ry
     hartree contribution      =      75.82535121 Ry
     xc contribution           =     -65.66627851 Ry
     ewald contribution        =    -277.56966855 Ry
     smearing contrib. (-TS)   =      -0.00041170 Ry

[...]

     convergence has been achieved in  10 iterations

     Forces acting on atoms (Ry/au):

     atom    1 type  1   force =     0.00000000    0.00000000    0.00000000
     atom    2 type  1   force =     0.00000000    0.00000000    0.00000000
     atom    3 type  2   force =    -0.01793172   -0.01793172   -0.00000000
     atom    4 type  2   force =     0.01793172    0.01793172    0.00000000
     atom    5 type  2   force =    -0.01793065    0.01793065    0.00000000
     atom    6 type  2   force =     0.01793065   -0.01793065    0.00000000

[...]
        k(    2) = (   0.0000000   0.0000000   0.3258939), wk =   0.0160000
        k(    3) = (   0.0000000   0.0000000   0.6517878), wk =   0.0160000
        k(    4) = (  -0.0000003   0.1951705   0.0000000), wk =   0.0320000
        k(    5) = (  -0.0000003   0.1951705   0.3258939), wk =   0.0640000
        k(    6) = (  -0.0000003   0.1951705   0.6517878), wk =   0.0640000
        k(    7) = (  -0.0000007   0.3903410   0.0000000), wk =   0.0320000
        k(    8) = (  -0.0000007   0.3903410   0.3258939), wk =   0.0640000
        k(    9) = (  -0.0000007   0.3903410   0.6517878), wk =   0.0640000
        k(   10) = (   0.1951701   0.1951701   0.0000000), wk =   0.0160000
        k(   11) = (   0.1951701   0.1951701   0.3258939), wk =   0.0320000
        k(   12) = (   0.1951701   0.1951701   0.6517878), wk =   0.0320000
        k(   13) = (   0.1951698   0.3903406   0.0000000), wk =   0.0320000
        k(   14) = (   0.1951698   0.3903406   0.3258939), wk =   0.0640000
        k(   15) = (   0.1951698   0.3903406   0.6517878), wk =   0.0640000
        k(   16) = (   0.3903403   0.3903403   0.0000000), wk =   0.0160000
        k(   17) = (   0.3903403   0.3903403   0.3258939), wk =   0.0320000
        k(   18) = (   0.3903403   0.3903403   0.6517878), wk =   0.0320000
        k(   19) = (  -0.1951708   0.1951708   0.0000000), wk =   0.0160000
        k(   20) = (  -0.1951708   0.1951708  -0.3258939), wk =   0.0320000
        k(   21) = (  -0.1951708   0.1951708  -0.6517878), wk =   0.0320000
        k(   22) = (  -0.1951711   0.3903413   0.0000000), wk =   0.0320000
        k(   23) = (  -0.1951711   0.3903413  -0.3258939), wk =   0.0640000
        k(   24) = (  -0.1951711   0.3903413  -0.6517878), wk =   0.0640000
        k(   25) = (  -0.3903416   0.3903416   0.0000000), wk =   0.0160000
        k(   26) = (  -0.3903416   0.3903416  -0.3258939), wk =   0.0320000
        k(   27) = (  -0.3903416   0.3903416  -0.6517878), wk =   0.0320000
        k(   28) = (   0.0000000   0.0000000   0.0000000), wk =   0.0080000
        k(   29) = (   0.0000000   0.0000000   0.3258939), wk =   0.0160000
        k(   30) = (   0.0000000   0.0000000   0.6517878), wk =   0.0160000
        k(   31) = (  -0.0000003   0.1951705   0.0000000), wk =   0.0320000
        k(   32) = (  -0.0000003   0.1951705   0.3258939), wk =   0.0640000
        k(   33) = (  -0.0000003   0.1951705   0.6517878), wk =   0.0640000
        k(   34) = (  -0.0000007   0.3903410   0.0000000), wk =   0.0320000
        k(   35) = (  -0.0000007   0.3903410   0.3258939), wk =   0.0640000
        k(   36) = (  -0.0000007   0.3903410   0.6517878), wk =   0.0640000
        k(   37) = (   0.1951701   0.1951701   0.0000000), wk =   0.0160000
        k(   38) = (   0.1951701   0.1951701   0.3258939), wk =   0.0320000
        k(   39) = (   0.1951701   0.1951701   0.6517878), wk =   0.0320000
        k(   40) = (   0.1951698   0.3903406   0.0000000), wk =   0.0320000
        k(   41) = (   0.1951698   0.3903406   0.3258939), wk =   0.0640000
        k(   42) = (   0.1951698   0.3903406   0.6517878), wk =   0.0640000
        k(   43) = (   0.3903403   0.3903403   0.0000000), wk =   0.0160000
        k(   44) = (   0.3903403   0.3903403   0.3258939), wk =   0.0320000
        k(   45) = (   0.3903403   0.3903403   0.6517878), wk =   0.0320000
        k(   46) = (  -0.1951708   0.1951708   0.0000000), wk =   0.0160000
        k(   47) = (  -0.1951708   0.1951708  -0.3258939), wk =   0.0320000
        k(   48) = (  -0.1951708   0.1951708  -0.6517878), wk =   0.0320000
        k(   49) = (  -0.1951711   0.3903413   0.0000000), wk =   0.0320000
        k(   50) = (  -0.1951711   0.3903413  -0.3258939), wk =   0.0640000
        k(   51) = (  -0.1951711   0.3903413  -0.6517878), wk =   0.0640000
        k(   52) = (  -0.3903416   0.3903416   0.0000000), wk =   0.0160000
        k(   53) = (  -0.3903416   0.3903416  -0.3258939), wk =   0.0320000
        k(   54) = (  -0.3903416   0.3903416  -0.6517878), wk =   0.0320000

[...]

     Threshold (ethr) on eigenvalues was too large:
     Diagonalizing with lowered threshold

     Davidson diagonalization with overlap
     ethr =  6.84E-10,  avg # of iterations =  1.8

[...]

     Total force =     0.000429     Total SCF correction =     0.000041

[...]

     Volume is kept fixed: isostatic pressure set to zero

     bfgs converged in   7 scf cycles and   6 bfgs steps
     (criteria: energy < 0.10E-03, force < 0.10E-02, cell < 0.50E+00)

     End of BFGS Geometry Optimization

     Final enthalpy =    -365.2940520062 Ry
Begin final coordinates
     new unit-cell volume =    487.68864 a.u.^3 (    72.26800 Ang^3 )

CELL_PARAMETERS (alat=  9.11281148)
   1.024745137   0.000001733   0.000000000
   0.000001733   1.024745137   0.000000000
   0.000000000   0.000000000   0.613696649

ATOMIC_POSITIONS (crystal)
Nb0      0.000000000   0.000000000   0.000000000    0   0   0
Nb0      0.500000000   0.500000000   0.500000000    0   0   0
O1       0.292603086   0.292603086   0.000000000    1   1   0
O1      -0.292603086  -0.292603086   0.000000000    1   1   0
O1       0.792606234   0.207393766   0.500000000    1   1   0
O1       0.207393766   0.792606234   0.500000000    1   1   0
End final coordinates

     A final scf calculation at the relaxed structure.
     The G-vectors are recalculated for the final unit cell
     Results may differ from those at the preceding step.

     bravais-lattice index     =            0
     lattice parameter (alat)  =       9.1128  a.u.
     unit-cell volume          =     487.6886 (a.u.)^3
     number of atoms/cell      =            6
     number of atomic types    =            2
     number of electrons       =        50.00
     number of Kohn-Sham states=           75
     kinetic-energy cutoff     =      40.0000  Ry
     charge density cutoff     =     500.0000  Ry
     convergence threshold     =      1.0E-08
     mixing beta               =       0.3000
     number of iterations used =            8  plain     mixing
     Exchange-correlation      = SLA  PW   PBE  PBE ( 1 4 3 4 0)
     EXX-fraction              =        0.00

     celldm(1)=   9.112811  celldm(2)=   0.000000  celldm(3)=   0.000000
     celldm(4)=   0.000000  celldm(5)=   0.000000  celldm(6)=   0.000000

     crystal axes: (cart. coord. in units of alat)
               a(1) = (   1.024745   0.000002   0.000000 )
               a(2) = (   0.000002   1.024745   0.000000 )
               a(3) = (   0.000000   0.000000   0.613697 )

     reciprocal axes: (cart. coord. in units 2 pi/alat)
               b(1) = (  0.975852 -0.000002  0.000000 )
               b(2) = ( -0.000002  0.975852  0.000000 )
               b(3) = (  0.000000  0.000000  1.629470 )

     PseudoPot. # 1 for Nb read from file:
     /home/camp/zhonxu/pseudo/nb_pbe_v1.uspp.F.UPF
     MD5 check sum: 573aab8a2fa660278ed4a62cd769473f
     Pseudo is Ultrasoft + core correction, Zval = 13.0
     Generated by new atomic code, or converted to UPF format
     Using radial grid of  887 points,  6 beta functions with:
                l(1) =   0
                l(2) =   0
                l(3) =   1
                l(4) =   1
                l(5) =   2
                l(6) =   2
     Q(r) pseudized with  6 coefficients,  rinner =    1.000   1.000   1.000
                                                       1.000   1.000

     PseudoPot. # 2 for O  read from file:
     /home/camp/zhonxu/pseudo/o_pbe_v1.01.uspp.F.UPF
     MD5 check sum: 2bcb18d16ea4b960afae9ec6d52f22d2
     Pseudo is Ultrasoft + core correction, Zval =  6.0
     Generated by new atomic code, or converted to UPF format
     Using radial grid of  737 points,  5 beta functions with:
                l(1) =   0
                l(2) =   0
                l(3) =   1
                l(4) =   1
                l(5) =   2
     Q(r) pseudized with  8 coefficients,  rinner =    0.900   0.900   0.900
                                                       0.900   0.900

     atomic species   valence    mass     pseudopotential
        Nb0           13.00    92.90640     Nb( 1.00)
        O1             6.00    15.99940     O ( 1.00)

     Starting magnetic structure
     atomic species   magnetization
        Nb0          0.000
        O1           0.000

      8 Sym. Ops., with inversion, found
          (note:  8 additional sym.ops. were found but ignored
           their fractional translations are incommensurate with FFT grid)

   Cartesian axes

     site n.     atom                  positions (alat units)
         1           Nb0 tau(   1) = (   0.0000000   0.0000000   0.0000000  )
         2           Nb0 tau(   2) = (   0.5123734   0.5123734   0.3068483  )
         3           O1  tau(   3) = (   0.2998441   0.2998441   0.0000000  )
         4           O1  tau(   4) = (  -0.2998441  -0.2998441   0.0000000  )
         5           O1  tau(   5) = (   0.8122197   0.2125271   0.3068483  )
         6           O1  tau(   6) = (   0.2125271   0.8122197   0.3068483  )

     number of k points=    54  Methfessel-Paxton smearing, width (Ry)=  0.0100
                       cart. coord. in units 2pi/alat
        k(    1) = (   0.0000000   0.0000000   0.0000000), wk =   0.0080000
        k(    2) = (   0.0000000   0.0000000   0.3258939), wk =   0.0160000
        k(    3) = (   0.0000000   0.0000000   0.6517878), wk =   0.0160000
        k(    4) = (  -0.0000003   0.1951705   0.0000000), wk =   0.0320000
        k(    5) = (  -0.0000003   0.1951705   0.3258939), wk =   0.0640000
        k(    6) = (  -0.0000003   0.1951705   0.6517878), wk =   0.0640000
        k(    7) = (  -0.0000007   0.3903410   0.0000000), wk =   0.0320000
        k(    8) = (  -0.0000007   0.3903410   0.3258939), wk =   0.0640000
        k(    9) = (  -0.0000007   0.3903410   0.6517878), wk =   0.0640000
        k(   10) = (   0.1951701   0.1951701   0.0000000), wk =   0.0160000
        k(   11) = (   0.1951701   0.1951701   0.3258939), wk =   0.0320000
        k(   12) = (   0.1951701   0.1951701   0.6517878), wk =   0.0320000
        k(   13) = (   0.1951698   0.3903406   0.0000000), wk =   0.0320000
        k(   14) = (   0.1951698   0.3903406   0.3258939), wk =   0.0640000
        k(   15) = (   0.1951698   0.3903406   0.6517878), wk =   0.0640000
        k(   16) = (   0.3903403   0.3903403   0.0000000), wk =   0.0160000
        k(   17) = (   0.3903403   0.3903403   0.3258939), wk =   0.0320000
        k(   18) = (   0.3903403   0.3903403   0.6517878), wk =   0.0320000
        k(   19) = (  -0.1951708   0.1951708   0.0000000), wk =   0.0160000
        k(   20) = (  -0.1951708   0.1951708  -0.3258939), wk =   0.0320000
        k(   21) = (  -0.1951708   0.1951708  -0.6517878), wk =   0.0320000
        k(   22) = (  -0.1951711   0.3903413   0.0000000), wk =   0.0320000
        k(   23) = (  -0.1951711   0.3903413  -0.3258939), wk =   0.0640000
        k(   24) = (  -0.1951711   0.3903413  -0.6517878), wk =   0.0640000
        k(   25) = (  -0.3903416   0.3903416   0.0000000), wk =   0.0160000
        k(   26) = (  -0.3903416   0.3903416  -0.3258939), wk =   0.0320000
        k(   27) = (  -0.3903416   0.3903416  -0.6517878), wk =   0.0320000
        k(   28) = (   0.0000000   0.0000000   0.0000000), wk =   0.0080000
        k(   29) = (   0.0000000   0.0000000   0.3258939), wk =   0.0160000
        k(   30) = (   0.0000000   0.0000000   0.6517878), wk =   0.0160000
        k(   31) = (  -0.0000003   0.1951705   0.0000000), wk =   0.0320000
        k(   32) = (  -0.0000003   0.1951705   0.3258939), wk =   0.0640000
        k(   33) = (  -0.0000003   0.1951705   0.6517878), wk =   0.0640000
        k(   34) = (  -0.0000007   0.3903410   0.0000000), wk =   0.0320000
        k(   35) = (  -0.0000007   0.3903410   0.3258939), wk =   0.0640000
        k(   36) = (  -0.0000007   0.3903410   0.6517878), wk =   0.0640000
        k(   37) = (   0.1951701   0.1951701   0.0000000), wk =   0.0160000
        k(   38) = (   0.1951701   0.1951701   0.3258939), wk =   0.0320000
        k(   39) = (   0.1951701   0.1951701   0.6517878), wk =   0.0320000
        k(   40) = (   0.1951698   0.3903406   0.0000000), wk =   0.0320000
        k(   41) = (   0.1951698   0.3903406   0.3258939), wk =   0.0640000
        k(   42) = (   0.1951698   0.3903406   0.6517878), wk =   0.0640000
        k(   43) = (   0.3903403   0.3903403   0.0000000), wk =   0.0160000
        k(   44) = (   0.3903403   0.3903403   0.3258939), wk =   0.0320000
        k(   45) = (   0.3903403   0.3903403   0.6517878), wk =   0.0320000
        k(   46) = (  -0.1951708   0.1951708   0.0000000), wk =   0.0160000
        k(   47) = (  -0.1951708   0.1951708  -0.3258939), wk =   0.0320000
        k(   48) = (  -0.1951708   0.1951708  -0.6517878), wk =   0.0320000
        k(   49) = (  -0.1951711   0.3903413   0.0000000), wk =   0.0320000
        k(   50) = (  -0.1951711   0.3903413  -0.3258939), wk =   0.0640000
        k(   51) = (  -0.1951711   0.3903413  -0.6517878), wk =   0.0640000
        k(   52) = (  -0.3903416   0.3903416   0.0000000), wk =   0.0160000
        k(   53) = (  -0.3903416   0.3903416  -0.3258939), wk =   0.0320000
        k(   54) = (  -0.3903416   0.3903416  -0.6517878), wk =   0.0320000

     Largest allocated arrays     est. size (Mb)     dimensions
     Largest temporary arrays     est. size (Mb)     dimensions

     Check: negative/imaginary core charge=   -0.000007    0.000000

     Initial potential from superposition of free atoms

     starting charge   49.99453, renormalised to   50.00000
     Starting wfc are   42 randomized atomic wfcs

     Self-consistent Calculation

[...]

     total energy              =    -365.29408095 Ry
     Harris-Foulkes estimate   =    -365.29407964 Ry
     estimated scf accuracy    <       0.00000061 Ry

[...]

     iteration # 10     ecut=    40.00 Ry     beta=0.30
     Davidson diagonalization with overlap
     ethr =  1.21E-09,  avg # of iterations =  1.0

     End of self-consistent calculation

 ------ SPIN UP ------------

[...]

 ------ SPIN DOWN ----------

[...]

          k = 0.3903 0.3903 0.6518 (  2063 PWs)   bands (ev):

[...]

          k =-0.3903 0.3903-0.6518 (  2063 PWs)   bands (ev):

   -44.0361 -44.0356 -20.6674 -20.6611 -20.2807 -20.2712 -19.9983 -19.9965
    -7.0228  -6.8360  -6.5431  -6.3374   5.2300   5.5150   5.6966   5.9187
     6.0618   6.5172   6.8939   7.3418   8.1544   8.3276   8.9545   9.0679
    12.7955  13.2869  13.4761  14.0349  14.7225  14.8007  17.1333  17.9360
    18.0069  18.6929  20.9040  21.2172  22.1752  22.4076  24.1974  24.4326
    26.4944  26.6279  28.3102  28.5111  28.8728  29.4314  30.1870  30.6487
    33.6625  34.1842  34.4615  34.5299  36.7227  37.0209  38.4060  38.9303
    39.2033  39.7293  40.1513  40.6161  41.0811  41.2528  41.5591  42.2172
    42.3228  42.7432  43.1731  43.2394  43.4623  43.5751  44.3586  45.1393
    46.2897  47.5548  48.1143

     the Fermi energy is    12.6876 ev

!    total energy              =    -365.29408251 Ry
     Harris-Foulkes estimate   =    -365.29408106 Ry
     estimated scf accuracy    <          3.9E-09 Ry

     The total energy is the sum of the following terms:

     one-electron contribution =     -98.70723009 Ry
     hartree contribution      =      76.14119308 Ry
     xc contribution           =     -65.64828481 Ry
     ewald contribution        =    -277.07950950 Ry
     smearing contrib. (-TS)   =      -0.00025120 Ry

     total magnetization       =     0.00 Bohr mag/cell
     absolute magnetization    =     0.00 Bohr mag/cell

     convergence has been achieved in  10 iterations

     Forces acting on atoms (Ry/au):

     atom    1 type  1   force =     0.00000000    0.00000000    0.00000000
     atom    2 type  1   force =     0.00000000    0.00000000    0.00000000
     atom    3 type  2   force =    -0.00020427   -0.00020427    0.00000000
     atom    4 type  2   force =     0.00020427    0.00020427    0.00000000
     atom    5 type  2   force =    -0.00022119    0.00022119    0.00000000
     atom    6 type  2   force =     0.00022119   -0.00022119    0.00000000

     Total force =     0.000602     Total SCF correction =     0.000063
     SCF correction compared to forces is large: reduce conv_thr to get better values

     entering subroutine stress ...

          total   stress  (Ry/bohr**3)                   (kbar)     P=  -14.60
  -0.00010058  -0.00000001   0.00000000        -14.80     -0.00      0.00
  -0.00000001  -0.00010058   0.00000000         -0.00    -14.80      0.00
   0.00000000   0.00000000  -0.00009667          0.00      0.00    -14.22

     General routines

     Parallel routines

   This run was terminated on:  18:58:43  31Jan2014

   JOB DONE.