     Program PWSCF v.5.0.2 (svn rev. 9656) starts on 23Jan2014 at 19: 5:35

     Current dimensions of program PWSCF are:
     Max number of different atomic species (ntypx) = 10
     Max number of k-points (npk) =  40000
     Max angular momentum in pseudopotentials (lmaxx) =  3
     Reading input from NbO2-v-1.0.in

     Subspace diagonalization in iterative solution of the eigenvalue problem:
     a serial algorithm will be used

     bravais-lattice index     =            0
     lattice parameter (alat)  =       8.6590  a.u.
     unit-cell volume          =     418.3967 (a.u.)^3
     number of atoms/cell      =            6
     number of atomic types    =            2
     number of electrons       =        50.00
     number of Kohn-Sham states=           75
     kinetic-energy cutoff     =      40.0000  Ry
     charge density cutoff     =     500.0000  Ry
     convergence threshold     =      1.0E-06
     mixing beta               =       0.7000
     number of iterations used =            8  plain     mixing
     Exchange-correlation      = SLA  PW   PBE  PBE ( 1 4 3 4 0)
     EXX-fraction              =        0.00
     nstep                     =           50

     celldm(1)=   8.658997  celldm(2)=   0.000000  celldm(3)=   0.000000
     celldm(4)=   0.000000  celldm(5)=   0.000000  celldm(6)=   0.000000

     crystal axes: (cart. coord. in units of alat)
               a(1) = (   1.000000   0.000000   0.000000 )
               a(2) = (   0.000000   1.000000   0.000000 )
               a(3) = (   0.000000   0.000000   0.644444 )

     reciprocal axes: (cart. coord. in units 2 pi/alat)
               b(1) = (  1.000000  0.000000  0.000000 )
               b(2) = (  0.000000  1.000000  0.000000 )
               b(3) = (  0.000000  0.000000  1.551724 )

     PseudoPot. # 1 for Nb read from file:
     /home/camp/zhonxu/pseudo/nb_pbe_v1.uspp.F.UPF
     MD5 check sum: 573aab8a2fa660278ed4a62cd769473f
     Pseudo is Ultrasoft + core correction, Zval = 13.0
     Generated by new atomic code, or converted to UPF format
     Using radial grid of  887 points,  6 beta functions with:
                l(1) =   0
                l(2) =   0
                l(3) =   1
                l(4) =   1
                l(5) =   2
                l(6) =   2
     Q(r) pseudized with  6 coefficients,  rinner =    1.000   1.000   1.000
                                                       1.000   1.000

     PseudoPot. # 2 for O  read from file:
     /home/camp/zhonxu/pseudo/o_pbe_v1.01.uspp.F.UPF
     MD5 check sum: 2bcb18d16ea4b960afae9ec6d52f22d2
     Pseudo is Ultrasoft + core correction, Zval =  6.0
     Generated by new atomic code, or converted to UPF format
     Using radial grid of  737 points,  5 beta functions with:
                l(1) =   0
                l(2) =   0
                l(3) =   1
                l(4) =   1
                l(5) =   2
     Q(r) pseudized with  8 coefficients,  rinner =    0.900   0.900   0.900
                                                       0.900   0.900

     atomic species   valence    mass     pseudopotential
        Nb0           13.00    92.90640     Nb( 1.00)
        O1             6.00    15.99940     O ( 1.00)

     Starting magnetic structure
     atomic species   magnetization
        Nb0          0.600
        O1           0.000

     16 Sym. Ops., with inversion, found ( 8 have fractional translation)

   Cartesian axes

     site n.     atom                  positions (alat units)
         1           Nb0 tau(   1) = (   0.0000000   0.0000000   0.0000000  )
         2           Nb0 tau(   2) = (   0.5000000   0.5000000   0.3222222  )
         3           O1  tau(   3) = (   0.3050000   0.3050000   0.0000000  )
         4           O1  tau(   4) = (  -0.3050000  -0.3050000   0.0000000  )
         5           O1  tau(   5) = (   0.8050000   0.1950000   0.3222222  )
         6           O1  tau(   6) = (   0.1950000   0.8050000   0.3222222  )

     number of k points=    36  Methfessel-Paxton smearing, width (Ry)=  0.0100
                       cart. coord. in units 2pi/alat
        k(    1) = (   0.0000000   0.0000000   0.0000000), wk =   0.0080000
        k(    2) = (   0.0000000   0.0000000   0.3103448), wk =   0.0160000
        k(    3) = (   0.0000000   0.0000000   0.6206897), wk =   0.0160000
        k(    4) = (   0.0000000   0.2000000   0.0000000), wk =   0.0320000
        k(    5) = (   0.0000000   0.2000000   0.3103448), wk =   0.0640000
        k(    6) = (   0.0000000   0.2000000   0.6206897), wk =   0.0640000
        k(    7) = (   0.0000000   0.4000000   0.0000000), wk =   0.0320000
        k(    8) = (   0.0000000   0.4000000   0.3103448), wk =   0.0640000
        k(    9) = (   0.0000000   0.4000000   0.6206897), wk =   0.0640000
        k(   10) = (   0.2000000   0.2000000   0.0000000), wk =   0.0320000
        k(   11) = (   0.2000000   0.2000000   0.3103448), wk =   0.0640000
        k(   12) = (   0.2000000   0.2000000   0.6206897), wk =   0.0640000
        k(   13) = (   0.2000000   0.4000000   0.0000000), wk =   0.0640000
        k(   14) = (   0.2000000   0.4000000   0.3103448), wk =   0.1280000
        k(   15) = (   0.2000000   0.4000000   0.6206897), wk =   0.1280000
        k(   16) = (   0.4000000   0.4000000   0.0000000), wk =   0.0320000
        k(   17) = (   0.4000000   0.4000000   0.3103448), wk =   0.0640000
        k(   18) = (   0.4000000   0.4000000   0.6206897), wk =   0.0640000
        k(   19) = (   0.0000000   0.0000000   0.0000000), wk =   0.0080000
        k(   20) = (   0.0000000   0.0000000   0.3103448), wk =   0.0160000
        k(   21) = (   0.0000000   0.0000000   0.6206897), wk =   0.0160000
        k(   22) = (   0.0000000   0.2000000   0.0000000), wk =   0.0320000
        k(   23) = (   0.0000000   0.2000000   0.3103448), wk =   0.0640000
        k(   24) = (   0.0000000   0.2000000   0.6206897), wk =   0.0640000
        k(   25) = (   0.0000000   0.4000000   0.0000000), wk =   0.0320000
        k(   26) = (   0.0000000   0.4000000   0.3103448), wk =   0.0640000
        k(   27) = (   0.0000000   0.4000000   0.6206897), wk =   0.0640000
        k(   28) = (   0.2000000   0.2000000   0.0000000), wk =   0.0320000
        k(   29) = (   0.2000000   0.2000000   0.3103448), wk =   0.0640000
        k(   30) = (   0.2000000   0.2000000   0.6206897), wk =   0.0640000
        k(   31) = (   0.2000000   0.4000000   0.0000000), wk =   0.0640000
        k(   32) = (   0.2000000   0.4000000   0.3103448), wk =   0.1280000
        k(   33) = (   0.2000000   0.4000000   0.6206897), wk =   0.1280000
        k(   34) = (   0.4000000   0.4000000   0.0000000), wk =   0.0320000
        k(   35) = (   0.4000000   0.4000000   0.3103448), wk =   0.0640000
        k(   36) = (   0.4000000   0.4000000   0.6206897), wk =   0.0640000

     Largest allocated arrays     est. size (Mb)     dimensions
     Largest temporary arrays     est. size (Mb)     dimensions

     Check: negative/imaginary core charge=   -0.000007    0.000000

     Initial potential from superposition of free atoms

     starting charge   49.99453, renormalised to   50.00000
     Starting wfc are   42 randomized atomic wfcs

     Self-consistent Calculation

     iteration #  1     ecut=    40.00 Ry     beta=0.70
     Davidson diagonalization with overlap
     ethr =  1.00E-02,  avg # of iterations =  5.4

     total energy              =    -363.69064530 Ry
     Harris-Foulkes estimate   =    -364.77873519 Ry
     estimated scf accuracy    <       3.44302978 Ry

     total magnetization       =     2.00 Bohr mag/cell
     absolute magnetization    =     2.82 Bohr mag/cell

[...]

     End of self-consistent calculation

 ------ SPIN UP ------------

          k = 0.0000 0.0000 0.0000 (  1819 PWs)   bands (ev):

   -40.8494 -40.8033 -17.4244 -17.4244 -16.9428 -16.9064 -16.9064 -16.8401
    -5.9548  -5.3590  -3.4527  -3.4527   5.7634   6.0928   6.6530   7.6672
     7.6672  10.0073  10.0073  10.5845  11.3634  11.4192  11.4192  12.0718
    15.2504  15.5330  16.2300  16.4736  16.4736  19.7781  19.9583  20.0815
    23.0436  23.0436  23.9249  23.9249  24.5818  27.4893  29.9504  30.3746
    30.9271  31.4085  32.2032  32.2032  34.5047  35.5215  35.5457  35.5457
    36.1504  36.1504  37.1732  41.8004  41.8004  41.8545  42.5291  43.1755
    44.3877  45.1460  45.1460  45.5298  45.6403  45.6403  47.0888  47.3620
    48.1633  48.3998  48.3998  49.0803  49.8986  51.9198  52.7025  52.7025
    53.4556  53.8453  53.9846

[...]

 ------ SPIN DOWN ----------

[...]

     the Fermi energy is    16.0882 ev

!    total energy              =    -365.16946500 Ry
     Harris-Foulkes estimate   =    -365.16946416 Ry
     estimated scf accuracy    <       0.00000031 Ry

     The total energy is the sum of the following terms:

     one-electron contribution =     -77.01393796 Ry
     hartree contribution      =      70.41539663 Ry
     xc contribution           =     -66.45408680 Ry
     ewald contribution        =    -292.11697114 Ry
     smearing contrib. (-TS)   =       0.00013427 Ry

[...]

     convergence has been achieved in  13 iterations

     Forces acting on atoms (Ry/au):

     atom    1 type  1   force =     0.00000000    0.00000000    0.00000000
     atom    2 type  1   force =     0.00000000    0.00000000    0.00000000
     atom    3 type  2   force =    -0.04242878   -0.04242878    0.00000000
     atom    4 type  2   force =     0.04242878    0.04242878   -0.00000000
     atom    5 type  2   force =    -0.04242878    0.04242878    0.00000000
     atom    6 type  2   force =     0.04242878   -0.04242878   -0.00000000

     Total force =     0.120007     Total SCF correction =     0.000087

     entering subroutine stress ...

          total   stress  (Ry/bohr**3)                   (kbar)     P=  501.17
   0.00322528   0.00000000   0.00000000        474.45      0.00      0.00
   0.00000000   0.00322528   0.00000000          0.00    474.45      0.00
   0.00000000   0.00000000   0.00377008          0.00      0.00    554.60

     Volume is kept fixed: isostatic pressure set to zero

     BFGS Geometry Optimization

     number of scf cycles    =   1
     number of bfgs steps    =   0

     enthalpy new            =    -365.1694649996 Ry

     new trust radius        =       0.0600033536 bohr
     new conv_thr            =       0.0000010000 Ry

     new unit-cell volume =    418.39674 a.u.^3 (    62.00000 Ang^3 )

CELL_PARAMETERS (alat=  8.65899730)
   0.995480407   0.000000000   0.000000000
   0.000000000   0.995480407   0.000000000
   0.000000000   0.000000000   0.650309429

ATOMIC_POSITIONS (crystal)
Nb0      0.000000000   0.000000000   0.000000000    0   0   0
Nb0      0.500000000   0.500000000   0.500000000    0   0   0
O1       0.300100036   0.300100036   0.000000000    1   1   0
O1      -0.300100036  -0.300100036   0.000000000    1   1   0
O1       0.800100036   0.199899964   0.500000000    1   1   0
O1       0.199899964   0.800100036   0.500000000    1   1   0

     NEW-OLD atomic charge density approx. for the potential
     NEW k-points:
        k(    1) = (   0.0000000   0.0000000   0.0000000), wk =   0.0080000
[...]
        k(   20) = (   0.0000000   0.0000000   0.3075459), wk =   0.0160000
        k(   21) = (   0.0000000   0.0000000   0.6150918), wk =   0.0160000
        k(   22) = (   0.0000000   0.2009080   0.0000000), wk =   0.0320000
        k(   23) = (   0.0000000   0.2009080   0.3075459), wk =   0.0640000
        k(   24) = (   0.0000000   0.2009080   0.6150918), wk =   0.0640000
        k(   25) = (   0.0000000   0.4018160   0.0000000), wk =   0.0320000
        k(   26) = (   0.0000000   0.4018160   0.3075459), wk =   0.0640000
        k(   27) = (   0.0000000   0.4018160   0.6150918), wk =   0.0640000
        k(   28) = (   0.2009080   0.2009080   0.0000000), wk =   0.0320000
        k(   29) = (   0.2009080   0.2009080   0.3075459), wk =   0.0640000
        k(   30) = (   0.2009080   0.2009080   0.6150918), wk =   0.0640000
        k(   31) = (   0.2009080   0.4018160   0.0000000), wk =   0.0640000
        k(   32) = (   0.2009080   0.4018160   0.3075459), wk =   0.1280000
        k(   33) = (   0.2009080   0.4018160   0.6150918), wk =   0.1280000
        k(   34) = (   0.4018160   0.4018160   0.0000000), wk =   0.0320000
        k(   35) = (   0.4018160   0.4018160   0.3075459), wk =   0.0640000
        k(   36) = (   0.4018160   0.4018160   0.6150918), wk =   0.0640000

[...]

     enthalpy old            =    -365.1694649996 Ry
     enthalpy new            =    -365.1778971740 Ry

     CASE: enthalpy_new < enthalpy_old

[...]

     WARNING: bfgs curvature condition failed, Theta= 0.836
     new trust radius        =       0.0353546390 bohr
     new conv_thr            =       0.0000000726 Ry

[...]

     number of scf cycles    =   8
     number of bfgs steps    =   7

     enthalpy old            =    -365.1907869249 Ry
     enthalpy new            =    -365.1910841245 Ry

     CASE: enthalpy_new < enthalpy_old

     new trust radius        =       0.0068021266 bohr
     new conv_thr            =       0.0000000100 Ry

     new unit-cell volume =    418.39674 a.u.^3 (    62.00000 Ang^3 )

[...]

ATOMIC_POSITIONS (crystal)
Nb0      0.000000000   0.000000000   0.000000000    0   0   0
Nb0      0.500000000   0.500000000   0.500000000    0   0   0
O1       0.288305323   0.288305323   0.000000000    1   1   0
O1      -0.288305323  -0.288305323   0.000000000    1   1   0
O1       0.788305323   0.211694677   0.500000000    1   1   0
O1       0.211694677   0.788305323   0.500000000    1   1   0

     NEW-OLD atomic charge density approx. for the potential
     NEW k-points:
        k(    1) = (   0.0000000   0.0000000   0.0000000), wk =   0.0080000
        k(    2) = (   0.0000000   0.0000000   0.3278938), wk =   0.0160000
        k(    3) = (   0.0000000   0.0000000   0.6557877), wk =   0.0160000
        k(    4) = (   0.0000000   0.1945744   0.0000000), wk =   0.0320000
        k(    5) = (   0.0000000   0.1945744   0.3278938), wk =   0.0640000
        k(    6) = (   0.0000000   0.1945744   0.6557877), wk =   0.0640000
        k(    7) = (   0.0000000   0.3891487   0.0000000), wk =   0.0320000
        k(    8) = (   0.0000000   0.3891487   0.3278938), wk =   0.0640000
        k(    9) = (   0.0000000   0.3891487   0.6557877), wk =   0.0640000
        k(   10) = (   0.1945744   0.1945744   0.0000000), wk =   0.0320000
        k(   11) = (   0.1945744   0.1945744   0.3278938), wk =   0.0640000
        k(   12) = (   0.1945744   0.1945744   0.6557877), wk =   0.0640000
        k(   13) = (   0.1945744   0.3891487   0.0000000), wk =   0.0640000
        k(   14) = (   0.1945744   0.3891487   0.3278938), wk =   0.1280000
        k(   15) = (   0.1945744   0.3891487   0.6557877), wk =   0.1280000
        k(   16) = (   0.3891487   0.3891487   0.0000000), wk =   0.0320000
        k(   17) = (   0.3891487   0.3891487   0.3278938), wk =   0.0640000
        k(   18) = (   0.3891487   0.3891487   0.6557877), wk =   0.0640000
        k(   19) = (   0.0000000   0.0000000   0.0000000), wk =   0.0080000
        k(   20) = (   0.0000000   0.0000000   0.3278938), wk =   0.0160000
        k(   21) = (   0.0000000   0.0000000   0.6557877), wk =   0.0160000
        k(   22) = (   0.0000000   0.1945744   0.0000000), wk =   0.0320000
        k(   23) = (   0.0000000   0.1945744   0.3278938), wk =   0.0640000
        k(   24) = (   0.0000000   0.1945744   0.6557877), wk =   0.0640000
        k(   25) = (   0.0000000   0.3891487   0.0000000), wk =   0.0320000
        k(   26) = (   0.0000000   0.3891487   0.3278938), wk =   0.0640000
        k(   27) = (   0.0000000   0.3891487   0.6557877), wk =   0.0640000
        k(   28) = (   0.1945744   0.1945744   0.0000000), wk =   0.0320000
        k(   29) = (   0.1945744   0.1945744   0.3278938), wk =   0.0640000
        k(   30) = (   0.1945744   0.1945744   0.6557877), wk =   0.0640000
        k(   31) = (   0.1945744   0.3891487   0.0000000), wk =   0.0640000
        k(   32) = (   0.1945744   0.3891487   0.3278938), wk =   0.1280000
        k(   33) = (   0.1945744   0.3891487   0.6557877), wk =   0.1280000
        k(   34) = (   0.3891487   0.3891487   0.0000000), wk =   0.0320000
        k(   35) = (   0.3891487   0.3891487   0.3278938), wk =   0.0640000
        k(   36) = (   0.3891487   0.3891487   0.6557877), wk =   0.0640000

[...]

     Threshold (ethr) on eigenvalues was too large:
     Diagonalizing with lowered threshold

     Davidson diagonalization with overlap
     ethr =  1.08E-08,  avg # of iterations =  2.0

[...]

     Total force =     0.000157     Total SCF correction =     0.000015

[...]

     Volume is kept fixed: isostatic pressure set to zero

     bfgs converged in   9 scf cycles and   8 bfgs steps
     (criteria: energy < 0.10E-03, force < 0.10E-02, cell < 0.50E+00)

     End of BFGS Geometry Optimization

     Final enthalpy =    -365.1911007072 Ry
Begin final coordinates
     new unit-cell volume =    418.39674 a.u.^3 (    62.00000 Ang^3 )

CELL_PARAMETERS (alat=  8.65899730)
   1.027884619   0.000000000   0.000000000
   0.000000000   1.027884619   0.000000000
   0.000000000   0.000000000   0.609953530

ATOMIC_POSITIONS (crystal)
Nb0      0.000000000   0.000000000   0.000000000    0   0   0
Nb0      0.500000000   0.500000000   0.500000000    0   0   0
O1       0.288305323   0.288305323   0.000000000    1   1   0
O1      -0.288305323  -0.288305323   0.000000000    1   1   0
O1       0.788305323   0.211694677   0.500000000    1   1   0
O1       0.211694677   0.788305323   0.500000000    1   1   0
End final coordinates

     A final scf calculation at the relaxed structure.
     The G-vectors are recalculated for the final unit cell
     Results may differ from those at the preceding step.

     bravais-lattice index     =            0
     lattice parameter (alat)  =       8.6590  a.u.
     unit-cell volume          =     418.3967 (a.u.)^3
     number of atoms/cell      =            6
     number of atomic types    =            2
     number of electrons       =        50.00
     number of Kohn-Sham states=           75
     kinetic-energy cutoff     =      40.0000  Ry
     charge density cutoff     =     500.0000  Ry
     convergence threshold     =      1.0E-08
     mixing beta               =       0.7000
     number of iterations used =            8  plain     mixing
     Exchange-correlation      = SLA  PW   PBE  PBE ( 1 4 3 4 0)
     EXX-fraction              =        0.00

     celldm(1)=   8.658997  celldm(2)=   0.000000  celldm(3)=   0.000000
     celldm(4)=   0.000000  celldm(5)=   0.000000  celldm(6)=   0.000000

     crystal axes: (cart. coord. in units of alat)
               a(1) = (   1.027885   0.000000   0.000000 )
               a(2) = (   0.000000   1.027885   0.000000 )
               a(3) = (   0.000000   0.000000   0.609954 )

     reciprocal axes: (cart. coord. in units 2 pi/alat)
               b(1) = (  0.972872  0.000000  0.000000 )
               b(2) = (  0.000000  0.972872  0.000000 )
               b(3) = (  0.000000  0.000000  1.639469 )

     PseudoPot. # 1 for Nb read from file:
     /home/camp/zhonxu/pseudo/nb_pbe_v1.uspp.F.UPF
     MD5 check sum: 573aab8a2fa660278ed4a62cd769473f
     Pseudo is Ultrasoft + core correction, Zval = 13.0
     Generated by new atomic code, or converted to UPF format
     Using radial grid of  887 points,  6 beta functions with:
                l(1) =   0
                l(2) =   0
                l(3) =   1
                l(4) =   1
                l(5) =   2
                l(6) =   2
     Q(r) pseudized with  6 coefficients,  rinner =    1.000   1.000   1.000
                                                       1.000   1.000

     PseudoPot. # 2 for O  read from file:
     /home/camp/zhonxu/pseudo/o_pbe_v1.01.uspp.F.UPF
     MD5 check sum: 2bcb18d16ea4b960afae9ec6d52f22d2
     Pseudo is Ultrasoft + core correction, Zval =  6.0
     Generated by new atomic code, or converted to UPF format
     Using radial grid of  737 points,  5 beta functions with:
                l(1) =   0
                l(2) =   0
                l(3) =   1
                l(4) =   1
                l(5) =   2
     Q(r) pseudized with  8 coefficients,  rinner =    0.900   0.900   0.900
                                                       0.900   0.900

     atomic species   valence    mass     pseudopotential
        Nb0           13.00    92.90640     Nb( 1.00)
        O1             6.00    15.99940     O ( 1.00)

     Starting magnetic structure
     atomic species   magnetization
        Nb0          0.600
        O1           0.000

     16 Sym. Ops., with inversion, found ( 8 have fractional translation)

   Cartesian axes

     site n.     atom                  positions (alat units)
         1           Nb0 tau(   1) = (   0.0000000   0.0000000   0.0000000  )
         2           Nb0 tau(   2) = (   0.5139423   0.5139423   0.3049768  )
         3           O1  tau(   3) = (   0.2963446   0.2963446   0.0000000  )
         4           O1  tau(   4) = (  -0.2963446  -0.2963446   0.0000000  )
         5           O1  tau(   5) = (   0.8102869   0.2175977   0.3049768  )
         6           O1  tau(   6) = (   0.2175977   0.8102869   0.3049768  )

     number of k points=    36  Methfessel-Paxton smearing, width (Ry)=  0.0100
                       cart. coord. in units 2pi/alat
        k(    1) = (   0.0000000   0.0000000   0.0000000), wk =   0.0080000
        k(    2) = (   0.0000000   0.0000000   0.3278938), wk =   0.0160000
        k(    3) = (   0.0000000   0.0000000   0.6557877), wk =   0.0160000
        k(    4) = (   0.0000000   0.1945744   0.0000000), wk =   0.0320000
        k(    5) = (   0.0000000   0.1945744   0.3278938), wk =   0.0640000
        k(    6) = (   0.0000000   0.1945744   0.6557877), wk =   0.0640000
        k(    7) = (   0.0000000   0.3891487   0.0000000), wk =   0.0320000
        k(    8) = (   0.0000000   0.3891487   0.3278938), wk =   0.0640000
        k(    9) = (   0.0000000   0.3891487   0.6557877), wk =   0.0640000
        k(   10) = (   0.1945744   0.1945744   0.0000000), wk =   0.0320000
        k(   11) = (   0.1945744   0.1945744   0.3278938), wk =   0.0640000
        k(   12) = (   0.1945744   0.1945744   0.6557877), wk =   0.0640000
        k(   13) = (   0.1945744   0.3891487   0.0000000), wk =   0.0640000
        k(   14) = (   0.1945744   0.3891487   0.3278938), wk =   0.1280000
        k(   15) = (   0.1945744   0.3891487   0.6557877), wk =   0.1280000
        k(   16) = (   0.3891487   0.3891487   0.0000000), wk =   0.0320000
        k(   17) = (   0.3891487   0.3891487   0.3278938), wk =   0.0640000
        k(   18) = (   0.3891487   0.3891487   0.6557877), wk =   0.0640000
        k(   19) = (   0.0000000   0.0000000   0.0000000), wk =   0.0080000
        k(   20) = (   0.0000000   0.0000000   0.3278938), wk =   0.0160000
        k(   21) = (   0.0000000   0.0000000   0.6557877), wk =   0.0160000
        k(   22) = (   0.0000000   0.1945744   0.0000000), wk =   0.0320000
        k(   23) = (   0.0000000   0.1945744   0.3278938), wk =   0.0640000
        k(   24) = (   0.0000000   0.1945744   0.6557877), wk =   0.0640000
        k(   25) = (   0.0000000   0.3891487   0.0000000), wk =   0.0320000
        k(   26) = (   0.0000000   0.3891487   0.3278938), wk =   0.0640000
        k(   27) = (   0.0000000   0.3891487   0.6557877), wk =   0.0640000
        k(   28) = (   0.1945744   0.1945744   0.0000000), wk =   0.0320000
        k(   29) = (   0.1945744   0.1945744   0.3278938), wk =   0.0640000
        k(   30) = (   0.1945744   0.1945744   0.6557877), wk =   0.0640000
        k(   31) = (   0.1945744   0.3891487   0.0000000), wk =   0.0640000
        k(   32) = (   0.1945744   0.3891487   0.3278938), wk =   0.1280000
        k(   33) = (   0.1945744   0.3891487   0.6557877), wk =   0.1280000
        k(   34) = (   0.3891487   0.3891487   0.0000000), wk =   0.0320000
        k(   35) = (   0.3891487   0.3891487   0.3278938), wk =   0.0640000
        k(   36) = (   0.3891487   0.3891487   0.6557877), wk =   0.0640000

     Largest allocated arrays     est. size (Mb)     dimensions
     Largest temporary arrays     est. size (Mb)     dimensions

     Check: negative/imaginary core charge=   -0.000008    0.000000

     Initial potential from superposition of free atoms

     starting charge   49.99453, renormalised to   50.00000
     Starting wfc are   42 randomized atomic wfcs

     Self-consistent Calculation

[...]

     total energy              =    -365.19108006 Ry
     Harris-Foulkes estimate   =    -365.19108891 Ry
     estimated scf accuracy    <       0.00000020 Ry

[...]

     iteration # 15     ecut=    40.00 Ry     beta=0.70
     Davidson diagonalization with overlap
     ethr =  3.91E-10,  avg # of iterations =  3.1

     End of self-consistent calculation

 ------ SPIN UP ------------

[...]

 ------ SPIN DOWN ----------

[...]

          k = 0.3891 0.3891 0.6558 (  1800 PWs)   bands (ev):

   -40.8550 -40.8538 -17.9972 -17.9824 -17.4353 -17.4110 -16.9769 -16.9726
    -4.9654  -4.6253  -4.2533  -3.8657   6.9491   7.2718   7.7110   7.9366
     8.3078   8.5784   9.1674   9.8609  10.1939  10.4411  11.3985  11.4838
    15.7816  16.2955  16.6534  17.3138  18.3776  18.4793  21.3985  22.1982
    22.5712  23.0877  24.1290  24.2795  26.1284  26.3436  28.0089  28.3411
    31.5783  31.7490  32.0483  32.2387  33.4795  33.7251  34.5537  34.9935
    38.6912  39.2108  39.7157  39.8712  41.8728  42.3664  43.1018  43.7768
    44.2996  45.2905  45.5406  45.7708  46.4337  46.6655  46.6767  47.5134
    47.6862  48.1154  48.5185  48.9703  49.3267  49.4071  50.3819  50.5587
    52.0450  53.3506  54.2111

     the Fermi energy is    15.5934 ev

!    total energy              =    -365.19109054 Ry
     Harris-Foulkes estimate   =    -365.19109052 Ry
     estimated scf accuracy    <          9.7E-09 Ry

     The total energy is the sum of the following terms:

     one-electron contribution =     -77.51290542 Ry
     hartree contribution      =      70.57956667 Ry
     xc contribution           =     -66.43540777 Ry
     ewald contribution        =    -291.82224813 Ry
     smearing contrib. (-TS)   =      -0.00009590 Ry

     total magnetization       =     0.02 Bohr mag/cell
     absolute magnetization    =     0.02 Bohr mag/cell

     convergence has been achieved in  15 iterations

     Forces acting on atoms (Ry/au):

     atom    1 type  1   force =     0.00000000    0.00000000    0.00000000
     atom    2 type  1   force =     0.00000000    0.00000000   -0.00000000
     atom    3 type  2   force =    -0.00002697   -0.00002697   -0.00000000
     atom    4 type  2   force =     0.00002697    0.00002697    0.00000000
     atom    5 type  2   force =    -0.00002697    0.00002697    0.00000000
     atom    6 type  2   force =     0.00002697   -0.00002697    0.00000000

     Total force =     0.000076     Total SCF correction =     0.000054
     SCF correction compared to forces is large: reduce conv_thr to get better values

     entering subroutine stress ...

          total   stress  (Ry/bohr**3)                   (kbar)     P=  483.22
   0.00328729   0.00000000   0.00000000        483.58      0.00      0.00
   0.00000000   0.00328729   0.00000000          0.00    483.58      0.00
   0.00000000   0.00000000   0.00327997          0.00      0.00    482.50

     General routines

     Parallel routines

   This run was terminated on:  19:34:50  23Jan2014

   JOB DONE.
Running PBS batch system epilogue script
Job id: 251213.audhumbla.fysik.dtu.dk
Username: zhonxu
Groupname: campgst
Jobname: NbO2/coarse-EOS/NbO2-v-1.0
Sessionid: 24939
Queuename: verylong
Accounting:
This job has allocated the following 4 nodes:
q130 q130 q130 q130
Finished epilogue job 251213.audhumbla.fysik.dtu.dk for zhonxu