     Program PWSCF v.5.0.2 (svn rev. 9656) starts on 24Jan2014 at 13:54:36

     Current dimensions of program PWSCF are:
     Max number of different atomic species (ntypx) = 10
     Max number of k-points (npk) =  40000
     Max angular momentum in pseudopotentials (lmaxx) =  3
     Reading input from NbO2-v-1.10.in

     Subspace diagonalization in iterative solution of the eigenvalue problem:
     a serial algorithm will be used

     bravais-lattice index     =            0
     lattice parameter (alat)  =       9.4084  a.u.
     unit-cell volume          =     536.7025 (a.u.)^3
     number of atoms/cell      =            6
     number of atomic types    =            2
     number of electrons       =        50.00
     number of Kohn-Sham states=           75
     kinetic-energy cutoff     =      40.0000  Ry
     charge density cutoff     =     500.0000  Ry
     convergence threshold     =      1.0E-06
     mixing beta               =       0.3000
     number of iterations used =            8  plain     mixing
     Exchange-correlation      = SLA  PW   PBE  PBE ( 1 4 3 4 0)
     EXX-fraction              =        0.00
     nstep                     =           50

     celldm(1)=   9.408406  celldm(2)=   0.000000  celldm(3)=   0.000000
     celldm(4)=   0.000000  celldm(5)=   0.000000  celldm(6)=   0.000000

     crystal axes: (cart. coord. in units of alat)
               a(1) = (   1.000000   0.000000   0.000000 )
               a(2) = (   0.000000   1.000000   0.000000 )
               a(3) = (   0.000000   0.000000   0.644444 )

     reciprocal axes: (cart. coord. in units 2 pi/alat)
               b(1) = (  1.000000  0.000000  0.000000 )
               b(2) = (  0.000000  1.000000  0.000000 )
               b(3) = (  0.000000  0.000000  1.551724 )

     PseudoPot. # 1 for Nb read from file:
     /home/camp/zhonxu/pseudo/nb_pbe_v1.uspp.F.UPF
     MD5 check sum: 573aab8a2fa660278ed4a62cd769473f
     Pseudo is Ultrasoft + core correction, Zval = 13.0
     Generated by new atomic code, or converted to UPF format
     Using radial grid of  887 points,  6 beta functions with:
                l(1) =   0
                l(2) =   0
                l(3) =   1
                l(4) =   1
                l(5) =   2
                l(6) =   2
     Q(r) pseudized with  6 coefficients,  rinner =    1.000   1.000   1.000
                                                       1.000   1.000

     PseudoPot. # 2 for O  read from file:
     /home/camp/zhonxu/pseudo/o_pbe_v1.01.uspp.F.UPF
     MD5 check sum: 2bcb18d16ea4b960afae9ec6d52f22d2
     Pseudo is Ultrasoft + core correction, Zval =  6.0
     Generated by new atomic code, or converted to UPF format
     Using radial grid of  737 points,  5 beta functions with:
                l(1) =   0
                l(2) =   0
                l(3) =   1
                l(4) =   1
                l(5) =   2
     Q(r) pseudized with  8 coefficients,  rinner =    0.900   0.900   0.900
                                                       0.900   0.900

     atomic species   valence    mass     pseudopotential
        Nb0           13.00    92.90640     Nb( 1.00)
        O1             6.00    15.99940     O ( 1.00)

     Starting magnetic structure
     atomic species   magnetization
        Nb0          0.600
        O1           0.000

      8 Sym. Ops., with inversion, found
          (note:  8 additional sym.ops. were found but ignored
           their fractional translations are incommensurate with FFT grid)

   Cartesian axes

     site n.     atom                  positions (alat units)
         1           Nb0 tau(   1) = (   0.0000000   0.0000000   0.0000000  )
         2           Nb0 tau(   2) = (   0.5000000   0.5000000   0.3222222  )
         3           O1  tau(   3) = (   0.3050000   0.3050000   0.0000000  )
         4           O1  tau(   4) = (  -0.3050000  -0.3050000   0.0000000  )
         5           O1  tau(   5) = (   0.8050000   0.1950000   0.3222222  )
         6           O1  tau(   6) = (   0.1950000   0.8050000   0.3222222  )

     number of k points=    54  Methfessel-Paxton smearing, width (Ry)=  0.0100
                       cart. coord. in units 2pi/alat
        k(    1) = (   0.0000000   0.0000000   0.0000000), wk =   0.0080000
        k(    2) = (   0.0000000   0.0000000   0.3103448), wk =   0.0160000
        k(    3) = (   0.0000000   0.0000000   0.6206897), wk =   0.0160000
        k(    4) = (   0.0000000   0.2000000   0.0000000), wk =   0.0320000
        k(    5) = (   0.0000000   0.2000000   0.3103448), wk =   0.0640000
        k(    6) = (   0.0000000   0.2000000   0.6206897), wk =   0.0640000
        k(    7) = (   0.0000000   0.4000000   0.0000000), wk =   0.0320000
        k(    8) = (   0.0000000   0.4000000   0.3103448), wk =   0.0640000
        k(    9) = (   0.0000000   0.4000000   0.6206897), wk =   0.0640000
        k(   10) = (   0.2000000   0.2000000   0.0000000), wk =   0.0160000
        k(   11) = (   0.2000000   0.2000000   0.3103448), wk =   0.0320000
        k(   12) = (   0.2000000   0.2000000   0.6206897), wk =   0.0320000
        k(   13) = (   0.2000000   0.4000000   0.0000000), wk =   0.0320000
        k(   14) = (   0.2000000   0.4000000   0.3103448), wk =   0.0640000
        k(   15) = (   0.2000000   0.4000000   0.6206897), wk =   0.0640000
        k(   16) = (   0.4000000   0.4000000   0.0000000), wk =   0.0160000
        k(   17) = (   0.4000000   0.4000000   0.3103448), wk =   0.0320000
        k(   18) = (   0.4000000   0.4000000   0.6206897), wk =   0.0320000
        k(   19) = (  -0.2000000   0.2000000   0.0000000), wk =   0.0160000
        k(   20) = (  -0.2000000   0.2000000  -0.3103448), wk =   0.0320000
        k(   21) = (  -0.2000000   0.2000000  -0.6206897), wk =   0.0320000
        k(   22) = (  -0.2000000   0.4000000   0.0000000), wk =   0.0320000
        k(   23) = (  -0.2000000   0.4000000  -0.3103448), wk =   0.0640000
        k(   24) = (  -0.2000000   0.4000000  -0.6206897), wk =   0.0640000
        k(   25) = (  -0.4000000   0.4000000   0.0000000), wk =   0.0160000
        k(   26) = (  -0.4000000   0.4000000  -0.3103448), wk =   0.0320000
        k(   27) = (  -0.4000000   0.4000000  -0.6206897), wk =   0.0320000
        k(   28) = (   0.0000000   0.0000000   0.0000000), wk =   0.0080000
        k(   29) = (   0.0000000   0.0000000   0.3103448), wk =   0.0160000
        k(   30) = (   0.0000000   0.0000000   0.6206897), wk =   0.0160000
        k(   31) = (   0.0000000   0.2000000   0.0000000), wk =   0.0320000
        k(   32) = (   0.0000000   0.2000000   0.3103448), wk =   0.0640000
        k(   33) = (   0.0000000   0.2000000   0.6206897), wk =   0.0640000
        k(   34) = (   0.0000000   0.4000000   0.0000000), wk =   0.0320000
        k(   35) = (   0.0000000   0.4000000   0.3103448), wk =   0.0640000
        k(   36) = (   0.0000000   0.4000000   0.6206897), wk =   0.0640000
        k(   37) = (   0.2000000   0.2000000   0.0000000), wk =   0.0160000
        k(   38) = (   0.2000000   0.2000000   0.3103448), wk =   0.0320000
        k(   39) = (   0.2000000   0.2000000   0.6206897), wk =   0.0320000
        k(   40) = (   0.2000000   0.4000000   0.0000000), wk =   0.0320000
        k(   41) = (   0.2000000   0.4000000   0.3103448), wk =   0.0640000
        k(   42) = (   0.2000000   0.4000000   0.6206897), wk =   0.0640000
        k(   43) = (   0.4000000   0.4000000   0.0000000), wk =   0.0160000
        k(   44) = (   0.4000000   0.4000000   0.3103448), wk =   0.0320000
        k(   45) = (   0.4000000   0.4000000   0.6206897), wk =   0.0320000
        k(   46) = (  -0.2000000   0.2000000   0.0000000), wk =   0.0160000
        k(   47) = (  -0.2000000   0.2000000  -0.3103448), wk =   0.0320000
        k(   48) = (  -0.2000000   0.2000000  -0.6206897), wk =   0.0320000
        k(   49) = (  -0.2000000   0.4000000   0.0000000), wk =   0.0320000
        k(   50) = (  -0.2000000   0.4000000  -0.3103448), wk =   0.0640000
        k(   51) = (  -0.2000000   0.4000000  -0.6206897), wk =   0.0640000
        k(   52) = (  -0.4000000   0.4000000   0.0000000), wk =   0.0160000
        k(   53) = (  -0.4000000   0.4000000  -0.3103448), wk =   0.0320000
        k(   54) = (  -0.4000000   0.4000000  -0.6206897), wk =   0.0320000

     Largest allocated arrays     est. size (Mb)     dimensions
     Largest temporary arrays     est. size (Mb)     dimensions

     Check: negative/imaginary core charge=   -0.000007    0.000000

     Initial potential from superposition of free atoms

     starting charge   49.99453, renormalised to   50.00000
     Starting wfc are   42 randomized atomic wfcs

     Self-consistent Calculation

     iteration #  1     ecut=    40.00 Ry     beta=0.30
     Davidson diagonalization with overlap
     ethr =  1.00E-02,  avg # of iterations =  5.4

     total energy              =    -364.13333611 Ry
     Harris-Foulkes estimate   =    -364.99115959 Ry
     estimated scf accuracy    <       3.92696939 Ry

     total magnetization       =     2.00 Bohr mag/cell
     absolute magnetization    =     2.86 Bohr mag/cell

[...]

     End of self-consistent calculation

 ------ SPIN UP ------------

          k = 0.0000 0.0000 0.0000 (  2313 PWs)   bands (ev):

   -46.0240 -46.0125 -22.1731 -22.1731 -22.0174 -22.0174 -21.9806 -21.9480
    -8.8082  -8.2426  -7.4122  -7.4119   3.2238   3.2744   4.3088   4.7970
     4.7972   6.4373   6.4374   6.8330   7.6260   7.8067   7.8067   8.3652
    10.3287  10.4754  10.9457  11.1939  11.1939  13.3607  13.4701  14.3123
    16.1246  16.1247  17.1365  18.4524  18.4524  21.7164  22.9770  23.4349
    24.4798  25.1503  25.1503  25.3699  27.7379  27.9056  28.8114  28.8114
    29.5371  29.5371  30.9443  33.9949  33.9949  34.1082  34.5089  34.9115
    36.1178  37.0213  37.0214  37.0322  37.1588  37.1588  37.4285  37.4533
    38.3541  39.0414  39.0414  40.2515  40.6693  42.3891  42.3892  43.3275
    43.4169  44.0272  44.0272

[...]

          k =-0.2000 0.2000 0.0000 (  2293 PWs)   bands (ev):

[...]

 ------ SPIN DOWN ----------

[...]

     the Fermi energy is    11.2677 ev

!    total energy              =    -365.25274425 Ry
     Harris-Foulkes estimate   =    -365.25274086 Ry
     estimated scf accuracy    <       0.00000078 Ry

     The total energy is the sum of the following terms:

     one-electron contribution =    -110.56146242 Ry
     hartree contribution      =      79.45629768 Ry
     xc contribution           =     -65.29864912 Ry
     ewald contribution        =    -268.84895682 Ry
     smearing contrib. (-TS)   =       0.00002643 Ry

[...]

     convergence has been achieved in  12 iterations

     Forces acting on atoms (Ry/au):

     atom    1 type  1   force =     0.00000000    0.00000000    0.00000000
     atom    2 type  1   force =     0.00000000    0.00000000    0.00000000
     atom    3 type  2   force =    -0.00783666   -0.00783666    0.00000000
     atom    4 type  2   force =     0.00783666    0.00783666    0.00000000
     atom    5 type  2   force =    -0.00783008    0.00783008    0.00000000
     atom    6 type  2   force =     0.00783008   -0.00783008    0.00000000

[...]
O1      -0.297666075  -0.297666075   0.000000000    1   1   0
O1       0.797630727   0.202369273   0.500000000    1   1   0
O1       0.202369273   0.797630727   0.500000000    1   1   0

     NEW-OLD atomic charge density approx. for the potential
     NEW k-points:
        k(    1) = (   0.0000000   0.0000000   0.0000000), wk =   0.0080000
        k(    2) = (   0.0000000   0.0000000   0.3257553), wk =   0.0160000
        k(    3) = (   0.0000000   0.0000000   0.6515106), wk =   0.0160000
        k(    4) = (  -0.0000093   0.1952120   0.0000000), wk =   0.0320000
        k(    5) = (  -0.0000093   0.1952120   0.3257553), wk =   0.0640000
        k(    6) = (  -0.0000093   0.1952120   0.6515106), wk =   0.0640000
        k(    7) = (  -0.0000187   0.3904240   0.0000000), wk =   0.0320000
        k(    8) = (  -0.0000187   0.3904240   0.3257553), wk =   0.0640000
        k(    9) = (  -0.0000187   0.3904240   0.6515106), wk =   0.0640000
        k(   10) = (   0.1952027   0.1952027   0.0000000), wk =   0.0160000
        k(   11) = (   0.1952027   0.1952027   0.3257553), wk =   0.0320000
        k(   12) = (   0.1952027   0.1952027   0.6515106), wk =   0.0320000
        k(   13) = (   0.1951933   0.3904147   0.0000000), wk =   0.0320000
        k(   14) = (   0.1951933   0.3904147   0.3257553), wk =   0.0640000
        k(   15) = (   0.1951933   0.3904147   0.6515106), wk =   0.0640000
        k(   16) = (   0.3904053   0.3904053   0.0000000), wk =   0.0160000
        k(   17) = (   0.3904053   0.3904053   0.3257553), wk =   0.0320000
        k(   18) = (   0.3904053   0.3904053   0.6515106), wk =   0.0320000
        k(   19) = (  -0.1952213   0.1952213   0.0000000), wk =   0.0160000
        k(   20) = (  -0.1952213   0.1952213  -0.3257553), wk =   0.0320000
        k(   21) = (  -0.1952213   0.1952213  -0.6515106), wk =   0.0320000
        k(   22) = (  -0.1952307   0.3904333   0.0000000), wk =   0.0320000
        k(   23) = (  -0.1952307   0.3904333  -0.3257553), wk =   0.0640000
        k(   24) = (  -0.1952307   0.3904333  -0.6515106), wk =   0.0640000
        k(   25) = (  -0.3904427   0.3904427   0.0000000), wk =   0.0160000
        k(   26) = (  -0.3904427   0.3904427  -0.3257553), wk =   0.0320000
        k(   27) = (  -0.3904427   0.3904427  -0.6515106), wk =   0.0320000
        k(   28) = (   0.0000000   0.0000000   0.0000000), wk =   0.0080000
        k(   29) = (   0.0000000   0.0000000   0.3257553), wk =   0.0160000
        k(   30) = (   0.0000000   0.0000000   0.6515106), wk =   0.0160000
        k(   31) = (  -0.0000093   0.1952120   0.0000000), wk =   0.0320000
        k(   32) = (  -0.0000093   0.1952120   0.3257553), wk =   0.0640000
        k(   33) = (  -0.0000093   0.1952120   0.6515106), wk =   0.0640000
        k(   34) = (  -0.0000187   0.3904240   0.0000000), wk =   0.0320000
        k(   35) = (  -0.0000187   0.3904240   0.3257553), wk =   0.0640000
        k(   36) = (  -0.0000187   0.3904240   0.6515106), wk =   0.0640000
        k(   37) = (   0.1952027   0.1952027   0.0000000), wk =   0.0160000
        k(   38) = (   0.1952027   0.1952027   0.3257553), wk =   0.0320000
        k(   39) = (   0.1952027   0.1952027   0.6515106), wk =   0.0320000
        k(   40) = (   0.1951933   0.3904147   0.0000000), wk =   0.0320000
        k(   41) = (   0.1951933   0.3904147   0.3257553), wk =   0.0640000
        k(   42) = (   0.1951933   0.3904147   0.6515106), wk =   0.0640000
        k(   43) = (   0.3904053   0.3904053   0.0000000), wk =   0.0160000
        k(   44) = (   0.3904053   0.3904053   0.3257553), wk =   0.0320000
        k(   45) = (   0.3904053   0.3904053   0.6515106), wk =   0.0320000
        k(   46) = (  -0.1952213   0.1952213   0.0000000), wk =   0.0160000
        k(   47) = (  -0.1952213   0.1952213  -0.3257553), wk =   0.0320000
        k(   48) = (  -0.1952213   0.1952213  -0.6515106), wk =   0.0320000
        k(   49) = (  -0.1952307   0.3904333   0.0000000), wk =   0.0320000
        k(   50) = (  -0.1952307   0.3904333  -0.3257553), wk =   0.0640000
        k(   51) = (  -0.1952307   0.3904333  -0.6515106), wk =   0.0640000
        k(   52) = (  -0.3904427   0.3904427   0.0000000), wk =   0.0160000
        k(   53) = (  -0.3904427   0.3904427  -0.3257553), wk =   0.0320000
        k(   54) = (  -0.3904427   0.3904427  -0.6515106), wk =   0.0320000

[...]

     Volume is kept fixed: isostatic pressure set to zero

     bfgs converged in   7 scf cycles and   5 bfgs steps
     (criteria: energy < 0.10E-03, force < 0.10E-02, cell < 0.50E+00)

     End of BFGS Geometry Optimization

     Final enthalpy =    -365.2625052552 Ry
Begin final coordinates
     new unit-cell volume =    536.70247 a.u.^3 (    79.53110 Ang^3 )

CELL_PARAMETERS (alat=  9.40840572)
   1.024527155   0.000048980   0.000000000
   0.000048980   1.024527155   0.000000000
   0.000000000   0.000000000   0.613957823

ATOMIC_POSITIONS (crystal)
Nb0      0.000000000   0.000000000   0.000000000    0   0   0
Nb0      0.500000000   0.500000000   0.500000000    0   0   0
O1       0.297666075   0.297666075   0.000000000    1   1   0
O1      -0.297666075  -0.297666075   0.000000000    1   1   0
O1       0.797630727   0.202369273   0.500000000    1   1   0
O1       0.202369273   0.797630727   0.500000000    1   1   0
End final coordinates

     A final scf calculation at the relaxed structure.
     The G-vectors are recalculated for the final unit cell
     Results may differ from those at the preceding step.

     bravais-lattice index     =            0
     lattice parameter (alat)  =       9.4084  a.u.
     unit-cell volume          =     536.7025 (a.u.)^3
     number of atoms/cell      =            6
     number of atomic types    =            2
     number of electrons       =        50.00
     number of Kohn-Sham states=           75
     kinetic-energy cutoff     =      40.0000  Ry
     charge density cutoff     =     500.0000  Ry
     convergence threshold     =      1.0E-08
     mixing beta               =       0.3000
     number of iterations used =            8  plain     mixing
     Exchange-correlation      = SLA  PW   PBE  PBE ( 1 4 3 4 0)
     EXX-fraction              =        0.00

     celldm(1)=   9.408406  celldm(2)=   0.000000  celldm(3)=   0.000000
     celldm(4)=   0.000000  celldm(5)=   0.000000  celldm(6)=   0.000000

     crystal axes: (cart. coord. in units of alat)
               a(1) = (   1.024527   0.000049   0.000000 )
               a(2) = (   0.000049   1.024527   0.000000 )
               a(3) = (   0.000000   0.000000   0.613958 )

     reciprocal axes: (cart. coord. in units 2 pi/alat)
               b(1) = (  0.976060 -0.000047  0.000000 )
               b(2) = ( -0.000047  0.976060  0.000000 )
               b(3) = (  0.000000  0.000000  1.628776 )

     PseudoPot. # 1 for Nb read from file:
     /home/camp/zhonxu/pseudo/nb_pbe_v1.uspp.F.UPF
     MD5 check sum: 573aab8a2fa660278ed4a62cd769473f
     Pseudo is Ultrasoft + core correction, Zval = 13.0
     Generated by new atomic code, or converted to UPF format
     Using radial grid of  887 points,  6 beta functions with:
                l(1) =   0
                l(2) =   0
                l(3) =   1
                l(4) =   1
                l(5) =   2
                l(6) =   2
     Q(r) pseudized with  6 coefficients,  rinner =    1.000   1.000   1.000
                                                       1.000   1.000

     PseudoPot. # 2 for O  read from file:
     /home/camp/zhonxu/pseudo/o_pbe_v1.01.uspp.F.UPF
     MD5 check sum: 2bcb18d16ea4b960afae9ec6d52f22d2
     Pseudo is Ultrasoft + core correction, Zval =  6.0
     Generated by new atomic code, or converted to UPF format
     Using radial grid of  737 points,  5 beta functions with:
                l(1) =   0
                l(2) =   0
                l(3) =   1
                l(4) =   1
                l(5) =   2
     Q(r) pseudized with  8 coefficients,  rinner =    0.900   0.900   0.900
                                                       0.900   0.900

     atomic species   valence    mass     pseudopotential
        Nb0           13.00    92.90640     Nb( 1.00)
        O1             6.00    15.99940     O ( 1.00)

     Starting magnetic structure
     atomic species   magnetization
        Nb0          0.600
        O1           0.000

      8 Sym. Ops., with inversion, found
          (note:  8 additional sym.ops. were found but ignored
           their fractional translations are incommensurate with FFT grid)

   Cartesian axes

     site n.     atom                  positions (alat units)
         1           Nb0 tau(   1) = (   0.0000000   0.0000000   0.0000000  )
         2           Nb0 tau(   2) = (   0.5122881   0.5122881   0.3069789  )
         3           O1  tau(   3) = (   0.3049816   0.3049816   0.0000000  )
         4           O1  tau(   4) = (  -0.3049816  -0.3049816   0.0000000  )
         5           O1  tau(   5) = (   0.8172043   0.2073719   0.3069789  )
         6           O1  tau(   6) = (   0.2073719   0.8172043   0.3069789  )

     number of k points=    54  Methfessel-Paxton smearing, width (Ry)=  0.0100
                       cart. coord. in units 2pi/alat
        k(    1) = (   0.0000000   0.0000000   0.0000000), wk =   0.0080000
        k(    2) = (   0.0000000   0.0000000   0.3257553), wk =   0.0160000
        k(    3) = (   0.0000000   0.0000000   0.6515106), wk =   0.0160000
        k(    4) = (  -0.0000093   0.1952120   0.0000000), wk =   0.0320000
        k(    5) = (  -0.0000093   0.1952120   0.3257553), wk =   0.0640000
        k(    6) = (  -0.0000093   0.1952120   0.6515106), wk =   0.0640000
        k(    7) = (  -0.0000187   0.3904240   0.0000000), wk =   0.0320000
        k(    8) = (  -0.0000187   0.3904240   0.3257553), wk =   0.0640000
        k(    9) = (  -0.0000187   0.3904240   0.6515106), wk =   0.0640000
        k(   10) = (   0.1952027   0.1952027   0.0000000), wk =   0.0160000
        k(   11) = (   0.1952027   0.1952027   0.3257553), wk =   0.0320000
        k(   12) = (   0.1952027   0.1952027   0.6515106), wk =   0.0320000
        k(   13) = (   0.1951933   0.3904147   0.0000000), wk =   0.0320000
        k(   14) = (   0.1951933   0.3904147   0.3257553), wk =   0.0640000
        k(   15) = (   0.1951933   0.3904147   0.6515106), wk =   0.0640000
        k(   16) = (   0.3904053   0.3904053   0.0000000), wk =   0.0160000
        k(   17) = (   0.3904053   0.3904053   0.3257553), wk =   0.0320000
        k(   18) = (   0.3904053   0.3904053   0.6515106), wk =   0.0320000
        k(   19) = (  -0.1952213   0.1952213   0.0000000), wk =   0.0160000
        k(   20) = (  -0.1952213   0.1952213  -0.3257553), wk =   0.0320000
        k(   21) = (  -0.1952213   0.1952213  -0.6515106), wk =   0.0320000
        k(   22) = (  -0.1952307   0.3904333   0.0000000), wk =   0.0320000
        k(   23) = (  -0.1952307   0.3904333  -0.3257553), wk =   0.0640000
        k(   24) = (  -0.1952307   0.3904333  -0.6515106), wk =   0.0640000
        k(   25) = (  -0.3904427   0.3904427   0.0000000), wk =   0.0160000
        k(   26) = (  -0.3904427   0.3904427  -0.3257553), wk =   0.0320000
        k(   27) = (  -0.3904427   0.3904427  -0.6515106), wk =   0.0320000
        k(   28) = (   0.0000000   0.0000000   0.0000000), wk =   0.0080000
        k(   29) = (   0.0000000   0.0000000   0.3257553), wk =   0.0160000
        k(   30) = (   0.0000000   0.0000000   0.6515106), wk =   0.0160000
        k(   31) = (  -0.0000093   0.1952120   0.0000000), wk =   0.0320000
        k(   32) = (  -0.0000093   0.1952120   0.3257553), wk =   0.0640000
        k(   33) = (  -0.0000093   0.1952120   0.6515106), wk =   0.0640000
        k(   34) = (  -0.0000187   0.3904240   0.0000000), wk =   0.0320000
        k(   35) = (  -0.0000187   0.3904240   0.3257553), wk =   0.0640000
        k(   36) = (  -0.0000187   0.3904240   0.6515106), wk =   0.0640000
        k(   37) = (   0.1952027   0.1952027   0.0000000), wk =   0.0160000
        k(   38) = (   0.1952027   0.1952027   0.3257553), wk =   0.0320000
        k(   39) = (   0.1952027   0.1952027   0.6515106), wk =   0.0320000
        k(   40) = (   0.1951933   0.3904147   0.0000000), wk =   0.0320000
        k(   41) = (   0.1951933   0.3904147   0.3257553), wk =   0.0640000
        k(   42) = (   0.1951933   0.3904147   0.6515106), wk =   0.0640000
        k(   43) = (   0.3904053   0.3904053   0.0000000), wk =   0.0160000
        k(   44) = (   0.3904053   0.3904053   0.3257553), wk =   0.0320000
        k(   45) = (   0.3904053   0.3904053   0.6515106), wk =   0.0320000
        k(   46) = (  -0.1952213   0.1952213   0.0000000), wk =   0.0160000
        k(   47) = (  -0.1952213   0.1952213  -0.3257553), wk =   0.0320000
        k(   48) = (  -0.1952213   0.1952213  -0.6515106), wk =   0.0320000
        k(   49) = (  -0.1952307   0.3904333   0.0000000), wk =   0.0320000
        k(   50) = (  -0.1952307   0.3904333  -0.3257553), wk =   0.0640000
        k(   51) = (  -0.1952307   0.3904333  -0.6515106), wk =   0.0640000
        k(   52) = (  -0.3904427   0.3904427   0.0000000), wk =   0.0160000
        k(   53) = (  -0.3904427   0.3904427  -0.3257553), wk =   0.0320000
        k(   54) = (  -0.3904427   0.3904427  -0.6515106), wk =   0.0320000

     Largest allocated arrays     est. size (Mb)     dimensions
     Largest temporary arrays     est. size (Mb)     dimensions

     Check: negative/imaginary core charge=   -0.000007    0.000000

     Initial potential from superposition of free atoms

     starting charge   49.99453, renormalised to   50.00000
     Starting wfc are   42 randomized atomic wfcs

     Self-consistent Calculation

[...]

     total energy              =    -365.26247541 Ry
     Harris-Foulkes estimate   =    -365.26247549 Ry
     estimated scf accuracy    <       0.00000002 Ry

[...]

     iteration # 23     ecut=    40.00 Ry     beta=0.30
     Davidson diagonalization with overlap
     ethr =  4.21E-11,  avg # of iterations =  2.0

     End of self-consistent calculation

 ------ SPIN UP ------------

[...]

 ------ SPIN DOWN ----------

[...]

          k = 0.3904 0.3904 0.6515 (  2296 PWs)   bands (ev):

[...]

          k =-0.3904 0.3904-0.6515 (  2296 PWs)   bands (ev):

   -45.7279 -45.7273 -22.1773 -22.1754 -21.8104 -21.8067 -21.5957 -21.5954
    -8.1862  -8.0785  -7.7770  -7.6600   4.2841   4.5525   4.6077   4.8427
     4.9258   5.3723   5.6903   6.0251   7.0266   7.1504   7.5446   7.6803
    11.2458  11.7177  11.7961  12.2990  12.8505  12.9181  14.8422  15.4674
    15.7367  16.2966  19.0602  19.4874  20.0437  20.3889  22.0579  22.2421
    23.7231  23.8833  26.1046  26.3421  26.4985  27.1775  27.8741  28.3377
    30.9592  31.1290  31.2912  31.8030  33.8055  33.9812  35.7229  36.2707
    36.3591  36.5619  36.8881  37.7809  38.1432  38.3347  38.6022  39.2723
    39.3840  39.8852  39.9770  39.9907  40.3914  40.6882  41.1913  42.1621
    43.0661  44.2946  44.7663

     the Fermi energy is    11.0345 ev

!    total energy              =    -365.26247556 Ry
     Harris-Foulkes estimate   =    -365.26247554 Ry
     estimated scf accuracy    <          1.5E-09 Ry

     The total energy is the sum of the following terms:

     one-electron contribution =    -112.47810804 Ry
     hartree contribution      =      80.22489709 Ry
     xc contribution           =     -65.24556759 Ry
     ewald contribution        =    -267.76351465 Ry
     smearing contrib. (-TS)   =      -0.00018237 Ry

     total magnetization       =     0.59 Bohr mag/cell
     absolute magnetization    =     0.63 Bohr mag/cell

     convergence has been achieved in  23 iterations

     Forces acting on atoms (Ry/au):

     atom    1 type  1   force =     0.00000000    0.00000000    0.00000000
     atom    2 type  1   force =     0.00000000    0.00000000    0.00000000
     atom    3 type  2   force =     0.00001844    0.00001844    0.00000000
     atom    4 type  2   force =    -0.00001844   -0.00001844    0.00000000
     atom    5 type  2   force =     0.00009536   -0.00009536    0.00000000
     atom    6 type  2   force =    -0.00009536    0.00009536    0.00000000

     Total force =     0.000194     Total SCF correction =     0.000053
     SCF correction compared to forces is large: reduce conv_thr to get better values

     entering subroutine stress ...

          total   stress  (Ry/bohr**3)                   (kbar)     P= -185.06
  -0.00125677  -0.00000091   0.00000000       -184.88     -0.13      0.00
  -0.00000091  -0.00125677   0.00000000         -0.13   -184.88      0.00
   0.00000000   0.00000000  -0.00126052          0.00      0.00   -185.43

     General routines

     Parallel routines

   This run was terminated on:  15:19:26  24Jan2014

   JOB DONE.