     Program PWSCF v.5.0.2 (svn rev. 9656) starts on 23Jan2014 at 18:46:54

     Current dimensions of program PWSCF are:
     Max number of different atomic species (ntypx) = 10
     Max number of k-points (npk) =  40000
     Max angular momentum in pseudopotentials (lmaxx) =  3
     Reading input from RhO2-v-0.9.in

     Subspace diagonalization in iterative solution of the eigenvalue problem:
     a serial algorithm will be used

     bravais-lattice index     =            0
     lattice parameter (alat)  =       8.3602  a.u.
     unit-cell volume          =     376.5571 (a.u.)^3
     number of atoms/cell      =            6
     number of atomic types    =            2
     number of electrons       =        54.00
     number of Kohn-Sham states=           81
     kinetic-energy cutoff     =      40.0000  Ry
     charge density cutoff     =     500.0000  Ry
     convergence threshold     =      1.0E-06
     mixing beta               =       0.7000
     number of iterations used =            8  plain     mixing
     Exchange-correlation      = SLA  PW   PBE  PBE ( 1 4 3 4 0)
     EXX-fraction              =        0.00
     nstep                     =           50

     celldm(1)=   8.360170  celldm(2)=   0.000000  celldm(3)=   0.000000
     celldm(4)=   0.000000  celldm(5)=   0.000000  celldm(6)=   0.000000

     crystal axes: (cart. coord. in units of alat)
               a(1) = (   1.000000   0.000000   0.000000 )
               a(2) = (   0.000000   1.000000   0.000000 )
               a(3) = (   0.000000   0.000000   0.644444 )

     reciprocal axes: (cart. coord. in units 2 pi/alat)
               b(1) = (  1.000000  0.000000  0.000000 )
               b(2) = (  0.000000  1.000000  0.000000 )
               b(3) = (  0.000000  0.000000  1.551724 )

     PseudoPot. # 1 for Rh read from file:
     /home/camp/zhonxu/pseudo/rh_pbe_v1.uspp.F.UPF
     MD5 check sum: 37b626987ad0dd8ec6bf4cc9ef289918
     Pseudo is Ultrasoft + core correction, Zval = 15.0
     Generated by new atomic code, or converted to UPF format
     Using radial grid of  969 points,  7 beta functions with:
                l(1) =   0
                l(2) =   0
                l(3) =   1
                l(4) =   1
                l(5) =   2
                l(6) =   2
                l(7) =   2
     Q(r) pseudized with  6 coefficients,  rinner =    1.050   1.050   1.050
                                                       1.050   1.050

     PseudoPot. # 2 for O  read from file:
     /home/camp/zhonxu/pseudo/o_pbe_v1.01.uspp.F.UPF
     MD5 check sum: 2bcb18d16ea4b960afae9ec6d52f22d2
     Pseudo is Ultrasoft + core correction, Zval =  6.0
     Generated by new atomic code, or converted to UPF format
     Using radial grid of  737 points,  5 beta functions with:
                l(1) =   0
                l(2) =   0
                l(3) =   1
                l(4) =   1
                l(5) =   2
     Q(r) pseudized with  8 coefficients,  rinner =    0.900   0.900   0.900
                                                       0.900   0.900

     atomic species   valence    mass     pseudopotential
        Rh0           15.00   102.90550     Rh( 1.00)
        O1             6.00    15.99940     O ( 1.00)

     Starting magnetic structure
     atomic species   magnetization
        Rh0          0.600
        O1           0.000

     16 Sym. Ops., with inversion, found ( 8 have fractional translation)

   Cartesian axes

     site n.     atom                  positions (alat units)
         1           Rh0 tau(   1) = (   0.0000000   0.0000000   0.0000000  )
         2           Rh0 tau(   2) = (   0.5000000   0.5000000   0.3222222  )
         3           O1  tau(   3) = (   0.3050000   0.3050000   0.0000000  )
         4           O1  tau(   4) = (  -0.3050000  -0.3050000   0.0000000  )
         5           O1  tau(   5) = (   0.8050000   0.1950000   0.3222222  )
         6           O1  tau(   6) = (   0.1950000   0.8050000   0.3222222  )

     number of k points=    36  Methfessel-Paxton smearing, width (Ry)=  0.0100
                       cart. coord. in units 2pi/alat
        k(    1) = (   0.0000000   0.0000000   0.0000000), wk =   0.0080000
        k(    2) = (   0.0000000   0.0000000   0.3103448), wk =   0.0160000
        k(    3) = (   0.0000000   0.0000000   0.6206897), wk =   0.0160000
        k(    4) = (   0.0000000   0.2000000   0.0000000), wk =   0.0320000
        k(    5) = (   0.0000000   0.2000000   0.3103448), wk =   0.0640000
        k(    6) = (   0.0000000   0.2000000   0.6206897), wk =   0.0640000
        k(    7) = (   0.0000000   0.4000000   0.0000000), wk =   0.0320000
        k(    8) = (   0.0000000   0.4000000   0.3103448), wk =   0.0640000
        k(    9) = (   0.0000000   0.4000000   0.6206897), wk =   0.0640000
        k(   10) = (   0.2000000   0.2000000   0.0000000), wk =   0.0320000
        k(   11) = (   0.2000000   0.2000000   0.3103448), wk =   0.0640000
        k(   12) = (   0.2000000   0.2000000   0.6206897), wk =   0.0640000
        k(   13) = (   0.2000000   0.4000000   0.0000000), wk =   0.0640000
        k(   14) = (   0.2000000   0.4000000   0.3103448), wk =   0.1280000
        k(   15) = (   0.2000000   0.4000000   0.6206897), wk =   0.1280000
        k(   16) = (   0.4000000   0.4000000   0.0000000), wk =   0.0320000
        k(   17) = (   0.4000000   0.4000000   0.3103448), wk =   0.0640000
        k(   18) = (   0.4000000   0.4000000   0.6206897), wk =   0.0640000
        k(   19) = (   0.0000000   0.0000000   0.0000000), wk =   0.0080000
        k(   20) = (   0.0000000   0.0000000   0.3103448), wk =   0.0160000
        k(   21) = (   0.0000000   0.0000000   0.6206897), wk =   0.0160000
        k(   22) = (   0.0000000   0.2000000   0.0000000), wk =   0.0320000
        k(   23) = (   0.0000000   0.2000000   0.3103448), wk =   0.0640000
        k(   24) = (   0.0000000   0.2000000   0.6206897), wk =   0.0640000
        k(   25) = (   0.0000000   0.4000000   0.0000000), wk =   0.0320000
        k(   26) = (   0.0000000   0.4000000   0.3103448), wk =   0.0640000
        k(   27) = (   0.0000000   0.4000000   0.6206897), wk =   0.0640000
        k(   28) = (   0.2000000   0.2000000   0.0000000), wk =   0.0320000
        k(   29) = (   0.2000000   0.2000000   0.3103448), wk =   0.0640000
        k(   30) = (   0.2000000   0.2000000   0.6206897), wk =   0.0640000
        k(   31) = (   0.2000000   0.4000000   0.0000000), wk =   0.0640000
        k(   32) = (   0.2000000   0.4000000   0.3103448), wk =   0.1280000
        k(   33) = (   0.2000000   0.4000000   0.6206897), wk =   0.1280000
        k(   34) = (   0.4000000   0.4000000   0.0000000), wk =   0.0320000
        k(   35) = (   0.4000000   0.4000000   0.3103448), wk =   0.0640000
        k(   36) = (   0.4000000   0.4000000   0.6206897), wk =   0.0640000

     Largest allocated arrays     est. size (Mb)     dimensions
     Largest temporary arrays     est. size (Mb)     dimensions

     Check: negative/imaginary core charge=   -0.000004    0.000000

     Initial potential from superposition of free atoms
     Check: negative starting charge=(component1):   -0.128886
     Check: negative starting charge=(component2):   -0.031679

     starting charge   52.99980, renormalised to   54.00000

     negative rho (up, down):  0.131E+00 0.323E-01
     Starting wfc are   40 randomized atomic wfcs

     Self-consistent Calculation

     iteration #  1     ecut=    40.00 Ry     beta=0.70
     Davidson diagonalization with overlap
     ethr =  1.00E-02,  avg # of iterations =  6.3

     negative rho (up, down):  0.974E-01 0.755E-01

     total energy              =    -466.88661874 Ry
     Harris-Foulkes estimate   =    -469.21559798 Ry
     estimated scf accuracy    <       4.44638255 Ry

     total magnetization       =     6.99 Bohr mag/cell
     absolute magnetization    =     7.02 Bohr mag/cell

[...]

     End of self-consistent calculation

 ------ SPIN UP ------------

          k = 0.0000 0.0000 0.0000 (  1623 PWs)   bands (ev):

   -33.5447 -33.5447 -33.4017 -33.4017 -33.3242 -33.3008  -6.4965  -5.2195
    -4.0624  -4.0624   4.8381   5.0767   6.2705   6.6599   6.6599   9.7136
     9.7136  10.3351  11.4885  11.6131  11.7955  12.1118  12.1118  12.1401
    12.1401  12.3581  13.1772  15.2820  15.7652  18.9984  18.9984  20.3523
    21.4684  25.1048  25.1048  28.6867  29.8222  29.8885  31.8459  33.0503
    33.3990  33.3990  34.9795  37.2434  37.8764  37.8764  39.5082  39.5082
    40.0521  41.8636  42.2462  42.2462  42.8436  42.8631  43.3852  45.4781
    46.1715  46.8938  47.1546  47.8888  47.8888  47.9583  48.9921  48.9921
    51.0917  51.4875  51.4875  51.7214  56.0376  57.2077  57.2172  57.2172
    57.8970  57.9755  57.9755  58.4076  58.4258  58.4258  59.1290  59.1555
    59.1684

[...]

 ------ SPIN DOWN ----------

[...]

     the Fermi energy is    14.6915 ev

!    total energy              =    -469.71253772 Ry
     Harris-Foulkes estimate   =    -469.71253692 Ry
     estimated scf accuracy    <       0.00000075 Ry

     The total energy is the sum of the following terms:

     one-electron contribution =    -116.33532238 Ry
     hartree contribution      =      99.32579387 Ry
     xc contribution           =     -87.83951166 Ry
     ewald contribution        =    -364.86293370 Ry
     smearing contrib. (-TS)   =      -0.00056386 Ry

[...]

     convergence has been achieved in  10 iterations

     Forces acting on atoms (Ry/au):

     negative rho (up, down):  0.886E-01 0.888E-01
     atom    1 type  1   force =     0.00000000    0.00000000    0.00000000
     atom    2 type  1   force =     0.00000000    0.00000000    0.00000000
     atom    3 type  2   force =    -0.03702630   -0.03702630    0.00000000
     atom    4 type  2   force =     0.03702630    0.03702630    0.00000000
     atom    5 type  2   force =    -0.03702630    0.03702630    0.00000000
     atom    6 type  2   force =     0.03702630   -0.03702630    0.00000000

     Total force =     0.104726     Total SCF correction =     0.000021

     entering subroutine stress ...

     negative rho (up, down):  0.886E-01 0.888E-01
          total   stress  (Ry/bohr**3)                   (kbar)     P=  487.19
   0.00237468   0.00000000   0.00000000        349.33      0.00      0.00
   0.00000000   0.00237468   0.00000000          0.00    349.33      0.00
   0.00000000   0.00000000   0.00518624          0.00      0.00    762.92

     Volume is kept fixed: isostatic pressure set to zero

     BFGS Geometry Optimization

     number of scf cycles    =   1
     number of bfgs steps    =   0

     enthalpy new            =    -469.7125377220 Ry

     new trust radius        =       0.1818620798 bohr
     new conv_thr            =       0.0000010000 Ry

     new unit-cell volume =    376.55707 a.u.^3 (    55.80000 Ang^3 )

CELL_PARAMETERS (alat=  8.36016997)
   0.977098585   0.000000000   0.000000000
   0.000000000   0.977098585   0.000000000
   0.000000000   0.000000000   0.675007682

ATOMIC_POSITIONS (crystal)
Rh0      0.000000000   0.000000000   0.000000000    0   0   0
Rh0      0.500000000   0.500000000   0.500000000    0   0   0
[...]
        k(   30) = (   0.2046876   0.2046876   0.5925858), wk =   0.0640000
        k(   31) = (   0.2046876   0.4093753   0.0000000), wk =   0.0640000
        k(   32) = (   0.2046876   0.4093753   0.2962929), wk =   0.1280000
        k(   33) = (   0.2046876   0.4093753   0.5925858), wk =   0.1280000
        k(   34) = (   0.4093753   0.4093753   0.0000000), wk =   0.0320000
        k(   35) = (   0.4093753   0.4093753   0.2962929), wk =   0.0640000
        k(   36) = (   0.4093753   0.4093753   0.5925858), wk =   0.0640000

     Check: negative/imaginary core charge=   -0.000004    0.000000
     Check: negative starting charge=(component1):   -0.160624

[...]

     enthalpy old            =    -469.7125377220 Ry
     enthalpy new            =    -469.7333462785 Ry

     CASE: enthalpy_new < enthalpy_old

[...]

     Threshold (ethr) on eigenvalues was too large:
     Diagonalizing with lowered threshold

     Davidson diagonalization with overlap
     ethr =  9.43E-10,  avg # of iterations =  1.8

[...]

     number of scf cycles    =   6
     number of bfgs steps    =   5

     enthalpy old            =    -469.7425600677 Ry
     enthalpy new            =    -469.7425686244 Ry

     CASE: enthalpy_new < enthalpy_old

     new trust radius        =       0.0002454243 bohr
     new conv_thr            =       0.0000000100 Ry

     new unit-cell volume =    376.55707 a.u.^3 (    55.80000 Ang^3 )

[...]

ATOMIC_POSITIONS (crystal)
Rh0      0.000000000   0.000000000   0.000000000    0   0   0
Rh0      0.500000000   0.500000000   0.500000000    0   0   0
O1       0.308140861   0.308140861   0.000000000    1   1   0
O1      -0.308140861  -0.308140861   0.000000000    1   1   0
O1       0.808140861   0.191859139   0.500000000    1   1   0
O1       0.191859139   0.808140861   0.500000000    1   1   0

     Check: negative starting charge=(component1):   -0.160384
     NEW-OLD atomic charge density approx. for the potential
     NEW k-points:
        k(    1) = (   0.0000000   0.0000000   0.0000000), wk =   0.0080000
        k(    2) = (   0.0000000   0.0000000   0.2916787), wk =   0.0160000
        k(    3) = (   0.0000000   0.0000000   0.5833575), wk =   0.0160000
        k(    4) = (   0.0000000   0.2063003   0.0000000), wk =   0.0320000
        k(    5) = (   0.0000000   0.2063003   0.2916787), wk =   0.0640000
        k(    6) = (   0.0000000   0.2063003   0.5833575), wk =   0.0640000
        k(    7) = (   0.0000000   0.4126006   0.0000000), wk =   0.0320000
        k(    8) = (   0.0000000   0.4126006   0.2916787), wk =   0.0640000
        k(    9) = (   0.0000000   0.4126006   0.5833575), wk =   0.0640000
        k(   10) = (   0.2063003   0.2063003   0.0000000), wk =   0.0320000
        k(   11) = (   0.2063003   0.2063003   0.2916787), wk =   0.0640000
        k(   12) = (   0.2063003   0.2063003   0.5833575), wk =   0.0640000
        k(   13) = (   0.2063003   0.4126006   0.0000000), wk =   0.0640000
        k(   14) = (   0.2063003   0.4126006   0.2916787), wk =   0.1280000
        k(   15) = (   0.2063003   0.4126006   0.5833575), wk =   0.1280000
        k(   16) = (   0.4126006   0.4126006   0.0000000), wk =   0.0320000
        k(   17) = (   0.4126006   0.4126006   0.2916787), wk =   0.0640000
        k(   18) = (   0.4126006   0.4126006   0.5833575), wk =   0.0640000
        k(   19) = (   0.0000000   0.0000000   0.0000000), wk =   0.0080000
        k(   20) = (   0.0000000   0.0000000   0.2916787), wk =   0.0160000
        k(   21) = (   0.0000000   0.0000000   0.5833575), wk =   0.0160000
        k(   22) = (   0.0000000   0.2063003   0.0000000), wk =   0.0320000
        k(   23) = (   0.0000000   0.2063003   0.2916787), wk =   0.0640000
        k(   24) = (   0.0000000   0.2063003   0.5833575), wk =   0.0640000
        k(   25) = (   0.0000000   0.4126006   0.0000000), wk =   0.0320000
        k(   26) = (   0.0000000   0.4126006   0.2916787), wk =   0.0640000
        k(   27) = (   0.0000000   0.4126006   0.5833575), wk =   0.0640000
        k(   28) = (   0.2063003   0.2063003   0.0000000), wk =   0.0320000
        k(   29) = (   0.2063003   0.2063003   0.2916787), wk =   0.0640000
        k(   30) = (   0.2063003   0.2063003   0.5833575), wk =   0.0640000
        k(   31) = (   0.2063003   0.4126006   0.0000000), wk =   0.0640000
        k(   32) = (   0.2063003   0.4126006   0.2916787), wk =   0.1280000
        k(   33) = (   0.2063003   0.4126006   0.5833575), wk =   0.1280000
        k(   34) = (   0.4126006   0.4126006   0.0000000), wk =   0.0320000
        k(   35) = (   0.4126006   0.4126006   0.2916787), wk =   0.0640000
        k(   36) = (   0.4126006   0.4126006   0.5833575), wk =   0.0640000

     Check: negative/imaginary core charge=   -0.000004    0.000000
     Check: negative starting charge=(component1):   -0.160383

[...]

     Threshold (ethr) on eigenvalues was too large:
     Diagonalizing with lowered threshold

     Davidson diagonalization with overlap
     ethr =  1.14E-10,  avg # of iterations =  1.9

[...]

     Total force =     0.000021     Total SCF correction =     0.000023
     SCF correction compared to forces is large: reduce conv_thr to get better values

[...]

     Volume is kept fixed: isostatic pressure set to zero

     bfgs converged in   7 scf cycles and   6 bfgs steps
     (criteria: energy < 0.10E-03, force < 0.10E-02, cell < 0.50E+00)

     End of BFGS Geometry Optimization

     Final enthalpy =    -469.7425688385 Ry
Begin final coordinates
     new unit-cell volume =    376.55707 a.u.^3 (    55.80000 Ang^3 )

CELL_PARAMETERS (alat=  8.36016997)
   0.969460544   0.000000000   0.000000000
   0.000000000   0.969460544   0.000000000
   0.000000000   0.000000000   0.685685881

ATOMIC_POSITIONS (crystal)
Rh0      0.000000000   0.000000000   0.000000000    0   0   0
Rh0      0.500000000   0.500000000   0.500000000    0   0   0
O1       0.308140861   0.308140861   0.000000000    1   1   0
O1      -0.308140861  -0.308140861   0.000000000    1   1   0
O1       0.808140861   0.191859139   0.500000000    1   1   0
O1       0.191859139   0.808140861   0.500000000    1   1   0
End final coordinates

     A final scf calculation at the relaxed structure.
     The G-vectors are recalculated for the final unit cell
     Results may differ from those at the preceding step.

     bravais-lattice index     =            0
     lattice parameter (alat)  =       8.3602  a.u.
     unit-cell volume          =     376.5571 (a.u.)^3
     number of atoms/cell      =            6
     number of atomic types    =            2
     number of electrons       =        54.00
     number of Kohn-Sham states=           81
     kinetic-energy cutoff     =      40.0000  Ry
     charge density cutoff     =     500.0000  Ry
     convergence threshold     =      1.0E-08
     mixing beta               =       0.7000
     number of iterations used =            8  plain     mixing
     Exchange-correlation      = SLA  PW   PBE  PBE ( 1 4 3 4 0)
     EXX-fraction              =        0.00

     celldm(1)=   8.360170  celldm(2)=   0.000000  celldm(3)=   0.000000
     celldm(4)=   0.000000  celldm(5)=   0.000000  celldm(6)=   0.000000

     crystal axes: (cart. coord. in units of alat)
               a(1) = (   0.969461   0.000000   0.000000 )
               a(2) = (   0.000000   0.969461   0.000000 )
               a(3) = (   0.000000   0.000000   0.685686 )

     reciprocal axes: (cart. coord. in units 2 pi/alat)
               b(1) = (  1.031501  0.000000  0.000000 )
               b(2) = (  0.000000  1.031501  0.000000 )
               b(3) = (  0.000000  0.000000  1.458394 )

     PseudoPot. # 1 for Rh read from file:
     /home/camp/zhonxu/pseudo/rh_pbe_v1.uspp.F.UPF
     MD5 check sum: 37b626987ad0dd8ec6bf4cc9ef289918
     Pseudo is Ultrasoft + core correction, Zval = 15.0
     Generated by new atomic code, or converted to UPF format
     Using radial grid of  969 points,  7 beta functions with:
                l(1) =   0
                l(2) =   0
                l(3) =   1
                l(4) =   1
                l(5) =   2
                l(6) =   2
                l(7) =   2
     Q(r) pseudized with  6 coefficients,  rinner =    1.050   1.050   1.050
                                                       1.050   1.050

     PseudoPot. # 2 for O  read from file:
     /home/camp/zhonxu/pseudo/o_pbe_v1.01.uspp.F.UPF
     MD5 check sum: 2bcb18d16ea4b960afae9ec6d52f22d2
     Pseudo is Ultrasoft + core correction, Zval =  6.0
     Generated by new atomic code, or converted to UPF format
     Using radial grid of  737 points,  5 beta functions with:
                l(1) =   0
                l(2) =   0
                l(3) =   1
                l(4) =   1
                l(5) =   2
     Q(r) pseudized with  8 coefficients,  rinner =    0.900   0.900   0.900
                                                       0.900   0.900

     atomic species   valence    mass     pseudopotential
        Rh0           15.00   102.90550     Rh( 1.00)
        O1             6.00    15.99940     O ( 1.00)

     Starting magnetic structure
     atomic species   magnetization
        Rh0          0.600
        O1           0.000

     16 Sym. Ops., with inversion, found ( 8 have fractional translation)

   Cartesian axes

     site n.     atom                  positions (alat units)
         1           Rh0 tau(   1) = (   0.0000000   0.0000000   0.0000000  )
         2           Rh0 tau(   2) = (   0.4847303   0.4847303   0.3428429  )
         3           O1  tau(   3) = (   0.2987304   0.2987304   0.0000000  )
         4           O1  tau(   4) = (  -0.2987304  -0.2987304   0.0000000  )
         5           O1  tau(   5) = (   0.7834607   0.1859999   0.3428429  )
         6           O1  tau(   6) = (   0.1859999   0.7834607   0.3428429  )

     number of k points=    36  Methfessel-Paxton smearing, width (Ry)=  0.0100
                       cart. coord. in units 2pi/alat
        k(    1) = (   0.0000000   0.0000000   0.0000000), wk =   0.0080000
        k(    2) = (   0.0000000   0.0000000   0.2916787), wk =   0.0160000
        k(    3) = (   0.0000000   0.0000000   0.5833575), wk =   0.0160000
        k(    4) = (   0.0000000   0.2063003   0.0000000), wk =   0.0320000
        k(    5) = (   0.0000000   0.2063003   0.2916787), wk =   0.0640000
        k(    6) = (   0.0000000   0.2063003   0.5833575), wk =   0.0640000
        k(    7) = (   0.0000000   0.4126006   0.0000000), wk =   0.0320000
        k(    8) = (   0.0000000   0.4126006   0.2916787), wk =   0.0640000
        k(    9) = (   0.0000000   0.4126006   0.5833575), wk =   0.0640000
        k(   10) = (   0.2063003   0.2063003   0.0000000), wk =   0.0320000
        k(   11) = (   0.2063003   0.2063003   0.2916787), wk =   0.0640000
        k(   12) = (   0.2063003   0.2063003   0.5833575), wk =   0.0640000
        k(   13) = (   0.2063003   0.4126006   0.0000000), wk =   0.0640000
        k(   14) = (   0.2063003   0.4126006   0.2916787), wk =   0.1280000
        k(   15) = (   0.2063003   0.4126006   0.5833575), wk =   0.1280000
        k(   16) = (   0.4126006   0.4126006   0.0000000), wk =   0.0320000
        k(   17) = (   0.4126006   0.4126006   0.2916787), wk =   0.0640000
        k(   18) = (   0.4126006   0.4126006   0.5833575), wk =   0.0640000
        k(   19) = (   0.0000000   0.0000000   0.0000000), wk =   0.0080000
        k(   20) = (   0.0000000   0.0000000   0.2916787), wk =   0.0160000
        k(   21) = (   0.0000000   0.0000000   0.5833575), wk =   0.0160000
        k(   22) = (   0.0000000   0.2063003   0.0000000), wk =   0.0320000
        k(   23) = (   0.0000000   0.2063003   0.2916787), wk =   0.0640000
        k(   24) = (   0.0000000   0.2063003   0.5833575), wk =   0.0640000
        k(   25) = (   0.0000000   0.4126006   0.0000000), wk =   0.0320000
        k(   26) = (   0.0000000   0.4126006   0.2916787), wk =   0.0640000
        k(   27) = (   0.0000000   0.4126006   0.5833575), wk =   0.0640000
        k(   28) = (   0.2063003   0.2063003   0.0000000), wk =   0.0320000
        k(   29) = (   0.2063003   0.2063003   0.2916787), wk =   0.0640000
        k(   30) = (   0.2063003   0.2063003   0.5833575), wk =   0.0640000
        k(   31) = (   0.2063003   0.4126006   0.0000000), wk =   0.0640000
        k(   32) = (   0.2063003   0.4126006   0.2916787), wk =   0.1280000
        k(   33) = (   0.2063003   0.4126006   0.5833575), wk =   0.1280000
        k(   34) = (   0.4126006   0.4126006   0.0000000), wk =   0.0320000
        k(   35) = (   0.4126006   0.4126006   0.2916787), wk =   0.0640000
        k(   36) = (   0.4126006   0.4126006   0.5833575), wk =   0.0640000

     Largest allocated arrays     est. size (Mb)     dimensions
     Largest temporary arrays     est. size (Mb)     dimensions

     Check: negative/imaginary core charge=   -0.000004    0.000000

     Initial potential from superposition of free atoms
     Check: negative starting charge=(component1):   -0.129550
     Check: negative starting charge=(component2):   -0.031947

     starting charge   52.99980, renormalised to   54.00000

     negative rho (up, down):  0.132E+00 0.326E-01
     Starting wfc are   40 randomized atomic wfcs

     Self-consistent Calculation

[...]

     total energy              =    -469.74334931 Ry
     Harris-Foulkes estimate   =    -469.74334950 Ry
     estimated scf accuracy    <       0.00000001 Ry

[...]

     iteration # 14     ecut=    40.00 Ry     beta=0.70
     Davidson diagonalization with overlap
     ethr =  2.52E-11,  avg # of iterations =  2.0

     negative rho (up, down):  0.881E-01 0.883E-01

     End of self-consistent calculation

 ------ SPIN UP ------------

[...]

 ------ SPIN DOWN ----------

[...]

          k = 0.4126 0.4126 0.5834 (  1606 PWs)   bands (ev):

   -33.5409 -33.5312 -33.5144 -33.5044 -33.2184 -33.2184  -4.9260  -4.8388
    -4.6118  -4.5401   6.3297   6.5246   6.5933   6.7824   7.7087   8.0597
     9.3613   9.4428  10.0524  10.3319  11.5454  11.9049  12.6263  12.7279
    12.9746  13.8018  13.9945  14.6644  16.5548  17.1445  18.0873  18.6342
    25.2570  25.5834  27.3627  28.2892  28.5736  29.2555  30.0344  30.5203
    32.8230  33.0459  34.8720  35.3916  37.8423  38.6557  39.2499  39.6132
    40.0121  41.1433  42.7860  42.7882  44.2633  44.3958  44.4068  44.9795
    46.2422  46.5796  48.1877  49.0340  49.7130  50.1880  50.8779  51.2131
    51.5002  51.9536  53.3961  54.3027  54.5438  54.5531  55.0169  55.8968
    56.5046  57.3631  57.6057  58.2170  58.6199  59.1271  59.5687  60.0426
    61.3797

     the Fermi energy is    14.6787 ev

!    total energy              =    -469.74334961 Ry
     Harris-Foulkes estimate   =    -469.74334960 Ry
     estimated scf accuracy    <          4.4E-09 Ry

     The total energy is the sum of the following terms:

     one-electron contribution =    -110.27788903 Ry
     hartree contribution      =      96.31773410 Ry
     xc contribution           =     -87.73913780 Ry
     ewald contribution        =    -368.04338327 Ry
     smearing contrib. (-TS)   =      -0.00067361 Ry

     total magnetization       =     0.16 Bohr mag/cell
     absolute magnetization    =     0.16 Bohr mag/cell

     convergence has been achieved in  14 iterations

     Forces acting on atoms (Ry/au):

     negative rho (up, down):  0.881E-01 0.883E-01
     atom    1 type  1   force =     0.00000000    0.00000000   -0.00000000
     atom    2 type  1   force =     0.00000000    0.00000000    0.00000000
     atom    3 type  2   force =    -0.00021829   -0.00021829   -0.00000000
     atom    4 type  2   force =     0.00021829    0.00021829    0.00000000
     atom    5 type  2   force =    -0.00021829    0.00021829   -0.00000000
     atom    6 type  2   force =     0.00021829   -0.00021829   -0.00000000

     Total force =     0.000617     Total SCF correction =     0.000002

     entering subroutine stress ...

     negative rho (up, down):  0.881E-01 0.883E-01
          total   stress  (Ry/bohr**3)                   (kbar)     P=  413.01
   0.00278799   0.00000000   0.00000000        410.13      0.00      0.00
   0.00000000   0.00278799   0.00000000          0.00    410.13      0.00
   0.00000000   0.00000000   0.00284684          0.00      0.00    418.78

     General routines

     Parallel routines

   This run was terminated on:  19:16:19  23Jan2014

   JOB DONE.
Running PBS batch system epilogue script
Job id: 251207.audhumbla.fysik.dtu.dk
Username: zhonxu
Groupname: campgst
Jobname: RhO2/coarse-EOS/RhO2-v-0.9
Sessionid: 24024
Queuename: verylong
Accounting:
This job has allocated the following 4 nodes:
q095 q095 q095 q095
Finished epilogue job 251207.audhumbla.fysik.dtu.dk for zhonxu