     Program PWSCF v.5.0.2 (svn rev. 9656) starts on  4May2014 at  9:52:13

     Current dimensions of program PWSCF are:
     Max number of different atomic species (ntypx) = 10
     Max number of k-points (npk) =  40000
     Max angular momentum in pseudopotentials (lmaxx) =  3
     Reading input from pwscf.in
Warning: card &CELL ignored
Warning: card / ignored

     Subspace diagonalization in iterative solution of the eigenvalue problem:
     a serial algorithm will be used

     bravais-lattice index     =            0
     lattice parameter (alat)  =      10.7336  a.u.
     unit-cell volume          =    6184.1966 (a.u.)^3
     number of atoms/cell      =           31
     number of atomic types    =            3
     number of electrons       =       238.00 (up: 130.00, down: 108.00)
     number of Kohn-Sham states=          345
     kinetic-energy cutoff     =      40.0000  Ry
     charge density cutoff     =     500.0000  Ry
     convergence threshold     =      1.0E-06
     mixing beta               =       0.7000
     number of iterations used =            8  plain     mixing
     Exchange-correlation      = SLA  PW   PBE  PBE ( 1 4 3 4 0)
     EXX-fraction              =        0.00
     nstep                     =           50

     celldm(1)=  10.733644  celldm(2)=   0.000000  celldm(3)=   0.000000
     celldm(4)=   0.000000  celldm(5)=   0.000000  celldm(6)=   0.000000

     crystal axes: (cart. coord. in units of alat)
               a(1) = (   1.000000   0.000000   0.000000 )
               a(2) = (   0.000000   1.085558   0.000000 )
               a(3) = (   0.000000   0.000000   4.606685 )

     reciprocal axes: (cart. coord. in units 2 pi/alat)
               b(1) = (  1.000000  0.000000  0.000000 )
               b(2) = (  0.000000  0.921185  0.000000 )
               b(3) = (  0.000000  0.000000  0.217076 )

     PseudoPot. # 1 for O  read from file:
     /home/camp/zhonxu/pseudo/o_pbe_v1.01.uspp.F.UPF
     MD5 check sum: 2bcb18d16ea4b960afae9ec6d52f22d2
     Pseudo is Ultrasoft + core correction, Zval =  6.0
     Generated by new atomic code, or converted to UPF format
     Using radial grid of  737 points,  5 beta functions with:
                l(1) =   0
                l(2) =   0
                l(3) =   1
                l(4) =   1
                l(5) =   2
     Q(r) pseudized with  8 coefficients,  rinner =    0.900   0.900   0.900
                                                       0.900   0.900

     PseudoPot. # 2 for Mn read from file:
     /home/camp/zhonxu/pseudo/mn_pbe_v1.uspp.F.UPF
     MD5 check sum: 5fd7c7b5c956fd19902447332617373a
     Pseudo is Ultrasoft + core correction, Zval = 15.0
     Generated by new atomic code, or converted to UPF format
     Using radial grid of  859 points,  6 beta functions with:
                l(1) =   0
                l(2) =   0
                l(3) =   1
                l(4) =   1
                l(5) =   2
                l(6) =   2
     Q(r) pseudized with  6 coefficients,  rinner =    1.150   1.150   1.150
                                                       1.150   1.150

     PseudoPot. # 3 for H  read from file:
     /home/camp/zhonxu/pseudo/h_pbe_v1.uspp.F.UPF
     MD5 check sum: 3408e3ff4ec8b0a4e358431e7e038a48
     Pseudo is Ultrasoft, Zval =  1.0
     Generated by new atomic code, or converted to UPF format
     Using radial grid of  615 points,  2 beta functions with:
                l(1) =   0
                l(2) =   0
     Q(r) pseudized with  8 coefficients,  rinner =    0.700

     atomic species   valence    mass     pseudopotential
        O0             6.00    15.99940     O ( 1.00)
        Mn1           15.00    54.93800     Mn( 1.00)
        H2             1.00     1.00794     H ( 1.00)

     Starting magnetic structure
     atomic species   magnetization
        O0           0.000
        Mn1          0.600
        H2           0.000

     Simplified LDA+U calculation (l_max = 2) with parameters (eV):
     atomic species    L          U    alpha       J0     beta
        Mn1            2     3.0000   0.0000   0.0000   0.0000

     No symmetry found

   Cartesian axes

     site n.     atom                  positions (alat units)
         1           O0  tau(   1) = (   0.0000000   0.0000000   1.7399910  )
         2           O0  tau(   2) = (   0.0000000   0.5427791   1.8336449  )
         3           Mn1 tau(   3) = (   0.2500000   0.5427791   2.0703364  )
         4           Mn1 tau(   4) = (   0.0000000   0.0000000   2.0664668  )
         5           O0  tau(   5) = (   0.2500000   0.8684466   2.0675263  )
         6           O0  tau(   6) = (   0.2500000   0.2171117   2.0713959  )
         7           O0  tau(   7) = (   0.0000000   0.5427791   2.2853304  )
         8           O0  tau(   8) = (   0.0000000   0.0000000   2.4130738  )
         9           Mn1 tau(   9) = (   0.2500000   0.0000000   2.6404597  )
        10           Mn1 tau(  10) = (   0.0000000   0.5427791   2.6100556  )
        11           O0  tau(  11) = (   0.2500000   0.7598908   2.6550169  )
        12           O0  tau(  12) = (   0.2500000   0.3256675   2.6553393  )
        13           O0  tau(  13) = (   0.0000000   0.0000000   2.8422786  )
        14           O0  tau(  14) = (   0.5000000   0.0000000   1.7417876  )
        15           O0  tau(  15) = (   0.5000000   0.5427791   1.8324472  )
        16           Mn1 tau(  16) = (   0.7500000   0.5427791   2.0703364  )
        17           Mn1 tau(  17) = (   0.5000000   0.0000000   2.0689544  )
        18           O0  tau(  18) = (   0.7500000   0.8684466   2.0673421  )
        19           O0  tau(  19) = (   0.7500000   0.2171117   2.0716263  )
        20           O0  tau(  20) = (   0.5000000   0.5427791   2.2770384  )
        21           O0  tau(  21) = (   0.5000000   0.0000000   2.4133962  )
        22           Mn1 tau(  22) = (   0.7500000   0.0000000   2.6405058  )
        23           Mn1 tau(  23) = (   0.5000000   0.5427791   2.7093297  )
        24           O0  tau(  24) = (   0.7500000   0.7598908   2.6549708  )
        25           O0  tau(  25) = (   0.7500000   0.3256675   2.6552472  )
        26           O0  tau(  26) = (   0.5000000   0.0000000   2.8420483  )
        27           H2  tau(  27) = (   0.0000300   0.7005108   1.7564369  )
        28           H2  tau(  28) = (   0.5000400   0.7015529   1.7568515  )
        29           H2  tau(  29) = (   0.1610500   0.0407627   1.6853097  )
        30           H2  tau(  30) = (   0.6609300   0.0408604   1.6868759  )
        31           O0  tau(  31) = (   0.5000700   0.5432134   2.9889094  )

     number of k points=    20  Methfessel-Paxton smearing, width (Ry)=  0.0100
                       cart. coord. in units 2pi/alat
        k(    1) = (   0.0000000   0.0000000   0.0000000), wk =   0.0625000
        k(    2) = (   0.0000000   0.2302962   0.0000000), wk =   0.1250000
        k(    3) = (   0.0000000  -0.4605925   0.0000000), wk =   0.0625000
        k(    4) = (   0.2500000   0.0000000   0.0000000), wk =   0.1250000
        k(    5) = (   0.2500000   0.2302962   0.0000000), wk =   0.1250000
        k(    6) = (   0.2500000  -0.4605925   0.0000000), wk =   0.1250000
        k(    7) = (  -0.5000000   0.0000000   0.0000000), wk =   0.0625000
        k(    8) = (  -0.5000000   0.2302962   0.0000000), wk =   0.1250000
        k(    9) = (  -0.5000000  -0.4605925   0.0000000), wk =   0.0625000
        k(   10) = (  -0.2500000   0.2302962   0.0000000), wk =   0.1250000
        k(   11) = (   0.0000000   0.0000000   0.0000000), wk =   0.0625000
        k(   12) = (   0.0000000   0.2302962   0.0000000), wk =   0.1250000
        k(   13) = (   0.0000000  -0.4605925   0.0000000), wk =   0.0625000
        k(   14) = (   0.2500000   0.0000000   0.0000000), wk =   0.1250000
        k(   15) = (   0.2500000   0.2302962   0.0000000), wk =   0.1250000
        k(   16) = (   0.2500000  -0.4605925   0.0000000), wk =   0.1250000
        k(   17) = (  -0.5000000   0.0000000   0.0000000), wk =   0.0625000
        k(   18) = (  -0.5000000   0.2302962   0.0000000), wk =   0.1250000
        k(   19) = (  -0.5000000  -0.4605925   0.0000000), wk =   0.0625000
        k(   20) = (  -0.2500000   0.2302962   0.0000000), wk =   0.1250000

     Largest allocated arrays     est. size (Mb)     dimensions
     Largest temporary arrays     est. size (Mb)     dimensions

     Check: negative/imaginary core charge=   -0.000022    0.000000

     Initial potential from superposition of free atoms
     Check: negative starting charge=(component1):   -0.000737
     Check: negative starting charge=(component2):   -0.000364

     starting charge  229.99987, renormalised to  238.00000

     negative rho (up, down):  0.762E-03 0.377E-03
     Number of +U iterations with fixed ns =  0
     Starting occupations:
 --- enter write_ns ---
 LDA+U parameters:
U( 2)     =  3.00000000
alpha( 2) =  0.00000000
atom    3   Tr[ns(na)] (up, down, total) =   5.00000  0.00000  5.00000
   spin  1
    eigenvalues:
  1.000  1.000  1.000  1.000  1.000
    eigenvectors:
  1.000  0.000  0.000  0.000  0.000
  0.000  1.000  0.000  0.000  0.000
  0.000  0.000  1.000  0.000  0.000
  0.000  0.000  0.000  1.000  0.000
  0.000  0.000  0.000  0.000  1.000
    occupations:
  1.000  0.000  0.000  0.000  0.000
  0.000  1.000  0.000  0.000  0.000
  0.000  0.000  1.000  0.000  0.000
  0.000  0.000  0.000  1.000  0.000
  0.000  0.000  0.000  0.000  1.000
   spin  2
    eigenvalues:
  0.000  0.000  0.000  0.000  0.000
    eigenvectors:
  1.000  0.000  0.000  0.000  0.000
  0.000  1.000  0.000  0.000  0.000
  0.000  0.000  1.000  0.000  0.000
  0.000  0.000  0.000  1.000  0.000
  0.000  0.000  0.000  0.000  1.000
    occupations:
  0.000  0.000  0.000  0.000  0.000
  0.000  0.000  0.000  0.000  0.000
  0.000  0.000  0.000  0.000  0.000
  0.000  0.000  0.000  0.000  0.000
  0.000  0.000  0.000  0.000  0.000
atomic mag. moment =     5.000000
atom    4   Tr[ns(na)] (up, down, total) =   5.00000  0.00000  5.00000
   spin  1
    eigenvalues:
  1.000  1.000  1.000  1.000  1.000
    eigenvectors:
  1.000  0.000  0.000  0.000  0.000
  0.000  1.000  0.000  0.000  0.000
  0.000  0.000  1.000  0.000  0.000
  0.000  0.000  0.000  1.000  0.000
  0.000  0.000  0.000  0.000  1.000
    occupations:
  1.000  0.000  0.000  0.000  0.000
  0.000  1.000  0.000  0.000  0.000
  0.000  0.000  1.000  0.000  0.000
  0.000  0.000  0.000  1.000  0.000
  0.000  0.000  0.000  0.000  1.000
   spin  2
    eigenvalues:
  0.000  0.000  0.000  0.000  0.000
    eigenvectors:
  1.000  0.000  0.000  0.000  0.000
  0.000  1.000  0.000  0.000  0.000
  0.000  0.000  1.000  0.000  0.000
  0.000  0.000  0.000  1.000  0.000
  0.000  0.000  0.000  0.000  1.000
    occupations:
  0.000  0.000  0.000  0.000  0.000
  0.000  0.000  0.000  0.000  0.000
  0.000  0.000  0.000  0.000  0.000
  0.000  0.000  0.000  0.000  0.000
  0.000  0.000  0.000  0.000  0.000
atomic mag. moment =     5.000000
atom    9   Tr[ns(na)] (up, down, total) =   5.00000  0.00000  5.00000
   spin  1
    eigenvalues:
  1.000  1.000  1.000  1.000  1.000
    eigenvectors:
  1.000  0.000  0.000  0.000  0.000
[...]
  0.001  0.012 -0.007 -0.001  0.152
atomic mag. moment =     3.026255
atom    4   Tr[ns(na)] (up, down, total) =   4.24235  1.20162  5.44398
   spin  1
    eigenvalues:
  0.591  0.651  0.995  1.002  1.003
    eigenvectors:
  0.000  0.998  0.000  0.001  0.000
  0.000  0.001  0.000  0.992  0.007
  0.000  0.000  0.000  0.007  0.993
  0.000  0.000  1.000  0.000  0.000
  1.000  0.000  0.000  0.000  0.000
    occupations:
  0.652 -0.012 -0.005  0.007 -0.000
 -0.012  1.002 -0.000  0.000  0.001
 -0.005 -0.000  1.003  0.000  0.000
  0.007  0.000  0.000  0.995  0.000
 -0.000  0.001  0.000  0.000  0.591
   spin  2
    eigenvalues:
  0.106  0.145  0.170  0.385  0.395
    eigenvectors:
  0.003  0.004  0.000  0.993  0.001
  0.001  0.877  0.118  0.004  0.000
  0.000  0.118  0.882  0.001  0.000
  0.996  0.002  0.000  0.002  0.000
  0.000  0.000  0.000  0.001  0.999
    occupations:
  0.383  0.015  0.006 -0.014 -0.000
  0.015  0.149 -0.008  0.000 -0.003
  0.006 -0.008  0.167  0.001  0.000
 -0.014  0.000  0.001  0.107 -0.000
 -0.000 -0.003  0.000 -0.000  0.395
atomic mag. moment =     3.040727
atom    9   Tr[ns(na)] (up, down, total) =   4.21978  1.27539  5.49517
   spin  1
    eigenvalues:
  0.650  0.653  0.952  0.967  0.996
    eigenvectors:
  0.179  0.026  0.000  0.000  0.795
  0.128  0.872  0.000  0.000  0.000
  0.000  0.000  0.013  0.987  0.000
  0.693  0.102  0.000  0.000  0.205
  0.000  0.000  0.987  0.013  0.000
    occupations:
  0.926 -0.001 -0.000 -0.140  0.000
 -0.001  0.653  0.000 -0.001 -0.000
 -0.000  0.000  0.967  0.000 -0.002
 -0.140 -0.001  0.000  0.722  0.000
  0.000 -0.000 -0.002  0.000  0.952
   spin  2
    eigenvalues:
  0.140  0.160  0.164  0.389  0.422
    eigenvectors:
  0.824  0.000  0.000  0.176  0.001
  0.000  0.000  0.000  0.004  0.996
  0.000  0.173  0.827  0.000  0.000
  0.176  0.000  0.000  0.821  0.003
  0.000  0.827  0.173  0.000  0.000
    occupations:
  0.184 -0.000  0.000  0.095 -0.000
 -0.000  0.422 -0.000 -0.002 -0.000
  0.000 -0.000  0.163  0.000  0.001
  0.095 -0.002  0.000  0.345 -0.000
 -0.000 -0.000  0.001 -0.000  0.161
atomic mag. moment =     2.944380
atom   10   Tr[ns(na)] (up, down, total) =   4.49858  0.86498  5.36356
   spin  1
    eigenvalues:
  0.627  0.888  0.990  0.994  0.999
    eigenvectors:
  0.000  0.957  0.000  0.043  0.000
  0.000  0.000  1.000  0.000  0.000
  0.000  0.000  0.000  0.000  1.000
  0.000  0.043  0.000  0.956  0.000
  1.000  0.000  0.000  0.000  0.000
    occupations:
  0.892  0.000  0.000  0.022  0.000
  0.000  0.990  0.000 -0.000 -0.001
  0.000  0.000  0.999 -0.000 -0.000
  0.022 -0.000 -0.000  0.990 -0.000
  0.000 -0.001 -0.000 -0.000  0.627
   spin  2
    eigenvalues:
  0.086  0.116  0.117  0.202  0.344
    eigenvectors:
  0.021  0.000  0.000  0.979  0.000
  0.000  0.001  0.999  0.000  0.000
  0.000  0.999  0.001  0.000  0.000
  0.979  0.000  0.000  0.021  0.000
  0.000  0.000  0.000  0.000  1.000
    occupations:
  0.199  0.000 -0.000 -0.017 -0.000
  0.000  0.117 -0.000 -0.000  0.000
 -0.000 -0.000  0.116  0.000 -0.000
 -0.017 -0.000  0.000  0.088 -0.000
 -0.000  0.000 -0.000 -0.000  0.344
atomic mag. moment =     3.633592
atom   16   Tr[ns(na)] (up, down, total) =   4.24490  1.21881  5.46371
   spin  1
    eigenvalues:
  0.621  0.638  0.993  0.995  0.998
    eigenvectors:
  0.228  0.004  0.040  0.674  0.055
  0.025  0.974  0.000  0.001  0.000
  0.000  0.000  0.308  0.009  0.683
  0.747  0.022  0.014  0.204  0.013
  0.000  0.001  0.638  0.113  0.248
    occupations:
  0.909  0.007 -0.003 -0.157  0.000
  0.007  0.638  0.001 -0.001 -0.009
 -0.003  0.001  0.997 -0.004 -0.002
 -0.157 -0.001 -0.004  0.708  0.000
  0.000 -0.009 -0.002  0.000  0.994
   spin  2
    eigenvalues:
  0.120  0.149  0.170  0.380  0.400
    eigenvectors:
  0.788  0.000  0.004  0.150  0.057
  0.001  0.002  0.000  0.343  0.654
  0.005  0.128  0.867  0.000  0.000
  0.206  0.000  0.000  0.506  0.288
  0.000  0.869  0.128  0.001  0.001
    occupations:
  0.176 -0.005 -0.002  0.107 -0.001
 -0.005  0.392 -0.001  0.013  0.012
 -0.002 -0.001  0.167  0.004  0.007
  0.107  0.013  0.004  0.332  0.001
 -0.001  0.012  0.007  0.001  0.152
atomic mag. moment =     3.026085
atom   17   Tr[ns(na)] (up, down, total) =   4.24088  1.20164  5.44252
   spin  1
    eigenvalues:
  0.592  0.651  0.995  1.002  1.002
    eigenvectors:
  0.000  0.998  0.000  0.001  0.000
  0.000  0.001  0.000  0.963  0.036
  0.000  0.000  0.000  0.036  0.963
  0.000  0.000  1.000  0.000  0.000
  1.000  0.000  0.000  0.000  0.000
    occupations:
  0.651 -0.012 -0.005  0.006 -0.000
 -0.012  1.002 -0.000  0.000  0.001
 -0.005 -0.000  1.002  0.000  0.000
  0.006  0.000  0.000  0.995  0.000
 -0.000  0.001  0.000  0.000  0.592
   spin  2
    eigenvalues:
  0.107  0.145  0.170  0.386  0.394
    eigenvectors:
  0.002  0.004  0.000  0.992  0.001
  0.001  0.883  0.112  0.004  0.000
  0.000  0.111  0.888  0.001  0.000
  0.996  0.002  0.000  0.002  0.000
  0.000  0.000  0.000  0.001  0.999
    occupations:
  0.384  0.015  0.006 -0.013 -0.000
  0.015  0.149 -0.007  0.000 -0.002
  0.006 -0.007  0.167  0.001  0.000
 -0.013  0.000  0.001  0.108 -0.000
 -0.000 -0.002  0.000 -0.000  0.394
atomic mag. moment =     3.039241
atom   22   Tr[ns(na)] (up, down, total) =   4.21965  1.27559  5.49525
   spin  1
    eigenvalues:
  0.650  0.654  0.952  0.967  0.996
    eigenvectors:
  0.157  0.047  0.000  0.000  0.795
  0.233  0.767  0.000  0.000  0.000
  0.000  0.000  0.012  0.988  0.000
  0.609  0.186  0.000  0.000  0.205
  0.000  0.000  0.988  0.012  0.000
    occupations:
  0.926  0.001 -0.000 -0.140 -0.000
  0.001  0.653  0.000  0.001 -0.000
 -0.000  0.000  0.967  0.000  0.002
 -0.140  0.001  0.000  0.721  0.000
 -0.000 -0.000  0.002  0.000  0.952
   spin  2
    eigenvalues:
  0.140  0.160  0.164  0.389  0.422
    eigenvectors:
  0.824  0.000  0.000  0.176  0.001
  0.000  0.000  0.000  0.004  0.996
  0.000  0.183  0.817  0.000  0.000
  0.176  0.000  0.000  0.821  0.003
  0.000  0.817  0.183  0.000  0.000
    occupations:
  0.184  0.000  0.000  0.095 -0.000
  0.000  0.422 -0.000  0.002 -0.000
  0.000 -0.000  0.163  0.000 -0.002
  0.095  0.002  0.000  0.345  0.000
 -0.000 -0.000 -0.002  0.000  0.161
atomic mag. moment =     2.944058
atom   23   Tr[ns(na)] (up, down, total) =   4.02881  1.57960  5.60841
   spin  1
    eigenvalues:
  0.630  0.666  0.861  0.874  0.998
    eigenvectors:
  0.000  0.999  0.000  0.000  0.000
  0.000  0.000  0.000  1.000  0.000
  0.000  0.000  1.000  0.000  0.000
  0.000  0.000  0.000  0.000  1.000
  1.000  0.000  0.000  0.000  0.000
    occupations:
  0.667  0.000  0.001  0.007  0.000
  0.000  0.874  0.000  0.000  0.001
  0.001  0.000  0.861 -0.000  0.000
  0.007  0.000 -0.000  0.997  0.000
  0.000  0.001  0.000  0.000  0.630
   spin  2
    eigenvalues:
  0.100  0.306  0.327  0.391  0.456
    eigenvectors:
  0.001  0.000  0.000  0.000  0.999
  0.000  0.000  1.000  0.000  0.000
  0.000  1.000  0.000  0.000  0.000
  0.999  0.000  0.000  0.000  0.001
  0.000  0.000  0.000  1.000  0.000
    occupations:
  0.456 -0.000 -0.001 -0.013 -0.000
 -0.000  0.327  0.000 -0.000 -0.000
 -0.001  0.000  0.306  0.001 -0.000
 -0.013 -0.000  0.001  0.100 -0.000
 -0.000 -0.000 -0.000 -0.000  0.391
atomic mag. moment =     2.449211
N of occupied +U levels =  43.7762316
 --- exit write_ns ---

 ------ SPIN UP ------------

[...]

 ------ SPIN DOWN ----------

[...]

          k = 0.2500-0.4606 0.0000 ( 26462 PWs)   bands (ev):

[...]

          k =-0.2500 0.2303 0.0000 ( 26396 PWs)   bands (ev):

   -81.5727 -80.7087 -80.7004 -80.6958 -80.6877 -80.6520 -80.6224 -79.8662
   -50.6326 -50.2384 -50.1899 -49.6144 -49.6027 -49.5866 -49.5762 -49.5685
   -49.5195 -49.5077 -49.5056 -49.5007 -49.4870 -49.4661 -49.4364 -49.3990
   -49.3822 -49.3424 -49.3242 -49.2582 -49.2265 -48.9776 -48.7803 -48.2983
   -21.7879 -21.3441 -21.3090 -21.0084 -20.6842 -20.5726 -20.4672 -20.3822
   -20.2774 -20.1832 -20.1329 -19.9752 -19.9616 -19.9458 -19.9155 -19.7917
   -19.6440 -19.5093 -19.4465  -9.2246  -9.0191  -8.6992  -8.6087  -8.5415
    -8.2409  -8.1200  -8.0266  -7.7301  -7.6686  -7.5221  -7.4317  -7.3801
    -7.3439  -7.2692  -7.1103  -7.0713  -6.8930  -6.8571  -6.7329  -6.6856
    -6.6015  -6.4931  -6.4196  -6.3646  -6.2066  -6.1515  -6.0713  -5.9466
    -5.8958  -5.7948  -5.7319  -5.6378  -5.5647  -5.5014  -5.3929  -5.2554
    -5.1143  -4.9610  -4.8144  -4.7961  -4.7052  -4.6144  -4.5537  -4.5088
    -4.3520  -4.2635  -4.1405  -4.0459  -3.9982  -3.8944  -3.7439  -3.7301
    -3.5442  -3.3991  -3.2376  -2.9566  -0.5385  -0.4759  -0.3264  -0.2757
    -0.2488  -0.2292  -0.1878  -0.0986  -0.0153   0.0363   0.0931   0.1133
     0.1400   0.2554   0.2959   0.3601   0.4357   0.5100   0.5377   0.6839
     0.7631   0.8579   0.8980   0.9380   0.9695   1.0091   1.1026   1.2178
     1.2961   1.3981   1.5948   1.8180   1.8741   1.8971   2.0061   2.1488
     2.2131   2.5042   2.5451   2.6424   3.6477   4.3425   4.5660   5.0033
     5.4243   5.6372   5.7008   6.1874   6.3396   6.5686   6.6003   6.7777
     6.8607   6.9981   7.0915   7.4146   7.5438   7.7934   7.8752   8.0374
     8.3617   8.4337   8.5799   8.6532   8.7749   8.8874   8.9313   9.1143
     9.1869   9.3401   9.4807   9.5381   9.7264   9.8899  10.0093  10.1145
    10.1886  10.2308  10.3475  10.4212  10.5859  10.7044  10.8123  10.9131
    11.0371  11.1186  11.2199  11.2666  11.3599  11.4625  11.5813  11.6209
    11.6829  11.7979  11.8807  11.9189  11.9676  12.1120  12.3111  12.3479
    12.3984  12.5093  12.5568  12.6719  12.7246  12.8447  12.9614  12.9863
    13.0165  13.0862  13.1369  13.2092  13.3098  13.3663  13.4555  13.5122
    13.5784  13.6908  13.7205  13.7640  13.8248  13.9670  14.0001  14.0749
    14.1649  14.2308  14.2718  14.3100  14.3854  14.4218  14.5289  14.6061
    14.6961  14.7612  14.9064  14.9422  15.0053  15.0634  15.0937  15.2325
    15.3410  15.4115  15.5010  15.6015  15.7090  15.8289  15.9734  16.0488
    16.1377  16.1875  16.2711  16.3473  16.4115  16.5198  16.5363  16.5856
    16.6708  16.7378  16.8317  16.9321  17.0036  17.0818  17.1726  17.2461
    17.2967  17.3609  17.4250  17.4973  17.5908  17.6068  17.7293  17.7945
    17.8729  17.9158  17.9426  18.0796  18.1442  18.2150  18.2867  18.3579
    18.4125  18.5391  18.6042  18.6892  18.7637  18.8082  18.9087  19.0114
    19.0847  19.1128  19.1462  19.2352  19.3170  19.3672  19.4543  19.5125
    19.6477  19.7124  19.8230  19.8927  19.9473  20.0005  20.0685  20.1081
    20.1472  20.2499  20.2909  20.3358  20.3939  20.4814  20.5965  20.6921
    20.8283  20.9270  21.0009  21.0420  21.0957  21.1456  21.2130  21.3311
    21.4043  21.4514  21.5238  21.5645  21.6408  21.7033  21.7318  21.8370
    21.9152  22.0034  22.1142  22.1873  22.2651  22.4176  22.4429  22.4996
    22.5725

     the spin up/dw Fermi energies are    -2.4683   -2.0428 ev

!    total energy              =   -2319.70209883 Ry
     Harris-Foulkes estimate   =   -2319.70209883 Ry
     estimated scf accuracy    <          8.2E-09 Ry

     The total energy is the sum of the following terms:

     one-electron contribution =  -26096.78604071 Ry
     hartree contribution      =   13064.56490492 Ry
     xc contribution           =    -348.16396725 Ry
     ewald contribution        =   11059.49195464 Ry
     Hubbard energy            =       1.19107900 Ry
     smearing contrib. (-TS)   =      -0.00002943 Ry

     total magnetization       =    22.00 Bohr mag/cell
     absolute magnetization    =    28.20 Bohr mag/cell

     convergence has been achieved in  17 iterations

     Forces acting on atoms (Ry/au):

     negative rho (up, down):  0.196E-02 0.141E-02
     atom    1 type  1   force =    -0.00555094   -0.01484899    0.00041274
     atom    2 type  1   force =     0.00034573    0.00975628    0.00032910
     atom    3 type  2   force =     0.03368400   -0.00082056   -0.00018075
     atom    4 type  2   force =     0.00689991    0.01124076    0.00008451
     atom    5 type  1   force =     0.00089534    0.01918149    0.00009222
     atom    6 type  1   force =    -0.00451687   -0.02261369   -0.00021449
     atom    7 type  1   force =     0.00005357    0.00040630   -0.00024855
     atom    8 type  1   force =    -0.00117804   -0.00142834   -0.00072967
     atom    9 type  2   force =     0.01566864    0.00033347   -0.00016371
     atom   10 type  2   force =    -0.00000903   -0.00074201    0.00047217
     atom   11 type  1   force =     0.01398425   -0.05686871    0.00026859
     atom   12 type  1   force =     0.01368594    0.05699163    0.00025952
     atom   13 type  1   force =    -0.00037254   -0.00031553    0.00044269
     atom   14 type  1   force =    -0.00577187   -0.01509534    0.00018162
     atom   15 type  1   force =     0.00031202    0.00957640   -0.00008156
     atom   16 type  2   force =    -0.03487527   -0.00087737   -0.00018622
     atom   17 type  2   force =     0.00694177    0.01117629   -0.00003991
     atom   18 type  1   force =     0.00409996    0.01907292    0.00008617
     atom   19 type  1   force =    -0.00064470   -0.02257513   -0.00016455
     atom   20 type  1   force =    -0.00001987   -0.00008555   -0.00056472
     atom   21 type  1   force =    -0.00124773   -0.00132616   -0.00053763
     atom   22 type  2   force =    -0.01425727    0.00047073   -0.00017287
     atom   23 type  2   force =    -0.00008527   -0.00009275   -0.00026922
     atom   24 type  1   force =    -0.01390153   -0.05680466    0.00026261
     atom   25 type  1   force =    -0.01365439    0.05703377    0.00026729
     atom   26 type  1   force =    -0.00033682   -0.00050436    0.00031337
     atom   27 type  3   force =    -0.00000901   -0.00024667    0.00001618
     atom   28 type  3   force =    -0.00000359   -0.00001719   -0.00002190
     atom   29 type  3   force =    -0.00014001   -0.00005814    0.00013297
     atom   30 type  3   force =     0.00000391    0.00005785    0.00032624
     atom   31 type  1   force =    -0.00000029    0.00002326   -0.00037222

     Total force =     0.001721     Total SCF correction =     0.000193
     SCF correction compared to forces is large: reduce conv_thr to get better values

     bfgs converged in  18 scf cycles and  17 bfgs steps
     (criteria: energy < 0.10E-03, force < 0.10E-02)

     End of BFGS Geometry Optimization

     Final energy   =   -2319.7020988262 Ry
Begin final coordinates

ATOMIC_POSITIONS (crystal)
O0       0.000000000   0.000000000   0.375517120    0   0   1
O0       0.000000000   0.500000000   0.395880206    0   0   1
Mn1      0.250000000   0.500000000   0.448056369    0   0   1
Mn1      0.000000000   0.000000000   0.447032889    0   0   1
O0       0.250000000   0.800000000   0.447460864    0   0   1
O0       0.250000000   0.200000000   0.448976781    0   0   1
O0       0.000000000   0.500000000   0.494409912    0   0   1
O0       0.000000000   0.000000000   0.524570702    0   0   1
Mn1      0.250000000   0.000000000   0.573495132    0   0   1
Mn1      0.000000000   0.500000000   0.568425947    0   0   1
O0       0.250000000   0.700000000   0.578705991    0   0   1
O0       0.250000000   0.300000000   0.578922852    0   0   1
O0       0.000000000   0.000000000   0.619605491    0   0   1
O0       0.500000000   0.000000000   0.375864803    0   0   1
O0       0.500000000   0.500000000   0.395873166    0   0   1
Mn1      0.750000000   0.500000000   0.448062441    0   0   1
Mn1      0.500000000   0.000000000   0.447460710    0   0   1
O0       0.750000000   0.800000000   0.447466936    0   0   1
O0       0.750000000   0.200000000   0.448966890    0   0   1
O0       0.500000000   0.500000000   0.494076614    0   0   1
O0       0.500000000   0.000000000   0.524471090    0   0   1
Mn1      0.750000000   0.000000000   0.573507885    0   0   1
Mn1      0.500000000   0.500000000   0.591824964    0   0   1
O0       0.750000000   0.700000000   0.578694201    0   0   1
O0       0.750000000   0.300000000   0.578890467    0   0   1
O0       0.500000000   0.000000000   0.619525812    0   0   1
H2       0.000364263   0.645962152   0.379462082
H2       0.500277291   0.646537718   0.379662442
H2       0.161041551   0.041221907   0.364337324
H2       0.660998110   0.040716794   0.364550659
O0       0.500102712   0.501195212   0.653401257
End final coordinates

     General routines

     Parallel routines
     Hubbard U routines

   This run was terminated on:   0: 3:39   6May2014

   JOB DONE.
Running PBS batch system epilogue script
Job id: 340677.audhumbla.fysik.dtu.dk
Username: zhonxu
Groupname: campgst
Jobname: MnO2/Eads-2-layers/O-U-3.0
Sessionid: 24955
Queuename: verylong
Accounting:
This job has allocated the following 16 nodes:
d065 d065 d065 d065 d065 d065 d065 d065 d004 d004 d004 d004 d004 d004 d004 d004
Finished epilogue job 340677.audhumbla.fysik.dtu.dk for zhonxu