     Program PWSCF v.5.0.2 (svn rev. 9656) starts on 23Jan2014 at 17:46:57

     Current dimensions of program PWSCF are:
     Max number of different atomic species (ntypx) = 10
     Max number of k-points (npk) =  40000
     Max angular momentum in pseudopotentials (lmaxx) =  3
     Reading input from PtO2-v-1.2.in

     Subspace diagonalization in iterative solution of the eigenvalue problem:
     a serial algorithm will be used

     bravais-lattice index     =            0
     lattice parameter (alat)  =       9.2016  a.u.
     unit-cell volume          =     502.0761 (a.u.)^3
     number of atoms/cell      =            6
     number of atomic types    =            2
     number of electrons       =        56.00
     number of Kohn-Sham states=           84
     kinetic-energy cutoff     =      40.0000  Ry
     charge density cutoff     =     500.0000  Ry
     convergence threshold     =      1.0E-06
     mixing beta               =       0.7000
     number of iterations used =            8  plain     mixing
     Exchange-correlation      = SLA  PW   PBE  PBE ( 1 4 3 4 0)
     EXX-fraction              =        0.00
     nstep                     =           50

     celldm(1)=   9.201558  celldm(2)=   0.000000  celldm(3)=   0.000000
     celldm(4)=   0.000000  celldm(5)=   0.000000  celldm(6)=   0.000000

     crystal axes: (cart. coord. in units of alat)
               a(1) = (   1.000000   0.000000   0.000000 )
               a(2) = (   0.000000   1.000000   0.000000 )
               a(3) = (   0.000000   0.000000   0.644444 )

     reciprocal axes: (cart. coord. in units 2 pi/alat)
               b(1) = (  1.000000  0.000000  0.000000 )
               b(2) = (  0.000000  1.000000  0.000000 )
               b(3) = (  0.000000  0.000000  1.551724 )

     PseudoPot. # 1 for Pt read from file:
     /home/camp/zhonxu/pseudo/pt_pbe_v1.uspp.F.UPF
     MD5 check sum: 4c71d6ad5ef119f1eb26a4d0b7884226
     Pseudo is Ultrasoft + core correction, Zval = 16.0
     Generated by new atomic code, or converted to UPF format
     Using radial grid of  985 points,  6 beta functions with:
                l(1) =   0
                l(2) =   0
                l(3) =   1
                l(4) =   1
                l(5) =   2
                l(6) =   2
     Q(r) pseudized with  8 coefficients,  rinner =    1.300   1.300   1.300
                                                       1.300   1.300

     PseudoPot. # 2 for O  read from file:
     /home/camp/zhonxu/pseudo/o_pbe_v1.01.uspp.F.UPF
     MD5 check sum: 2bcb18d16ea4b960afae9ec6d52f22d2
     Pseudo is Ultrasoft + core correction, Zval =  6.0
     Generated by new atomic code, or converted to UPF format
     Using radial grid of  737 points,  5 beta functions with:
                l(1) =   0
                l(2) =   0
                l(3) =   1
                l(4) =   1
                l(5) =   2
     Q(r) pseudized with  8 coefficients,  rinner =    0.900   0.900   0.900
                                                       0.900   0.900

     atomic species   valence    mass     pseudopotential
        Pt0           16.00   195.08000     Pt( 1.00)
        O1             6.00    15.99940     O ( 1.00)

     Starting magnetic structure
     atomic species   magnetization
        Pt0          0.600
        O1           0.000

      8 Sym. Ops., with inversion, found
          (note:  8 additional sym.ops. were found but ignored
           their fractional translations are incommensurate with FFT grid)

   Cartesian axes

     site n.     atom                  positions (alat units)
         1           Pt0 tau(   1) = (   0.0000000   0.0000000   0.0000000  )
         2           Pt0 tau(   2) = (   0.5000000   0.5000000   0.3222222  )
         3           O1  tau(   3) = (   0.3050000   0.3050000   0.0000000  )
         4           O1  tau(   4) = (  -0.3050000  -0.3050000   0.0000000  )
         5           O1  tau(   5) = (   0.8050000   0.1950000   0.3222222  )
         6           O1  tau(   6) = (   0.1950000   0.8050000   0.3222222  )

     number of k points=    54  Methfessel-Paxton smearing, width (Ry)=  0.0100
                       cart. coord. in units 2pi/alat
        k(    1) = (   0.0000000   0.0000000   0.0000000), wk =   0.0080000
        k(    2) = (   0.0000000   0.0000000   0.3103448), wk =   0.0160000
        k(    3) = (   0.0000000   0.0000000   0.6206897), wk =   0.0160000
        k(    4) = (   0.0000000   0.2000000   0.0000000), wk =   0.0320000
        k(    5) = (   0.0000000   0.2000000   0.3103448), wk =   0.0640000
        k(    6) = (   0.0000000   0.2000000   0.6206897), wk =   0.0640000
        k(    7) = (   0.0000000   0.4000000   0.0000000), wk =   0.0320000
        k(    8) = (   0.0000000   0.4000000   0.3103448), wk =   0.0640000
        k(    9) = (   0.0000000   0.4000000   0.6206897), wk =   0.0640000
        k(   10) = (   0.2000000   0.2000000   0.0000000), wk =   0.0160000
        k(   11) = (   0.2000000   0.2000000   0.3103448), wk =   0.0320000
        k(   12) = (   0.2000000   0.2000000   0.6206897), wk =   0.0320000
        k(   13) = (   0.2000000   0.4000000   0.0000000), wk =   0.0320000
        k(   14) = (   0.2000000   0.4000000   0.3103448), wk =   0.0640000
        k(   15) = (   0.2000000   0.4000000   0.6206897), wk =   0.0640000
        k(   16) = (   0.4000000   0.4000000   0.0000000), wk =   0.0160000
        k(   17) = (   0.4000000   0.4000000   0.3103448), wk =   0.0320000
        k(   18) = (   0.4000000   0.4000000   0.6206897), wk =   0.0320000
        k(   19) = (  -0.2000000   0.2000000   0.0000000), wk =   0.0160000
        k(   20) = (  -0.2000000   0.2000000  -0.3103448), wk =   0.0320000
        k(   21) = (  -0.2000000   0.2000000  -0.6206897), wk =   0.0320000
        k(   22) = (  -0.2000000   0.4000000   0.0000000), wk =   0.0320000
        k(   23) = (  -0.2000000   0.4000000  -0.3103448), wk =   0.0640000
        k(   24) = (  -0.2000000   0.4000000  -0.6206897), wk =   0.0640000
        k(   25) = (  -0.4000000   0.4000000   0.0000000), wk =   0.0160000
        k(   26) = (  -0.4000000   0.4000000  -0.3103448), wk =   0.0320000
        k(   27) = (  -0.4000000   0.4000000  -0.6206897), wk =   0.0320000
        k(   28) = (   0.0000000   0.0000000   0.0000000), wk =   0.0080000
        k(   29) = (   0.0000000   0.0000000   0.3103448), wk =   0.0160000
        k(   30) = (   0.0000000   0.0000000   0.6206897), wk =   0.0160000
        k(   31) = (   0.0000000   0.2000000   0.0000000), wk =   0.0320000
        k(   32) = (   0.0000000   0.2000000   0.3103448), wk =   0.0640000
        k(   33) = (   0.0000000   0.2000000   0.6206897), wk =   0.0640000
        k(   34) = (   0.0000000   0.4000000   0.0000000), wk =   0.0320000
        k(   35) = (   0.0000000   0.4000000   0.3103448), wk =   0.0640000
        k(   36) = (   0.0000000   0.4000000   0.6206897), wk =   0.0640000
        k(   37) = (   0.2000000   0.2000000   0.0000000), wk =   0.0160000
        k(   38) = (   0.2000000   0.2000000   0.3103448), wk =   0.0320000
        k(   39) = (   0.2000000   0.2000000   0.6206897), wk =   0.0320000
        k(   40) = (   0.2000000   0.4000000   0.0000000), wk =   0.0320000
        k(   41) = (   0.2000000   0.4000000   0.3103448), wk =   0.0640000
        k(   42) = (   0.2000000   0.4000000   0.6206897), wk =   0.0640000
        k(   43) = (   0.4000000   0.4000000   0.0000000), wk =   0.0160000
        k(   44) = (   0.4000000   0.4000000   0.3103448), wk =   0.0320000
        k(   45) = (   0.4000000   0.4000000   0.6206897), wk =   0.0320000
        k(   46) = (  -0.2000000   0.2000000   0.0000000), wk =   0.0160000
        k(   47) = (  -0.2000000   0.2000000  -0.3103448), wk =   0.0320000
        k(   48) = (  -0.2000000   0.2000000  -0.6206897), wk =   0.0320000
        k(   49) = (  -0.2000000   0.4000000   0.0000000), wk =   0.0320000
        k(   50) = (  -0.2000000   0.4000000  -0.3103448), wk =   0.0640000
        k(   51) = (  -0.2000000   0.4000000  -0.6206897), wk =   0.0640000
        k(   52) = (  -0.4000000   0.4000000   0.0000000), wk =   0.0160000
        k(   53) = (  -0.4000000   0.4000000  -0.3103448), wk =   0.0320000
        k(   54) = (  -0.4000000   0.4000000  -0.6206897), wk =   0.0320000

     Largest allocated arrays     est. size (Mb)     dimensions
     Largest temporary arrays     est. size (Mb)     dimensions

     Check: negative/imaginary core charge=   -0.000005    0.000000

     Initial potential from superposition of free atoms
     Check: negative starting charge=(component1):   -0.307618
     Check: negative starting charge=(component2):   -0.076504

     starting charge   54.99997, renormalised to   56.00000

     negative rho (up, down):  0.313E+00 0.779E-01
     Starting wfc are   40 randomized atomic wfcs

     Self-consistent Calculation

     iteration #  1     ecut=    40.00 Ry     beta=0.70
     Davidson diagonalization with overlap
     ethr =  1.00E-02,  avg # of iterations =  6.4

     negative rho (up, down):  0.232E+00 0.152E+00

     total energy              =    -540.47173067 Ry
     Harris-Foulkes estimate   =    -545.23995401 Ry
     estimated scf accuracy    <       7.35611818 Ry

     total magnetization       =     8.13 Bohr mag/cell
     absolute magnetization    =     8.16 Bohr mag/cell

[...]

     End of self-consistent calculation

 ------ SPIN UP ------------

          k = 0.0000 0.0000 0.0000 (  2127 PWs)   bands (ev):

   -43.3372 -43.3335 -43.2802 -43.2801 -43.2576 -43.2575  -8.8785  -7.8991
    -7.2982  -7.2981   2.2025   2.4609   3.8367   3.8368   4.2642   6.5484
     6.5484   6.9111   7.2893   7.5524   7.6312   7.7425   7.7426   8.0383
     8.6159   8.6160   9.4419   9.6534  10.9297  13.2870  13.2872  13.6821
    14.5323  19.3780  19.3780  20.4444  22.5800  23.1742  25.3240  25.4769
    25.4769  26.7239  27.7922  28.7978  28.8139  29.4340  30.9487  30.9487
    32.0240  32.0240  33.5816  34.9984  35.0135  35.2094  35.2094  35.9251
    36.3522  37.7454  38.2500  38.8236  39.2287  39.2287  39.4721  39.4722
    40.2842  40.2842  41.3929  43.0838  43.4573  44.9970  44.9970  45.9747
    47.0038  47.0038  47.2373  47.3228  47.7941  47.7941  47.9022  47.9411
    48.4156  48.7839  49.4421  53.3843

[...]

          k =-0.2000 0.2000 0.0000 (  2131 PWs)   bands (ev):

[...]

 ------ SPIN DOWN ----------

[...]

     the Fermi energy is    10.5915 ev

!    total energy              =    -544.90488711 Ry
     Harris-Foulkes estimate   =    -544.90488607 Ry
     estimated scf accuracy    <       0.00000084 Ry

     The total energy is the sum of the following terms:

     one-electron contribution =    -158.69600638 Ry
     hartree contribution      =     113.13344146 Ry
     xc contribution           =    -136.83206447 Ry
     ewald contribution        =    -362.50986180 Ry
     smearing contrib. (-TS)   =      -0.00039591 Ry

[...]

     convergence has been achieved in  12 iterations

     Forces acting on atoms (Ry/au):

     negative rho (up, down):  0.197E+00 0.197E+00
     atom    1 type  1   force =     0.00000000    0.00000000    0.00000000
[...]
        k(   14) = (   0.2047348   0.4094653   0.2961647), wk =   0.0640000
        k(   15) = (   0.2047348   0.4094653   0.5923294), wk =   0.0640000
        k(   16) = (   0.4094667   0.4094667   0.0000000), wk =   0.0160000
        k(   17) = (   0.4094667   0.4094667   0.2961647), wk =   0.0320000
        k(   18) = (   0.4094667   0.4094667   0.5923294), wk =   0.0320000
        k(   19) = (  -0.2047305   0.2047305   0.0000000), wk =   0.0160000
        k(   20) = (  -0.2047305   0.2047305  -0.2961647), wk =   0.0320000
        k(   21) = (  -0.2047305   0.2047305  -0.5923294), wk =   0.0320000
        k(   22) = (  -0.2047291   0.4094624   0.0000000), wk =   0.0320000
        k(   23) = (  -0.2047291   0.4094624  -0.2961647), wk =   0.0640000
        k(   24) = (  -0.2047291   0.4094624  -0.5923294), wk =   0.0640000
        k(   25) = (  -0.4094610   0.4094610   0.0000000), wk =   0.0160000
        k(   26) = (  -0.4094610   0.4094610  -0.2961647), wk =   0.0320000
        k(   27) = (  -0.4094610   0.4094610  -0.5923294), wk =   0.0320000
        k(   28) = (   0.0000000   0.0000000   0.0000000), wk =   0.0080000
        k(   29) = (   0.0000000   0.0000000   0.2961647), wk =   0.0160000
        k(   30) = (   0.0000000   0.0000000   0.5923294), wk =   0.0160000
        k(   31) = (   0.0000014   0.2047319   0.0000000), wk =   0.0320000
        k(   32) = (   0.0000014   0.2047319   0.2961647), wk =   0.0640000
        k(   33) = (   0.0000014   0.2047319   0.5923294), wk =   0.0640000
        k(   34) = (   0.0000029   0.4094639   0.0000000), wk =   0.0320000
        k(   35) = (   0.0000029   0.4094639   0.2961647), wk =   0.0640000
        k(   36) = (   0.0000029   0.4094639   0.5923294), wk =   0.0640000
        k(   37) = (   0.2047334   0.2047334   0.0000000), wk =   0.0160000
        k(   38) = (   0.2047334   0.2047334   0.2961647), wk =   0.0320000
        k(   39) = (   0.2047334   0.2047334   0.5923294), wk =   0.0320000
        k(   40) = (   0.2047348   0.4094653   0.0000000), wk =   0.0320000
        k(   41) = (   0.2047348   0.4094653   0.2961647), wk =   0.0640000
        k(   42) = (   0.2047348   0.4094653   0.5923294), wk =   0.0640000
        k(   43) = (   0.4094667   0.4094667   0.0000000), wk =   0.0160000
        k(   44) = (   0.4094667   0.4094667   0.2961647), wk =   0.0320000
        k(   45) = (   0.4094667   0.4094667   0.5923294), wk =   0.0320000
        k(   46) = (  -0.2047305   0.2047305   0.0000000), wk =   0.0160000
        k(   47) = (  -0.2047305   0.2047305  -0.2961647), wk =   0.0320000
        k(   48) = (  -0.2047305   0.2047305  -0.5923294), wk =   0.0320000
        k(   49) = (  -0.2047291   0.4094624   0.0000000), wk =   0.0320000
        k(   50) = (  -0.2047291   0.4094624  -0.2961647), wk =   0.0640000
        k(   51) = (  -0.2047291   0.4094624  -0.5923294), wk =   0.0640000
        k(   52) = (  -0.4094610   0.4094610   0.0000000), wk =   0.0160000
        k(   53) = (  -0.4094610   0.4094610  -0.2961647), wk =   0.0320000
        k(   54) = (  -0.4094610   0.4094610  -0.5923294), wk =   0.0320000

     Check: negative/imaginary core charge=   -0.000005    0.000000
     Check: negative starting charge=(component1):   -0.385331

[...]

     Threshold (ethr) on eigenvalues was too large:
     Diagonalizing with lowered threshold

     Davidson diagonalization with overlap
     ethr =  3.01E-08,  avg # of iterations =  1.0

[...]

     Total force =     0.000070     Total SCF correction =     0.000058
     SCF correction compared to forces is large: reduce conv_thr to get better values

[...]

     Volume is kept fixed: isostatic pressure set to zero

     bfgs converged in   6 scf cycles and   5 bfgs steps
     (criteria: energy < 0.10E-03, force < 0.10E-02, cell < 0.50E+00)

     End of BFGS Geometry Optimization

     Final enthalpy =    -544.9148114690 Ry
Begin final coordinates
     new unit-cell volume =    502.07609 a.u.^3 (    74.40000 Ang^3 )

CELL_PARAMETERS (alat=  9.20155768)
   0.976887176  -0.000006870   0.000000000
  -0.000006870   0.976887176   0.000000000
   0.000000000   0.000000000   0.675299872

ATOMIC_POSITIONS (crystal)
Pt0      0.000000000   0.000000000   0.000000000    0   0   0
Pt0      0.500000000   0.500000000   0.500000000    0   0   0
O1       0.308691328   0.308691328   0.000000000    1   1   0
O1      -0.308691328  -0.308691328   0.000000000    1   1   0
O1       0.808687682   0.191312318   0.500000000    1   1   0
O1       0.191312318   0.808687682   0.500000000    1   1   0
End final coordinates

     A final scf calculation at the relaxed structure.
     The G-vectors are recalculated for the final unit cell
     Results may differ from those at the preceding step.

     bravais-lattice index     =            0
     lattice parameter (alat)  =       9.2016  a.u.
     unit-cell volume          =     502.0761 (a.u.)^3
     number of atoms/cell      =            6
     number of atomic types    =            2
     number of electrons       =        56.00
     number of Kohn-Sham states=           84
     kinetic-energy cutoff     =      40.0000  Ry
     charge density cutoff     =     500.0000  Ry
     convergence threshold     =      1.0E-08
     mixing beta               =       0.7000
     number of iterations used =            8  plain     mixing
     Exchange-correlation      = SLA  PW   PBE  PBE ( 1 4 3 4 0)
     EXX-fraction              =        0.00

     celldm(1)=   9.201558  celldm(2)=   0.000000  celldm(3)=   0.000000
     celldm(4)=   0.000000  celldm(5)=   0.000000  celldm(6)=   0.000000

     crystal axes: (cart. coord. in units of alat)
               a(1) = (   0.976887  -0.000007   0.000000 )
               a(2) = (  -0.000007   0.976887   0.000000 )
               a(3) = (   0.000000   0.000000   0.675300 )

     reciprocal axes: (cart. coord. in units 2 pi/alat)
               b(1) = (  1.023660  0.000007 -0.000000 )
               b(2) = (  0.000007  1.023660 -0.000000 )
               b(3) = ( -0.000000 -0.000000  1.480824 )

     PseudoPot. # 1 for Pt read from file:
     /home/camp/zhonxu/pseudo/pt_pbe_v1.uspp.F.UPF
     MD5 check sum: 4c71d6ad5ef119f1eb26a4d0b7884226
     Pseudo is Ultrasoft + core correction, Zval = 16.0
     Generated by new atomic code, or converted to UPF format
     Using radial grid of  985 points,  6 beta functions with:
                l(1) =   0
                l(2) =   0
                l(3) =   1
                l(4) =   1
                l(5) =   2
                l(6) =   2
     Q(r) pseudized with  8 coefficients,  rinner =    1.300   1.300   1.300
                                                       1.300   1.300

     PseudoPot. # 2 for O  read from file:
     /home/camp/zhonxu/pseudo/o_pbe_v1.01.uspp.F.UPF
     MD5 check sum: 2bcb18d16ea4b960afae9ec6d52f22d2
     Pseudo is Ultrasoft + core correction, Zval =  6.0
     Generated by new atomic code, or converted to UPF format
     Using radial grid of  737 points,  5 beta functions with:
                l(1) =   0
                l(2) =   0
                l(3) =   1
                l(4) =   1
                l(5) =   2
     Q(r) pseudized with  8 coefficients,  rinner =    0.900   0.900   0.900
                                                       0.900   0.900

     atomic species   valence    mass     pseudopotential
        Pt0           16.00   195.08000     Pt( 1.00)
        O1             6.00    15.99940     O ( 1.00)

     Starting magnetic structure
     atomic species   magnetization
        Pt0          0.600
        O1           0.000

      8 Sym. Ops., with inversion, found
          (note:  8 additional sym.ops. were found but ignored
           their fractional translations are incommensurate with FFT grid)

   Cartesian axes

     site n.     atom                  positions (alat units)
         1           Pt0 tau(   1) = (   0.0000000   0.0000000   0.0000000  )
         2           Pt0 tau(   2) = (   0.4884402   0.4884402   0.3376499  )
         3           O1  tau(   3) = (   0.3015545   0.3015545   0.0000000  )
         4           O1  tau(   4) = (  -0.3015545  -0.3015545   0.0000000  )
         5           O1  tau(   5) = (   0.7899953   0.1868850   0.3376499  )
         6           O1  tau(   6) = (   0.1868850   0.7899953   0.3376499  )

     number of k points=    54  Methfessel-Paxton smearing, width (Ry)=  0.0100
                       cart. coord. in units 2pi/alat
        k(    1) = (   0.0000000   0.0000000   0.0000000), wk =   0.0080000
        k(    2) = (   0.0000000   0.0000000   0.2961647), wk =   0.0160000
        k(    3) = (   0.0000000   0.0000000   0.5923294), wk =   0.0160000
        k(    4) = (   0.0000014   0.2047319   0.0000000), wk =   0.0320000
        k(    5) = (   0.0000014   0.2047319   0.2961647), wk =   0.0640000
        k(    6) = (   0.0000014   0.2047319   0.5923294), wk =   0.0640000
        k(    7) = (   0.0000029   0.4094639   0.0000000), wk =   0.0320000
        k(    8) = (   0.0000029   0.4094639   0.2961647), wk =   0.0640000
        k(    9) = (   0.0000029   0.4094639   0.5923294), wk =   0.0640000
        k(   10) = (   0.2047334   0.2047334   0.0000000), wk =   0.0160000
        k(   11) = (   0.2047334   0.2047334   0.2961647), wk =   0.0320000
        k(   12) = (   0.2047334   0.2047334   0.5923294), wk =   0.0320000
        k(   13) = (   0.2047348   0.4094653   0.0000000), wk =   0.0320000
        k(   14) = (   0.2047348   0.4094653   0.2961647), wk =   0.0640000
        k(   15) = (   0.2047348   0.4094653   0.5923294), wk =   0.0640000
        k(   16) = (   0.4094667   0.4094667   0.0000000), wk =   0.0160000
        k(   17) = (   0.4094667   0.4094667   0.2961647), wk =   0.0320000
        k(   18) = (   0.4094667   0.4094667   0.5923294), wk =   0.0320000
        k(   19) = (  -0.2047305   0.2047305   0.0000000), wk =   0.0160000
        k(   20) = (  -0.2047305   0.2047305  -0.2961647), wk =   0.0320000
        k(   21) = (  -0.2047305   0.2047305  -0.5923294), wk =   0.0320000
        k(   22) = (  -0.2047291   0.4094624   0.0000000), wk =   0.0320000
        k(   23) = (  -0.2047291   0.4094624  -0.2961647), wk =   0.0640000
        k(   24) = (  -0.2047291   0.4094624  -0.5923294), wk =   0.0640000
        k(   25) = (  -0.4094610   0.4094610   0.0000000), wk =   0.0160000
        k(   26) = (  -0.4094610   0.4094610  -0.2961647), wk =   0.0320000
        k(   27) = (  -0.4094610   0.4094610  -0.5923294), wk =   0.0320000
        k(   28) = (   0.0000000   0.0000000   0.0000000), wk =   0.0080000
        k(   29) = (   0.0000000   0.0000000   0.2961647), wk =   0.0160000
        k(   30) = (   0.0000000   0.0000000   0.5923294), wk =   0.0160000
        k(   31) = (   0.0000014   0.2047319   0.0000000), wk =   0.0320000
        k(   32) = (   0.0000014   0.2047319   0.2961647), wk =   0.0640000
        k(   33) = (   0.0000014   0.2047319   0.5923294), wk =   0.0640000
        k(   34) = (   0.0000029   0.4094639   0.0000000), wk =   0.0320000
        k(   35) = (   0.0000029   0.4094639   0.2961647), wk =   0.0640000
        k(   36) = (   0.0000029   0.4094639   0.5923294), wk =   0.0640000
        k(   37) = (   0.2047334   0.2047334   0.0000000), wk =   0.0160000
        k(   38) = (   0.2047334   0.2047334   0.2961647), wk =   0.0320000
        k(   39) = (   0.2047334   0.2047334   0.5923294), wk =   0.0320000
        k(   40) = (   0.2047348   0.4094653   0.0000000), wk =   0.0320000
        k(   41) = (   0.2047348   0.4094653   0.2961647), wk =   0.0640000
        k(   42) = (   0.2047348   0.4094653   0.5923294), wk =   0.0640000
        k(   43) = (   0.4094667   0.4094667   0.0000000), wk =   0.0160000
        k(   44) = (   0.4094667   0.4094667   0.2961647), wk =   0.0320000
        k(   45) = (   0.4094667   0.4094667   0.5923294), wk =   0.0320000
        k(   46) = (  -0.2047305   0.2047305   0.0000000), wk =   0.0160000
        k(   47) = (  -0.2047305   0.2047305  -0.2961647), wk =   0.0320000
        k(   48) = (  -0.2047305   0.2047305  -0.5923294), wk =   0.0320000
        k(   49) = (  -0.2047291   0.4094624   0.0000000), wk =   0.0320000
        k(   50) = (  -0.2047291   0.4094624  -0.2961647), wk =   0.0640000
        k(   51) = (  -0.2047291   0.4094624  -0.5923294), wk =   0.0640000
        k(   52) = (  -0.4094610   0.4094610   0.0000000), wk =   0.0160000
        k(   53) = (  -0.4094610   0.4094610  -0.2961647), wk =   0.0320000
        k(   54) = (  -0.4094610   0.4094610  -0.5923294), wk =   0.0320000

     Largest allocated arrays     est. size (Mb)     dimensions
     Largest temporary arrays     est. size (Mb)     dimensions

     Check: negative/imaginary core charge=   -0.000005    0.000000

     Initial potential from superposition of free atoms
     Check: negative starting charge=(component1):   -0.307538
     Check: negative starting charge=(component2):   -0.076519

     starting charge   54.99997, renormalised to   56.00000

     negative rho (up, down):  0.313E+00 0.779E-01
     Starting wfc are   40 randomized atomic wfcs

     Self-consistent Calculation

[...]

     total energy              =    -544.91516465 Ry
     Harris-Foulkes estimate   =    -544.91516468 Ry
     estimated scf accuracy    <       0.00000001 Ry

[...]

     iteration # 18     ecut=    40.00 Ry     beta=0.70
     Davidson diagonalization with overlap
     ethr =  1.89E-11,  avg # of iterations =  2.0

     negative rho (up, down):  0.198E+00 0.197E+00

     End of self-consistent calculation

 ------ SPIN UP ------------

[...]

 ------ SPIN DOWN ----------

[...]

          k = 0.4095 0.4095 0.5923 (  2143 PWs)   bands (ev):

[...]

          k =-0.4095 0.4095-0.5923 (  2143 PWs)   bands (ev):

   -43.3169 -43.3168 -43.2040 -43.2039 -43.0579 -43.0579  -7.7250  -7.6846
    -7.4938  -7.4870   3.5548   3.5932   4.0933   4.2681   4.4652   4.8406
     5.7640   5.9082   6.8252   6.9686   7.6971   8.0844   8.1521   8.2595
     9.1349   9.7122   9.8226  10.2789  11.0835  11.7378  12.3523  12.9716
    18.6102  18.8359  20.4183  20.5967  21.8554  22.3918  23.0722  23.6173
    26.7467  26.8892  28.5740  28.7593  28.7815  29.0731  29.5838  31.0229
    31.1340  31.2249  31.6383  32.6817  34.8362  35.3501  35.9389  36.0006
    37.4734  38.1320  38.8197  40.1323  40.2780  40.6718  41.1854  41.5081
    41.9587  42.3154  42.6984  43.5636  44.0176  44.3780  45.1230  45.5482
    46.1171  46.3260  46.7208  47.1878  47.4645  48.2656  48.8517  49.3078
    50.4181  50.6958  50.8046  51.5219

     the Fermi energy is    10.5705 ev

!    total energy              =    -544.91516471 Ry
     Harris-Foulkes estimate   =    -544.91516471 Ry
     estimated scf accuracy    <          2.0E-09 Ry

     The total energy is the sum of the following terms:

     one-electron contribution =    -154.29630712 Ry
     hartree contribution      =     110.97227775 Ry
     xc contribution           =    -136.77380078 Ry
     ewald contribution        =    -364.81714677 Ry
     smearing contrib. (-TS)   =      -0.00018779 Ry

     total magnetization       =     0.27 Bohr mag/cell
     absolute magnetization    =     0.28 Bohr mag/cell

     convergence has been achieved in  18 iterations

     Forces acting on atoms (Ry/au):

     negative rho (up, down):  0.198E+00 0.197E+00
     atom    1 type  1   force =     0.00000000    0.00000000    0.00000000
     atom    2 type  1   force =     0.00000000    0.00000000    0.00000000
     atom    3 type  2   force =     0.00007896    0.00007896    0.00000000
     atom    4 type  2   force =    -0.00007896   -0.00007896    0.00000000
     atom    5 type  2   force =     0.00008070   -0.00008070    0.00000000
     atom    6 type  2   force =    -0.00008070    0.00008070    0.00000000

     Total force =     0.000226     Total SCF correction =     0.000066
     SCF correction compared to forces is large: reduce conv_thr to get better values

     entering subroutine stress ...

     negative rho (up, down):  0.198E+00 0.197E+00
          total   stress  (Ry/bohr**3)                   (kbar)     P= -169.87
  -0.00116441   0.00000018   0.00000000       -171.29      0.03      0.00
   0.00000018  -0.00116441   0.00000000          0.03   -171.29      0.00
   0.00000000   0.00000000  -0.00113541          0.00      0.00   -167.02

     General routines

     Parallel routines

   This run was terminated on:  18:48: 7  23Jan2014

   JOB DONE.
Running PBS batch system epilogue script
Job id: 251195.audhumbla.fysik.dtu.dk
Username: zhonxu
Groupname: campgst
Jobname: PtO2/coarse-EOS/PtO2-v-1.2
Sessionid: 14778
Queuename: verylong
Accounting:
This job has allocated the following 4 nodes:
q091 q091 q091 q091
Finished epilogue job 251195.audhumbla.fysik.dtu.dk for zhonxu