     Program PWSCF v.5.0.2 (svn rev. 9656) starts on 30Apr2014 at  3:28: 4

     Current dimensions of program PWSCF are:
     Max number of different atomic species (ntypx) = 10
     Max number of k-points (npk) =  40000
     Max angular momentum in pseudopotentials (lmaxx) =  3
     Reading input from pwscf.in
Warning: card &CELL ignored
Warning: card / ignored

     Subspace diagonalization in iterative solution of the eigenvalue problem:
     a serial algorithm will be used

     bravais-lattice index     =            0
     lattice parameter (alat)  =      11.2250  a.u.
     unit-cell volume          =    7005.5484 (a.u.)^3
     number of atoms/cell      =           32
     number of atomic types    =            3
     number of electrons       =       215.00
     number of Kohn-Sham states=          310
     kinetic-energy cutoff     =      40.0000  Ry
     charge density cutoff     =     500.0000  Ry
     convergence threshold     =      1.0E-06
     mixing beta               =       0.7000
     number of iterations used =            8  plain     mixing
     Exchange-correlation      = SLA  PW   PBE  PBE ( 1 4 3 4 0)
     EXX-fraction              =        0.00
     nstep                     =           50

     celldm(1)=  11.224973  celldm(2)=   0.000000  celldm(3)=   0.000000
     celldm(4)=   0.000000  celldm(5)=   0.000000  celldm(6)=   0.000000

     crystal axes: (cart. coord. in units of alat)
               a(1) = (   1.000000   0.000000   0.000000 )
               a(2) = (   0.000000   1.107086   0.000000 )
               a(3) = (   0.000000   0.000000   4.474090 )

     reciprocal axes: (cart. coord. in units 2 pi/alat)
               b(1) = (  1.000000  0.000000  0.000000 )
               b(2) = (  0.000000  0.903272  0.000000 )
               b(3) = (  0.000000  0.000000  0.223509 )

     PseudoPot. # 1 for O  read from file:
     /home/camp/zhonxu/pseudo/o_pbe_v1.01.uspp.F.UPF
     MD5 check sum: 2bcb18d16ea4b960afae9ec6d52f22d2
     Pseudo is Ultrasoft + core correction, Zval =  6.0
     Generated by new atomic code, or converted to UPF format
     Using radial grid of  737 points,  5 beta functions with:
                l(1) =   0
                l(2) =   0
                l(3) =   1
                l(4) =   1
                l(5) =   2
     Q(r) pseudized with  8 coefficients,  rinner =    0.900   0.900   0.900
                                                       0.900   0.900

     PseudoPot. # 2 for Ti read from file:
     /home/camp/zhonxu/pseudo/ti_pbe_v1.uspp.F.UPF
     MD5 check sum: bcc8f6961b3b91f0cac3ca967d22d0fb
     Pseudo is Ultrasoft + core correction, Zval = 12.0
     Generated by new atomic code, or converted to UPF format
     Using radial grid of  851 points,  6 beta functions with:
                l(1) =   0
                l(2) =   0
                l(3) =   1
                l(4) =   1
                l(5) =   2
                l(6) =   2
     Q(r) pseudized with  6 coefficients,  rinner =    1.000   1.000   1.000
                                                       1.000   1.000

     PseudoPot. # 3 for H  read from file:
     /home/camp/zhonxu/pseudo/h_pbe_v1.uspp.F.UPF
     MD5 check sum: 3408e3ff4ec8b0a4e358431e7e038a48
     Pseudo is Ultrasoft, Zval =  1.0
     Generated by new atomic code, or converted to UPF format
     Using radial grid of  615 points,  2 beta functions with:
                l(1) =   0
                l(2) =   0
     Q(r) pseudized with  8 coefficients,  rinner =    0.700

     atomic species   valence    mass     pseudopotential
        O0             6.00    15.99940     O ( 1.00)
        Ti1           12.00    47.88000     Ti( 1.00)
        H2             1.00     1.00794     H ( 1.00)

     Simplified LDA+U calculation (l_max = 2) with parameters (eV):
     atomic species    L          U    alpha       J0     beta
        Ti1            2     8.0000   0.0000   0.0000   0.0000

     No symmetry found

   Cartesian axes

     site n.     atom                  positions (alat units)
         1           O0  tau(   1) = (   0.0000000   0.0000000   1.6864186  )
         2           O0  tau(   2) = (   0.0000000   0.5535432   1.7740213  )
         3           Ti1 tau(   3) = (   0.2500000   0.5535432   2.0074793  )
         4           Ti1 tau(   4) = (   0.0000000   0.0000000   2.0324447  )
         5           O0  tau(   5) = (   0.2500000   0.8967400   2.0044817  )
         6           O0  tau(   6) = (   0.2500000   0.2103464   2.0092242  )
         7           O0  tau(   7) = (   0.0000000   0.5535432   2.2196854  )
         8           O0  tau(   8) = (   0.0000000   0.0000000   2.3507315  )
         9           Ti1 tau(   9) = (   0.2500000   0.0000000   2.6021753  )
        10           Ti1 tau(  10) = (   0.0000000   0.5535432   2.5345718  )
        11           O0  tau(  11) = (   0.2500000   0.7638896   2.5931377  )
        12           O0  tau(  12) = (   0.2500000   0.3431968   2.5930482  )
        13           O0  tau(  13) = (   0.0000000   0.0000000   2.7844945  )
        14           O0  tau(  14) = (   0.5000000   0.0000000   1.6873582  )
        15           O0  tau(  15) = (   0.5000000   0.5535432   1.7709789  )
        16           Ti1 tau(  16) = (   0.7500000   0.5535432   2.0079715  )
        17           Ti1 tau(  17) = (   0.5000000   0.0000000   2.0352187  )
        18           O0  tau(  18) = (   0.7500000   0.8967400   2.0040790  )
        19           O0  tau(  19) = (   0.7500000   0.2103464   2.0094479  )
        20           O0  tau(  20) = (   0.5000000   0.5535432   2.1971360  )
        21           O0  tau(  21) = (   0.5000000   0.0000000   2.3514026  )
        22           Ti1 tau(  22) = (   0.7500000   0.0000000   2.6024885  )
        23           Ti1 tau(  23) = (   0.5000000   0.5535432   2.6568935  )
        24           O0  tau(  24) = (   0.7500000   0.7638896   2.5904532  )
        25           O0  tau(  25) = (   0.7500000   0.3431968   2.5901848  )
        26           O0  tau(  26) = (   0.5000000   0.0000000   2.7844945  )
        27           H2  tau(  27) = (  -0.0007700   0.6889399   1.6773810  )
        28           H2  tau(  28) = (   0.4993300   0.6850208   1.6695513  )
        29           H2  tau(  29) = (   0.1496500   0.0435638   1.6275396  )
        30           H2  tau(  30) = (   0.6495100   0.0435638   1.6281213  )
        31           O0  tau(  31) = (   0.5047900   0.5534214   2.9586261  )
        32           H2  tau(  32) = (   0.3766100   0.5530007   3.0621118  )

     number of k points=    10  Methfessel-Paxton smearing, width (Ry)=  0.0100
                       cart. coord. in units 2pi/alat
        k(    1) = (   0.0000000   0.0000000   0.0000000), wk =   0.1250000
        k(    2) = (   0.0000000   0.2258180   0.0000000), wk =   0.2500000
        k(    3) = (   0.0000000  -0.4516359   0.0000000), wk =   0.1250000
        k(    4) = (   0.2500000   0.0000000   0.0000000), wk =   0.2500000
        k(    5) = (   0.2500000   0.2258180   0.0000000), wk =   0.2500000
        k(    6) = (   0.2500000  -0.4516359   0.0000000), wk =   0.2500000
        k(    7) = (  -0.5000000   0.0000000   0.0000000), wk =   0.1250000
        k(    8) = (  -0.5000000   0.2258180   0.0000000), wk =   0.2500000
        k(    9) = (  -0.5000000  -0.4516359   0.0000000), wk =   0.1250000
        k(   10) = (  -0.2500000   0.2258180   0.0000000), wk =   0.2500000

     Largest allocated arrays     est. size (Mb)     dimensions
     Largest temporary arrays     est. size (Mb)     dimensions

     Check: negative/imaginary core charge=   -0.000006    0.000000

     Initial potential from superposition of free atoms
     Check: negative starting charge=   -0.102331

     starting charge  206.99957, renormalised to  215.00000

     negative rho (up, down):  0.106E+00 0.000E+00
     Number of +U iterations with fixed ns =  0
     Starting occupations:
 --- enter write_ns ---
 LDA+U parameters:
U( 2)     =  8.00000000
alpha( 2) =  0.00000000
atom    3   Tr[ns(na)] =   2.00000
    eigenvalues:
  0.200  0.200  0.200  0.200  0.200
    eigenvectors:
  1.000  0.000  0.000  0.000  0.000
  0.000  1.000  0.000  0.000  0.000
  0.000  0.000  1.000  0.000  0.000
  0.000  0.000  0.000  1.000  0.000
  0.000  0.000  0.000  0.000  1.000
    occupations:
  0.200  0.000  0.000  0.000  0.000
  0.000  0.200  0.000  0.000  0.000
  0.000  0.000  0.200  0.000  0.000
  0.000  0.000  0.000  0.200  0.000
  0.000  0.000  0.000  0.000  0.200
atom    4   Tr[ns(na)] =   2.00000
    eigenvalues:
  0.200  0.200  0.200  0.200  0.200
    eigenvectors:
  1.000  0.000  0.000  0.000  0.000
  0.000  1.000  0.000  0.000  0.000
  0.000  0.000  1.000  0.000  0.000
  0.000  0.000  0.000  1.000  0.000
  0.000  0.000  0.000  0.000  1.000
    occupations:
  0.200  0.000  0.000  0.000  0.000
  0.000  0.200  0.000  0.000  0.000
  0.000  0.000  0.200  0.000  0.000
  0.000  0.000  0.000  0.200  0.000
  0.000  0.000  0.000  0.000  0.200
atom    9   Tr[ns(na)] =   2.00000
    eigenvalues:
  0.200  0.200  0.200  0.200  0.200
    eigenvectors:
  1.000  0.000  0.000  0.000  0.000
  0.000  1.000  0.000  0.000  0.000
  0.000  0.000  1.000  0.000  0.000
  0.000  0.000  0.000  1.000  0.000
  0.000  0.000  0.000  0.000  1.000
    occupations:
  0.200  0.000  0.000  0.000  0.000
  0.000  0.200  0.000  0.000  0.000
  0.000  0.000  0.200  0.000  0.000
  0.000  0.000  0.000  0.200  0.000
  0.000  0.000  0.000  0.000  0.200
atom   10   Tr[ns(na)] =   2.00000
    eigenvalues:
  0.200  0.200  0.200  0.200  0.200
    eigenvectors:
  1.000  0.000  0.000  0.000  0.000
  0.000  1.000  0.000  0.000  0.000
  0.000  0.000  1.000  0.000  0.000
  0.000  0.000  0.000  1.000  0.000
  0.000  0.000  0.000  0.000  1.000
    occupations:
  0.200  0.000  0.000  0.000  0.000
  0.000  0.200  0.000  0.000  0.000
  0.000  0.000  0.200  0.000  0.000
  0.000  0.000  0.000  0.200  0.000
  0.000  0.000  0.000  0.000  0.200
atom   16   Tr[ns(na)] =   2.00000
    eigenvalues:
  0.200  0.200  0.200  0.200  0.200
    eigenvectors:
  1.000  0.000  0.000  0.000  0.000
  0.000  1.000  0.000  0.000  0.000
  0.000  0.000  1.000  0.000  0.000
  0.000  0.000  0.000  1.000  0.000
  0.000  0.000  0.000  0.000  1.000
    occupations:
  0.200  0.000  0.000  0.000  0.000
  0.000  0.200  0.000  0.000  0.000
  0.000  0.000  0.200  0.000  0.000
  0.000  0.000  0.000  0.200  0.000
  0.000  0.000  0.000  0.000  0.200
atom   17   Tr[ns(na)] =   2.00000
    eigenvalues:
  0.200  0.200  0.200  0.200  0.200
    eigenvectors:
  1.000  0.000  0.000  0.000  0.000
  0.000  1.000  0.000  0.000  0.000
  0.000  0.000  1.000  0.000  0.000
  0.000  0.000  0.000  1.000  0.000
  0.000  0.000  0.000  0.000  1.000
    occupations:
  0.200  0.000  0.000  0.000  0.000
  0.000  0.200  0.000  0.000  0.000
  0.000  0.000  0.200  0.000  0.000
  0.000  0.000  0.000  0.200  0.000
  0.000  0.000  0.000  0.000  0.200
atom   22   Tr[ns(na)] =   2.00000
    eigenvalues:
  0.200  0.200  0.200  0.200  0.200
    eigenvectors:
  1.000  0.000  0.000  0.000  0.000
  0.000  1.000  0.000  0.000  0.000
  0.000  0.000  1.000  0.000  0.000
  0.000  0.000  0.000  1.000  0.000
  0.000  0.000  0.000  0.000  1.000
[...]
  0.114  0.134  0.144  0.450  0.455
    eigenvectors:
  0.008  0.002  0.000  0.001  0.989
  0.003  0.597  0.397  0.000  0.002
  0.003  0.395  0.603  0.000  0.000
  0.986  0.006  0.000  0.000  0.007
  0.000  0.000  0.000  0.999  0.001
    occupations:
  0.452  0.015  0.006 -0.029 -0.000
  0.015  0.139 -0.005 -0.000 -0.004
  0.006 -0.005  0.140  0.001 -0.000
 -0.029 -0.000  0.001  0.117 -0.000
 -0.000 -0.004 -0.000 -0.000  0.450
atom    9   Tr[ns(na)] =   2.57316
    eigenvalues:
  0.107  0.148  0.157  0.395  0.480
    eigenvectors:
  0.000  0.000  0.885  0.115  0.000
  0.000  0.000  0.000  0.001  0.999
  0.999  0.001  0.000  0.000  0.000
  0.000  0.000  0.115  0.884  0.001
  0.001  0.999  0.000  0.000  0.000
    occupations:
  0.184  0.002 -0.000  0.076 -0.000
  0.002  0.480 -0.000 -0.004 -0.000
 -0.000 -0.000  0.107 -0.000 -0.002
  0.076 -0.004 -0.000  0.368  0.000
 -0.000 -0.000 -0.002  0.000  0.148
atom   10   Tr[ns(na)] =   2.50727
    eigenvalues:
  0.113  0.159  0.173  0.324  0.484
    eigenvectors:
  0.024  0.000  0.000  0.976  0.000
  0.000  0.000  1.000  0.000  0.000
  0.000  1.000  0.000  0.000  0.000
  0.976  0.000  0.000  0.024  0.000
  0.000  0.000  0.000  0.000  1.000
    occupations:
  0.319  0.001 -0.001 -0.032 -0.000
  0.001  0.173 -0.000 -0.000  0.000
 -0.001 -0.000  0.159 -0.000 -0.002
 -0.032 -0.000 -0.000  0.118  0.000
 -0.000  0.000 -0.002  0.000  0.484
atom   16   Tr[ns(na)] =   2.50828
    eigenvalues:
  0.110  0.122  0.140  0.412  0.470
    eigenvectors:
  0.074  0.699  0.045  0.160  0.023
  0.002  0.002  0.002  0.232  0.761
  0.604  0.011  0.385  0.000  0.000
  0.020  0.150  0.008  0.607  0.215
  0.300  0.138  0.559  0.000  0.001
    occupations:
  0.176 -0.010 -0.003  0.115 -0.002
 -0.010  0.454 -0.002  0.032  0.014
 -0.003 -0.002  0.122  0.006  0.014
  0.115  0.032  0.006  0.373  0.001
 -0.002  0.014  0.014  0.001  0.129
atom   17   Tr[ns(na)] =   2.59042
    eigenvalues:
  0.113  0.136  0.144  0.445  0.458
    eigenvectors:
  0.008  0.002  0.000  0.001  0.990
  0.002  0.593  0.403  0.000  0.002
  0.002  0.402  0.596  0.000  0.000
  0.989  0.004  0.000  0.000  0.007
  0.000  0.000  0.000  0.999  0.001
    occupations:
  0.455  0.014  0.006 -0.029 -0.000
  0.014  0.140 -0.004 -0.000 -0.004
  0.006 -0.004  0.141  0.000 -0.000
 -0.029 -0.000  0.000  0.116 -0.000
 -0.000 -0.004 -0.000 -0.000  0.445
atom   22   Tr[ns(na)] =   2.57136
    eigenvalues:
  0.108  0.148  0.156  0.396  0.479
    eigenvectors:
  0.000  0.000  0.883  0.117  0.000
  0.000  0.000  0.000  0.001  0.999
  0.999  0.001  0.000  0.000  0.000
  0.000  0.000  0.117  0.881  0.001
  0.001  0.999  0.000  0.000  0.000
    occupations:
  0.184 -0.002 -0.000  0.077  0.000
 -0.002  0.479 -0.000  0.004 -0.000
 -0.000 -0.000  0.108 -0.000  0.001
  0.077  0.004 -0.000  0.368  0.000
  0.000 -0.000  0.001  0.000  0.148
atom   23   Tr[ns(na)] =   2.54814
    eigenvalues:
  0.096  0.161  0.194  0.397  0.426
    eigenvectors:
  0.012  0.016  0.000  0.972  0.000
  0.001  0.983  0.000  0.017  0.000
  0.000  0.000  1.000  0.000  0.000
  0.987  0.001  0.000  0.011  0.000
  0.000  0.000  0.000  0.000  1.000
    occupations:
  0.390  0.030  0.000 -0.032 -0.000
  0.030  0.165 -0.000 -0.002  0.000
  0.000 -0.000  0.194  0.000 -0.000
 -0.032 -0.002  0.000  0.099  0.000
 -0.000  0.000 -0.000  0.000  0.426
N of occupied +U levels =  20.4012165
 --- exit write_ns ---

[...]

     total energy              =   -1563.97347943 Ry
     Harris-Foulkes estimate   =   -1563.97347944 Ry
     estimated scf accuracy    <       0.00000019 Ry

     iteration # 12     ecut=    40.00 Ry     beta=0.70
     Davidson diagonalization with overlap
     ethr =  5.08E-11,  avg # of iterations =  1.0

     negative rho (up, down):  0.108E+00 0.000E+00

     End of self-consistent calculation
 --- enter write_ns ---
 LDA+U parameters:
U( 2)     =  8.00000000
alpha( 2) =  0.00000000
atom    3   Tr[ns(na)] =   2.50791
    eigenvalues:
  0.109  0.122  0.140  0.412  0.470
    eigenvectors:
  0.076  0.694  0.046  0.160  0.023
  0.002  0.002  0.002  0.231  0.763
  0.601  0.011  0.388  0.000  0.000
  0.020  0.151  0.008  0.608  0.213
  0.300  0.142  0.556  0.000  0.002
    occupations:
  0.176  0.010 -0.003  0.115  0.001
  0.010  0.455  0.002 -0.032  0.014
 -0.003  0.002  0.122  0.007 -0.014
  0.115 -0.032  0.007  0.373 -0.002
  0.001  0.014 -0.014 -0.002  0.129
atom    4   Tr[ns(na)] =   2.59441
    eigenvalues:
  0.114  0.134  0.144  0.450  0.455
    eigenvectors:
  0.008  0.002  0.000  0.001  0.989
  0.003  0.602  0.392  0.000  0.002
  0.003  0.389  0.608  0.000  0.000
  0.986  0.006  0.000  0.000  0.007
  0.000  0.000  0.000  0.999  0.001
    occupations:
  0.452  0.015  0.006 -0.029 -0.000
  0.015  0.139 -0.005 -0.000 -0.004
  0.006 -0.005  0.140  0.001 -0.000
 -0.029 -0.000  0.001  0.117 -0.000
 -0.000 -0.004 -0.000 -0.000  0.450
atom    9   Tr[ns(na)] =   2.57379
    eigenvalues:
  0.108  0.148  0.156  0.395  0.480
    eigenvectors:
  0.000  0.000  0.885  0.115  0.000
  0.000  0.000  0.000  0.001  0.999
  0.999  0.001  0.000  0.000  0.000
  0.000  0.000  0.115  0.884  0.001
  0.001  0.999  0.000  0.000  0.000
    occupations:
  0.184  0.002 -0.000  0.076 -0.000
  0.002  0.480 -0.000 -0.004 -0.000
 -0.000 -0.000  0.108 -0.000 -0.001
  0.076 -0.004 -0.000  0.367  0.000
 -0.000 -0.000 -0.001  0.000  0.148
atom   10   Tr[ns(na)] =   2.50799
    eigenvalues:
  0.113  0.159  0.173  0.324  0.484
    eigenvectors:
  0.024  0.000  0.000  0.976  0.000
  0.000  0.000  1.000  0.000  0.000
  0.000  1.000  0.000  0.000  0.000
  0.976  0.000  0.000  0.024  0.000
  0.000  0.000  0.000  0.000  1.000
    occupations:
  0.319  0.001 -0.001 -0.032 -0.000
  0.001  0.173 -0.000 -0.000  0.000
 -0.001 -0.000  0.159 -0.000 -0.002
 -0.032 -0.000 -0.000  0.118  0.000
 -0.000  0.000 -0.002  0.000  0.484
atom   16   Tr[ns(na)] =   2.50793
    eigenvalues:
  0.109  0.122  0.140  0.412  0.470
    eigenvectors:
  0.074  0.699  0.045  0.160  0.023
  0.002  0.002  0.002  0.233  0.761
  0.604  0.010  0.386  0.000  0.000
  0.020  0.151  0.008  0.607  0.215
  0.301  0.138  0.559  0.000  0.001
    occupations:
  0.176 -0.010 -0.003  0.115 -0.002
 -0.010  0.454 -0.002  0.032  0.014
 -0.003 -0.002  0.122  0.006  0.014
  0.115  0.032  0.006  0.373  0.001
 -0.002  0.014  0.014  0.001  0.129
atom   17   Tr[ns(na)] =   2.59062
    eigenvalues:
  0.113  0.136  0.144  0.445  0.458
    eigenvectors:
  0.008  0.002  0.000  0.001  0.990
  0.002  0.595  0.401  0.000  0.002
  0.002  0.399  0.599  0.000  0.000
  0.989  0.004  0.000  0.000  0.007
  0.000  0.000  0.000  0.999  0.001
    occupations:
  0.455  0.014  0.006 -0.029 -0.000
  0.014  0.140 -0.004 -0.000 -0.003
  0.006 -0.004  0.141  0.000 -0.000
 -0.029 -0.000  0.000  0.116 -0.000
 -0.000 -0.003 -0.000 -0.000  0.445
atom   22   Tr[ns(na)] =   2.57181
    eigenvalues:
  0.108  0.148  0.156  0.396  0.479
    eigenvectors:
  0.000  0.000  0.882  0.118  0.000
  0.000  0.000  0.000  0.001  0.999
  0.999  0.001  0.000  0.000  0.000
  0.000  0.000  0.118  0.881  0.001
  0.001  0.999  0.000  0.000  0.000
    occupations:
  0.184 -0.002 -0.000  0.077  0.000
 -0.002  0.479 -0.000  0.004 -0.000
 -0.000 -0.000  0.108 -0.000  0.001
  0.077  0.004 -0.000  0.367  0.000
  0.000 -0.000  0.001  0.000  0.148
atom   23   Tr[ns(na)] =   2.54872
    eigenvalues:
  0.096  0.161  0.194  0.398  0.426
    eigenvectors:
  0.012  0.016  0.000  0.972  0.000
  0.001  0.982  0.000  0.017  0.000
  0.000  0.000  1.000  0.000  0.000
  0.987  0.001  0.000  0.011  0.000
  0.000  0.000  0.000  0.000  1.000
    occupations:
  0.390  0.030  0.000 -0.032 -0.000
  0.030  0.165 -0.000 -0.002  0.000
  0.000 -0.000  0.194  0.000 -0.001
 -0.032 -0.002  0.000  0.099  0.000
 -0.000  0.000 -0.001  0.000  0.426
N of occupied +U levels =  20.4031748
 --- exit write_ns ---

[...]

          k = 0.2500-0.4516 0.0000 ( 29882 PWs)   bands (ev):

[...]

          k =-0.2500 0.2258 0.0000 ( 29912 PWs)   bands (ev):

   -61.8406 -61.8164 -61.8018 -61.2275 -60.8885 -60.8610 -60.4431 -60.4172
   -38.1967 -38.1272 -37.9947 -37.9851 -37.9615 -37.9413 -37.8958 -37.8886
   -37.8577 -37.4313 -37.3788 -37.3763 -37.3232 -37.1592 -37.0939 -37.0321
   -36.9216 -36.8954 -36.7282 -36.7052 -36.6831 -36.5978 -36.5383 -36.4066
   -21.6435 -21.4239 -20.5560 -20.2693 -20.2553 -19.9759 -19.7460 -19.6574
   -19.5973 -19.5673 -19.4345 -19.3932 -19.3720 -19.3247 -19.1967 -18.7664
   -18.5529 -18.0966 -18.0414  -9.2632  -9.0542  -7.9700  -7.7661  -7.7186
    -7.5430  -7.2975  -7.2719  -7.1240  -7.0047  -6.9620  -6.8821  -6.8049
    -6.7828  -6.7430  -6.5624  -6.4920  -6.4166  -6.3122  -6.2140  -5.9735
    -5.8939  -5.7469  -5.6327  -5.5009  -5.3507  -5.3265  -5.1911  -5.1437
    -5.0958  -5.0336  -5.0079  -4.9094  -4.8842  -4.8033  -4.7328  -4.7033
    -4.5847  -4.4944  -4.3700  -4.2653  -4.2204  -4.1602  -3.9386  -3.8497
    -3.6629  -3.5773  -3.5117  -3.4227  -3.3610  -3.2689  -3.1803  -2.9988
    -2.9139  -2.8871  -2.8280  -2.7010   0.0598   0.3958   0.4587   0.5348
     0.6375   0.7079   0.7942   0.8674   0.9415   1.0215   1.0745   1.1361
     1.2006   1.2621   1.3717   1.4461   1.5024   1.5460   1.5737   1.6573
     1.6900   1.7235   1.8295   1.8521   2.0017   2.0959   2.1513   2.1800
     2.2981   2.4346   2.5170   2.5714   2.6335   2.7267   2.7989   2.8646
     3.1177   3.1730   3.3316   3.3694   3.4435   3.7282   4.2730   4.6907
     5.0780   5.2376   5.3125   5.6567   5.8735   6.0201   6.1946   6.2628
     6.3342   6.6004   6.6325   6.9213   7.0335   7.2844   7.3306   7.4587
     7.6717   7.7524   7.8329   7.9513   8.0186   8.1329   8.1860   8.3677
     8.5297   8.5923   8.7061   8.7699   8.8705   8.9782   9.2491   9.3482
     9.4039   9.4669   9.5730   9.5916   9.6824   9.8105   9.9441  10.0498
    10.1293  10.2113  10.2882  10.4272  10.5434  10.6208  10.7358  10.7939
    10.8205  10.9191  11.0511  11.0815  11.1144  11.2275  11.2507  11.3897
    11.4409  11.5510  11.5867  11.6179  11.7429  11.7551  11.8291  11.9540
    11.9982  12.0606  12.1649  12.2474  12.3576  12.3839  12.4629  12.5044
    12.6262  12.6914  12.7439  12.8144  12.8415  12.9189  13.0008  13.0299
    13.1471  13.3027  13.3597  13.4175  13.4795  13.5587  13.6356  13.6689
    13.7240  13.8062  13.8468  13.9574  14.0179  14.0998  14.2163  14.2820
    14.3469  14.4126  14.4974  14.5652  14.6515  14.6781  14.8351  14.9169
    14.9590  15.0201  15.1381  15.2025  15.2617  15.3404  15.3807  15.4551
    15.5193  15.6374  15.6986  15.7321  15.8129  15.8990  15.9363  16.0326
    16.0618  16.1502  16.2804  16.3150  16.3969  16.5121  16.5870  16.6603
    16.7278  16.7544  16.8351  16.9298  16.9433  16.9905  17.0806  17.1119
    17.1537  17.2449  17.3230  17.3780  17.4465  17.5202  17.5657  17.6361
    17.7083  17.7649  17.8942  17.9338  18.0450  18.1083  18.1620  18.2187
    18.4052  18.4731  18.5189  18.5829  18.6233  18.7074

     the Fermi energy is    -2.7098 ev

!    total energy              =   -1563.97347943 Ry
     Harris-Foulkes estimate   =   -1563.97347944 Ry
     estimated scf accuracy    <          7.9E-09 Ry

     The total energy is the sum of the following terms:

     one-electron contribution =  -18347.64078737 Ry
     hartree contribution      =    9188.21165862 Ry
     xc contribution           =    -277.24352501 Ry
     ewald contribution        =    7868.75892561 Ry
     Hubbard energy            =       3.93903503 Ry
     smearing contrib. (-TS)   =       0.00121368 Ry

     convergence has been achieved in  12 iterations

     Forces acting on atoms (Ry/au):

     negative rho (up, down):  0.108E+00 0.000E+00
     atom    1 type  1   force =    -0.00369104   -0.01386776    0.00030654
     atom    2 type  1   force =    -0.00008766    0.01382667   -0.00017218
     atom    3 type  2   force =     0.05625480   -0.00472497   -0.00014970
     atom    4 type  2   force =     0.00322048    0.00979075    0.00007404
     atom    5 type  1   force =    -0.00368003   -0.07643746    0.00006347
     atom    6 type  1   force =    -0.00554914    0.07403947   -0.00043920
     atom    7 type  1   force =     0.00162534    0.00015151    0.00008402
     atom    8 type  1   force =     0.00099345   -0.00201105   -0.00069124
     atom    9 type  2   force =     0.00655883    0.00013664    0.00022230
     atom   10 type  2   force =    -0.00382741   -0.00032822    0.00010923
     atom   11 type  1   force =    -0.01718699   -0.01897992   -0.00018899
     atom   12 type  1   force =    -0.01739997    0.01900857   -0.00014591
     atom   13 type  1   force =     0.00016082    0.00000753    0.00004623
     atom   14 type  1   force =    -0.00534352   -0.01408239    0.00021800
     atom   15 type  1   force =     0.00029334    0.01394115   -0.00042605
     atom   16 type  2   force =    -0.05622579   -0.00537545   -0.00018496
     atom   17 type  2   force =     0.00356394    0.00937953   -0.00005063
     atom   18 type  1   force =     0.00593819   -0.07630443    0.00008429
     atom   19 type  1   force =     0.00561028    0.07435221   -0.00046327
     atom   20 type  1   force =    -0.00104878   -0.00023622    0.00026465
     atom   21 type  1   force =    -0.00097919   -0.00189468   -0.00067711
     atom   22 type  2   force =    -0.00576434    0.00025993    0.00056409
     atom   23 type  2   force =     0.00132643   -0.00013842    0.00021113
     atom   24 type  1   force =     0.01775436   -0.01622225    0.00072471
     atom   25 type  1   force =     0.01753534    0.01624771    0.00075194
     atom   26 type  1   force =    -0.00032951   -0.00005729    0.00015742
     atom   27 type  3   force =    -0.00003040   -0.00007491   -0.00030676
     atom   28 type  3   force =    -0.00003870   -0.00024312   -0.00089010
     atom   29 type  3   force =    -0.00009928   -0.00003078    0.00022832
     atom   30 type  3   force =    -0.00005272   -0.00008149    0.00019032
     atom   31 type  1   force =     0.00074874    0.00000770   -0.00009734
     atom   32 type  3   force =    -0.00024986   -0.00005855    0.00058275

     Total force =     0.002342     Total SCF correction =     0.000219

     bfgs converged in  21 scf cycles and  20 bfgs steps
     (criteria: energy < 0.10E-03, force < 0.10E-02)

     End of BFGS Geometry Optimization

     Final energy   =   -1563.9734794324 Ry
Begin final coordinates

ATOMIC_POSITIONS (crystal)
O0       0.000000000   0.000000000   0.373756136    0   0   1
O0       0.000000000   0.500000000   0.394740727    0   0   1
Ti1      0.250000000   0.500000000   0.448015120    0   0   1
Ti1      0.000000000   0.000000000   0.448617398    0   0   1
O0       0.250000000   0.810000000   0.447146642    0   0   1
O0       0.250000000   0.190000000   0.448356746    0   0   1
O0       0.000000000   0.500000000   0.496730708    0   0   1
O0       0.000000000   0.000000000   0.525955880    0   0   1
Ti1      0.250000000   0.000000000   0.579698614    0   0   1
Ti1      0.000000000   0.500000000   0.569005102    0   0   1
O0       0.250000000   0.690000000   0.582296273    0   0   1
O0       0.250000000   0.310000000   0.582327250    0   0   1
O0       0.000000000   0.000000000   0.624607965    0   0   1
O0       0.500000000   0.000000000   0.374522836    0   0   1
O0       0.500000000   0.500000000   0.394502267    0   0   1
Ti1      0.750000000   0.500000000   0.448083276    0   0   1
Ti1      0.500000000   0.000000000   0.450112797    0   0   1
O0       0.750000000   0.810000000   0.447103666    0   0   1
O0       0.750000000   0.190000000   0.448407302    0   0   1
O0       0.500000000   0.500000000   0.493238997    0   0   1
O0       0.500000000   0.000000000   0.525936979    0   0   1
Ti1      0.750000000   0.000000000   0.579633438    0   0   1
Ti1      0.500000000   0.500000000   0.597057895    0   0   1
O0       0.750000000   0.690000000   0.581122450    0   0   1
O0       0.750000000   0.310000000   0.581122536    0   0   1
O0       0.500000000   0.000000000   0.623822971    0   0   1
H2      -0.000211562   0.628870538   0.375406037
H2       0.499977719   0.630563510   0.375834500
H2       0.151503018   0.034566152   0.360937161
H2       0.650470052   0.036174221   0.361439736
O0       0.512362371   0.500108917   0.666463701
H2       0.373346358   0.499231784   0.686246894
End final coordinates

     General routines

     Parallel routines
     Hubbard U routines

   This run was terminated on:  20:17:26  30Apr2014

   JOB DONE.
Running PBS batch system epilogue script
Job id: 340534.audhumbla.fysik.dtu.dk
Username: zhonxu
Groupname: campgst
Jobname: TiO2/Eads-2-layers/OH-U-8.0
Sessionid: 8293
Queuename: verylong
Accounting:
This job has allocated the following 16 nodes:
b123 b123 b123 b123 b123 b123 b123 b123 b017 b017 b017 b017 b017 b017 b017 b017
Finished epilogue job 340534.audhumbla.fysik.dtu.dk for zhonxu