     Program PWSCF v.5.0.2 (svn rev. 9656) starts on 30Apr2014 at 21:32:21

     Current dimensions of program PWSCF are:
     Max number of different atomic species (ntypx) = 10
     Max number of k-points (npk) =  40000
     Max angular momentum in pseudopotentials (lmaxx) =  3
     Reading input from pwscf.in
Warning: card &CELL ignored
Warning: card / ignored

     Subspace diagonalization in iterative solution of the eigenvalue problem:
     a serial algorithm will be used

     bravais-lattice index     =            0
     lattice parameter (alat)  =      11.1872  a.u.
     unit-cell volume          =    7531.8600 (a.u.)^3
     number of atoms/cell      =           31
     number of atomic types    =            3
     number of electrons       =       222.00
     number of Kohn-Sham states=          333
     kinetic-energy cutoff     =      40.0000  Ry
     charge density cutoff     =     500.0000  Ry
     convergence threshold     =      1.0E-06
     mixing beta               =       0.7000
     number of iterations used =            8  plain     mixing
     Exchange-correlation      = SLA  PW   PBE  PBE ( 1 4 3 4 0)
     EXX-fraction              =        0.00
     nstep                     =           50

     celldm(1)=  11.187179  celldm(2)=   0.000000  celldm(3)=   0.000000
     celldm(4)=   0.000000  celldm(5)=   0.000000  celldm(6)=   0.000000

     crystal axes: (cart. coord. in units of alat)
               a(1) = (   1.000000   0.000000   0.000000 )
               a(2) = (   0.000000   1.180104   0.000000 )
               a(3) = (   0.000000   0.000000   4.558482 )

     reciprocal axes: (cart. coord. in units 2 pi/alat)
               b(1) = (  1.000000  0.000000  0.000000 )
               b(2) = (  0.000000  0.847383  0.000000 )
               b(3) = (  0.000000  0.000000  0.219371 )

     PseudoPot. # 1 for O  read from file:
     /home/camp/zhonxu/pseudo/o_pbe_v1.01.uspp.F.UPF
     MD5 check sum: 2bcb18d16ea4b960afae9ec6d52f22d2
     Pseudo is Ultrasoft + core correction, Zval =  6.0
     Generated by new atomic code, or converted to UPF format
     Using radial grid of  737 points,  5 beta functions with:
                l(1) =   0
                l(2) =   0
                l(3) =   1
                l(4) =   1
                l(5) =   2
     Q(r) pseudized with  8 coefficients,  rinner =    0.900   0.900   0.900
                                                       0.900   0.900

     PseudoPot. # 2 for Nb read from file:
     /home/camp/zhonxu/pseudo/nb_pbe_v1.uspp.F.UPF
     MD5 check sum: 573aab8a2fa660278ed4a62cd769473f
     Pseudo is Ultrasoft + core correction, Zval = 13.0
     Generated by new atomic code, or converted to UPF format
     Using radial grid of  887 points,  6 beta functions with:
                l(1) =   0
                l(2) =   0
                l(3) =   1
                l(4) =   1
                l(5) =   2
                l(6) =   2
     Q(r) pseudized with  6 coefficients,  rinner =    1.000   1.000   1.000
                                                       1.000   1.000

     PseudoPot. # 3 for H  read from file:
     /home/camp/zhonxu/pseudo/h_pbe_v1.uspp.F.UPF
     MD5 check sum: 3408e3ff4ec8b0a4e358431e7e038a48
     Pseudo is Ultrasoft, Zval =  1.0
     Generated by new atomic code, or converted to UPF format
     Using radial grid of  615 points,  2 beta functions with:
                l(1) =   0
                l(2) =   0
     Q(r) pseudized with  8 coefficients,  rinner =    0.700

     atomic species   valence    mass     pseudopotential
        O0             6.00    15.99940     O ( 1.00)
        Nb1           13.00    92.90640     Nb( 1.00)
        H2             1.00     1.00794     H ( 1.00)

     Simplified LDA+U calculation (l_max = 2) with parameters (eV):
     atomic species    L          U    alpha       J0     beta
        Nb1            2     4.0000   0.0000   0.0000   0.0000

     No symmetry found

   Cartesian axes

     site n.     atom                  positions (alat units)
         1           O0  tau(   1) = (   0.0000000   0.0000000   1.6934306  )
         2           O0  tau(   2) = (   0.0000000   0.5900519   1.7719732  )
         3           Nb1 tau(   3) = (   0.2500000   0.5900519   2.0266100  )
         4           Nb1 tau(   4) = (   0.0000000   0.0000000   2.0234647  )
         5           O0  tau(   5) = (   0.2500000   0.9322821   2.0339492  )
         6           O0  tau(   6) = (   0.2500000   0.2478218   2.0339492  )
         7           O0  tau(   7) = (   0.0000000   0.5900519   2.2822497  )
         8           O0  tau(   8) = (   0.0000000   0.0000000   2.3837671  )
         9           Nb1 tau(   9) = (   0.2500000   0.0000000   2.6303810  )
        10           Nb1 tau(  10) = (   0.0000000   0.5900519   2.5986084  )
        11           O0  tau(  11) = (   0.2500000   0.8378738   2.6271901  )
        12           O0  tau(  12) = (   0.2500000   0.3422301   2.6272357  )
        13           O0  tau(  13) = (   0.0000000   0.0000000   2.8322306  )
        14           O0  tau(  14) = (   0.5000000   0.0000000   1.6959377  )
        15           O0  tau(  15) = (   0.5000000   0.5900519   1.7815005  )
        16           Nb1 tau(  16) = (   0.7500000   0.5900519   2.0269291  )
        17           Nb1 tau(  17) = (   0.5000000   0.0000000   2.0281143  )
        18           O0  tau(  18) = (   0.7500000   0.9322821   2.0339492  )
        19           O0  tau(  19) = (   0.7500000   0.2478218   2.0339492  )
        20           O0  tau(  20) = (   0.5000000   0.5900519   2.2572692  )
        21           O0  tau(  21) = (   0.5000000   0.0000000   2.3822628  )
        22           Nb1 tau(  22) = (   0.7500000   0.0000000   2.6309736  )
        23           Nb1 tau(  23) = (   0.5000000   0.5900519   2.6831227  )
        24           O0  tau(  24) = (   0.7500000   0.8378738   2.6265975  )
        25           O0  tau(  25) = (   0.7500000   0.3422301   2.6265975  )
        26           O0  tau(  26) = (   0.5000000   0.0000000   2.8320027  )
        27           H2  tau(  27) = (  -0.0004900   0.5918693   1.6065459  )
        28           H2  tau(  28) = (   0.4994900   0.5917631   1.6163466  )
        29           H2  tau(  29) = (   0.1504600   0.0004366   1.6207228  )
        30           H2  tau(  30) = (   0.6496400   0.0004366   1.6219536  )
        31           O0  tau(  31) = (   0.5000300   0.5900519   2.9731333  )

     number of k points=    10  Methfessel-Paxton smearing, width (Ry)=  0.0100
                       cart. coord. in units 2pi/alat
        k(    1) = (   0.0000000   0.0000000   0.0000000), wk =   0.1250000
        k(    2) = (   0.0000000   0.2118458   0.0000000), wk =   0.2500000
        k(    3) = (   0.0000000  -0.4236915   0.0000000), wk =   0.1250000
        k(    4) = (   0.2500000   0.0000000   0.0000000), wk =   0.2500000
        k(    5) = (   0.2500000   0.2118458   0.0000000), wk =   0.2500000
        k(    6) = (   0.2500000  -0.4236915   0.0000000), wk =   0.2500000
        k(    7) = (  -0.5000000   0.0000000   0.0000000), wk =   0.1250000
        k(    8) = (  -0.5000000   0.2118458   0.0000000), wk =   0.2500000
        k(    9) = (  -0.5000000  -0.4236915   0.0000000), wk =   0.1250000
        k(   10) = (  -0.2500000   0.2118458   0.0000000), wk =   0.2500000

     Largest allocated arrays     est. size (Mb)     dimensions
     Largest temporary arrays     est. size (Mb)     dimensions

     Check: negative/imaginary core charge=   -0.000003    0.000000

     Initial potential from superposition of free atoms
     Check: negative starting charge=   -0.003810

     starting charge  221.97807, renormalised to  222.00000

     negative rho (up, down):  0.381E-02 0.000E+00
     Number of +U iterations with fixed ns =  0
     Starting occupations:
 --- enter write_ns ---
 LDA+U parameters:
U( 2)     =  4.00000000
alpha( 2) =  0.00000000
atom    3   Tr[ns(na)] =   3.00000
    eigenvalues:
  0.300  0.300  0.300  0.300  0.300
    eigenvectors:
  1.000  0.000  0.000  0.000  0.000
  0.000  1.000  0.000  0.000  0.000
  0.000  0.000  1.000  0.000  0.000
  0.000  0.000  0.000  1.000  0.000
  0.000  0.000  0.000  0.000  1.000
    occupations:
  0.300  0.000  0.000  0.000  0.000
  0.000  0.300  0.000  0.000  0.000
  0.000  0.000  0.300  0.000  0.000
  0.000  0.000  0.000  0.300  0.000
  0.000  0.000  0.000  0.000  0.300
atom    4   Tr[ns(na)] =   3.00000
    eigenvalues:
  0.300  0.300  0.300  0.300  0.300
    eigenvectors:
  1.000  0.000  0.000  0.000  0.000
  0.000  1.000  0.000  0.000  0.000
  0.000  0.000  1.000  0.000  0.000
  0.000  0.000  0.000  1.000  0.000
  0.000  0.000  0.000  0.000  1.000
    occupations:
  0.300  0.000  0.000  0.000  0.000
  0.000  0.300  0.000  0.000  0.000
  0.000  0.000  0.300  0.000  0.000
  0.000  0.000  0.000  0.300  0.000
  0.000  0.000  0.000  0.000  0.300
atom    9   Tr[ns(na)] =   3.00000
    eigenvalues:
  0.300  0.300  0.300  0.300  0.300
    eigenvectors:
  1.000  0.000  0.000  0.000  0.000
  0.000  1.000  0.000  0.000  0.000
  0.000  0.000  1.000  0.000  0.000
  0.000  0.000  0.000  1.000  0.000
  0.000  0.000  0.000  0.000  1.000
    occupations:
  0.300  0.000  0.000  0.000  0.000
  0.000  0.300  0.000  0.000  0.000
  0.000  0.000  0.300  0.000  0.000
  0.000  0.000  0.000  0.300  0.000
  0.000  0.000  0.000  0.000  0.300
atom   10   Tr[ns(na)] =   3.00000
    eigenvalues:
  0.300  0.300  0.300  0.300  0.300
    eigenvectors:
  1.000  0.000  0.000  0.000  0.000
  0.000  1.000  0.000  0.000  0.000
  0.000  0.000  1.000  0.000  0.000
  0.000  0.000  0.000  1.000  0.000
  0.000  0.000  0.000  0.000  1.000
    occupations:
  0.300  0.000  0.000  0.000  0.000
  0.000  0.300  0.000  0.000  0.000
  0.000  0.000  0.300  0.000  0.000
  0.000  0.000  0.000  0.300  0.000
  0.000  0.000  0.000  0.000  0.300
atom   16   Tr[ns(na)] =   3.00000
    eigenvalues:
  0.300  0.300  0.300  0.300  0.300
    eigenvectors:
  1.000  0.000  0.000  0.000  0.000
  0.000  1.000  0.000  0.000  0.000
  0.000  0.000  1.000  0.000  0.000
  0.000  0.000  0.000  1.000  0.000
  0.000  0.000  0.000  0.000  1.000
    occupations:
  0.300  0.000  0.000  0.000  0.000
  0.000  0.300  0.000  0.000  0.000
  0.000  0.000  0.300  0.000  0.000
  0.000  0.000  0.000  0.300  0.000
  0.000  0.000  0.000  0.000  0.300
atom   17   Tr[ns(na)] =   3.00000
    eigenvalues:
  0.300  0.300  0.300  0.300  0.300
    eigenvectors:
  1.000  0.000  0.000  0.000  0.000
  0.000  1.000  0.000  0.000  0.000
  0.000  0.000  1.000  0.000  0.000
  0.000  0.000  0.000  1.000  0.000
  0.000  0.000  0.000  0.000  1.000
    occupations:
  0.300  0.000  0.000  0.000  0.000
  0.000  0.300  0.000  0.000  0.000
  0.000  0.000  0.300  0.000  0.000
  0.000  0.000  0.000  0.300  0.000
  0.000  0.000  0.000  0.000  0.300
atom   22   Tr[ns(na)] =   3.00000
    eigenvalues:
  0.300  0.300  0.300  0.300  0.300
    eigenvectors:
  1.000  0.000  0.000  0.000  0.000
  0.000  1.000  0.000  0.000  0.000
  0.000  0.000  1.000  0.000  0.000
  0.000  0.000  0.000  1.000  0.000
  0.000  0.000  0.000  0.000  1.000
    occupations:
  0.300  0.000  0.000  0.000  0.000
  0.000  0.300  0.000  0.000  0.000
[...]
  0.011  0.420 -0.000 -0.007  0.000
  0.000 -0.000  0.391  0.000  0.001
  0.002 -0.007  0.000  0.657  0.000
 -0.000  0.000  0.001  0.000  0.555
atom    9   Tr[ns(na)] =   5.25542
    eigenvalues:
  0.449  0.459  0.480  0.619  0.621
    eigenvectors:
  0.000  0.872  0.000  0.122  0.007
  0.000  0.000  0.000  0.049  0.951
  0.860  0.000  0.140  0.000  0.000
  0.000  0.128  0.000  0.829  0.043
  0.140  0.000  0.860  0.000  0.000
    occupations:
  0.479 -0.000 -0.000  0.054 -0.000
 -0.000  0.621 -0.000 -0.000  0.000
 -0.000 -0.000  0.453  0.000  0.011
  0.054 -0.000  0.000  0.599 -0.000
 -0.000  0.000  0.011 -0.000  0.475
atom   10   Tr[ns(na)] =   5.05960
    eigenvalues:
  0.345  0.417  0.512  0.549  0.707
    eigenvectors:
  0.000  0.000  0.991  0.000  0.009
  0.000  0.999  0.000  0.000  0.001
  1.000  0.000  0.000  0.000  0.000
  0.000  0.001  0.009  0.000  0.991
  0.000  0.000  0.000  1.000  0.000
    occupations:
  0.514  0.000  0.000  0.018  0.000
  0.000  0.417  0.000  0.007  0.000
  0.000  0.000  0.345 -0.000 -0.001
  0.018  0.007 -0.000  0.705 -0.000
  0.000  0.000 -0.001 -0.000  0.549
atom   16   Tr[ns(na)] =   5.21476
    eigenvalues:
  0.369  0.417  0.538  0.591  0.692
    eigenvectors:
  0.000  0.000  0.037  0.387  0.575
  0.000  0.000  0.937  0.061  0.002
  0.208  0.792  0.000  0.000  0.000
  0.000  0.000  0.025  0.552  0.423
  0.792  0.208  0.000  0.000  0.000
    occupations:
  0.648  0.014  0.000 -0.051  0.000
  0.014  0.541  0.000  0.005  0.000
  0.000  0.000  0.407 -0.000  0.019
 -0.051  0.005 -0.000  0.633 -0.000
  0.000  0.000  0.019 -0.000  0.379
atom   17   Tr[ns(na)] =   5.21931
    eigenvalues:
  0.389  0.418  0.552  0.587  0.663
    eigenvectors:
  0.000  0.004  0.000  0.996  0.000
  0.000  0.995  0.000  0.004  0.001
  1.000  0.000  0.000  0.000  0.000
  0.000  0.001  0.000  0.000  0.999
  0.000  0.000  1.000  0.000  0.000
    occupations:
  0.586  0.011  0.000  0.000 -0.000
  0.011  0.419 -0.000 -0.007 -0.000
  0.000 -0.000  0.389  0.000  0.001
  0.000 -0.007  0.000  0.663  0.000
 -0.000 -0.000  0.001  0.000  0.552
atom   22   Tr[ns(na)] =   5.25831
    eigenvalues:
  0.449  0.460  0.480  0.620  0.621
    eigenvectors:
  0.000  0.875  0.000  0.119  0.006
  0.000  0.000  0.000  0.048  0.952
  0.875  0.000  0.125  0.000  0.000
  0.000  0.125  0.000  0.833  0.041
  0.125  0.000  0.875  0.000  0.000
    occupations:
  0.480  0.000 -0.000  0.053 -0.000
  0.000  0.621  0.000  0.000  0.000
 -0.000  0.000  0.453  0.000 -0.010
  0.053  0.000  0.000  0.600  0.000
 -0.000  0.000 -0.010  0.000  0.476
atom   23   Tr[ns(na)] =   5.36411
    eigenvalues:
  0.489  0.521  0.523  0.536  0.613
    eigenvectors:
  0.000  0.000  0.000  0.000  1.000
  0.000  0.000  0.990  0.010  0.000
  1.000  0.000  0.000  0.000  0.000
  0.000  0.000  0.010  0.990  0.000
  0.000  1.000  0.000  0.000  0.000
    occupations:
  0.613 -0.000 -0.000  0.000 -0.000
 -0.000  0.523  0.000 -0.001 -0.000
 -0.000  0.000  0.489  0.000  0.001
  0.000 -0.001  0.000  0.536 -0.000
 -0.000 -0.000  0.001 -0.000  0.521
N of occupied +U levels =  41.8075516
 --- exit write_ns ---

     Threshold (ethr) on eigenvalues was too large:
     Diagonalizing with lowered threshold

     Davidson diagonalization with overlap
     ethr =  5.86E-09,  avg # of iterations =  2.8

[...]

     total energy              =   -1559.69608977 Ry
     Harris-Foulkes estimate   =   -1559.69608978 Ry
     estimated scf accuracy    <       0.00000002 Ry

     iteration # 12     ecut=    40.00 Ry     beta=0.70
     Davidson diagonalization with overlap
     ethr =  7.93E-12,  avg # of iterations =  1.0

     negative rho (up, down):  0.351E-02 0.000E+00

     End of self-consistent calculation
 --- enter write_ns ---
 LDA+U parameters:
U( 2)     =  4.00000000
alpha( 2) =  0.00000000
atom    3   Tr[ns(na)] =   5.21382
    eigenvalues:
  0.366  0.419  0.538  0.591  0.693
    eigenvectors:
  0.000  0.000  0.037  0.387  0.575
  0.000  0.000  0.938  0.060  0.002
  0.246  0.754  0.000  0.000  0.000
  0.000  0.000  0.025  0.552  0.423
  0.754  0.246  0.000  0.000  0.000
    occupations:
  0.648 -0.014  0.000 -0.052 -0.000
 -0.014  0.541 -0.000 -0.005  0.000
  0.000 -0.000  0.406 -0.000 -0.023
 -0.052 -0.005 -0.000  0.633  0.000
 -0.000  0.000 -0.023  0.000  0.379
atom    4   Tr[ns(na)] =   5.22307
    eigenvalues:
  0.391  0.420  0.555  0.588  0.658
    eigenvectors:
  0.000  0.004  0.000  0.995  0.001
  0.000  0.995  0.000  0.005  0.001
  1.000  0.000  0.000  0.000  0.000
  0.000  0.001  0.000  0.001  0.998
  0.000  0.000  1.000  0.000  0.000
    occupations:
  0.587  0.011  0.000  0.003 -0.000
  0.011  0.421 -0.000 -0.007  0.000
  0.000 -0.000  0.391  0.000  0.001
  0.003 -0.007  0.000  0.657  0.000
 -0.000  0.000  0.001  0.000  0.555
atom    9   Tr[ns(na)] =   5.25533
    eigenvalues:
  0.449  0.459  0.480  0.619  0.621
    eigenvectors:
  0.000  0.871  0.000  0.122  0.006
  0.000  0.000  0.000  0.049  0.951
  0.863  0.000  0.137  0.000  0.000
  0.000  0.129  0.000  0.829  0.042
  0.137  0.000  0.863  0.000  0.000
    occupations:
  0.479 -0.000 -0.000  0.054 -0.000
 -0.000  0.621 -0.000 -0.000  0.000
 -0.000 -0.000  0.453  0.000  0.011
  0.054 -0.000  0.000  0.599 -0.000
 -0.000  0.000  0.011 -0.000  0.476
atom   10   Tr[ns(na)] =   5.06032
    eigenvalues:
  0.345  0.416  0.512  0.549  0.708
    eigenvectors:
  0.000  0.000  0.992  0.000  0.008
  0.000  0.999  0.000  0.000  0.001
  1.000  0.000  0.000  0.000  0.000
  0.000  0.001  0.008  0.000  0.991
  0.000  0.000  0.000  1.000  0.000
    occupations:
  0.514  0.000  0.000  0.018  0.000
  0.000  0.416  0.000  0.008  0.000
  0.000  0.000  0.345 -0.000 -0.001
  0.018  0.008 -0.000  0.706 -0.000
  0.000  0.000 -0.001 -0.000  0.549
atom   16   Tr[ns(na)] =   5.21419
    eigenvalues:
  0.369  0.417  0.537  0.591  0.692
    eigenvectors:
  0.000  0.000  0.037  0.388  0.575
  0.000  0.000  0.937  0.061  0.002
  0.207  0.793  0.000  0.000  0.000
  0.000  0.000  0.025  0.552  0.423
  0.793  0.207  0.000  0.000  0.000
    occupations:
  0.647  0.013  0.000 -0.051  0.000
  0.013  0.541  0.000  0.005  0.000
  0.000  0.000  0.407 -0.000  0.019
 -0.051  0.005 -0.000  0.633 -0.000
  0.000  0.000  0.019 -0.000  0.379
atom   17   Tr[ns(na)] =   5.21948
    eigenvalues:
  0.389  0.418  0.552  0.587  0.663
    eigenvectors:
  0.000  0.004  0.000  0.996  0.000
  0.000  0.995  0.000  0.004  0.001
  1.000  0.000  0.000  0.000  0.000
  0.000  0.001  0.000  0.000  0.999
  0.000  0.000  1.000  0.000  0.000
    occupations:
  0.586  0.011  0.000  0.000 -0.000
  0.011  0.419 -0.000 -0.007 -0.000
  0.000 -0.000  0.389  0.000  0.001
  0.000 -0.007  0.000  0.663  0.000
 -0.000 -0.000  0.001  0.000  0.552
atom   22   Tr[ns(na)] =   5.25759
    eigenvalues:
  0.449  0.460  0.479  0.620  0.621
    eigenvectors:
  0.000  0.875  0.000  0.119  0.006
  0.000  0.000  0.000  0.049  0.951
  0.879  0.000  0.121  0.000  0.000
  0.000  0.125  0.000  0.832  0.042
  0.121  0.000  0.879  0.000  0.000
    occupations:
  0.480  0.000 -0.000  0.053 -0.000
  0.000  0.621  0.000  0.000  0.000
 -0.000  0.000  0.453  0.000 -0.010
  0.053  0.000  0.000  0.600  0.000
 -0.000  0.000 -0.010  0.000  0.476
atom   23   Tr[ns(na)] =   5.36347
    eigenvalues:
  0.489  0.521  0.523  0.536  0.613
    eigenvectors:
  0.000  0.000  0.000  0.000  1.000
  0.000  0.000  0.988  0.012  0.000
  1.000  0.000  0.000  0.000  0.000
  0.000  0.000  0.012  0.988  0.000
  0.000  1.000  0.000  0.000  0.000
    occupations:
  0.613 -0.000 -0.000  0.000 -0.000
 -0.000  0.523  0.000 -0.001 -0.000
 -0.000  0.000  0.489  0.000  0.001
  0.000 -0.001  0.000  0.535 -0.000
 -0.000 -0.000  0.001 -0.000  0.521
N of occupied +U levels =  41.8072643
 --- exit write_ns ---

[...]

          k = 0.2500-0.4237 0.0000 ( 32188 PWs)   bands (ev):

[...]

          k =-0.2500 0.2118 0.0000 ( 32165 PWs)   bands (ev):

   -56.8901 -56.8223 -56.3594 -56.3476 -56.2928 -56.2863 -56.2629 -55.5255
   -33.6490 -33.1072 -32.9738 -32.9547 -32.9192 -32.9115 -32.8868 -32.7872
   -32.7635 -32.7562 -32.7058 -32.6505 -32.6468 -32.4042 -32.3384 -32.3097
   -32.2230 -32.1964 -32.1500 -32.1305 -32.1114 -32.0975 -31.6421 -31.5713
   -20.9965 -20.5446 -19.8658 -19.6450 -19.4395 -19.3552 -19.3511 -19.3180
   -19.3089 -19.1935 -19.1097 -18.6027 -18.5066 -18.4399 -18.4242 -18.3446
   -18.2587 -18.2100 -16.8363  -9.5083  -8.8865  -8.0458  -7.6086  -7.4380
    -7.2219  -7.0494  -6.9986  -6.8563  -6.7245  -6.7024  -6.6422  -6.4076
    -6.3854  -6.3563  -6.1729  -6.0792  -6.0339  -5.9333  -5.8336  -5.5906
    -5.4966  -5.3376  -5.2668  -5.0457  -4.9593  -4.9112  -4.7739  -4.7018
    -4.6474  -4.6245  -4.4923  -4.4724  -4.4156  -4.3722  -4.3300  -4.2851
    -4.1133  -4.0725  -3.9952  -3.9384  -3.8890  -3.7614  -3.6822  -3.6464
    -3.5224  -3.4289  -3.3720  -3.2855  -3.2592  -3.1662  -3.0445  -2.9903
    -2.9462  -2.7450  -2.6753  -2.4240  -0.6107  -0.2869   0.0703   0.6678
     0.7011   1.0507   1.2477   1.3086   1.4430   1.6685   1.6941   1.7754
     1.8673   1.9353   2.0520   2.0878   2.1970   2.2766   2.3568   2.3931
     2.6050   2.6414   2.7922   2.9586   3.2823   3.6582   4.0658   4.1410
     4.3583   4.5306   4.5991   4.6523   4.9037   4.9370   4.9854   5.0738
     5.2094   5.2584   5.4428   5.5794   5.6236   5.7239   5.9699   6.0284
     6.1580   6.2112   6.5089   6.5514   6.5745   6.6141   6.7889   6.8675
     6.8917   7.0869   7.1979   7.2871   7.4441   7.5017   7.8041   7.9185
     8.0145   8.0379   8.1322   8.1807   8.2441   8.5304   8.6099   8.7027
     8.8184   8.8959   9.0080   9.0825   9.1753   9.2710   9.2841   9.4805
     9.5436   9.5990   9.7477   9.8619   9.8956  10.0134  10.0761  10.1547
    10.2589  10.3812  10.5757  10.7194  10.7577  10.9114  10.9660  11.0032
    11.1221  11.1512  11.2200  11.2778  11.4017  11.4450  11.5127  11.5474
    11.6524  11.7607  11.8969  11.9067  12.0015  12.1102  12.1339  12.2030
    12.2622  12.3441  12.3946  12.4754  12.5991  12.6641  12.6914  12.7361
    12.7729  12.8634  12.9585  12.9837  13.0406  13.0992  13.2372  13.2847
    13.3618  13.3950  13.5177  13.6342  13.7079  13.7550  13.7888  13.8614
    13.9290  13.9516  14.0086  14.1309  14.1554  14.2893  14.3710  14.4020
    14.4655  14.5948  14.6659  14.7779  14.9098  14.9270  15.0411  15.1057
    15.2112  15.2566  15.2920  15.3300  15.3898  15.4527  15.5247  15.5775
    15.6478  15.6954  15.7985  15.8571  15.9099  15.9961  16.0401  16.0810
    16.2016  16.2714  16.3684  16.3987  16.4688  16.4962  16.5767  16.6741
    16.7265  16.7742  16.8597  16.9489  17.0295  17.1128  17.1491  17.2201
    17.2865  17.3487  17.3695  17.4271  17.4778  17.5793  17.6252  17.7132
    17.7574  17.8658  17.9655  17.9797  18.0896  18.1462  18.2070  18.3779
    18.3825  18.4318  18.4721  18.5432  18.6176  18.6643  18.6997  18.7857
    18.8611  18.9158  18.9743  19.0811  19.1459  19.1756  19.2353  19.3403
    19.3607  19.4000  19.4910  19.5174  19.5826  19.6419  19.6618  19.6848
    19.7647  19.8828  19.9078  20.0005  20.0716

     the Fermi energy is     0.5132 ev

!    total energy              =   -1559.69608977 Ry
     Harris-Foulkes estimate   =   -1559.69608977 Ry
     estimated scf accuracy    <          4.0E-09 Ry

     The total energy is the sum of the following terms:

     one-electron contribution =  -18855.78112747 Ry
     hartree contribution      =    9453.55169412 Ry
     xc contribution           =    -286.89046604 Ry
     ewald contribution        =    8126.60434549 Ry
     Hubbard energy            =       2.81901576 Ry
     smearing contrib. (-TS)   =       0.00044836 Ry

     convergence has been achieved in  12 iterations

     Forces acting on atoms (Ry/au):

     negative rho (up, down):  0.351E-02 0.000E+00
     atom    1 type  1   force =     0.00139012   -0.00005076    0.00030225
     atom    2 type  1   force =    -0.00026187    0.00023443   -0.00020805
     atom    3 type  2   force =    -0.05426352   -0.00016771   -0.00059936
     atom    4 type  2   force =    -0.00398568    0.00002751   -0.00047454
     atom    5 type  1   force =    -0.00528467   -0.00840580   -0.00000369
     atom    6 type  1   force =    -0.00532662    0.00841459   -0.00000421
     atom    7 type  1   force =    -0.00040552    0.00002219    0.00059537
     atom    8 type  1   force =     0.00217443    0.00000613   -0.00002260
     atom    9 type  2   force =     0.00201393    0.00000119   -0.00037881
     atom   10 type  2   force =    -0.00077077   -0.00000461   -0.00007103
     atom   11 type  1   force =    -0.01466166   -0.00524718    0.00028199
     atom   12 type  1   force =    -0.01466098    0.00524994    0.00028212
     atom   13 type  1   force =     0.00076720   -0.00000150    0.00006482
     atom   14 type  1   force =     0.00094619   -0.00005759   -0.00016694
     atom   15 type  1   force =    -0.00020790    0.00006974    0.00053294
     atom   16 type  2   force =     0.05490294   -0.00016526   -0.00069034
     atom   17 type  2   force =    -0.00381411    0.00003773    0.00014835
     atom   18 type  1   force =     0.00624551   -0.00824811   -0.00002248
     atom   19 type  1   force =     0.00617103    0.00825642   -0.00002223
     atom   20 type  1   force =     0.00000949    0.00006487    0.00026813
     atom   21 type  1   force =     0.00107607    0.00000339    0.00097006
     atom   22 type  2   force =    -0.00194937    0.00000197    0.00040547
     atom   23 type  2   force =     0.00213625   -0.00000229    0.00009064
     atom   24 type  1   force =     0.01418573   -0.00496147   -0.00064277
     atom   25 type  1   force =     0.01418486    0.00496074   -0.00064229
     atom   26 type  1   force =    -0.00053468    0.00000008    0.00008008
     atom   27 type  3   force =     0.00000990   -0.00005424    0.00063367
     atom   28 type  3   force =    -0.00000199    0.00000576   -0.00026965
     atom   29 type  3   force =    -0.00018459    0.00000618    0.00011117
     atom   30 type  3   force =     0.00006019    0.00000506   -0.00006212
     atom   31 type  1   force =     0.00004010   -0.00000143   -0.00048595

     Total force =     0.002233     Total SCF correction =     0.000124

     bfgs converged in  10 scf cycles and   9 bfgs steps
     (criteria: energy < 0.10E-03, force < 0.10E-02)

     End of BFGS Geometry Optimization

     Final energy   =   -1559.6960897727 Ry
Begin final coordinates

ATOMIC_POSITIONS (crystal)
O0       0.000000000   0.000000000   0.371583906    0   0   1
O0       0.000000000   0.500000000   0.388301436    0   0   1
Nb1      0.250000000   0.500000000   0.444730509    0   0   1
Nb1      0.000000000   0.000000000   0.444107126    0   0   1
O0       0.250000000   0.790000000   0.446149284    0   0   1
O0       0.250000000   0.210000000   0.446148549    0   0   1
O0       0.000000000   0.500000000   0.501110750    0   0   1
O0       0.000000000   0.000000000   0.523056254    0   0   1
Nb1      0.250000000   0.000000000   0.576846014    0   0   1
Nb1      0.000000000   0.500000000   0.570472409    0   0   1
O0       0.250000000   0.710000000   0.577110141    0   0   1
O0       0.250000000   0.290000000   0.577111036    0   0   1
O0       0.000000000   0.000000000   0.621133057    0   0   1
O0       0.500000000   0.000000000   0.371800280    0   0   1
O0       0.500000000   0.500000000   0.390814618    0   0   1
Nb1      0.750000000   0.500000000   0.444759565    0   0   1
Nb1      0.500000000   0.000000000   0.444489470    0   0   1
O0       0.750000000   0.790000000   0.446132120    0   0   1
O0       0.750000000   0.210000000   0.446131966    0   0   1
O0       0.500000000   0.500000000   0.495181463    0   0   1
O0       0.500000000   0.000000000   0.523075314    0   0   1
Nb1      0.750000000   0.000000000   0.577153170    0   0   1
Nb1      0.500000000   0.500000000   0.587258605    0   0   1
O0       0.750000000   0.710000000   0.576738997    0   0   1
O0       0.750000000   0.290000000   0.576739451    0   0   1
O0       0.500000000   0.000000000   0.621057287    0   0   1
H2      -0.000464764   0.501462208   0.352051192
H2       0.499492227   0.501448647   0.354643769
H2       0.150364985   0.000387692   0.355694098
H2       0.650222800   0.000387024   0.355871809
O0       0.500046894   0.500003095   0.650836355
End final coordinates

     General routines

     Parallel routines
     Hubbard U routines

   This run was terminated on:   5:44: 6   1May2014

   JOB DONE.
Running PBS batch system epilogue script
Job id: 340577.audhumbla.fysik.dtu.dk
Username: zhonxu
Groupname: campgst
Jobname: NbO2/Eads-2-layers/O-U-4.0
Sessionid: 22376
Queuename: verylong
Accounting:
This job has allocated the following 16 nodes:
d064 d064 d064 d064 d064 d064 d064 d064 d063 d063 d063 d063 d063 d063 d063 d063
Finished epilogue job 340577.audhumbla.fysik.dtu.dk for zhonxu