     Program PWSCF v.5.0.2 (svn rev. 9656) starts on 30Apr2014 at 21:19:16

     Current dimensions of program PWSCF are:
     Max number of different atomic species (ntypx) = 10
     Max number of k-points (npk) =  40000
     Max angular momentum in pseudopotentials (lmaxx) =  3
     Reading input from pwscf.in
Warning: card &CELL ignored
Warning: card / ignored

     Subspace diagonalization in iterative solution of the eigenvalue problem:
     a serial algorithm will be used

     bravais-lattice index     =            0
     lattice parameter (alat)  =      11.1872  a.u.
     unit-cell volume          =    7531.8600 (a.u.)^3
     number of atoms/cell      =           31
     number of atomic types    =            3
     number of electrons       =       222.00
     number of Kohn-Sham states=          333
     kinetic-energy cutoff     =      40.0000  Ry
     charge density cutoff     =     500.0000  Ry
     convergence threshold     =      1.0E-06
     mixing beta               =       0.7000
     number of iterations used =            8  plain     mixing
     Exchange-correlation      = SLA  PW   PBE  PBE ( 1 4 3 4 0)
     EXX-fraction              =        0.00
     nstep                     =           50

     celldm(1)=  11.187179  celldm(2)=   0.000000  celldm(3)=   0.000000
     celldm(4)=   0.000000  celldm(5)=   0.000000  celldm(6)=   0.000000

     crystal axes: (cart. coord. in units of alat)
               a(1) = (   1.000000   0.000000   0.000000 )
               a(2) = (   0.000000   1.180104   0.000000 )
               a(3) = (   0.000000   0.000000   4.558482 )

     reciprocal axes: (cart. coord. in units 2 pi/alat)
               b(1) = (  1.000000  0.000000  0.000000 )
               b(2) = (  0.000000  0.847383  0.000000 )
               b(3) = (  0.000000  0.000000  0.219371 )

     PseudoPot. # 1 for O  read from file:
     /home/camp/zhonxu/pseudo/o_pbe_v1.01.uspp.F.UPF
     MD5 check sum: 2bcb18d16ea4b960afae9ec6d52f22d2
     Pseudo is Ultrasoft + core correction, Zval =  6.0
     Generated by new atomic code, or converted to UPF format
     Using radial grid of  737 points,  5 beta functions with:
                l(1) =   0
                l(2) =   0
                l(3) =   1
                l(4) =   1
                l(5) =   2
     Q(r) pseudized with  8 coefficients,  rinner =    0.900   0.900   0.900
                                                       0.900   0.900

     PseudoPot. # 2 for Nb read from file:
     /home/camp/zhonxu/pseudo/nb_pbe_v1.uspp.F.UPF
     MD5 check sum: 573aab8a2fa660278ed4a62cd769473f
     Pseudo is Ultrasoft + core correction, Zval = 13.0
     Generated by new atomic code, or converted to UPF format
     Using radial grid of  887 points,  6 beta functions with:
                l(1) =   0
                l(2) =   0
                l(3) =   1
                l(4) =   1
                l(5) =   2
                l(6) =   2
     Q(r) pseudized with  6 coefficients,  rinner =    1.000   1.000   1.000
                                                       1.000   1.000

     PseudoPot. # 3 for H  read from file:
     /home/camp/zhonxu/pseudo/h_pbe_v1.uspp.F.UPF
     MD5 check sum: 3408e3ff4ec8b0a4e358431e7e038a48
     Pseudo is Ultrasoft, Zval =  1.0
     Generated by new atomic code, or converted to UPF format
     Using radial grid of  615 points,  2 beta functions with:
                l(1) =   0
                l(2) =   0
     Q(r) pseudized with  8 coefficients,  rinner =    0.700

     atomic species   valence    mass     pseudopotential
        O0             6.00    15.99940     O ( 1.00)
        Nb1           13.00    92.90640     Nb( 1.00)
        H2             1.00     1.00794     H ( 1.00)

     Simplified LDA+U calculation (l_max = 2) with parameters (eV):
     atomic species    L          U    alpha       J0     beta
        Nb1            2     3.0000   0.0000   0.0000   0.0000

     No symmetry found

   Cartesian axes

     site n.     atom                  positions (alat units)
         1           O0  tau(   1) = (   0.0000000   0.0000000   1.6934306  )
         2           O0  tau(   2) = (   0.0000000   0.5900519   1.7719732  )
         3           Nb1 tau(   3) = (   0.2500000   0.5900519   2.0266100  )
         4           Nb1 tau(   4) = (   0.0000000   0.0000000   2.0234647  )
         5           O0  tau(   5) = (   0.2500000   0.9322821   2.0339492  )
         6           O0  tau(   6) = (   0.2500000   0.2478218   2.0339492  )
         7           O0  tau(   7) = (   0.0000000   0.5900519   2.2822497  )
         8           O0  tau(   8) = (   0.0000000   0.0000000   2.3837671  )
         9           Nb1 tau(   9) = (   0.2500000   0.0000000   2.6303810  )
        10           Nb1 tau(  10) = (   0.0000000   0.5900519   2.5986084  )
        11           O0  tau(  11) = (   0.2500000   0.8378738   2.6271901  )
        12           O0  tau(  12) = (   0.2500000   0.3422301   2.6272357  )
        13           O0  tau(  13) = (   0.0000000   0.0000000   2.8322306  )
        14           O0  tau(  14) = (   0.5000000   0.0000000   1.6959377  )
        15           O0  tau(  15) = (   0.5000000   0.5900519   1.7815005  )
        16           Nb1 tau(  16) = (   0.7500000   0.5900519   2.0269291  )
        17           Nb1 tau(  17) = (   0.5000000   0.0000000   2.0281143  )
        18           O0  tau(  18) = (   0.7500000   0.9322821   2.0339492  )
        19           O0  tau(  19) = (   0.7500000   0.2478218   2.0339492  )
        20           O0  tau(  20) = (   0.5000000   0.5900519   2.2572692  )
        21           O0  tau(  21) = (   0.5000000   0.0000000   2.3822628  )
        22           Nb1 tau(  22) = (   0.7500000   0.0000000   2.6309736  )
        23           Nb1 tau(  23) = (   0.5000000   0.5900519   2.6831227  )
        24           O0  tau(  24) = (   0.7500000   0.8378738   2.6265975  )
        25           O0  tau(  25) = (   0.7500000   0.3422301   2.6265975  )
        26           O0  tau(  26) = (   0.5000000   0.0000000   2.8320027  )
        27           H2  tau(  27) = (  -0.0004900   0.5918693   1.6065459  )
        28           H2  tau(  28) = (   0.4994900   0.5917631   1.6163466  )
        29           H2  tau(  29) = (   0.1504600   0.0004366   1.6207228  )
        30           H2  tau(  30) = (   0.6496400   0.0004366   1.6219536  )
        31           O0  tau(  31) = (   0.5000300   0.5900519   2.9731333  )

     number of k points=    10  Methfessel-Paxton smearing, width (Ry)=  0.0100
                       cart. coord. in units 2pi/alat
        k(    1) = (   0.0000000   0.0000000   0.0000000), wk =   0.1250000
        k(    2) = (   0.0000000   0.2118458   0.0000000), wk =   0.2500000
        k(    3) = (   0.0000000  -0.4236915   0.0000000), wk =   0.1250000
        k(    4) = (   0.2500000   0.0000000   0.0000000), wk =   0.2500000
        k(    5) = (   0.2500000   0.2118458   0.0000000), wk =   0.2500000
        k(    6) = (   0.2500000  -0.4236915   0.0000000), wk =   0.2500000
        k(    7) = (  -0.5000000   0.0000000   0.0000000), wk =   0.1250000
        k(    8) = (  -0.5000000   0.2118458   0.0000000), wk =   0.2500000
        k(    9) = (  -0.5000000  -0.4236915   0.0000000), wk =   0.1250000
        k(   10) = (  -0.2500000   0.2118458   0.0000000), wk =   0.2500000

     Largest allocated arrays     est. size (Mb)     dimensions
     Largest temporary arrays     est. size (Mb)     dimensions

     Check: negative/imaginary core charge=   -0.000003    0.000000

     Initial potential from superposition of free atoms
     Check: negative starting charge=   -0.003810

     starting charge  221.97807, renormalised to  222.00000

     negative rho (up, down):  0.381E-02 0.000E+00
     Number of +U iterations with fixed ns =  0
     Starting occupations:
 --- enter write_ns ---
 LDA+U parameters:
U( 2)     =  3.00000000
alpha( 2) =  0.00000000
atom    3   Tr[ns(na)] =   3.00000
    eigenvalues:
  0.300  0.300  0.300  0.300  0.300
    eigenvectors:
  1.000  0.000  0.000  0.000  0.000
  0.000  1.000  0.000  0.000  0.000
  0.000  0.000  1.000  0.000  0.000
  0.000  0.000  0.000  1.000  0.000
  0.000  0.000  0.000  0.000  1.000
    occupations:
  0.300  0.000  0.000  0.000  0.000
  0.000  0.300  0.000  0.000  0.000
  0.000  0.000  0.300  0.000  0.000
  0.000  0.000  0.000  0.300  0.000
  0.000  0.000  0.000  0.000  0.300
atom    4   Tr[ns(na)] =   3.00000
    eigenvalues:
  0.300  0.300  0.300  0.300  0.300
    eigenvectors:
  1.000  0.000  0.000  0.000  0.000
  0.000  1.000  0.000  0.000  0.000
  0.000  0.000  1.000  0.000  0.000
  0.000  0.000  0.000  1.000  0.000
  0.000  0.000  0.000  0.000  1.000
    occupations:
  0.300  0.000  0.000  0.000  0.000
  0.000  0.300  0.000  0.000  0.000
  0.000  0.000  0.300  0.000  0.000
  0.000  0.000  0.000  0.300  0.000
  0.000  0.000  0.000  0.000  0.300
atom    9   Tr[ns(na)] =   3.00000
    eigenvalues:
  0.300  0.300  0.300  0.300  0.300
    eigenvectors:
  1.000  0.000  0.000  0.000  0.000
  0.000  1.000  0.000  0.000  0.000
  0.000  0.000  1.000  0.000  0.000
  0.000  0.000  0.000  1.000  0.000
  0.000  0.000  0.000  0.000  1.000
    occupations:
  0.300  0.000  0.000  0.000  0.000
  0.000  0.300  0.000  0.000  0.000
  0.000  0.000  0.300  0.000  0.000
  0.000  0.000  0.000  0.300  0.000
  0.000  0.000  0.000  0.000  0.300
atom   10   Tr[ns(na)] =   3.00000
    eigenvalues:
  0.300  0.300  0.300  0.300  0.300
    eigenvectors:
  1.000  0.000  0.000  0.000  0.000
  0.000  1.000  0.000  0.000  0.000
  0.000  0.000  1.000  0.000  0.000
  0.000  0.000  0.000  1.000  0.000
  0.000  0.000  0.000  0.000  1.000
    occupations:
  0.300  0.000  0.000  0.000  0.000
  0.000  0.300  0.000  0.000  0.000
  0.000  0.000  0.300  0.000  0.000
  0.000  0.000  0.000  0.300  0.000
  0.000  0.000  0.000  0.000  0.300
atom   16   Tr[ns(na)] =   3.00000
    eigenvalues:
  0.300  0.300  0.300  0.300  0.300
    eigenvectors:
  1.000  0.000  0.000  0.000  0.000
  0.000  1.000  0.000  0.000  0.000
  0.000  0.000  1.000  0.000  0.000
  0.000  0.000  0.000  1.000  0.000
  0.000  0.000  0.000  0.000  1.000
    occupations:
  0.300  0.000  0.000  0.000  0.000
  0.000  0.300  0.000  0.000  0.000
  0.000  0.000  0.300  0.000  0.000
  0.000  0.000  0.000  0.300  0.000
  0.000  0.000  0.000  0.000  0.300
atom   17   Tr[ns(na)] =   3.00000
    eigenvalues:
  0.300  0.300  0.300  0.300  0.300
    eigenvectors:
  1.000  0.000  0.000  0.000  0.000
  0.000  1.000  0.000  0.000  0.000
  0.000  0.000  1.000  0.000  0.000
  0.000  0.000  0.000  1.000  0.000
  0.000  0.000  0.000  0.000  1.000
    occupations:
  0.300  0.000  0.000  0.000  0.000
  0.000  0.300  0.000  0.000  0.000
  0.000  0.000  0.300  0.000  0.000
  0.000  0.000  0.000  0.300  0.000
  0.000  0.000  0.000  0.000  0.300
atom   22   Tr[ns(na)] =   3.00000
    eigenvalues:
  0.300  0.300  0.300  0.300  0.300
    eigenvectors:
  1.000  0.000  0.000  0.000  0.000
  0.000  1.000  0.000  0.000  0.000
  0.000  0.000  1.000  0.000  0.000
  0.000  0.000  0.000  1.000  0.000
  0.000  0.000  0.000  0.000  1.000
    occupations:
  0.300  0.000  0.000  0.000  0.000
  0.000  0.300  0.000  0.000  0.000
[...]
 -0.000  0.000  0.001  0.000  0.554
atom    9   Tr[ns(na)] =   5.26189
    eigenvalues:
  0.455  0.460  0.487  0.613  0.616
    eigenvectors:
  0.000  0.873  0.000  0.119  0.007
  0.000  0.000  0.000  0.057  0.943
  0.694  0.000  0.306  0.000  0.000
  0.000  0.127  0.000  0.824  0.049
  0.306  0.000  0.694  0.000  0.000
    occupations:
  0.479 -0.001 -0.000  0.051 -0.000
 -0.001  0.616 -0.000 -0.001  0.000
 -0.000 -0.000  0.465  0.000  0.014
  0.051 -0.001  0.000  0.594 -0.000
 -0.000  0.000  0.014 -0.000  0.477
atom   10   Tr[ns(na)] =   5.06861
    eigenvalues:
  0.358  0.460  0.513  0.551  0.653
    eigenvectors:
  0.000  0.000  0.979  0.000  0.021
  0.000  0.999  0.000  0.000  0.001
  1.000  0.000  0.000  0.000  0.000
  0.000  0.001  0.021  0.000  0.978
  0.000  0.000  0.000  1.000  0.000
    occupations:
  0.516  0.000  0.000  0.020  0.000
  0.000  0.460  0.000  0.007  0.000
  0.000  0.000  0.358 -0.000 -0.001
  0.020  0.007 -0.000  0.650 -0.000
  0.000  0.000 -0.001 -0.000  0.551
atom   16   Tr[ns(na)] =   5.22661
    eigenvalues:
  0.379  0.429  0.536  0.586  0.684
    eigenvectors:
  0.000  0.000  0.047  0.397  0.557
  0.000  0.000  0.922  0.076  0.002
  0.153  0.847  0.000  0.000  0.000
  0.000  0.000  0.031  0.527  0.441
  0.847  0.153  0.000  0.000  0.000
    occupations:
  0.638  0.014  0.000 -0.051  0.000
  0.014  0.540  0.000  0.006  0.000
  0.000  0.000  0.421 -0.000  0.018
 -0.051  0.006 -0.000  0.627 -0.000
  0.000  0.000  0.018 -0.000  0.387
atom   17   Tr[ns(na)] =   5.23187
    eigenvalues:
  0.404  0.439  0.551  0.586  0.635
    eigenvectors:
  0.000  0.005  0.000  0.995  0.001
  0.000  0.994  0.000  0.005  0.001
  1.000  0.000  0.000  0.000  0.000
  0.000  0.001  0.000  0.001  0.998
  0.000  0.000  1.000  0.000  0.000
    occupations:
  0.586  0.010  0.000  0.002 -0.000
  0.010  0.440 -0.000 -0.006 -0.000
  0.000 -0.000  0.404  0.000  0.001
  0.002 -0.006  0.000  0.635  0.000
 -0.000 -0.000  0.001  0.000  0.551
atom   22   Tr[ns(na)] =   5.26447
    eigenvalues:
  0.456  0.461  0.486  0.613  0.616
    eigenvectors:
  0.000  0.877  0.000  0.117  0.006
  0.000  0.000  0.000  0.049  0.951
  0.696  0.000  0.304  0.000  0.000
  0.000  0.123  0.000  0.834  0.043
  0.304  0.000  0.696  0.000  0.000
    occupations:
  0.480  0.000 -0.000  0.050 -0.000
  0.000  0.616 -0.000  0.001  0.000
 -0.000 -0.000  0.465  0.000 -0.014
  0.050  0.001  0.000  0.595  0.000
 -0.000  0.000 -0.014  0.000  0.477
atom   23   Tr[ns(na)] =   5.35793
    eigenvalues:
  0.490  0.516  0.521  0.544  0.608
    eigenvectors:
  0.000  0.000  0.000  0.002  0.998
  0.000  0.000  0.997  0.003  0.000
  1.000  0.000  0.000  0.000  0.000
  0.000  0.000  0.003  0.995  0.002
  0.000  1.000  0.000  0.000  0.000
    occupations:
  0.608 -0.000 -0.000 -0.003 -0.000
 -0.000  0.521  0.000 -0.001 -0.000
 -0.000  0.000  0.490  0.000  0.000
 -0.003 -0.001  0.000  0.544 -0.000
 -0.000 -0.000  0.000 -0.000  0.516
N of occupied +U levels =  41.8725283
 --- exit write_ns ---

     Threshold (ethr) on eigenvalues was too large:
     Diagonalizing with lowered threshold

     Davidson diagonalization with overlap
     ethr =  3.06E-09,  avg # of iterations =  3.0

[...]

     total energy              =   -1560.40410526 Ry
     Harris-Foulkes estimate   =   -1560.40410526 Ry
     estimated scf accuracy    <       0.00000002 Ry

     iteration # 10     ecut=    40.00 Ry     beta=0.70
     Davidson diagonalization with overlap
     ethr =  8.47E-12,  avg # of iterations =  1.0

     negative rho (up, down):  0.348E-02 0.000E+00

     End of self-consistent calculation
 --- enter write_ns ---
 LDA+U parameters:
U( 2)     =  3.00000000
alpha( 2) =  0.00000000
atom    3   Tr[ns(na)] =   5.22599
    eigenvalues:
  0.376  0.430  0.536  0.586  0.685
    eigenvectors:
  0.000  0.000  0.046  0.397  0.557
  0.000  0.000  0.923  0.075  0.002
  0.195  0.805  0.000  0.000  0.000
  0.000  0.000  0.031  0.528  0.441
  0.805  0.195  0.000  0.000  0.000
    occupations:
  0.639 -0.014  0.000 -0.051 -0.000
 -0.014  0.540 -0.000 -0.005  0.000
  0.000 -0.000  0.420 -0.000 -0.021
 -0.051 -0.005 -0.000  0.628  0.000
 -0.000  0.000 -0.021  0.000  0.387
atom    4   Tr[ns(na)] =   5.23543
    eigenvalues:
  0.402  0.439  0.554  0.586  0.636
    eigenvectors:
  0.000  0.005  0.000  0.991  0.004
  0.000  0.994  0.000  0.005  0.001
  1.000  0.000  0.000  0.000  0.000
  0.000  0.001  0.000  0.003  0.996
  0.000  0.000  1.000  0.000  0.000
    occupations:
  0.585  0.010  0.000  0.003 -0.000
  0.010  0.440 -0.000 -0.006  0.000
  0.000 -0.000  0.402  0.000  0.001
  0.003 -0.006  0.000  0.636  0.000
 -0.000  0.000  0.001  0.000  0.554
atom    9   Tr[ns(na)] =   5.26250
    eigenvalues:
  0.455  0.460  0.487  0.613  0.616
    eigenvectors:
  0.000  0.873  0.000  0.119  0.008
  0.000  0.000  0.000  0.057  0.943
  0.693  0.000  0.307  0.000  0.000
  0.000  0.127  0.000  0.824  0.050
  0.307  0.000  0.693  0.000  0.000
    occupations:
  0.479 -0.001 -0.000  0.051 -0.000
 -0.001  0.616 -0.000 -0.001  0.000
 -0.000 -0.000  0.465  0.000  0.014
  0.051 -0.001  0.000  0.594 -0.000
 -0.000  0.000  0.014 -0.000  0.477
atom   10   Tr[ns(na)] =   5.06898
    eigenvalues:
  0.358  0.459  0.513  0.551  0.653
    eigenvectors:
  0.000  0.000  0.979  0.000  0.020
  0.000  0.998  0.000  0.000  0.001
  1.000  0.000  0.000  0.000  0.000
  0.000  0.001  0.020  0.000  0.978
  0.000  0.000  0.000  1.000  0.000
    occupations:
  0.516  0.000  0.000  0.020  0.000
  0.000  0.460  0.000  0.007  0.000
  0.000  0.000  0.358 -0.000 -0.001
  0.020  0.007 -0.000  0.650 -0.000
  0.000  0.000 -0.001 -0.000  0.551
atom   16   Tr[ns(na)] =   5.22655
    eigenvalues:
  0.379  0.429  0.536  0.586  0.684
    eigenvectors:
  0.000  0.000  0.047  0.397  0.557
  0.000  0.000  0.922  0.076  0.002
  0.153  0.847  0.000  0.000  0.000
  0.000  0.000  0.031  0.527  0.441
  0.847  0.153  0.000  0.000  0.000
    occupations:
  0.638  0.014  0.000 -0.051  0.000
  0.014  0.540  0.000  0.006  0.000
  0.000  0.000  0.421 -0.000  0.018
 -0.051  0.006 -0.000  0.627 -0.000
  0.000  0.000  0.018 -0.000  0.387
atom   17   Tr[ns(na)] =   5.23178
    eigenvalues:
  0.404  0.439  0.551  0.586  0.635
    eigenvectors:
  0.000  0.005  0.000  0.995  0.001
  0.000  0.994  0.000  0.005  0.001
  1.000  0.000  0.000  0.000  0.000
  0.000  0.001  0.000  0.001  0.998
  0.000  0.000  1.000  0.000  0.000
    occupations:
  0.586  0.010  0.000  0.002 -0.000
  0.010  0.440 -0.000 -0.006 -0.000
  0.000 -0.000  0.404  0.000  0.001
  0.002 -0.006  0.000  0.635  0.000
 -0.000 -0.000  0.001  0.000  0.551
atom   22   Tr[ns(na)] =   5.26465
    eigenvalues:
  0.456  0.461  0.486  0.613  0.616
    eigenvectors:
  0.000  0.877  0.000  0.117  0.006
  0.000  0.000  0.000  0.050  0.950
  0.695  0.000  0.305  0.000  0.000
  0.000  0.123  0.000  0.833  0.043
  0.305  0.000  0.695  0.000  0.000
    occupations:
  0.480  0.000 -0.000  0.050 -0.000
  0.000  0.616 -0.000  0.001  0.000
 -0.000 -0.000  0.465  0.000 -0.014
  0.050  0.001  0.000  0.595  0.000
 -0.000  0.000 -0.014  0.000  0.477
atom   23   Tr[ns(na)] =   5.35698
    eigenvalues:
  0.490  0.516  0.521  0.543  0.608
    eigenvectors:
  0.000  0.000  0.000  0.002  0.998
  0.000  0.000  0.997  0.003  0.000
  1.000  0.000  0.000  0.000  0.000
  0.000  0.000  0.003  0.995  0.002
  0.000  1.000  0.000  0.000  0.000
    occupations:
  0.608 -0.000 -0.000 -0.003 -0.000
 -0.000  0.521  0.000 -0.001 -0.000
 -0.000  0.000  0.490  0.000  0.000
 -0.003 -0.001  0.000  0.543 -0.000
 -0.000 -0.000  0.000 -0.000  0.516
N of occupied +U levels =  41.8728561
 --- exit write_ns ---

[...]

          k = 0.2500-0.4237 0.0000 ( 32188 PWs)   bands (ev):

[...]

          k =-0.2500 0.2118 0.0000 ( 32165 PWs)   bands (ev):

   -56.8474 -56.7808 -56.3917 -56.3509 -56.3270 -56.3041 -56.2462 -55.5203
   -33.6193 -33.0601 -32.9493 -32.9332 -32.8873 -32.8748 -32.8428 -32.8202
   -32.7347 -32.7171 -32.7058 -32.6448 -32.6209 -32.4892 -32.3906 -32.2787
   -32.2755 -32.2563 -32.2046 -32.1865 -32.1180 -32.0649 -31.6480 -31.5699
   -20.9960 -20.5167 -19.8605 -19.6077 -19.4339 -19.3381 -19.3276 -19.2938
   -19.2492 -19.1748 -19.1059 -18.6172 -18.5204 -18.4594 -18.4122 -18.3722
   -18.2460 -18.1451 -16.8150  -9.4742  -8.8545  -8.0681  -7.5780  -7.3811
    -7.1823  -7.0346  -7.0056  -6.8249  -6.7199  -6.6855  -6.6307  -6.3913
    -6.3711  -6.3604  -6.2253  -6.0894  -6.0560  -5.9365  -5.8316  -5.6186
    -5.5161  -5.3789  -5.2745  -5.0816  -4.9548  -4.9211  -4.8002  -4.7237
    -4.6607  -4.6257  -4.5038  -4.4866  -4.4344  -4.3910  -4.3504  -4.2981
    -4.1229  -4.0883  -4.0111  -3.9332  -3.8787  -3.7663  -3.6873  -3.6408
    -3.5272  -3.4355  -3.3809  -3.2901  -3.2681  -3.1819  -3.0595  -2.9902
    -2.9468  -2.7712  -2.6935  -2.4469  -0.4654  -0.1831   0.1469   0.5771
     0.6117   0.9489   1.2220   1.2823   1.3723   1.6357   1.6642   1.7402
     1.8485   1.9438   2.0259   2.1023   2.1991   2.2391   2.3179   2.3564
     2.5806   2.6336   2.8032   2.9133   3.2829   3.6386   4.0770   4.1478
     4.3812   4.5476   4.6167   4.6464   4.9100   4.9587   5.0161   5.0787
     5.2057   5.2670   5.4266   5.5952   5.6340   5.7344   5.9720   6.0540
     6.1873   6.2157   6.5137   6.5507   6.5775   6.6128   6.7897   6.8786
     6.8991   7.0786   7.1965   7.2909   7.4381   7.4946   7.8012   7.9206
     8.0105   8.0364   8.1281   8.1801   8.2492   8.5221   8.6231   8.6995
     8.8138   8.8930   9.0089   9.0811   9.1668   9.2635   9.2779   9.4791
     9.5417   9.5997   9.7434   9.8603   9.8989  10.0089  10.0732  10.1517
    10.2590  10.3763  10.5705  10.7202  10.7589  10.9059  10.9672  10.9995
    11.1190  11.1463  11.2160  11.2787  11.4000  11.4422  11.5074  11.5454
    11.6486  11.7591  11.8981  11.9047  12.0022  12.1106  12.1362  12.2012
    12.2634  12.3450  12.3906  12.4726  12.6001  12.6667  12.6902  12.7348
    12.7671  12.8619  12.9592  12.9851  13.0408  13.0957  13.2299  13.2805
    13.3560  13.3913  13.5181  13.6280  13.7039  13.7506  13.7892  13.8549
    13.9252  13.9488  14.0046  14.1292  14.1521  14.2890  14.3768  14.3984
    14.4739  14.5872  14.6629  14.7746  14.9092  14.9233  15.0331  15.1039
    15.2019  15.2540  15.2906  15.3247  15.3874  15.4479  15.5239  15.5733
    15.6422  15.6945  15.7956  15.8602  15.9088  15.9968  16.0369  16.0829
    16.2011  16.2678  16.3644  16.3951  16.4643  16.4937  16.5717  16.6733
    16.7220  16.7734  16.8582  16.9417  17.0231  17.1084  17.1428  17.2146
    17.2843  17.3463  17.3667  17.4237  17.4714  17.5793  17.6204  17.7093
    17.7538  17.8585  17.9571  17.9741  18.0818  18.1424  18.1977  18.3793
    18.3835  18.4309  18.4702  18.5394  18.6152  18.6583  18.6966  18.7814
    18.8575  18.9181  18.9739  19.0777  19.1386  19.1713  19.2295  19.3321
    19.3595  19.3967  19.4894  19.5192  19.5868  19.6433  19.6598  19.6866
    19.7602  19.8814  19.9077  19.9990  20.0686

     the Fermi energy is     0.4824 ev

!    total energy              =   -1560.40410525 Ry
     Harris-Foulkes estimate   =   -1560.40410526 Ry
     estimated scf accuracy    <          8.9E-09 Ry

     The total energy is the sum of the following terms:

     one-electron contribution =  -18855.98490857 Ry
     hartree contribution      =    9453.57102561 Ry
     xc contribution           =    -286.85603888 Ry
     ewald contribution        =    8126.73342104 Ry
     Hubbard energy            =       2.13209535 Ry
     smearing contrib. (-TS)   =       0.00030020 Ry

     convergence has been achieved in  10 iterations

     Forces acting on atoms (Ry/au):

     negative rho (up, down):  0.348E-02 0.000E+00
     atom    1 type  1   force =     0.00105093   -0.00004724   -0.00043113
     atom    2 type  1   force =    -0.00032298    0.00025081    0.00051233
     atom    3 type  2   force =    -0.05055476   -0.00019228    0.00021399
     atom    4 type  2   force =    -0.00444356    0.00003611    0.00047438
     atom    5 type  1   force =    -0.00518472   -0.00724075    0.00007483
     atom    6 type  1   force =    -0.00521018    0.00723744    0.00007385
     atom    7 type  1   force =    -0.00037114    0.00002582   -0.00056931
     atom    8 type  1   force =     0.00232225    0.00000612    0.00090836
     atom    9 type  2   force =     0.00000841    0.00000078   -0.00035021
     atom   10 type  2   force =    -0.00090212   -0.00000454   -0.00064602
     atom   11 type  1   force =    -0.01795864   -0.01155421    0.00034547
     atom   12 type  1   force =    -0.01795897    0.01155852    0.00034477
     atom   13 type  1   force =     0.00088493   -0.00000211   -0.00017902
     atom   14 type  1   force =     0.00059903   -0.00005422    0.00013457
     atom   15 type  1   force =    -0.00030911    0.00010253    0.00034918
     atom   16 type  2   force =     0.05121980   -0.00018726    0.00022849
     atom   17 type  2   force =    -0.00415967    0.00004745   -0.00064023
     atom   18 type  1   force =     0.00635609   -0.00702877    0.00007254
     atom   19 type  1   force =     0.00625272    0.00702391    0.00007234
     atom   20 type  1   force =     0.00009438    0.00008023   -0.00002048
     atom   21 type  1   force =     0.00135861    0.00000354    0.00079773
     atom   22 type  2   force =    -0.00017144    0.00000428    0.00051822
     atom   23 type  2   force =     0.00215326   -0.00000141   -0.00034581
     atom   24 type  1   force =     0.01761062   -0.01130352   -0.00061665
     atom   25 type  1   force =     0.01760774    0.01129981   -0.00061510
     atom   26 type  1   force =    -0.00057505    0.00000018   -0.00021239
     atom   27 type  3   force =     0.00001203   -0.00005778    0.00013031
     atom   28 type  3   force =    -0.00000803   -0.00001139   -0.00027579
     atom   29 type  3   force =     0.00053207    0.00000594   -0.00004831
     atom   30 type  3   force =     0.00009017    0.00000405    0.00008401
     atom   31 type  1   force =    -0.00002267   -0.00000203   -0.00038492

     Total force =     0.002383     Total SCF correction =     0.000265
     SCF correction compared to forces is large: reduce conv_thr to get better values

     bfgs converged in   8 scf cycles and   7 bfgs steps
     (criteria: energy < 0.10E-03, force < 0.10E-02)

     End of BFGS Geometry Optimization

     Final energy   =   -1560.4041052534 Ry
Begin final coordinates

ATOMIC_POSITIONS (crystal)
O0       0.000000000   0.000000000   0.371753693    0   0   1
O0       0.000000000   0.500000000   0.388303969    0   0   1
Nb1      0.250000000   0.500000000   0.444691161    0   0   1
Nb1      0.000000000   0.000000000   0.444170439    0   0   1
O0       0.250000000   0.790000000   0.446124851    0   0   1
O0       0.250000000   0.210000000   0.446124357    0   0   1
O0       0.000000000   0.500000000   0.501215836    0   0   1
O0       0.000000000   0.000000000   0.522900520    0   0   1
Nb1      0.250000000   0.000000000   0.576864488    0   0   1
Nb1      0.000000000   0.500000000   0.570576258    0   0   1
O0       0.250000000   0.710000000   0.576685548    0   0   1
O0       0.250000000   0.290000000   0.576686885    0   0   1
O0       0.000000000   0.000000000   0.621128703    0   0   1
O0       0.500000000   0.000000000   0.372060616    0   0   1
O0       0.500000000   0.500000000   0.390856204    0   0   1
Nb1      0.750000000   0.500000000   0.444720220    0   0   1
Nb1      0.500000000   0.000000000   0.444820607    0   0   1
O0       0.750000000   0.790000000   0.446116715    0   0   1
O0       0.750000000   0.210000000   0.446116472    0   0   1
O0       0.500000000   0.500000000   0.495103256    0   0   1
O0       0.500000000   0.000000000   0.522735096    0   0   1
Nb1      0.750000000   0.000000000   0.577161130    0   0   1
Nb1      0.500000000   0.500000000   0.587873384    0   0   1
O0       0.750000000   0.710000000   0.576359765    0   0   1
O0       0.750000000   0.290000000   0.576359848    0   0   1
O0       0.500000000   0.000000000   0.621067968    0   0   1
H2      -0.000477228   0.501473927   0.352043995
H2       0.499492583   0.501426809   0.354666266
H2       0.149972554   0.000377939   0.355682435
H2       0.649622992   0.000378928   0.355860783
O0       0.499986401   0.500003708   0.651458533
End final coordinates

     General routines

     Parallel routines
     Hubbard U routines

   This run was terminated on:   3:34:15   1May2014

   JOB DONE.
Running PBS batch system epilogue script
Job id: 340575.audhumbla.fysik.dtu.dk
Username: zhonxu
Groupname: campgst
Jobname: NbO2/Eads-2-layers/O-U-3.0
Sessionid: 13716
Queuename: verylong
Accounting:
This job has allocated the following 16 nodes:
a129 a129 a129 a129 a129 a129 a129 a129 a117 a117 a117 a117 a117 a117 a117 a117
Finished epilogue job 340575.audhumbla.fysik.dtu.dk for zhonxu