     Program PWSCF v.5.0.2 (svn rev. 9656) starts on 24Jan2014 at 16: 0: 5

     Current dimensions of program PWSCF are:
     Max number of different atomic species (ntypx) = 10
     Max number of k-points (npk) =  40000
     Max angular momentum in pseudopotentials (lmaxx) =  3
     Reading input from IrO2-v-0.90.in

     Subspace diagonalization in iterative solution of the eigenvalue problem:
     a serial algorithm will be used

     bravais-lattice index     =            0
     lattice parameter (alat)  =       8.5214  a.u.
     unit-cell volume          =     398.7679 (a.u.)^3
     number of atoms/cell      =            6
     number of atomic types    =            2
     number of electrons       =        54.00
     number of Kohn-Sham states=           78
     kinetic-energy cutoff     =      40.0000  Ry
     charge density cutoff     =     500.0000  Ry
     convergence threshold     =      1.0E-06
     mixing beta               =       0.3000
     number of iterations used =            8  plain     mixing
     Exchange-correlation      = SLA  PW   PBE  PBE ( 1 4 3 4 0)
     EXX-fraction              =        0.00
     nstep                     =           50

     celldm(1)=   8.521412  celldm(2)=   0.000000  celldm(3)=   0.000000
     celldm(4)=   0.000000  celldm(5)=   0.000000  celldm(6)=   0.000000

     crystal axes: (cart. coord. in units of alat)
               a(1) = (   1.000000   0.000000   0.000000 )
               a(2) = (   0.000000   1.000000   0.000000 )
               a(3) = (   0.000000   0.000000   0.644444 )

     reciprocal axes: (cart. coord. in units 2 pi/alat)
               b(1) = (  1.000000  0.000000  0.000000 )
               b(2) = (  0.000000  1.000000  0.000000 )
               b(3) = (  0.000000  0.000000  1.551724 )

     PseudoPot. # 1 for Ir read from file:
     /home/camp/zhonxu/pseudo/ir_pbe_v1.uspp.F.UPF
     MD5 check sum: abf987a9674477536ede83817f8f8b70
     Pseudo is Ultrasoft + core correction, Zval = 15.0
     Generated by new atomic code, or converted to UPF format
     Using radial grid of  983 points,  7 beta functions with:
                l(1) =   0
                l(2) =   0
                l(3) =   1
                l(4) =   1
                l(5) =   1
                l(6) =   2
                l(7) =   2
     Q(r) pseudized with  8 coefficients,  rinner =    1.350   1.350   1.350
                                                       1.350   1.350

     PseudoPot. # 2 for O  read from file:
     /home/camp/zhonxu/pseudo/o_pbe_v1.01.uspp.F.UPF
     MD5 check sum: 2bcb18d16ea4b960afae9ec6d52f22d2
     Pseudo is Ultrasoft + core correction, Zval =  6.0
     Generated by new atomic code, or converted to UPF format
     Using radial grid of  737 points,  5 beta functions with:
                l(1) =   0
                l(2) =   0
                l(3) =   1
                l(4) =   1
                l(5) =   2
     Q(r) pseudized with  8 coefficients,  rinner =    0.900   0.900   0.900
                                                       0.900   0.900

     atomic species   valence    mass     pseudopotential
        Ir0           15.00   192.22000     Ir( 1.00)
        O1             6.00    15.99940     O ( 1.00)

     Starting magnetic structure
     atomic species   magnetization
        Ir0          0.000
        O1           0.000

     16 Sym. Ops., with inversion, found ( 8 have fractional translation)

   Cartesian axes

     site n.     atom                  positions (alat units)
         1           Ir0 tau(   1) = (   0.0000000   0.0000000   0.0000000  )
         2           Ir0 tau(   2) = (   0.5000000   0.5000000   0.3222222  )
         3           O1  tau(   3) = (   0.3050000   0.3050000   0.0000000  )
         4           O1  tau(   4) = (  -0.3050000  -0.3050000   0.0000000  )
         5           O1  tau(   5) = (   0.8050000   0.1950000   0.3222222  )
         6           O1  tau(   6) = (   0.1950000   0.8050000   0.3222222  )

     number of k points=    36  Methfessel-Paxton smearing, width (Ry)=  0.0100
                       cart. coord. in units 2pi/alat
        k(    1) = (   0.0000000   0.0000000   0.0000000), wk =   0.0080000
        k(    2) = (   0.0000000   0.0000000   0.3103448), wk =   0.0160000
        k(    3) = (   0.0000000   0.0000000   0.6206897), wk =   0.0160000
        k(    4) = (   0.0000000   0.2000000   0.0000000), wk =   0.0320000
        k(    5) = (   0.0000000   0.2000000   0.3103448), wk =   0.0640000
        k(    6) = (   0.0000000   0.2000000   0.6206897), wk =   0.0640000
        k(    7) = (   0.0000000   0.4000000   0.0000000), wk =   0.0320000
        k(    8) = (   0.0000000   0.4000000   0.3103448), wk =   0.0640000
        k(    9) = (   0.0000000   0.4000000   0.6206897), wk =   0.0640000
        k(   10) = (   0.2000000   0.2000000   0.0000000), wk =   0.0320000
        k(   11) = (   0.2000000   0.2000000   0.3103448), wk =   0.0640000
        k(   12) = (   0.2000000   0.2000000   0.6206897), wk =   0.0640000
        k(   13) = (   0.2000000   0.4000000   0.0000000), wk =   0.0640000
        k(   14) = (   0.2000000   0.4000000   0.3103448), wk =   0.1280000
        k(   15) = (   0.2000000   0.4000000   0.6206897), wk =   0.1280000
        k(   16) = (   0.4000000   0.4000000   0.0000000), wk =   0.0320000
        k(   17) = (   0.4000000   0.4000000   0.3103448), wk =   0.0640000
        k(   18) = (   0.4000000   0.4000000   0.6206897), wk =   0.0640000
        k(   19) = (   0.0000000   0.0000000   0.0000000), wk =   0.0080000
        k(   20) = (   0.0000000   0.0000000   0.3103448), wk =   0.0160000
        k(   21) = (   0.0000000   0.0000000   0.6206897), wk =   0.0160000
        k(   22) = (   0.0000000   0.2000000   0.0000000), wk =   0.0320000
        k(   23) = (   0.0000000   0.2000000   0.3103448), wk =   0.0640000
        k(   24) = (   0.0000000   0.2000000   0.6206897), wk =   0.0640000
        k(   25) = (   0.0000000   0.4000000   0.0000000), wk =   0.0320000
        k(   26) = (   0.0000000   0.4000000   0.3103448), wk =   0.0640000
        k(   27) = (   0.0000000   0.4000000   0.6206897), wk =   0.0640000
        k(   28) = (   0.2000000   0.2000000   0.0000000), wk =   0.0320000
        k(   29) = (   0.2000000   0.2000000   0.3103448), wk =   0.0640000
        k(   30) = (   0.2000000   0.2000000   0.6206897), wk =   0.0640000
        k(   31) = (   0.2000000   0.4000000   0.0000000), wk =   0.0640000
        k(   32) = (   0.2000000   0.4000000   0.3103448), wk =   0.1280000
        k(   33) = (   0.2000000   0.4000000   0.6206897), wk =   0.1280000
        k(   34) = (   0.4000000   0.4000000   0.0000000), wk =   0.0320000
        k(   35) = (   0.4000000   0.4000000   0.3103448), wk =   0.0640000
        k(   36) = (   0.4000000   0.4000000   0.6206897), wk =   0.0640000

     Largest allocated arrays     est. size (Mb)     dimensions
     Largest temporary arrays     est. size (Mb)     dimensions

     Check: negative/imaginary core charge=   -0.000004    0.000000

     Initial potential from superposition of free atoms
     Check: negative starting charge=(component1):   -0.416137
     Check: negative starting charge=(component2):   -0.416137

     starting charge   52.99993, renormalised to   54.00000

     negative rho (up, down):  0.424E+00 0.424E+00
     Starting wfc are   40 randomized atomic wfcs

     Self-consistent Calculation

     iteration #  1     ecut=    40.00 Ry     beta=0.30
     Davidson diagonalization with overlap
     ethr =  1.00E-02,  avg # of iterations =  5.1

     negative rho (up, down):  0.400E+00 0.400E+00

     total energy              =    -500.53729677 Ry
     Harris-Foulkes estimate   =    -502.24389996 Ry
     estimated scf accuracy    <       3.74395393 Ry

     total magnetization       =     0.00 Bohr mag/cell
     absolute magnetization    =     0.00 Bohr mag/cell

[...]

     End of self-consistent calculation

 ------ SPIN UP ------------

          k = 0.0000 0.0000 0.0000 (  1691 PWs)   bands (ev):

   -34.6564 -34.6564 -34.5065 -34.5065 -34.4308 -34.4107  -6.1634  -4.8530
    -3.5911  -3.5911   5.1317   5.3562   6.9936   7.2858   7.2858  10.1895
    10.1895  10.7635  12.0918  12.4624  12.4624  12.6872  12.7676  13.1515
    13.5776  13.5776  13.9436  17.0078  17.4764  20.5730  20.8149  20.8149
    22.3968  24.8484  24.8484  25.5201  25.5201  28.9168  28.9392  29.0675
    31.7179  32.6154  32.8903  32.8903  34.5381  36.4874  36.9507  36.9507
    38.2565  38.2565  39.6836  42.9736  43.1732  43.1732  43.3047  44.7884
    46.1642  46.3995  46.5708  47.4100  47.4100  48.0892  48.0892  48.2078
    48.7465  49.3435  49.3435  50.8582  53.2665  55.2468  55.2468  55.4641
    55.4807  56.1460  56.1460  57.3373  57.4808  57.9233

[...]

 ------ SPIN DOWN ----------

[...]

     the Fermi energy is    15.9968 ev

!    total energy              =    -501.18512128 Ry
     Harris-Foulkes estimate   =    -501.18511290 Ry
     estimated scf accuracy    <       0.00000012 Ry

     The total energy is the sum of the following terms:

     one-electron contribution =     -90.57796998 Ry
     hartree contribution      =      86.19788198 Ry
     xc contribution           =    -138.84596422 Ry
     ewald contribution        =    -357.95900915 Ry
     smearing contrib. (-TS)   =      -0.00005991 Ry

[...]

     convergence has been achieved in   8 iterations

     Forces acting on atoms (Ry/au):

     negative rho (up, down):  0.390E+00 0.390E+00
     atom    1 type  1   force =     0.00000000    0.00000000    0.00000000
     atom    2 type  1   force =     0.00000000    0.00000000    0.00000000
     atom    3 type  2   force =    -0.03975425   -0.03975425    0.00000000
     atom    4 type  2   force =     0.03975425    0.03975425    0.00000000
     atom    5 type  2   force =    -0.03975425    0.03975425    0.00000000
     atom    6 type  2   force =     0.03975425   -0.03975425    0.00000000

     Total force =     0.112442     Total SCF correction =     0.000880

     entering subroutine stress ...

     negative rho (up, down):  0.390E+00 0.390E+00
          total   stress  (Ry/bohr**3)                   (kbar)     P=  416.07
   0.00174623   0.00000000   0.00000000        256.88      0.00      0.00
   0.00000000   0.00174623   0.00000000          0.00    256.88      0.00
   0.00000000   0.00000000   0.00499268          0.00      0.00    734.45

     Volume is kept fixed: isostatic pressure set to zero

     BFGS Geometry Optimization

     number of scf cycles    =   1
     number of bfgs steps    =   0

     enthalpy new            =    -501.1851212839 Ry

     new trust radius        =       0.2160967948 bohr
     new conv_thr            =       0.0000010000 Ry

     new unit-cell volume =    398.76786 a.u.^3 (    59.09130 Ang^3 )

CELL_PARAMETERS (alat=  8.52141185)
   0.973646471   0.000000000   0.000000000
   0.000000000   0.973646471   0.000000000
   0.000000000   0.000000000   0.679802717

ATOMIC_POSITIONS (crystal)
Ir0      0.000000000   0.000000000   0.000000000    0   0   0
Ir0      0.500000000   0.500000000   0.500000000    0   0   0
O1       0.300334782   0.300334782   0.000000000    1   1   0
[...]
        k(   32) = (   0.2054134   0.4108267   0.2942030), wk =   0.1280000
        k(   33) = (   0.2054134   0.4108267   0.5884060), wk =   0.1280000
        k(   34) = (   0.4108267   0.4108267   0.0000000), wk =   0.0320000
        k(   35) = (   0.4108267   0.4108267   0.2942030), wk =   0.0640000
        k(   36) = (   0.4108267   0.4108267   0.5884060), wk =   0.0640000

     Check: negative/imaginary core charge=   -0.000004    0.000000
     Check: negative starting charge=(component1):   -0.831553

[...]

     enthalpy old            =    -501.1851212839 Ry
     enthalpy new            =    -501.2131736029 Ry

     CASE: enthalpy_new < enthalpy_old

[...]

     Threshold (ethr) on eigenvalues was too large:
     Diagonalizing with lowered threshold

     Davidson diagonalization with overlap
     ethr =  1.80E-09,  avg # of iterations =  1.3

[...]

     Total force =     0.000566     Total SCF correction =     0.000072
     SCF correction compared to forces is large: reduce conv_thr to get better values

[...]

     number of scf cycles    =   6
     number of bfgs steps    =   5

     enthalpy old            =    -501.2286710111 Ry
     enthalpy new            =    -501.2286777315 Ry

     CASE: enthalpy_new < enthalpy_old

     new trust radius        =       0.0002403729 bohr
     new conv_thr            =       0.0000000100 Ry

     new unit-cell volume =    398.76786 a.u.^3 (    59.09130 Ang^3 )

[...]

ATOMIC_POSITIONS (crystal)
Ir0      0.000000000   0.000000000   0.000000000    0   0   0
Ir0      0.500000000   0.500000000   0.500000000    0   0   0
O1       0.309969556   0.309969556   0.000000000    1   1   0
O1      -0.309969556  -0.309969556   0.000000000    1   1   0
O1       0.809969556   0.190030444   0.500000000    1   1   0
O1       0.190030444   0.809969556   0.500000000    1   1   0

     Check: negative starting charge=(component1):   -0.830110
     NEW-OLD atomic charge density approx. for the potential
     NEW k-points:
        k(    1) = (   0.0000000   0.0000000   0.0000000), wk =   0.0080000
        k(    2) = (   0.0000000   0.0000000   0.2885298), wk =   0.0160000
        k(    3) = (   0.0000000   0.0000000   0.5770595), wk =   0.0160000
        k(    4) = (   0.0000000   0.2074230   0.0000000), wk =   0.0320000
        k(    5) = (   0.0000000   0.2074230   0.2885298), wk =   0.0640000
        k(    6) = (   0.0000000   0.2074230   0.5770595), wk =   0.0640000
        k(    7) = (   0.0000000   0.4148460   0.0000000), wk =   0.0320000
        k(    8) = (   0.0000000   0.4148460   0.2885298), wk =   0.0640000
        k(    9) = (   0.0000000   0.4148460   0.5770595), wk =   0.0640000
        k(   10) = (   0.2074230   0.2074230   0.0000000), wk =   0.0320000
        k(   11) = (   0.2074230   0.2074230   0.2885298), wk =   0.0640000
        k(   12) = (   0.2074230   0.2074230   0.5770595), wk =   0.0640000
        k(   13) = (   0.2074230   0.4148460   0.0000000), wk =   0.0640000
        k(   14) = (   0.2074230   0.4148460   0.2885298), wk =   0.1280000
        k(   15) = (   0.2074230   0.4148460   0.5770595), wk =   0.1280000
        k(   16) = (   0.4148460   0.4148460   0.0000000), wk =   0.0320000
        k(   17) = (   0.4148460   0.4148460   0.2885298), wk =   0.0640000
        k(   18) = (   0.4148460   0.4148460   0.5770595), wk =   0.0640000
        k(   19) = (   0.0000000   0.0000000   0.0000000), wk =   0.0080000
        k(   20) = (   0.0000000   0.0000000   0.2885298), wk =   0.0160000
        k(   21) = (   0.0000000   0.0000000   0.5770595), wk =   0.0160000
        k(   22) = (   0.0000000   0.2074230   0.0000000), wk =   0.0320000
        k(   23) = (   0.0000000   0.2074230   0.2885298), wk =   0.0640000
        k(   24) = (   0.0000000   0.2074230   0.5770595), wk =   0.0640000
        k(   25) = (   0.0000000   0.4148460   0.0000000), wk =   0.0320000
        k(   26) = (   0.0000000   0.4148460   0.2885298), wk =   0.0640000
        k(   27) = (   0.0000000   0.4148460   0.5770595), wk =   0.0640000
        k(   28) = (   0.2074230   0.2074230   0.0000000), wk =   0.0320000
        k(   29) = (   0.2074230   0.2074230   0.2885298), wk =   0.0640000
        k(   30) = (   0.2074230   0.2074230   0.5770595), wk =   0.0640000
        k(   31) = (   0.2074230   0.4148460   0.0000000), wk =   0.0640000
        k(   32) = (   0.2074230   0.4148460   0.2885298), wk =   0.1280000
        k(   33) = (   0.2074230   0.4148460   0.5770595), wk =   0.1280000
        k(   34) = (   0.4148460   0.4148460   0.0000000), wk =   0.0320000
        k(   35) = (   0.4148460   0.4148460   0.2885298), wk =   0.0640000
        k(   36) = (   0.4148460   0.4148460   0.5770595), wk =   0.0640000

     Check: negative/imaginary core charge=   -0.000004    0.000000
     Check: negative starting charge=(component1):   -0.830106

[...]

     Threshold (ethr) on eigenvalues was too large:
     Diagonalizing with lowered threshold

     Davidson diagonalization with overlap
     ethr =  5.76E-11,  avg # of iterations =  1.9

[...]

     Total force =     0.000103     Total SCF correction =     0.000341
     SCF correction compared to forces is large: reduce conv_thr to get better values

[...]

     Volume is kept fixed: isostatic pressure set to zero

     bfgs converged in   7 scf cycles and   6 bfgs steps
     (criteria: energy < 0.10E-03, force < 0.10E-02, cell < 0.50E+00)

     End of BFGS Geometry Optimization

     Final enthalpy =    -501.2286779242 Ry
Begin final coordinates
     new unit-cell volume =    398.76786 a.u.^3 (    59.09130 Ang^3 )

CELL_PARAMETERS (alat=  8.52141185)
   0.964213174   0.000000000   0.000000000
   0.000000000   0.964213174   0.000000000
   0.000000000   0.000000000   0.693169367

ATOMIC_POSITIONS (crystal)
Ir0      0.000000000   0.000000000   0.000000000    0   0   0
Ir0      0.500000000   0.500000000   0.500000000    0   0   0
O1       0.309969556   0.309969556   0.000000000    1   1   0
O1      -0.309969556  -0.309969556   0.000000000    1   1   0
O1       0.809969556   0.190030444   0.500000000    1   1   0
O1       0.190030444   0.809969556   0.500000000    1   1   0
End final coordinates

     A final scf calculation at the relaxed structure.
     The G-vectors are recalculated for the final unit cell
     Results may differ from those at the preceding step.

     bravais-lattice index     =            0
     lattice parameter (alat)  =       8.5214  a.u.
     unit-cell volume          =     398.7679 (a.u.)^3
     number of atoms/cell      =            6
     number of atomic types    =            2
     number of electrons       =        54.00
     number of Kohn-Sham states=           78
     kinetic-energy cutoff     =      40.0000  Ry
     charge density cutoff     =     500.0000  Ry
     convergence threshold     =      1.0E-08
     mixing beta               =       0.3000
     number of iterations used =            8  plain     mixing
     Exchange-correlation      = SLA  PW   PBE  PBE ( 1 4 3 4 0)
     EXX-fraction              =        0.00

     celldm(1)=   8.521412  celldm(2)=   0.000000  celldm(3)=   0.000000
     celldm(4)=   0.000000  celldm(5)=   0.000000  celldm(6)=   0.000000

     crystal axes: (cart. coord. in units of alat)
               a(1) = (   0.964213   0.000000   0.000000 )
               a(2) = (   0.000000   0.964213   0.000000 )
               a(3) = (   0.000000   0.000000   0.693169 )

     reciprocal axes: (cart. coord. in units 2 pi/alat)
               b(1) = (  1.037115  0.000000  0.000000 )
               b(2) = (  0.000000  1.037115  0.000000 )
               b(3) = (  0.000000  0.000000  1.442649 )

     PseudoPot. # 1 for Ir read from file:
     /home/camp/zhonxu/pseudo/ir_pbe_v1.uspp.F.UPF
     MD5 check sum: abf987a9674477536ede83817f8f8b70
     Pseudo is Ultrasoft + core correction, Zval = 15.0
     Generated by new atomic code, or converted to UPF format
     Using radial grid of  983 points,  7 beta functions with:
                l(1) =   0
                l(2) =   0
                l(3) =   1
                l(4) =   1
                l(5) =   1
                l(6) =   2
                l(7) =   2
     Q(r) pseudized with  8 coefficients,  rinner =    1.350   1.350   1.350
                                                       1.350   1.350

     PseudoPot. # 2 for O  read from file:
     /home/camp/zhonxu/pseudo/o_pbe_v1.01.uspp.F.UPF
     MD5 check sum: 2bcb18d16ea4b960afae9ec6d52f22d2
     Pseudo is Ultrasoft + core correction, Zval =  6.0
     Generated by new atomic code, or converted to UPF format
     Using radial grid of  737 points,  5 beta functions with:
                l(1) =   0
                l(2) =   0
                l(3) =   1
                l(4) =   1
                l(5) =   2
     Q(r) pseudized with  8 coefficients,  rinner =    0.900   0.900   0.900
                                                       0.900   0.900

     atomic species   valence    mass     pseudopotential
        Ir0           15.00   192.22000     Ir( 1.00)
        O1             6.00    15.99940     O ( 1.00)

     Starting magnetic structure
     atomic species   magnetization
        Ir0          0.000
        O1           0.000

     16 Sym. Ops., with inversion, found ( 8 have fractional translation)

   Cartesian axes

     site n.     atom                  positions (alat units)
         1           Ir0 tau(   1) = (   0.0000000   0.0000000   0.0000000  )
         2           Ir0 tau(   2) = (   0.4821066   0.4821066   0.3465847  )
         3           O1  tau(   3) = (   0.2988767   0.2988767   0.0000000  )
         4           O1  tau(   4) = (  -0.2988767  -0.2988767   0.0000000  )
         5           O1  tau(   5) = (   0.7809833   0.1832299   0.3465847  )
         6           O1  tau(   6) = (   0.1832299   0.7809833   0.3465847  )

     number of k points=    36  Methfessel-Paxton smearing, width (Ry)=  0.0100
                       cart. coord. in units 2pi/alat
        k(    1) = (   0.0000000   0.0000000   0.0000000), wk =   0.0080000
        k(    2) = (   0.0000000   0.0000000   0.2885298), wk =   0.0160000
        k(    3) = (   0.0000000   0.0000000   0.5770595), wk =   0.0160000
        k(    4) = (   0.0000000   0.2074230   0.0000000), wk =   0.0320000
        k(    5) = (   0.0000000   0.2074230   0.2885298), wk =   0.0640000
        k(    6) = (   0.0000000   0.2074230   0.5770595), wk =   0.0640000
        k(    7) = (   0.0000000   0.4148460   0.0000000), wk =   0.0320000
        k(    8) = (   0.0000000   0.4148460   0.2885298), wk =   0.0640000
        k(    9) = (   0.0000000   0.4148460   0.5770595), wk =   0.0640000
        k(   10) = (   0.2074230   0.2074230   0.0000000), wk =   0.0320000
        k(   11) = (   0.2074230   0.2074230   0.2885298), wk =   0.0640000
        k(   12) = (   0.2074230   0.2074230   0.5770595), wk =   0.0640000
        k(   13) = (   0.2074230   0.4148460   0.0000000), wk =   0.0640000
        k(   14) = (   0.2074230   0.4148460   0.2885298), wk =   0.1280000
        k(   15) = (   0.2074230   0.4148460   0.5770595), wk =   0.1280000
        k(   16) = (   0.4148460   0.4148460   0.0000000), wk =   0.0320000
        k(   17) = (   0.4148460   0.4148460   0.2885298), wk =   0.0640000
        k(   18) = (   0.4148460   0.4148460   0.5770595), wk =   0.0640000
        k(   19) = (   0.0000000   0.0000000   0.0000000), wk =   0.0080000
        k(   20) = (   0.0000000   0.0000000   0.2885298), wk =   0.0160000
        k(   21) = (   0.0000000   0.0000000   0.5770595), wk =   0.0160000
        k(   22) = (   0.0000000   0.2074230   0.0000000), wk =   0.0320000
        k(   23) = (   0.0000000   0.2074230   0.2885298), wk =   0.0640000
        k(   24) = (   0.0000000   0.2074230   0.5770595), wk =   0.0640000
        k(   25) = (   0.0000000   0.4148460   0.0000000), wk =   0.0320000
        k(   26) = (   0.0000000   0.4148460   0.2885298), wk =   0.0640000
        k(   27) = (   0.0000000   0.4148460   0.5770595), wk =   0.0640000
        k(   28) = (   0.2074230   0.2074230   0.0000000), wk =   0.0320000
        k(   29) = (   0.2074230   0.2074230   0.2885298), wk =   0.0640000
        k(   30) = (   0.2074230   0.2074230   0.5770595), wk =   0.0640000
        k(   31) = (   0.2074230   0.4148460   0.0000000), wk =   0.0640000
        k(   32) = (   0.2074230   0.4148460   0.2885298), wk =   0.1280000
        k(   33) = (   0.2074230   0.4148460   0.5770595), wk =   0.1280000
        k(   34) = (   0.4148460   0.4148460   0.0000000), wk =   0.0320000
        k(   35) = (   0.4148460   0.4148460   0.2885298), wk =   0.0640000
        k(   36) = (   0.4148460   0.4148460   0.5770595), wk =   0.0640000

     Largest allocated arrays     est. size (Mb)     dimensions
     Largest temporary arrays     est. size (Mb)     dimensions

     Check: negative/imaginary core charge=   -0.000004    0.000000

     Initial potential from superposition of free atoms
     Check: negative starting charge=(component1):   -0.416626
     Check: negative starting charge=(component2):   -0.416626

     starting charge   52.99993, renormalised to   54.00000

     negative rho (up, down):  0.424E+00 0.424E+00
     Starting wfc are   40 randomized atomic wfcs

     Self-consistent Calculation

[...]

     total energy              =    -501.22946872 Ry
     Harris-Foulkes estimate   =    -501.22946469 Ry
     estimated scf accuracy    <       0.00000015 Ry

[...]

     iteration #  9     ecut=    40.00 Ry     beta=0.30
     Davidson diagonalization with overlap
     ethr =  2.80E-10,  avg # of iterations =  2.0

     negative rho (up, down):  0.389E+00 0.389E+00

     End of self-consistent calculation

 ------ SPIN UP ------------

[...]

 ------ SPIN DOWN ----------

[...]

          k = 0.4148 0.4148 0.5771 (  1707 PWs)   bands (ev):

   -34.7346 -34.7295 -34.6968 -34.6913 -34.3866 -34.3866  -4.5128  -4.4428
    -4.1335  -4.0868   6.7006   6.8075   7.2201   7.2351   8.0347   8.4386
    10.0278  10.0568  10.8020  11.0758  11.9272  12.2876  13.8871  14.0009
    14.0459  14.8394  15.2496  15.9301  18.0987  18.5839  19.7541  20.2337
    25.1961  25.4473  25.4477  25.5570  26.5200  26.8892  27.7949  27.9659
    29.6323  30.3157  33.0135  33.0809  35.4632  36.0264  37.2915  37.7785
    38.6656  39.1062  39.3199  40.9606  43.4863  43.5760  43.7765  43.8578
    44.7855  45.7801  47.5450  48.3996  48.7461  49.1622  49.7057  49.9419
    50.2690  50.5683  51.6161  52.0563  52.4822  52.9907  53.8609  54.1642
    54.3313  55.3418  55.3686  56.5482  56.8624  57.4147

     the Fermi energy is    15.9642 ev

!    total energy              =    -501.22947266 Ry
     Harris-Foulkes estimate   =    -501.22946874 Ry
     estimated scf accuracy    <          7.2E-09 Ry

     The total energy is the sum of the following terms:

     one-electron contribution =     -83.81175732 Ry
     hartree contribution      =      82.79356099 Ry
     xc contribution           =    -138.70809564 Ry
     ewald contribution        =    -361.50235264 Ry
     smearing contrib. (-TS)   =      -0.00082805 Ry

     total magnetization       =    -0.00 Bohr mag/cell
     absolute magnetization    =     0.00 Bohr mag/cell

     convergence has been achieved in   9 iterations

     Forces acting on atoms (Ry/au):

     negative rho (up, down):  0.389E+00 0.389E+00
     atom    1 type  1   force =     0.00000000    0.00000000   -0.00000000
     atom    2 type  1   force =     0.00000000    0.00000000    0.00000000
     atom    3 type  2   force =    -0.00021619   -0.00021619   -0.00000000
     atom    4 type  2   force =     0.00021619    0.00021619   -0.00000000
     atom    5 type  2   force =    -0.00021619    0.00021619    0.00000000
     atom    6 type  2   force =     0.00021619   -0.00021619   -0.00000000

     Total force =     0.000611     Total SCF correction =     0.000022

     entering subroutine stress ...

     negative rho (up, down):  0.389E+00 0.389E+00
          total   stress  (Ry/bohr**3)                   (kbar)     P=  322.67
   0.00217783   0.00000000   0.00000000        320.37      0.00      0.00
   0.00000000   0.00217783   0.00000000          0.00    320.37      0.00
   0.00000000   0.00000000   0.00222470          0.00      0.00    327.26

     General routines

     Parallel routines

   This run was terminated on:  16:20:23  24Jan2014

   JOB DONE.
Running PBS batch system epilogue script
Job id: 251954.audhumbla.fysik.dtu.dk
Username: zhonxu
Groupname: campgst
Jobname: IrO2/fine-EOS/non-mag/IrO2-v-0.90
Sessionid: 19718
Queuename: verylong
Accounting:
This job has allocated the following 4 nodes:
q118 q118 q118 q118
Finished epilogue job 251954.audhumbla.fysik.dtu.dk for zhonxu