     Program PWSCF v.5.0.2 (svn rev. 9656) starts on 24Jan2014 at 14:33:18

     Current dimensions of program PWSCF are:
     Max number of different atomic species (ntypx) = 10
     Max number of k-points (npk) =  40000
     Max angular momentum in pseudopotentials (lmaxx) =  3
     Reading input from RhO2-v-1.10.in

     Subspace diagonalization in iterative solution of the eigenvalue problem:
     a serial algorithm will be used

     bravais-lattice index     =            0
     lattice parameter (alat)  =       9.0526  a.u.
     unit-cell volume          =     478.0891 (a.u.)^3
     number of atoms/cell      =            6
     number of atomic types    =            2
     number of electrons       =        54.00
     number of Kohn-Sham states=           81
     kinetic-energy cutoff     =      40.0000  Ry
     charge density cutoff     =     500.0000  Ry
     convergence threshold     =      1.0E-06
     mixing beta               =       0.3000
     number of iterations used =            8  plain     mixing
     Exchange-correlation      = SLA  PW   PBE  PBE ( 1 4 3 4 0)
     EXX-fraction              =        0.00
     nstep                     =           50

     celldm(1)=   9.052624  celldm(2)=   0.000000  celldm(3)=   0.000000
     celldm(4)=   0.000000  celldm(5)=   0.000000  celldm(6)=   0.000000

     crystal axes: (cart. coord. in units of alat)
               a(1) = (   1.000000   0.000000   0.000000 )
               a(2) = (   0.000000   1.000000   0.000000 )
               a(3) = (   0.000000   0.000000   0.644444 )

     reciprocal axes: (cart. coord. in units 2 pi/alat)
               b(1) = (  1.000000  0.000000  0.000000 )
               b(2) = (  0.000000  1.000000  0.000000 )
               b(3) = (  0.000000  0.000000  1.551724 )

     PseudoPot. # 1 for Rh read from file:
     /home/camp/zhonxu/pseudo/rh_pbe_v1.uspp.F.UPF
     MD5 check sum: 37b626987ad0dd8ec6bf4cc9ef289918
     Pseudo is Ultrasoft + core correction, Zval = 15.0
     Generated by new atomic code, or converted to UPF format
     Using radial grid of  969 points,  7 beta functions with:
                l(1) =   0
                l(2) =   0
                l(3) =   1
                l(4) =   1
                l(5) =   2
                l(6) =   2
                l(7) =   2
     Q(r) pseudized with  6 coefficients,  rinner =    1.050   1.050   1.050
                                                       1.050   1.050

     PseudoPot. # 2 for O  read from file:
     /home/camp/zhonxu/pseudo/o_pbe_v1.01.uspp.F.UPF
     MD5 check sum: 2bcb18d16ea4b960afae9ec6d52f22d2
     Pseudo is Ultrasoft + core correction, Zval =  6.0
     Generated by new atomic code, or converted to UPF format
     Using radial grid of  737 points,  5 beta functions with:
                l(1) =   0
                l(2) =   0
                l(3) =   1
                l(4) =   1
                l(5) =   2
     Q(r) pseudized with  8 coefficients,  rinner =    0.900   0.900   0.900
                                                       0.900   0.900

     atomic species   valence    mass     pseudopotential
        Rh0           15.00   102.90550     Rh( 1.00)
        O1             6.00    15.99940     O ( 1.00)

     Starting magnetic structure
     atomic species   magnetization
        Rh0          0.000
        O1           0.000

      8 Sym. Ops., with inversion, found
          (note:  8 additional sym.ops. were found but ignored
           their fractional translations are incommensurate with FFT grid)

   Cartesian axes

     site n.     atom                  positions (alat units)
         1           Rh0 tau(   1) = (   0.0000000   0.0000000   0.0000000  )
         2           Rh0 tau(   2) = (   0.5000000   0.5000000   0.3222222  )
         3           O1  tau(   3) = (   0.3050000   0.3050000   0.0000000  )
         4           O1  tau(   4) = (  -0.3050000  -0.3050000   0.0000000  )
         5           O1  tau(   5) = (   0.8050000   0.1950000   0.3222222  )
         6           O1  tau(   6) = (   0.1950000   0.8050000   0.3222222  )

     number of k points=    54  Methfessel-Paxton smearing, width (Ry)=  0.0100
                       cart. coord. in units 2pi/alat
        k(    1) = (   0.0000000   0.0000000   0.0000000), wk =   0.0080000
        k(    2) = (   0.0000000   0.0000000   0.3103448), wk =   0.0160000
        k(    3) = (   0.0000000   0.0000000   0.6206897), wk =   0.0160000
        k(    4) = (   0.0000000   0.2000000   0.0000000), wk =   0.0320000
        k(    5) = (   0.0000000   0.2000000   0.3103448), wk =   0.0640000
        k(    6) = (   0.0000000   0.2000000   0.6206897), wk =   0.0640000
        k(    7) = (   0.0000000   0.4000000   0.0000000), wk =   0.0320000
        k(    8) = (   0.0000000   0.4000000   0.3103448), wk =   0.0640000
        k(    9) = (   0.0000000   0.4000000   0.6206897), wk =   0.0640000
        k(   10) = (   0.2000000   0.2000000   0.0000000), wk =   0.0160000
        k(   11) = (   0.2000000   0.2000000   0.3103448), wk =   0.0320000
        k(   12) = (   0.2000000   0.2000000   0.6206897), wk =   0.0320000
        k(   13) = (   0.2000000   0.4000000   0.0000000), wk =   0.0320000
        k(   14) = (   0.2000000   0.4000000   0.3103448), wk =   0.0640000
        k(   15) = (   0.2000000   0.4000000   0.6206897), wk =   0.0640000
        k(   16) = (   0.4000000   0.4000000   0.0000000), wk =   0.0160000
        k(   17) = (   0.4000000   0.4000000   0.3103448), wk =   0.0320000
        k(   18) = (   0.4000000   0.4000000   0.6206897), wk =   0.0320000
        k(   19) = (  -0.2000000   0.2000000   0.0000000), wk =   0.0160000
        k(   20) = (  -0.2000000   0.2000000  -0.3103448), wk =   0.0320000
        k(   21) = (  -0.2000000   0.2000000  -0.6206897), wk =   0.0320000
        k(   22) = (  -0.2000000   0.4000000   0.0000000), wk =   0.0320000
        k(   23) = (  -0.2000000   0.4000000  -0.3103448), wk =   0.0640000
        k(   24) = (  -0.2000000   0.4000000  -0.6206897), wk =   0.0640000
        k(   25) = (  -0.4000000   0.4000000   0.0000000), wk =   0.0160000
        k(   26) = (  -0.4000000   0.4000000  -0.3103448), wk =   0.0320000
        k(   27) = (  -0.4000000   0.4000000  -0.6206897), wk =   0.0320000
        k(   28) = (   0.0000000   0.0000000   0.0000000), wk =   0.0080000
        k(   29) = (   0.0000000   0.0000000   0.3103448), wk =   0.0160000
        k(   30) = (   0.0000000   0.0000000   0.6206897), wk =   0.0160000
        k(   31) = (   0.0000000   0.2000000   0.0000000), wk =   0.0320000
        k(   32) = (   0.0000000   0.2000000   0.3103448), wk =   0.0640000
        k(   33) = (   0.0000000   0.2000000   0.6206897), wk =   0.0640000
        k(   34) = (   0.0000000   0.4000000   0.0000000), wk =   0.0320000
        k(   35) = (   0.0000000   0.4000000   0.3103448), wk =   0.0640000
        k(   36) = (   0.0000000   0.4000000   0.6206897), wk =   0.0640000
        k(   37) = (   0.2000000   0.2000000   0.0000000), wk =   0.0160000
        k(   38) = (   0.2000000   0.2000000   0.3103448), wk =   0.0320000
        k(   39) = (   0.2000000   0.2000000   0.6206897), wk =   0.0320000
        k(   40) = (   0.2000000   0.4000000   0.0000000), wk =   0.0320000
        k(   41) = (   0.2000000   0.4000000   0.3103448), wk =   0.0640000
        k(   42) = (   0.2000000   0.4000000   0.6206897), wk =   0.0640000
        k(   43) = (   0.4000000   0.4000000   0.0000000), wk =   0.0160000
        k(   44) = (   0.4000000   0.4000000   0.3103448), wk =   0.0320000
        k(   45) = (   0.4000000   0.4000000   0.6206897), wk =   0.0320000
        k(   46) = (  -0.2000000   0.2000000   0.0000000), wk =   0.0160000
        k(   47) = (  -0.2000000   0.2000000  -0.3103448), wk =   0.0320000
        k(   48) = (  -0.2000000   0.2000000  -0.6206897), wk =   0.0320000
        k(   49) = (  -0.2000000   0.4000000   0.0000000), wk =   0.0320000
        k(   50) = (  -0.2000000   0.4000000  -0.3103448), wk =   0.0640000
        k(   51) = (  -0.2000000   0.4000000  -0.6206897), wk =   0.0640000
        k(   52) = (  -0.4000000   0.4000000   0.0000000), wk =   0.0160000
        k(   53) = (  -0.4000000   0.4000000  -0.3103448), wk =   0.0320000
        k(   54) = (  -0.4000000   0.4000000  -0.6206897), wk =   0.0320000

     Largest allocated arrays     est. size (Mb)     dimensions
     Largest temporary arrays     est. size (Mb)     dimensions

     Check: negative/imaginary core charge=   -0.000005    0.000000

     Initial potential from superposition of free atoms
     Check: negative starting charge=(component1):   -0.080961
     Check: negative starting charge=(component2):   -0.080961

     starting charge   52.99980, renormalised to   54.00000

     negative rho (up, down):  0.825E-01 0.825E-01
     Starting wfc are   40 randomized atomic wfcs

     Self-consistent Calculation

     iteration #  1     ecut=    40.00 Ry     beta=0.30
     Davidson diagonalization with overlap
     ethr =  1.00E-02,  avg # of iterations =  7.6

     negative rho (up, down):  0.832E-01 0.832E-01

     total energy              =    -468.90907464 Ry
     Harris-Foulkes estimate   =    -470.56558346 Ry
     estimated scf accuracy    <       3.58280652 Ry

     total magnetization       =    -0.00 Bohr mag/cell
     absolute magnetization    =     0.00 Bohr mag/cell

[...]

     End of self-consistent calculation

 ------ SPIN UP ------------

          k = 0.0000 0.0000 0.0000 (  2023 PWs)   bands (ev):

   -37.7489 -37.7489 -37.6314 -37.6313 -37.5950 -37.5875  -9.3114  -8.3639
    -7.8356  -7.8355   2.3941   2.4264   3.7576   3.7576   3.8084   6.0887
     6.0887   6.4965   7.4047   7.5110   7.6571   7.8131   7.8131   7.9505
     8.0735   8.0735   8.8409   9.5800  10.4679  12.8180  12.8180  13.6898
    15.2689  19.5585  19.5585  22.5983  22.7321  23.5181  24.8710  26.0449
    26.0449  27.5961  27.7876  29.9633  31.4767  31.4767  32.7881  32.7881
    33.3622  34.2773  34.5567  34.5568  35.3301  36.8812  37.0276  37.1866
    38.1624  38.1847  38.9433  39.5712  39.5712  39.8807  39.9824  39.9824
    41.8671  41.8671  43.1062  43.3367  45.2795  46.9415  46.9415  47.2638
    47.5095  47.5095  47.6336  48.3362  48.9460  48.9460  49.2669  49.3540
    50.0276

[...]

          k =-0.2000 0.2000 0.0000 (  2031 PWs)   bands (ev):

[...]

 ------ SPIN DOWN ----------

[...]

     the Fermi energy is     9.7684 ev

!    total energy              =    -469.78998052 Ry
     Harris-Foulkes estimate   =    -469.78997965 Ry
     estimated scf accuracy    <       0.00000001 Ry

     The total energy is the sum of the following terms:

     one-electron contribution =    -158.02652500 Ry
     hartree contribution      =     111.88134981 Ry
     xc contribution           =     -86.69070456 Ry
     ewald contribution        =    -336.95382355 Ry
     smearing contrib. (-TS)   =      -0.00027721 Ry

[...]

     convergence has been achieved in  11 iterations

     Forces acting on atoms (Ry/au):

     negative rho (up, down):  0.862E-01 0.862E-01
     atom    1 type  1   force =     0.00000000    0.00000000    0.00000000
[...]
        k(   14) = (   0.2027388   0.4054731   0.3020255), wk =   0.0640000
        k(   15) = (   0.2027388   0.4054731   0.6040509), wk =   0.0640000
        k(   16) = (   0.4054746   0.4054746   0.0000000), wk =   0.0160000
        k(   17) = (   0.4054746   0.4054746   0.3020255), wk =   0.0320000
        k(   18) = (   0.4054746   0.4054746   0.6040509), wk =   0.0320000
        k(   19) = (  -0.2027343   0.2027343   0.0000000), wk =   0.0160000
        k(   20) = (  -0.2027343   0.2027343  -0.3020255), wk =   0.0320000
        k(   21) = (  -0.2027343   0.2027343  -0.6040509), wk =   0.0320000
        k(   22) = (  -0.2027329   0.4054701   0.0000000), wk =   0.0320000
        k(   23) = (  -0.2027329   0.4054701  -0.3020255), wk =   0.0640000
        k(   24) = (  -0.2027329   0.4054701  -0.6040509), wk =   0.0640000
        k(   25) = (  -0.4054687   0.4054687   0.0000000), wk =   0.0160000
        k(   26) = (  -0.4054687   0.4054687  -0.3020255), wk =   0.0320000
        k(   27) = (  -0.4054687   0.4054687  -0.6040509), wk =   0.0320000
        k(   28) = (   0.0000000   0.0000000   0.0000000), wk =   0.0080000
        k(   29) = (   0.0000000   0.0000000   0.3020255), wk =   0.0160000
        k(   30) = (   0.0000000   0.0000000   0.6040509), wk =   0.0160000
        k(   31) = (   0.0000015   0.2027358   0.0000000), wk =   0.0320000
        k(   32) = (   0.0000015   0.2027358   0.3020255), wk =   0.0640000
        k(   33) = (   0.0000015   0.2027358   0.6040509), wk =   0.0640000
        k(   34) = (   0.0000030   0.4054716   0.0000000), wk =   0.0320000
        k(   35) = (   0.0000030   0.4054716   0.3020255), wk =   0.0640000
        k(   36) = (   0.0000030   0.4054716   0.6040509), wk =   0.0640000
        k(   37) = (   0.2027373   0.2027373   0.0000000), wk =   0.0160000
        k(   38) = (   0.2027373   0.2027373   0.3020255), wk =   0.0320000
        k(   39) = (   0.2027373   0.2027373   0.6040509), wk =   0.0320000
        k(   40) = (   0.2027388   0.4054731   0.0000000), wk =   0.0320000
        k(   41) = (   0.2027388   0.4054731   0.3020255), wk =   0.0640000
        k(   42) = (   0.2027388   0.4054731   0.6040509), wk =   0.0640000
        k(   43) = (   0.4054746   0.4054746   0.0000000), wk =   0.0160000
        k(   44) = (   0.4054746   0.4054746   0.3020255), wk =   0.0320000
        k(   45) = (   0.4054746   0.4054746   0.6040509), wk =   0.0320000
        k(   46) = (  -0.2027343   0.2027343   0.0000000), wk =   0.0160000
        k(   47) = (  -0.2027343   0.2027343  -0.3020255), wk =   0.0320000
        k(   48) = (  -0.2027343   0.2027343  -0.6040509), wk =   0.0320000
        k(   49) = (  -0.2027329   0.4054701   0.0000000), wk =   0.0320000
        k(   50) = (  -0.2027329   0.4054701  -0.3020255), wk =   0.0640000
        k(   51) = (  -0.2027329   0.4054701  -0.6040509), wk =   0.0640000
        k(   52) = (  -0.4054687   0.4054687   0.0000000), wk =   0.0160000
        k(   53) = (  -0.4054687   0.4054687  -0.3020255), wk =   0.0320000
        k(   54) = (  -0.4054687   0.4054687  -0.6040509), wk =   0.0320000

     Check: negative/imaginary core charge=   -0.000005    0.000000
     Check: negative starting charge=(component1):   -0.161866

[...]

     Threshold (ethr) on eigenvalues was too large:
     Diagonalizing with lowered threshold

     Davidson diagonalization with overlap
     ethr =  1.48E-09,  avg # of iterations =  2.0

[...]

     Total force =     0.000026     Total SCF correction =     0.000062
     SCF correction compared to forces is large: reduce conv_thr to get better values

[...]

     Volume is kept fixed: isostatic pressure set to zero

     bfgs converged in   6 scf cycles and   5 bfgs steps
     (criteria: energy < 0.10E-03, force < 0.10E-02, cell < 0.50E+00)

     End of BFGS Geometry Optimization

     Final enthalpy =    -469.7945802068 Ry
Begin final coordinates
     new unit-cell volume =    478.08914 a.u.^3 (    70.84550 Ang^3 )

CELL_PARAMETERS (alat=  9.05262362)
   0.986505516  -0.000007213   0.000000000
  -0.000007213   0.986505516   0.000000000
   0.000000000   0.000000000   0.662195840

ATOMIC_POSITIONS (crystal)
Rh0      0.000000000   0.000000000   0.000000000    0   0   0
Rh0      0.500000000   0.500000000   0.500000000    0   0   0
O1       0.308276753   0.308276753   0.000000000    1   1   0
O1      -0.308276753  -0.308276753   0.000000000    1   1   0
O1       0.808274052   0.191725948   0.500000000    1   1   0
O1       0.191725948   0.808274052   0.500000000    1   1   0
End final coordinates

     A final scf calculation at the relaxed structure.
     The G-vectors are recalculated for the final unit cell
     Results may differ from those at the preceding step.

     bravais-lattice index     =            0
     lattice parameter (alat)  =       9.0526  a.u.
     unit-cell volume          =     478.0891 (a.u.)^3
     number of atoms/cell      =            6
     number of atomic types    =            2
     number of electrons       =        54.00
     number of Kohn-Sham states=           81
     kinetic-energy cutoff     =      40.0000  Ry
     charge density cutoff     =     500.0000  Ry
     convergence threshold     =      1.0E-08
     mixing beta               =       0.3000
     number of iterations used =            8  plain     mixing
     Exchange-correlation      = SLA  PW   PBE  PBE ( 1 4 3 4 0)
     EXX-fraction              =        0.00

     celldm(1)=   9.052624  celldm(2)=   0.000000  celldm(3)=   0.000000
     celldm(4)=   0.000000  celldm(5)=   0.000000  celldm(6)=   0.000000

     crystal axes: (cart. coord. in units of alat)
               a(1) = (   0.986506  -0.000007   0.000000 )
               a(2) = (  -0.000007   0.986506   0.000000 )
               a(3) = (   0.000000   0.000000   0.662196 )

     reciprocal axes: (cart. coord. in units 2 pi/alat)
               b(1) = (  1.013679  0.000007 -0.000000 )
               b(2) = (  0.000007  1.013679 -0.000000 )
               b(3) = ( -0.000000 -0.000000  1.510127 )

     PseudoPot. # 1 for Rh read from file:
     /home/camp/zhonxu/pseudo/rh_pbe_v1.uspp.F.UPF
     MD5 check sum: 37b626987ad0dd8ec6bf4cc9ef289918
     Pseudo is Ultrasoft + core correction, Zval = 15.0
     Generated by new atomic code, or converted to UPF format
     Using radial grid of  969 points,  7 beta functions with:
                l(1) =   0
                l(2) =   0
                l(3) =   1
                l(4) =   1
                l(5) =   2
                l(6) =   2
                l(7) =   2
     Q(r) pseudized with  6 coefficients,  rinner =    1.050   1.050   1.050
                                                       1.050   1.050

     PseudoPot. # 2 for O  read from file:
     /home/camp/zhonxu/pseudo/o_pbe_v1.01.uspp.F.UPF
     MD5 check sum: 2bcb18d16ea4b960afae9ec6d52f22d2
     Pseudo is Ultrasoft + core correction, Zval =  6.0
     Generated by new atomic code, or converted to UPF format
     Using radial grid of  737 points,  5 beta functions with:
                l(1) =   0
                l(2) =   0
                l(3) =   1
                l(4) =   1
                l(5) =   2
     Q(r) pseudized with  8 coefficients,  rinner =    0.900   0.900   0.900
                                                       0.900   0.900

     atomic species   valence    mass     pseudopotential
        Rh0           15.00   102.90550     Rh( 1.00)
        O1             6.00    15.99940     O ( 1.00)

     Starting magnetic structure
     atomic species   magnetization
        Rh0          0.000
        O1           0.000

      8 Sym. Ops., with inversion, found
          (note:  8 additional sym.ops. were found but ignored
           their fractional translations are incommensurate with FFT grid)

   Cartesian axes

     site n.     atom                  positions (alat units)
         1           Rh0 tau(   1) = (   0.0000000   0.0000000   0.0000000  )
         2           Rh0 tau(   2) = (   0.4932492   0.4932492   0.3310979  )
         3           O1  tau(   3) = (   0.3041145   0.3041145   0.0000000  )
         4           O1  tau(   4) = (  -0.3041145  -0.3041145   0.0000000  )
         5           O1  tau(   5) = (   0.7973654   0.1891329   0.3310979  )
         6           O1  tau(   6) = (   0.1891329   0.7973654   0.3310979  )

     number of k points=    54  Methfessel-Paxton smearing, width (Ry)=  0.0100
                       cart. coord. in units 2pi/alat
        k(    1) = (   0.0000000   0.0000000   0.0000000), wk =   0.0080000
        k(    2) = (   0.0000000   0.0000000   0.3020255), wk =   0.0160000
        k(    3) = (   0.0000000   0.0000000   0.6040509), wk =   0.0160000
        k(    4) = (   0.0000015   0.2027358   0.0000000), wk =   0.0320000
        k(    5) = (   0.0000015   0.2027358   0.3020255), wk =   0.0640000
        k(    6) = (   0.0000015   0.2027358   0.6040509), wk =   0.0640000
        k(    7) = (   0.0000030   0.4054716   0.0000000), wk =   0.0320000
        k(    8) = (   0.0000030   0.4054716   0.3020255), wk =   0.0640000
        k(    9) = (   0.0000030   0.4054716   0.6040509), wk =   0.0640000
        k(   10) = (   0.2027373   0.2027373   0.0000000), wk =   0.0160000
        k(   11) = (   0.2027373   0.2027373   0.3020255), wk =   0.0320000
        k(   12) = (   0.2027373   0.2027373   0.6040509), wk =   0.0320000
        k(   13) = (   0.2027388   0.4054731   0.0000000), wk =   0.0320000
        k(   14) = (   0.2027388   0.4054731   0.3020255), wk =   0.0640000
        k(   15) = (   0.2027388   0.4054731   0.6040509), wk =   0.0640000
        k(   16) = (   0.4054746   0.4054746   0.0000000), wk =   0.0160000
        k(   17) = (   0.4054746   0.4054746   0.3020255), wk =   0.0320000
        k(   18) = (   0.4054746   0.4054746   0.6040509), wk =   0.0320000
        k(   19) = (  -0.2027343   0.2027343   0.0000000), wk =   0.0160000
        k(   20) = (  -0.2027343   0.2027343  -0.3020255), wk =   0.0320000
        k(   21) = (  -0.2027343   0.2027343  -0.6040509), wk =   0.0320000
        k(   22) = (  -0.2027329   0.4054701   0.0000000), wk =   0.0320000
        k(   23) = (  -0.2027329   0.4054701  -0.3020255), wk =   0.0640000
        k(   24) = (  -0.2027329   0.4054701  -0.6040509), wk =   0.0640000
        k(   25) = (  -0.4054687   0.4054687   0.0000000), wk =   0.0160000
        k(   26) = (  -0.4054687   0.4054687  -0.3020255), wk =   0.0320000
        k(   27) = (  -0.4054687   0.4054687  -0.6040509), wk =   0.0320000
        k(   28) = (   0.0000000   0.0000000   0.0000000), wk =   0.0080000
        k(   29) = (   0.0000000   0.0000000   0.3020255), wk =   0.0160000
        k(   30) = (   0.0000000   0.0000000   0.6040509), wk =   0.0160000
        k(   31) = (   0.0000015   0.2027358   0.0000000), wk =   0.0320000
        k(   32) = (   0.0000015   0.2027358   0.3020255), wk =   0.0640000
        k(   33) = (   0.0000015   0.2027358   0.6040509), wk =   0.0640000
        k(   34) = (   0.0000030   0.4054716   0.0000000), wk =   0.0320000
        k(   35) = (   0.0000030   0.4054716   0.3020255), wk =   0.0640000
        k(   36) = (   0.0000030   0.4054716   0.6040509), wk =   0.0640000
        k(   37) = (   0.2027373   0.2027373   0.0000000), wk =   0.0160000
        k(   38) = (   0.2027373   0.2027373   0.3020255), wk =   0.0320000
        k(   39) = (   0.2027373   0.2027373   0.6040509), wk =   0.0320000
        k(   40) = (   0.2027388   0.4054731   0.0000000), wk =   0.0320000
        k(   41) = (   0.2027388   0.4054731   0.3020255), wk =   0.0640000
        k(   42) = (   0.2027388   0.4054731   0.6040509), wk =   0.0640000
        k(   43) = (   0.4054746   0.4054746   0.0000000), wk =   0.0160000
        k(   44) = (   0.4054746   0.4054746   0.3020255), wk =   0.0320000
        k(   45) = (   0.4054746   0.4054746   0.6040509), wk =   0.0320000
        k(   46) = (  -0.2027343   0.2027343   0.0000000), wk =   0.0160000
        k(   47) = (  -0.2027343   0.2027343  -0.3020255), wk =   0.0320000
        k(   48) = (  -0.2027343   0.2027343  -0.6040509), wk =   0.0320000
        k(   49) = (  -0.2027329   0.4054701   0.0000000), wk =   0.0320000
        k(   50) = (  -0.2027329   0.4054701  -0.3020255), wk =   0.0640000
        k(   51) = (  -0.2027329   0.4054701  -0.6040509), wk =   0.0640000
        k(   52) = (  -0.4054687   0.4054687   0.0000000), wk =   0.0160000
        k(   53) = (  -0.4054687   0.4054687  -0.3020255), wk =   0.0320000
        k(   54) = (  -0.4054687   0.4054687  -0.6040509), wk =   0.0320000

     Largest allocated arrays     est. size (Mb)     dimensions
     Largest temporary arrays     est. size (Mb)     dimensions

     Check: negative/imaginary core charge=   -0.000005    0.000000

     Initial potential from superposition of free atoms
     Check: negative starting charge=(component1):   -0.080425
     Check: negative starting charge=(component2):   -0.080425

     starting charge   52.99980, renormalised to   54.00000

     negative rho (up, down):  0.819E-01 0.819E-01
     Starting wfc are   40 randomized atomic wfcs

     Self-consistent Calculation

[...]

     total energy              =    -469.79475282 Ry
     Harris-Foulkes estimate   =    -469.79475238 Ry
     estimated scf accuracy    <       0.00000003 Ry

[...]

     iteration # 12     ecut=    40.00 Ry     beta=0.30
     Davidson diagonalization with overlap
     ethr =  4.68E-11,  avg # of iterations =  2.0

     negative rho (up, down):  0.861E-01 0.861E-01

     End of self-consistent calculation

 ------ SPIN UP ------------

[...]

 ------ SPIN DOWN ----------

[...]

          k = 0.4055 0.4055 0.6041 (  2056 PWs)   bands (ev):

[...]

          k =-0.4055 0.4055-0.6041 (  2056 PWs)   bands (ev):

   -37.7346 -37.7338 -37.7139 -37.7126 -37.5592 -37.5590  -8.2929  -8.2462
    -8.1446  -8.1186   3.5270   3.5986   3.8426   3.8427   4.3193   4.6047
     5.4038   5.5542   6.4795   6.6290   7.2891   7.6027   8.3092   8.3701
     8.5580   9.0694   9.3789   9.7443  10.8931  11.5826  11.8636  12.5140
    19.8821  20.3919  20.9749  21.2122  22.3767  22.5060  23.3420  23.7700
    26.6028  26.6239  28.0845  28.5561  29.9731  31.4899  31.5200  31.7367
    32.1193  33.0345  36.0189  36.0434  36.3668  36.9908  38.1405  38.1548
    38.5377  39.2425  39.3553  40.3514  41.0005  41.4605  41.9554  42.4067
    42.7612  43.0773  43.8506  44.7905  44.9913  45.8595  46.1456  46.9197
    47.0315  47.4012  47.8879  48.5301  48.8690  49.1656  50.3885  51.0004
    51.8705

     the Fermi energy is     9.7706 ev

!    total energy              =    -469.79475325 Ry
     Harris-Foulkes estimate   =    -469.79475283 Ry
     estimated scf accuracy    <          2.6E-09 Ry

     The total energy is the sum of the following terms:

     one-electron contribution =    -155.95929065 Ry
     hartree contribution      =     110.86431487 Ry
     xc contribution           =     -86.66655239 Ry
     ewald contribution        =    -338.03292880 Ry
     smearing contrib. (-TS)   =      -0.00029627 Ry

     total magnetization       =     0.00 Bohr mag/cell
     absolute magnetization    =     0.00 Bohr mag/cell

     convergence has been achieved in  12 iterations

     Forces acting on atoms (Ry/au):

     negative rho (up, down):  0.861E-01 0.861E-01
     atom    1 type  1   force =     0.00000000    0.00000000    0.00000000
     atom    2 type  1   force =     0.00000000    0.00000000    0.00000000
     atom    3 type  2   force =    -0.00000622   -0.00000622    0.00000000
     atom    4 type  2   force =     0.00000622    0.00000622    0.00000000
     atom    5 type  2   force =     0.00000769   -0.00000769    0.00000000
     atom    6 type  2   force =    -0.00000769    0.00000769    0.00000000

     Total force =     0.000020     Total SCF correction =     0.000097
     SCF correction compared to forces is large: reduce conv_thr to get better values

     entering subroutine stress ...

     negative rho (up, down):  0.861E-01 0.861E-01
          total   stress  (Ry/bohr**3)                   (kbar)     P= -210.72
  -0.00144018   0.00000015   0.00000000       -211.86      0.02      0.00
   0.00000015  -0.00144018   0.00000000          0.02   -211.86      0.00
   0.00000000   0.00000000  -0.00141691          0.00      0.00   -208.44

     General routines

     Parallel routines

   This run was terminated on:  15:26: 2  24Jan2014

   JOB DONE.
Running PBS batch system epilogue script
Job id: 251983.audhumbla.fysik.dtu.dk
Username: zhonxu
Groupname: campgst
Jobname: RhO2/fine-EOS/non-mag/RhO2-v-1.10
Sessionid: 961
Queuename: verylong
Accounting:
This job has allocated the following 4 nodes:
q007 q007 q007 q007
Finished epilogue job 251983.audhumbla.fysik.dtu.dk for zhonxu