     Program PWSCF v.5.0.2 (svn rev. 9656) starts on 28Apr2014 at  4:24:13

     Current dimensions of program PWSCF are:
     Max number of different atomic species (ntypx) = 10
     Max number of k-points (npk) =  40000
     Max angular momentum in pseudopotentials (lmaxx) =  3
     Reading input from pwscf.in
Warning: card &CELL ignored
Warning: card / ignored

     Subspace diagonalization in iterative solution of the eigenvalue problem:
     a serial algorithm will be used

     bravais-lattice index     =            0
     lattice parameter (alat)  =      12.2076  a.u.
     unit-cell volume          =    7496.5096 (a.u.)^3
     number of atoms/cell      =           32
     number of atomic types    =            3
     number of electrons       =       247.00
     number of Kohn-Sham states=          370
     kinetic-energy cutoff     =      40.0000  Ry
     charge density cutoff     =     500.0000  Ry
     convergence threshold     =      1.0E-06
     mixing beta               =       0.7000
     number of iterations used =            8  plain     mixing
     Exchange-correlation      = SLA  PW   PBE  PBE ( 1 4 3 4 0)
     EXX-fraction              =        0.00
     nstep                     =           50

     celldm(1)=  12.207631  celldm(2)=   0.000000  celldm(3)=   0.000000
     celldm(4)=   0.000000  celldm(5)=   0.000000  celldm(6)=   0.000000

     crystal axes: (cart. coord. in units of alat)
               a(1) = (   1.000000   0.000000   0.000000 )
               a(2) = (   0.000000   1.004836   0.000000 )
               a(3) = (   0.000000   0.000000   4.100811 )

     reciprocal axes: (cart. coord. in units 2 pi/alat)
               b(1) = (  1.000000  0.000000  0.000000 )
               b(2) = (  0.000000  0.995187  0.000000 )
               b(3) = (  0.000000  0.000000  0.243854 )

     PseudoPot. # 1 for O  read from file:
     /home/camp/zhonxu/pseudo/o_pbe_v1.01.uspp.F.UPF
     MD5 check sum: 2bcb18d16ea4b960afae9ec6d52f22d2
     Pseudo is Ultrasoft + core correction, Zval =  6.0
     Generated by new atomic code, or converted to UPF format
     Using radial grid of  737 points,  5 beta functions with:
                l(1) =   0
                l(2) =   0
                l(3) =   1
                l(4) =   1
                l(5) =   2
     Q(r) pseudized with  8 coefficients,  rinner =    0.900   0.900   0.900
                                                       0.900   0.900

     PseudoPot. # 2 for Pt read from file:
     /home/camp/zhonxu/pseudo/pt_pbe_v1.uspp.F.UPF
     MD5 check sum: 4c71d6ad5ef119f1eb26a4d0b7884226
     Pseudo is Ultrasoft + core correction, Zval = 16.0
     Generated by new atomic code, or converted to UPF format
     Using radial grid of  985 points,  6 beta functions with:
                l(1) =   0
                l(2) =   0
                l(3) =   1
                l(4) =   1
                l(5) =   2
                l(6) =   2
     Q(r) pseudized with  8 coefficients,  rinner =    1.300   1.300   1.300
                                                       1.300   1.300

     PseudoPot. # 3 for H  read from file:
     /home/camp/zhonxu/pseudo/h_pbe_v1.uspp.F.UPF
     MD5 check sum: 3408e3ff4ec8b0a4e358431e7e038a48
     Pseudo is Ultrasoft, Zval =  1.0
     Generated by new atomic code, or converted to UPF format
     Using radial grid of  615 points,  2 beta functions with:
                l(1) =   0
                l(2) =   0
     Q(r) pseudized with  8 coefficients,  rinner =    0.700

     atomic species   valence    mass     pseudopotential
        O0             6.00    15.99940     O ( 1.00)
        Pt1           16.00   195.08000     Pt( 1.00)
        H2             1.00     1.00794     H ( 1.00)

     Simplified LDA+U calculation (l_max = 2) with parameters (eV):
     atomic species    L          U    alpha       J0     beta
        Pt1            2     3.0000   0.0000   0.0000   0.0000

     No symmetry found

   Cartesian axes

     site n.     atom                  positions (alat units)
         1           O0  tau(   1) = (   0.0000000   0.0000000   1.5486303  )
         2           O0  tau(   2) = (   0.0000000   0.5024180   1.6456145  )
         3           Pt1 tau(   3) = (   0.2500000   0.5024180   1.8492198  )
         4           Pt1 tau(   4) = (   0.0000000   0.0000000   1.8561502  )
         5           O0  tau(   5) = (   0.2500000   0.8139171   1.8185047  )
         6           O0  tau(   6) = (   0.2500000   0.1909188   1.8850199  )
         7           O0  tau(   7) = (   0.0000000   0.5024180   2.0364218  )
         8           O0  tau(   8) = (   0.0000000   0.0000000   2.1712565  )
         9           Pt1 tau(   9) = (   0.2500000   0.0000000   2.3611651  )
        10           Pt1 tau(  10) = (   0.0000000   0.5024180   2.3568182  )
        11           O0  tau(  11) = (   0.2500000   0.6933368   2.3352889  )
        12           O0  tau(  12) = (   0.2500000   0.3114991   2.3978263  )
        13           O0  tau(  13) = (   0.0000000   0.0000000   2.5469728  )
        14           O0  tau(  14) = (   0.5000000   0.0000000   1.5487944  )
        15           O0  tau(  15) = (   0.5000000   0.5024180   1.6432360  )
        16           Pt1 tau(  16) = (   0.7500000   0.5024180   1.8492608  )
        17           Pt1 tau(  17) = (   0.5000000   0.0000000   1.8561092  )
        18           O0  tau(  18) = (   0.7500000   0.8139171   1.8183407  )
        19           O0  tau(  19) = (   0.7500000   0.1909188   1.8850199  )
        20           O0  tau(  20) = (   0.5000000   0.5024180   2.0398255  )
        21           O0  tau(  21) = (   0.5000000   0.0000000   2.1711335  )
        22           Pt1 tau(  22) = (   0.7500000   0.0000000   2.3611651  )
        23           Pt1 tau(  23) = (   0.5000000   0.5024180   2.3633795  )
        24           O0  tau(  24) = (   0.7500000   0.6933368   2.3343868  )
        25           O0  tau(  25) = (   0.7500000   0.3114991   2.3965141  )
        26           O0  tau(  26) = (   0.5000000   0.0000000   2.5473419  )
        27           H2  tau(  27) = (   0.0000800   0.6431151   1.5815188  )
        28           H2  tau(  28) = (   0.4999900   0.6432457   1.5795915  )
        29           H2  tau(  29) = (   0.1433600   0.0342348   1.5075812  )
        30           H2  tau(  30) = (   0.6432100   0.0348377   1.5077042  )
        31           O0  tau(  31) = (   0.5002800   0.5276996   2.6647891  )
        32           H2  tau(  32) = (   0.4897800   0.3840985   2.7162543  )

     number of k points=    10  Methfessel-Paxton smearing, width (Ry)=  0.0100
                       cart. coord. in units 2pi/alat
        k(    1) = (   0.0000000   0.0000000   0.0000000), wk =   0.1250000
        k(    2) = (   0.0000000   0.2487968   0.0000000), wk =   0.2500000
        k(    3) = (   0.0000000  -0.4975937   0.0000000), wk =   0.1250000
        k(    4) = (   0.2500000   0.0000000   0.0000000), wk =   0.2500000
        k(    5) = (   0.2500000   0.2487968   0.0000000), wk =   0.2500000
        k(    6) = (   0.2500000  -0.4975937   0.0000000), wk =   0.2500000
        k(    7) = (  -0.5000000   0.0000000   0.0000000), wk =   0.1250000
        k(    8) = (  -0.5000000   0.2487968   0.0000000), wk =   0.2500000
        k(    9) = (  -0.5000000  -0.4975937   0.0000000), wk =   0.1250000
        k(   10) = (  -0.2500000   0.2487968   0.0000000), wk =   0.2500000

     Largest allocated arrays     est. size (Mb)     dimensions
     Largest temporary arrays     est. size (Mb)     dimensions

     Check: negative/imaginary core charge=   -0.000003    0.000000

     Initial potential from superposition of free atoms
     Check: negative starting charge=   -1.535574

     starting charge  242.99984, renormalised to  247.00000

     negative rho (up, down):  0.156E+01 0.000E+00
     Number of +U iterations with fixed ns =  0
     Starting occupations:
 --- enter write_ns ---
 LDA+U parameters:
U( 2)     =  3.00000000
alpha( 2) =  0.00000000
atom    3   Tr[ns(na)] =   8.00000
    eigenvalues:
  0.800  0.800  0.800  0.800  0.800
    eigenvectors:
  1.000  0.000  0.000  0.000  0.000
  0.000  1.000  0.000  0.000  0.000
  0.000  0.000  1.000  0.000  0.000
  0.000  0.000  0.000  1.000  0.000
  0.000  0.000  0.000  0.000  1.000
    occupations:
  0.800  0.000  0.000  0.000  0.000
  0.000  0.800  0.000  0.000  0.000
  0.000  0.000  0.800  0.000  0.000
  0.000  0.000  0.000  0.800  0.000
  0.000  0.000  0.000  0.000  0.800
atom    4   Tr[ns(na)] =   8.00000
    eigenvalues:
  0.800  0.800  0.800  0.800  0.800
    eigenvectors:
  1.000  0.000  0.000  0.000  0.000
  0.000  1.000  0.000  0.000  0.000
  0.000  0.000  1.000  0.000  0.000
  0.000  0.000  0.000  1.000  0.000
  0.000  0.000  0.000  0.000  1.000
    occupations:
  0.800  0.000  0.000  0.000  0.000
  0.000  0.800  0.000  0.000  0.000
  0.000  0.000  0.800  0.000  0.000
  0.000  0.000  0.000  0.800  0.000
  0.000  0.000  0.000  0.000  0.800
atom    9   Tr[ns(na)] =   8.00000
    eigenvalues:
  0.800  0.800  0.800  0.800  0.800
    eigenvectors:
  1.000  0.000  0.000  0.000  0.000
  0.000  1.000  0.000  0.000  0.000
  0.000  0.000  1.000  0.000  0.000
  0.000  0.000  0.000  1.000  0.000
  0.000  0.000  0.000  0.000  1.000
    occupations:
  0.800  0.000  0.000  0.000  0.000
  0.000  0.800  0.000  0.000  0.000
  0.000  0.000  0.800  0.000  0.000
  0.000  0.000  0.000  0.800  0.000
  0.000  0.000  0.000  0.000  0.800
atom   10   Tr[ns(na)] =   8.00000
    eigenvalues:
  0.800  0.800  0.800  0.800  0.800
    eigenvectors:
  1.000  0.000  0.000  0.000  0.000
  0.000  1.000  0.000  0.000  0.000
  0.000  0.000  1.000  0.000  0.000
  0.000  0.000  0.000  1.000  0.000
  0.000  0.000  0.000  0.000  1.000
    occupations:
  0.800  0.000  0.000  0.000  0.000
  0.000  0.800  0.000  0.000  0.000
  0.000  0.000  0.800  0.000  0.000
  0.000  0.000  0.000  0.800  0.000
  0.000  0.000  0.000  0.000  0.800
atom   16   Tr[ns(na)] =   8.00000
    eigenvalues:
  0.800  0.800  0.800  0.800  0.800
    eigenvectors:
  1.000  0.000  0.000  0.000  0.000
  0.000  1.000  0.000  0.000  0.000
  0.000  0.000  1.000  0.000  0.000
  0.000  0.000  0.000  1.000  0.000
  0.000  0.000  0.000  0.000  1.000
    occupations:
  0.800  0.000  0.000  0.000  0.000
  0.000  0.800  0.000  0.000  0.000
  0.000  0.000  0.800  0.000  0.000
  0.000  0.000  0.000  0.800  0.000
  0.000  0.000  0.000  0.000  0.800
atom   17   Tr[ns(na)] =   8.00000
    eigenvalues:
  0.800  0.800  0.800  0.800  0.800
    eigenvectors:
  1.000  0.000  0.000  0.000  0.000
  0.000  1.000  0.000  0.000  0.000
  0.000  0.000  1.000  0.000  0.000
  0.000  0.000  0.000  1.000  0.000
  0.000  0.000  0.000  0.000  1.000
    occupations:
  0.800  0.000  0.000  0.000  0.000
  0.000  0.800  0.000  0.000  0.000
  0.000  0.000  0.800  0.000  0.000
  0.000  0.000  0.000  0.800  0.000
  0.000  0.000  0.000  0.000  0.800
atom   22   Tr[ns(na)] =   8.00000
    eigenvalues:
  0.800  0.800  0.800  0.800  0.800
    eigenvectors:
  1.000  0.000  0.000  0.000  0.000
  0.000  1.000  0.000  0.000  0.000
  0.000  0.000  1.000  0.000  0.000
  0.000  0.000  0.000  1.000  0.000
  0.000  0.000  0.000  0.000  1.000
[...]
    eigenvalues:
  0.711  0.722  0.956  0.963  0.986
    eigenvectors:
  0.000  0.137  0.000  0.012  0.851
  1.000  0.000  0.000  0.000  0.000
  0.000  0.008  0.010  0.975  0.006
  0.000  0.854  0.000  0.003  0.143
  0.000  0.000  0.990  0.010  0.000
    occupations:
  0.949  0.000 -0.007 -0.090  0.000
  0.000  0.711 -0.000  0.000 -0.003
 -0.007 -0.000  0.961 -0.021  0.001
 -0.090  0.000 -0.021  0.761  0.001
  0.000 -0.003  0.001  0.001  0.956
atom   10   Tr[ns(na)] =   8.73510
    eigenvalues:
  0.667  0.748  0.982  0.984  0.987
    eigenvectors:
  0.000  0.983  0.000  0.008  0.009
  0.009  0.000  0.990  0.001  0.000
  0.000  0.000  0.001  0.395  0.604
  0.000  0.017  0.001  0.596  0.387
  0.991  0.000  0.009  0.000  0.000
    occupations:
  0.752 -0.001 -0.005  0.030 -0.000
 -0.001  0.979 -0.000  0.000 -0.029
 -0.005 -0.000  0.986 -0.001 -0.000
  0.030  0.000 -0.001  0.981  0.000
 -0.000 -0.029 -0.000  0.000  0.670
atom   16   Tr[ns(na)] =   8.70397
    eigenvalues:
  0.688  0.703  0.985  0.987  0.990
    eigenvectors:
  0.009  0.163  0.815  0.000  0.012
  0.943  0.057  0.000  0.000  0.000
  0.000  0.004  0.023  0.000  0.973
  0.047  0.776  0.162  0.000  0.015
  0.000  0.000  0.000  1.000  0.000
    occupations:
  0.936 -0.001  0.007 -0.107 -0.000
 -0.001  0.689 -0.001 -0.003 -0.002
  0.007 -0.001  0.988  0.017 -0.000
 -0.107 -0.003  0.017  0.752 -0.000
 -0.000 -0.002 -0.000 -0.000  0.987
atom   17   Tr[ns(na)] =   8.69605
    eigenvalues:
  0.688  0.710  0.980  0.984  0.986
    eigenvectors:
  0.000  0.986  0.007  0.002  0.005
  0.010  0.000  0.051  0.921  0.018
  0.000  0.005  0.896  0.035  0.064
  0.000  0.009  0.045  0.033  0.914
  0.990  0.000  0.000  0.009  0.000
    occupations:
  0.714 -0.005 -0.019  0.026 -0.001
 -0.005  0.981  0.001  0.000  0.029
 -0.019  0.001  0.979  0.003  0.000
  0.026  0.000  0.003  0.983  0.000
 -0.001  0.029  0.000  0.000  0.691
atom   22   Tr[ns(na)] =   8.67598
    eigenvalues:
  0.711  0.722  0.956  0.962  0.986
    eigenvectors:
  0.001  0.137  0.000  0.012  0.851
  0.996  0.004  0.000  0.000  0.000
  0.000  0.008  0.018  0.967  0.006
  0.003  0.851  0.000  0.003  0.143
  0.000  0.000  0.982  0.018  0.000
    occupations:
  0.949  0.001 -0.006 -0.090 -0.000
  0.001  0.712  0.000  0.000 -0.003
 -0.006  0.000  0.960 -0.021 -0.001
 -0.090  0.000 -0.021  0.761 -0.001
 -0.000 -0.003 -0.001 -0.001  0.956
atom   23   Tr[ns(na)] =   8.68313
    eigenvalues:
  0.688  0.714  0.970  0.984  0.986
    eigenvectors:
  0.000  0.976  0.000  0.001  0.024
  0.013  0.000  0.985  0.001  0.000
  0.000  0.016  0.001  0.495  0.487
  0.000  0.008  0.000  0.503  0.489
  0.987  0.000  0.013  0.000  0.000
    occupations:
  0.720 -0.001  0.034  0.024  0.000
 -0.001  0.966  0.001 -0.000 -0.033
  0.034  0.001  0.981 -0.002  0.000
  0.024 -0.000 -0.002  0.983 -0.000
  0.000 -0.033  0.000 -0.000  0.691
N of occupied +U levels =  69.5725528
 --- exit write_ns ---

     Threshold (ethr) on eigenvalues was too large:
     Diagonalizing with lowered threshold

     Davidson diagonalization with overlap
     ethr =  1.79E-08,  avg # of iterations =  2.0

[...]

     total energy              =   -2281.33947063 Ry
     Harris-Foulkes estimate   =   -2281.33947064 Ry
     estimated scf accuracy    <       0.00000005 Ry

     iteration # 12     ecut=    40.00 Ry     beta=0.70
     Davidson diagonalization with overlap
     ethr =  1.92E-11,  avg # of iterations =  1.0

     negative rho (up, down):  0.158E+01 0.000E+00

     End of self-consistent calculation
 --- enter write_ns ---
 LDA+U parameters:
U( 2)     =  3.00000000
alpha( 2) =  0.00000000
atom    3   Tr[ns(na)] =   8.70383
    eigenvalues:
  0.688  0.703  0.985  0.987  0.990
    eigenvectors:
  0.009  0.163  0.811  0.003  0.014
  0.944  0.056  0.000  0.000  0.000
  0.000  0.004  0.025  0.000  0.970
  0.047  0.776  0.160  0.000  0.016
  0.000  0.000  0.003  0.997  0.000
    occupations:
  0.936  0.001  0.007 -0.107  0.000
  0.001  0.689  0.001  0.004 -0.002
  0.007  0.001  0.988  0.017 -0.000
 -0.107  0.004  0.017  0.752  0.001
  0.000 -0.002 -0.000  0.001  0.987
atom    4   Tr[ns(na)] =   8.69867
    eigenvalues:
  0.688  0.710  0.981  0.984  0.986
    eigenvectors:
  0.000  0.986  0.007  0.002  0.005
  0.010  0.000  0.055  0.912  0.023
  0.000  0.005  0.884  0.034  0.077
  0.000  0.009  0.054  0.043  0.895
  0.990  0.000  0.001  0.009  0.000
    occupations:
  0.714 -0.005 -0.019  0.026 -0.001
 -0.005  0.981  0.000  0.000  0.029
 -0.019  0.000  0.980  0.003  0.000
  0.026  0.000  0.003  0.983  0.000
 -0.001  0.029  0.000  0.000  0.691
atom    9   Tr[ns(na)] =   8.67618
    eigenvalues:
  0.711  0.722  0.956  0.963  0.986
    eigenvectors:
  0.000  0.137  0.000  0.012  0.851
  1.000  0.000  0.000  0.000  0.000
  0.000  0.009  0.009  0.976  0.006
  0.000  0.854  0.000  0.003  0.143
  0.000  0.000  0.990  0.009  0.000
    occupations:
  0.949  0.000 -0.007 -0.090  0.000
  0.000  0.711 -0.000  0.000 -0.003
 -0.007 -0.000  0.961 -0.021  0.001
 -0.090  0.000 -0.021  0.761  0.001
  0.000 -0.003  0.001  0.001  0.956
atom   10   Tr[ns(na)] =   8.73310
    eigenvalues:
  0.667  0.747  0.982  0.984  0.987
    eigenvectors:
  0.000  0.983  0.000  0.008  0.009
  0.009  0.000  0.990  0.001  0.000
  0.000  0.000  0.001  0.394  0.605
  0.000  0.016  0.001  0.597  0.386
  0.991  0.000  0.009  0.000  0.000
    occupations:
  0.751 -0.001 -0.005  0.030 -0.000
 -0.001  0.979 -0.000  0.000 -0.030
 -0.005 -0.000  0.986 -0.001 -0.000
  0.030  0.000 -0.001  0.981  0.000
 -0.000 -0.030 -0.000  0.000  0.670
atom   16   Tr[ns(na)] =   8.70404
    eigenvalues:
  0.688  0.703  0.985  0.987  0.990
    eigenvectors:
  0.009  0.163  0.815  0.000  0.012
  0.944  0.056  0.000  0.000  0.000
  0.000  0.004  0.023  0.000  0.973
  0.046  0.777  0.162  0.000  0.015
  0.000  0.000  0.000  1.000  0.000
    occupations:
  0.936 -0.001  0.007 -0.107 -0.000
 -0.001  0.689 -0.001 -0.003 -0.002
  0.007 -0.001  0.988  0.017 -0.000
 -0.107 -0.003  0.017  0.752 -0.000
 -0.000 -0.002 -0.000 -0.000  0.987
atom   17   Tr[ns(na)] =   8.69644
    eigenvalues:
  0.688  0.710  0.980  0.984  0.986
    eigenvectors:
  0.000  0.986  0.007  0.002  0.005
  0.010  0.000  0.051  0.922  0.017
  0.000  0.005  0.897  0.035  0.063
  0.000  0.009  0.045  0.032  0.914
  0.990  0.000  0.000  0.009  0.000
    occupations:
  0.714 -0.005 -0.019  0.026 -0.001
 -0.005  0.981  0.001  0.000  0.029
 -0.019  0.001  0.979  0.003  0.000
  0.026  0.000  0.003  0.983  0.000
 -0.001  0.029  0.000  0.000  0.691
atom   22   Tr[ns(na)] =   8.67589
    eigenvalues:
  0.711  0.722  0.956  0.962  0.986
    eigenvectors:
  0.001  0.137  0.000  0.012  0.851
  0.996  0.004  0.000  0.000  0.000
  0.000  0.008  0.017  0.968  0.006
  0.003  0.851  0.000  0.003  0.143
  0.000  0.000  0.982  0.018  0.000
    occupations:
  0.949  0.001 -0.006 -0.090 -0.000
  0.001  0.711  0.000  0.000 -0.003
 -0.006  0.000  0.960 -0.021 -0.001
 -0.090  0.000 -0.021  0.761 -0.001
 -0.000 -0.003 -0.001 -0.001  0.956
atom   23   Tr[ns(na)] =   8.68259
    eigenvalues:
  0.687  0.713  0.970  0.984  0.986
    eigenvectors:
  0.000  0.976  0.000  0.001  0.024
  0.014  0.000  0.985  0.001  0.000
  0.000  0.016  0.001  0.494  0.488
  0.000  0.008  0.000  0.504  0.488
  0.986  0.000  0.014  0.000  0.000
    occupations:
  0.720 -0.001  0.034  0.024  0.000
 -0.001  0.966  0.001 -0.000 -0.033
  0.034  0.001  0.981 -0.002  0.000
  0.024 -0.000 -0.002  0.983 -0.000
  0.000 -0.033  0.000 -0.000  0.691
N of occupied +U levels =  69.5707427
 --- exit write_ns ---

[...]

          k = 0.2500-0.4976 0.0000 ( 32026 PWs)   bands (ev):

[...]

          k =-0.2500 0.2488 0.0000 ( 32025 PWs)   bands (ev):

   -55.4861 -55.4688 -55.4474 -55.4285 -55.3515 -55.3228 -55.3168 -55.3124
   -55.2899 -55.2860 -55.2468 -55.1375 -55.1304 -55.1281 -55.1248 -55.0454
   -55.0379 -55.0359 -55.0328 -55.0273 -54.9231 -54.7878 -54.5572 -54.2927
   -22.0022 -21.7752 -21.1031 -20.9205 -20.6446 -20.5574 -20.4773 -20.4330
   -20.3337 -20.2045 -20.1696 -20.0967 -20.0217 -19.9290 -19.8698 -19.8460
   -19.6951 -19.1130 -18.9301 -10.4849 -10.2490 -10.0787 -10.0692  -9.6473
    -9.5501  -9.4089  -9.2568  -9.2301  -9.1901  -9.0978  -8.9613  -8.9124
    -8.8021  -8.7606  -8.6579  -8.6268  -8.5044  -8.2049  -8.0242  -7.8697
    -7.8103  -7.7364  -7.5896  -7.5210  -7.3005  -7.2365  -7.1996  -7.0047
    -6.9487  -6.8946  -6.8055  -6.7099  -6.6042  -6.5877  -6.5172  -6.4586
    -6.3438  -6.2795  -6.1910  -6.1395  -5.8946  -5.7642  -5.5863  -5.5444
    -5.3670  -5.2401  -5.1612  -5.0912  -5.0377  -4.9626  -4.8070  -4.6797
    -4.5676  -4.4323  -4.3305  -4.2464  -4.2079  -4.0716  -3.8580  -3.7961
    -3.7379  -3.6610  -3.6299  -3.5125  -3.4631  -3.3677  -3.3123  -3.0508
    -3.0027  -2.7297  -2.5826  -2.4826  -2.3400  -2.3114  -2.2587  -2.1972
    -2.1239  -1.9317  -1.7430  -1.6717  -1.5486  -0.9953  -0.7495  -0.5550
    -0.1995  -0.0513   0.3351   0.5694   0.8065   0.9007   1.0474   1.1100
     1.3529   1.4903   1.5397   1.9011   3.2544   3.9405   4.6398   5.0579
     5.1196   5.2171   5.2916   5.5528   6.0335   6.2001   6.2831   6.3406
     6.4851   6.6020   6.6804   6.7793   6.8808   6.9587   7.1450   7.2297
     7.3971   7.5072   7.5455   7.6829   7.7454   7.8534   7.9611   8.0585
     8.2270   8.3247   8.3654   8.4494   8.5153   8.6098   8.6913   8.7845
     8.9151   8.9812   9.0550   9.1955   9.3461   9.4377   9.5906   9.6450
     9.7534   9.8144   9.9334  10.0816  10.1386  10.1963  10.2536  10.3744
    10.5193  10.5602  10.6163  10.7072  10.7542  10.9566  10.9979  11.0965
    11.1886  11.2073  11.3693  11.4313  11.5017  11.6466  11.7376  11.8013
    11.8801  11.9188  12.0163  12.0348  12.0963  12.2358  12.2956  12.3509
    12.3967  12.4540  12.5256  12.5718  12.6503  12.7255  12.7939  12.9246
    12.9766  13.0282  13.1113  13.2104  13.2432  13.4628  13.5315  13.5762
    13.6140  13.6769  13.7367  13.8257  13.9396  13.9839  14.0654  14.0841
    14.1734  14.2881  14.3698  14.4887  14.5563  14.6395  14.7217  14.8424
    14.9016  14.9970  15.0783  15.1784  15.2357  15.2989  15.3275  15.4034
    15.4603  15.5122  15.5736  15.6294  15.7005  15.7325  15.7729  15.8457
    15.8941  15.9876  16.0138  16.0593  16.1287  16.2326  16.3169  16.3839
    16.4692  16.5271  16.6296  16.7204  16.7800  16.8081  16.8389  16.8522
    16.8975  16.9088  16.9412  16.9628  16.9930  17.0369  17.0549  17.0993
    17.1199  17.1499  17.2130  17.2375  17.3134  17.3352  17.3892  17.4830
    17.5258  17.5515  17.6217  17.6407  17.7323  17.7742  17.9095  17.9480
    18.0098  18.0550  18.1396  18.1794  18.2437  18.3423  18.4706  18.4984
    18.5847  18.6074  18.6382  18.7217  18.7966  18.8571  18.8916  18.9725
    19.0191  19.1264  19.1809  19.2331  19.2896  19.3560  19.4475  19.5383
    19.6577  19.6887  19.8217  19.8731  19.9406  19.9976  20.0442  20.0729
    20.1210  20.1587  20.2695  20.3435  20.3588  20.4100  20.5084  20.5612
    20.6550  20.6837  20.7327  20.8120  20.9019  20.9656  20.9937  21.0327
    21.0877  21.2075  21.2654  21.3070  21.3412  21.3681  21.4667  21.5082
    21.5781  21.6332  21.7020  21.7592  21.7971  21.9039  22.0008  22.0766
    22.1390  22.1858

     the Fermi energy is    -1.6573 ev

!    total energy              =   -2281.33947063 Ry
     Harris-Foulkes estimate   =   -2281.33947064 Ry
     estimated scf accuracy    <          7.6E-09 Ry

     The total energy is the sum of the following terms:

     one-electron contribution =  -23724.75425932 Ry
     hartree contribution      =   11906.02009544 Ry
     xc contribution           =    -573.02305110 Ry
     ewald contribution        =   10109.58125586 Ry
     Hubbard energy            =       0.83640469 Ry
     smearing contrib. (-TS)   =       0.00008381 Ry

     convergence has been achieved in  12 iterations

     Forces acting on atoms (Ry/au):

     negative rho (up, down):  0.158E+01 0.000E+00
     atom    1 type  1   force =    -0.00854578   -0.00415466   -0.00001092
     atom    2 type  1   force =     0.00038696    0.00305709   -0.00073274
     atom    3 type  2   force =     0.01338971    0.00800742   -0.00020536
     atom    4 type  2   force =     0.01088321    0.00411439   -0.00026351
     atom    5 type  1   force =     0.00127738   -0.00376714   -0.00049601
     atom    6 type  1   force =    -0.00003712   -0.00287275    0.00002239
     atom    7 type  1   force =     0.00021336   -0.00110811   -0.00042446
     atom    8 type  1   force =    -0.00427211   -0.00080147   -0.00010598
     atom    9 type  2   force =     0.00317813    0.00305552   -0.00033270
     atom   10 type  2   force =    -0.00039309   -0.02307510    0.00093394
     atom   11 type  1   force =     0.00315765    0.00196495    0.00050889
     atom   12 type  1   force =    -0.01264067    0.00712530   -0.00005955
     atom   13 type  1   force =    -0.00107710   -0.00645911   -0.00014850
     atom   14 type  1   force =    -0.00828589   -0.00389771    0.00005938
     atom   15 type  1   force =     0.00011757    0.00229094    0.00060599
     atom   16 type  2   force =    -0.01458902    0.00801102   -0.00023742
     atom   17 type  2   force =     0.01058036    0.00537770   -0.00013015
     atom   18 type  1   force =     0.00101439   -0.00385188   -0.00029596
     atom   19 type  1   force =     0.00000750   -0.00278796   -0.00006812
     atom   20 type  1   force =     0.00037844   -0.00189496    0.00023005
     atom   21 type  1   force =    -0.00395316    0.00155430    0.00014248
     atom   22 type  2   force =     0.00076729    0.00333225   -0.00040461
     atom   23 type  2   force =    -0.00063077    0.00014097    0.00006114
     atom   24 type  1   force =    -0.00305458    0.00248370    0.00031707
     atom   25 type  1   force =     0.01275198    0.00735726   -0.00001042
     atom   26 type  1   force =    -0.00121429   -0.00449148    0.00019133
     atom   27 type  3   force =    -0.00002643    0.00029399   -0.00018139
     atom   28 type  3   force =     0.00004013   -0.00030681   -0.00008845
     atom   29 type  3   force =     0.00013073    0.00001034    0.00054306
     atom   30 type  3   force =     0.00008754   -0.00004656    0.00042859
     atom   31 type  1   force =     0.00011274    0.00064269    0.00024005
     atom   32 type  3   force =     0.00024496    0.00069587   -0.00008811

     Total force =     0.002243     Total SCF correction =     0.000291
     SCF correction compared to forces is large: reduce conv_thr to get better values

     bfgs converged in  16 scf cycles and  15 bfgs steps
     (criteria: energy < 0.10E-03, force < 0.10E-02)

     End of BFGS Geometry Optimization

     Final energy   =   -2281.3394706308 Ry
Begin final coordinates

ATOMIC_POSITIONS (crystal)
O0       0.000000000   0.000000000   0.377532263    0   0   1
O0       0.000000000   0.500000000   0.401641333    0   0   1
Pt1      0.250000000   0.500000000   0.451142107    0   0   1
Pt1      0.000000000   0.000000000   0.452579675    0   0   1
O0       0.250000000   0.810000000   0.442960752    0   0   1
O0       0.250000000   0.190000000   0.460446962    0   0   1
O0       0.000000000   0.500000000   0.496795357    0   0   1
O0       0.000000000   0.000000000   0.529556346    0   0   1
Pt1      0.250000000   0.000000000   0.575721901    0   0   1
Pt1      0.000000000   0.500000000   0.574342655    0   0   1
O0       0.250000000   0.690000000   0.567236926    0   0   1
O0       0.250000000   0.310000000   0.585530134    0   0   1
O0       0.000000000   0.000000000   0.621106429    0   0   1
O0       0.500000000   0.000000000   0.377579969    0   0   1
O0       0.500000000   0.500000000   0.401067153    0   0   1
Pt1      0.750000000   0.500000000   0.451141888    0   0   1
Pt1      0.500000000   0.000000000   0.452604717    0   0   1
O0       0.750000000   0.810000000   0.442936716    0   0   1
O0       0.750000000   0.190000000   0.460452634    0   0   1
O0       0.500000000   0.500000000   0.497367733    0   0   1
O0       0.500000000   0.000000000   0.529520001    0   0   1
Pt1      0.750000000   0.000000000   0.575728937    0   0   1
Pt1      0.500000000   0.500000000   0.576107946    0   0   1
O0       0.750000000   0.690000000   0.567373988    0   0   1
O0       0.750000000   0.310000000   0.585432699    0   0   1
O0       0.500000000   0.000000000   0.621111927    0   0   1
H2       0.000082874   0.640420367   0.386230133
H2       0.499984391   0.641084509   0.385980532
H2       0.143355581   0.033951585   0.367497524
H2       0.643364593   0.034078609   0.367560514
O0       0.499257730   0.530451118   0.649607820
H2       0.492873417   0.388135284   0.662724331
End final coordinates

     General routines

     Parallel routines
     Hubbard U routines

   This run was terminated on:  17:48:21  28Apr2014

   JOB DONE.