     Program PWSCF v.5.0.2 (svn rev. 9656) starts on 23Jan2014 at 21:17:57

     Current dimensions of program PWSCF are:
     Max number of different atomic species (ntypx) = 10
     Max number of k-points (npk) =  40000
     Max angular momentum in pseudopotentials (lmaxx) =  3
     Reading input from IrO2-v-1.0.in

     Subspace diagonalization in iterative solution of the eigenvalue problem:
     a serial algorithm will be used

     bravais-lattice index     =            0
     lattice parameter (alat)  =       8.6590  a.u.
     unit-cell volume          =     418.3967 (a.u.)^3
     number of atoms/cell      =            6
     number of atomic types    =            2
     number of electrons       =        54.00
     number of Kohn-Sham states=           78
     kinetic-energy cutoff     =      40.0000  Ry
     charge density cutoff     =     500.0000  Ry
     convergence threshold     =      1.0E-06
     mixing beta               =       0.7000
     number of iterations used =            8  plain     mixing
     Exchange-correlation      = SLA  PW   PBE  PBE ( 1 4 3 4 0)
     EXX-fraction              =        0.00
     nstep                     =           50

     celldm(1)=   8.658997  celldm(2)=   0.000000  celldm(3)=   0.000000
     celldm(4)=   0.000000  celldm(5)=   0.000000  celldm(6)=   0.000000

     crystal axes: (cart. coord. in units of alat)
               a(1) = (   1.000000   0.000000   0.000000 )
               a(2) = (   0.000000   1.000000   0.000000 )
               a(3) = (   0.000000   0.000000   0.644444 )

     reciprocal axes: (cart. coord. in units 2 pi/alat)
               b(1) = (  1.000000  0.000000  0.000000 )
               b(2) = (  0.000000  1.000000  0.000000 )
               b(3) = (  0.000000  0.000000  1.551724 )

     PseudoPot. # 1 for Ir read from file:
     /home/camp/zhonxu/pseudo/ir_pbe_v1.uspp.F.UPF
     MD5 check sum: abf987a9674477536ede83817f8f8b70
     Pseudo is Ultrasoft + core correction, Zval = 15.0
     Generated by new atomic code, or converted to UPF format
     Using radial grid of  983 points,  7 beta functions with:
                l(1) =   0
                l(2) =   0
                l(3) =   1
                l(4) =   1
                l(5) =   1
                l(6) =   2
                l(7) =   2
     Q(r) pseudized with  8 coefficients,  rinner =    1.350   1.350   1.350
                                                       1.350   1.350

     PseudoPot. # 2 for O  read from file:
     /home/camp/zhonxu/pseudo/o_pbe_v1.01.uspp.F.UPF
     MD5 check sum: 2bcb18d16ea4b960afae9ec6d52f22d2
     Pseudo is Ultrasoft + core correction, Zval =  6.0
     Generated by new atomic code, or converted to UPF format
     Using radial grid of  737 points,  5 beta functions with:
                l(1) =   0
                l(2) =   0
                l(3) =   1
                l(4) =   1
                l(5) =   2
     Q(r) pseudized with  8 coefficients,  rinner =    0.900   0.900   0.900
                                                       0.900   0.900

     atomic species   valence    mass     pseudopotential
        Ir0           15.00   192.22000     Ir( 1.00)
        O1             6.00    15.99940     O ( 1.00)

     Starting magnetic structure
     atomic species   magnetization
        Ir0          0.600
        O1           0.000

     16 Sym. Ops., with inversion, found ( 8 have fractional translation)

   Cartesian axes

     site n.     atom                  positions (alat units)
         1           Ir0 tau(   1) = (   0.0000000   0.0000000   0.0000000  )
         2           Ir0 tau(   2) = (   0.5000000   0.5000000   0.3222222  )
         3           O1  tau(   3) = (   0.3050000   0.3050000   0.0000000  )
         4           O1  tau(   4) = (  -0.3050000  -0.3050000   0.0000000  )
         5           O1  tau(   5) = (   0.8050000   0.1950000   0.3222222  )
         6           O1  tau(   6) = (   0.1950000   0.8050000   0.3222222  )

     number of k points=    36  Methfessel-Paxton smearing, width (Ry)=  0.0100
                       cart. coord. in units 2pi/alat
        k(    1) = (   0.0000000   0.0000000   0.0000000), wk =   0.0080000
        k(    2) = (   0.0000000   0.0000000   0.3103448), wk =   0.0160000
        k(    3) = (   0.0000000   0.0000000   0.6206897), wk =   0.0160000
        k(    4) = (   0.0000000   0.2000000   0.0000000), wk =   0.0320000
        k(    5) = (   0.0000000   0.2000000   0.3103448), wk =   0.0640000
        k(    6) = (   0.0000000   0.2000000   0.6206897), wk =   0.0640000
        k(    7) = (   0.0000000   0.4000000   0.0000000), wk =   0.0320000
        k(    8) = (   0.0000000   0.4000000   0.3103448), wk =   0.0640000
        k(    9) = (   0.0000000   0.4000000   0.6206897), wk =   0.0640000
        k(   10) = (   0.2000000   0.2000000   0.0000000), wk =   0.0320000
        k(   11) = (   0.2000000   0.2000000   0.3103448), wk =   0.0640000
        k(   12) = (   0.2000000   0.2000000   0.6206897), wk =   0.0640000
        k(   13) = (   0.2000000   0.4000000   0.0000000), wk =   0.0640000
        k(   14) = (   0.2000000   0.4000000   0.3103448), wk =   0.1280000
        k(   15) = (   0.2000000   0.4000000   0.6206897), wk =   0.1280000
        k(   16) = (   0.4000000   0.4000000   0.0000000), wk =   0.0320000
        k(   17) = (   0.4000000   0.4000000   0.3103448), wk =   0.0640000
        k(   18) = (   0.4000000   0.4000000   0.6206897), wk =   0.0640000
        k(   19) = (   0.0000000   0.0000000   0.0000000), wk =   0.0080000
        k(   20) = (   0.0000000   0.0000000   0.3103448), wk =   0.0160000
        k(   21) = (   0.0000000   0.0000000   0.6206897), wk =   0.0160000
        k(   22) = (   0.0000000   0.2000000   0.0000000), wk =   0.0320000
        k(   23) = (   0.0000000   0.2000000   0.3103448), wk =   0.0640000
        k(   24) = (   0.0000000   0.2000000   0.6206897), wk =   0.0640000
        k(   25) = (   0.0000000   0.4000000   0.0000000), wk =   0.0320000
        k(   26) = (   0.0000000   0.4000000   0.3103448), wk =   0.0640000
        k(   27) = (   0.0000000   0.4000000   0.6206897), wk =   0.0640000
        k(   28) = (   0.2000000   0.2000000   0.0000000), wk =   0.0320000
        k(   29) = (   0.2000000   0.2000000   0.3103448), wk =   0.0640000
        k(   30) = (   0.2000000   0.2000000   0.6206897), wk =   0.0640000
        k(   31) = (   0.2000000   0.4000000   0.0000000), wk =   0.0640000
        k(   32) = (   0.2000000   0.4000000   0.3103448), wk =   0.1280000
        k(   33) = (   0.2000000   0.4000000   0.6206897), wk =   0.1280000
        k(   34) = (   0.4000000   0.4000000   0.0000000), wk =   0.0320000
        k(   35) = (   0.4000000   0.4000000   0.3103448), wk =   0.0640000
        k(   36) = (   0.4000000   0.4000000   0.6206897), wk =   0.0640000

     Largest allocated arrays     est. size (Mb)     dimensions
     Largest temporary arrays     est. size (Mb)     dimensions

     Check: negative/imaginary core charge=   -0.000004    0.000000

     Initial potential from superposition of free atoms
     Check: negative starting charge=(component1):   -0.668398
     Check: negative starting charge=(component2):   -0.166184

     starting charge   52.99993, renormalised to   54.00000

     negative rho (up, down):  0.681E+00 0.169E+00
     Starting wfc are   40 randomized atomic wfcs

     Self-consistent Calculation

     iteration #  1     ecut=    40.00 Ry     beta=0.70
     Davidson diagonalization with overlap
     ethr =  1.00E-02,  avg # of iterations =  5.2

     negative rho (up, down):  0.504E+00 0.242E+00

     total energy              =    -498.35400576 Ry
     Harris-Foulkes estimate   =    -501.20113083 Ry
     estimated scf accuracy    <       5.30814541 Ry

     total magnetization       =     5.80 Bohr mag/cell
     absolute magnetization    =     6.30 Bohr mag/cell

[...]

     End of self-consistent calculation

 ------ SPIN UP ------------

          k = 0.0000 0.0000 0.0000 (  1819 PWs)   bands (ev):

   -35.6622 -35.6622 -35.5141 -35.5141 -35.4459 -35.4305  -6.7691  -5.5311
    -4.4390  -4.4390   4.5309   4.7989   6.4353   6.6256   6.6256   9.3689
     9.3689   9.9007  11.1782  11.5687  11.5687  11.7556  11.8183  12.1629
    12.5611  12.5611  12.9452  15.6229  16.2036  19.1466  19.3480  19.3480
    20.8178  23.6539  23.6539  24.4102  24.4105  27.2918  27.5724  27.6221
    30.3408  31.2952  31.2952  31.5004  32.9179  34.9777  35.5964  35.5964
    36.8568  36.8568  38.3008  41.2319  41.4704  41.4704  41.5142  43.3008
    44.1783  44.3546  44.4433  45.6211  45.6211  46.1656  46.2416  46.2416
    47.0731  47.2396  47.2396  49.1104  51.1559  53.0382  53.0382  53.3237
    53.6300  54.0168  54.0168  55.0826  55.3812  55.3812

[...]

 ------ SPIN DOWN ----------

[...]

     the Fermi energy is    14.8505 ev

!    total energy              =    -501.23042579 Ry
     Harris-Foulkes estimate   =    -501.23042579 Ry
     estimated scf accuracy    <       0.00000023 Ry

     The total energy is the sum of the following terms:

     one-electron contribution =     -98.80702763 Ry
     hartree contribution      =      88.40346852 Ry
     xc contribution           =    -138.55540998 Ry
     ewald contribution        =    -352.27128932 Ry
     smearing contrib. (-TS)   =      -0.00016738 Ry

[...]

     convergence has been achieved in  10 iterations

     Forces acting on atoms (Ry/au):

     negative rho (up, down):  0.391E+00 0.391E+00
     atom    1 type  1   force =     0.00000000    0.00000000    0.00000000
     atom    2 type  1   force =     0.00000000    0.00000000    0.00000000
     atom    3 type  2   force =    -0.02809913   -0.02809913    0.00000000
     atom    4 type  2   force =     0.02809913    0.02809913   -0.00000000
     atom    5 type  2   force =    -0.02809913    0.02809913    0.00000000
     atom    6 type  2   force =     0.02809913   -0.02809913    0.00000000

     Total force =     0.079476     Total SCF correction =     0.000364

     entering subroutine stress ...

     negative rho (up, down):  0.391E+00 0.391E+00
          total   stress  (Ry/bohr**3)                   (kbar)     P=  215.86
   0.00060793   0.00000000   0.00000000         89.43      0.00      0.00
   0.00000000   0.00060793   0.00000000          0.00     89.43      0.00
   0.00000000   0.00000000   0.00318633          0.00      0.00    468.73

     Volume is kept fixed: isostatic pressure set to zero

     BFGS Geometry Optimization

     number of scf cycles    =   1
     number of bfgs steps    =   0

     enthalpy new            =    -501.2304257904 Ry

     new trust radius        =       0.1758021061 bohr
     new conv_thr            =       0.0000010000 Ry

     new unit-cell volume =    418.39674 a.u.^3 (    62.00000 Ang^3 )

CELL_PARAMETERS (alat=  8.65899730)
   0.978958982   0.000000000   0.000000000
   0.000000000   0.978958982   0.000000000
   0.000000000   0.000000000   0.672444573

ATOMIC_POSITIONS (crystal)
Ir0      0.000000000   0.000000000   0.000000000    0   0   0
Ir0      0.500000000   0.500000000   0.500000000    0   0   0
O1       0.301754922   0.301754922   0.000000000    1   1   0
[...]
        k(   29) = (   0.2042987   0.2042987   0.2974223), wk =   0.0640000
        k(   30) = (   0.2042987   0.2042987   0.5948446), wk =   0.0640000
        k(   31) = (   0.2042987   0.4085973   0.0000000), wk =   0.0640000
        k(   32) = (   0.2042987   0.4085973   0.2974223), wk =   0.1280000
        k(   33) = (   0.2042987   0.4085973   0.5948446), wk =   0.1280000
        k(   34) = (   0.4085973   0.4085973   0.0000000), wk =   0.0320000
        k(   35) = (   0.4085973   0.4085973   0.2974223), wk =   0.0640000
        k(   36) = (   0.4085973   0.4085973   0.5948446), wk =   0.0640000

     Check: negative/imaginary core charge=   -0.000004    0.000000
     Check: negative starting charge=(component1):   -0.833120

[...]

     enthalpy old            =    -501.2304257904 Ry
     enthalpy new            =    -501.2549295878 Ry

     CASE: enthalpy_new < enthalpy_old

[...]

     Total force =     0.000008     Total SCF correction =     0.000070
     SCF correction compared to forces is large: reduce conv_thr to get better values

[...]

     number of scf cycles    =   5
     number of bfgs steps    =   4

     enthalpy old            =    -501.2628577038 Ry
     enthalpy new            =    -501.2630529441 Ry

     CASE: enthalpy_new < enthalpy_old

     new trust radius        =       0.0011268089 bohr
     new conv_thr            =       0.0000000100 Ry

     new unit-cell volume =    418.39674 a.u.^3 (    62.00000 Ang^3 )

[...]

ATOMIC_POSITIONS (crystal)
Ir0      0.000000000   0.000000000   0.000000000    0   0   0
Ir0      0.500000000   0.500000000   0.500000000    0   0   0
O1       0.309108211   0.309108211   0.000000000    1   1   0
O1      -0.309108211  -0.309108211   0.000000000    1   1   0
O1       0.809108211   0.190891789   0.500000000    1   1   0
O1       0.190891789   0.809108211   0.500000000    1   1   0

     Check: negative starting charge=(component1):   -0.831812
     NEW-OLD atomic charge density approx. for the potential
     NEW k-points:
        k(    1) = (   0.0000000   0.0000000   0.0000000), wk =   0.0080000
        k(    2) = (   0.0000000   0.0000000   0.2909762), wk =   0.0160000
        k(    3) = (   0.0000000   0.0000000   0.5819524), wk =   0.0160000
        k(    4) = (   0.0000000   0.2065492   0.0000000), wk =   0.0320000
        k(    5) = (   0.0000000   0.2065492   0.2909762), wk =   0.0640000
        k(    6) = (   0.0000000   0.2065492   0.5819524), wk =   0.0640000
        k(    7) = (   0.0000000   0.4130984   0.0000000), wk =   0.0320000
        k(    8) = (   0.0000000   0.4130984   0.2909762), wk =   0.0640000
        k(    9) = (   0.0000000   0.4130984   0.5819524), wk =   0.0640000
        k(   10) = (   0.2065492   0.2065492   0.0000000), wk =   0.0320000
        k(   11) = (   0.2065492   0.2065492   0.2909762), wk =   0.0640000
        k(   12) = (   0.2065492   0.2065492   0.5819524), wk =   0.0640000
        k(   13) = (   0.2065492   0.4130984   0.0000000), wk =   0.0640000
        k(   14) = (   0.2065492   0.4130984   0.2909762), wk =   0.1280000
        k(   15) = (   0.2065492   0.4130984   0.5819524), wk =   0.1280000
        k(   16) = (   0.4130984   0.4130984   0.0000000), wk =   0.0320000
        k(   17) = (   0.4130984   0.4130984   0.2909762), wk =   0.0640000
        k(   18) = (   0.4130984   0.4130984   0.5819524), wk =   0.0640000
        k(   19) = (   0.0000000   0.0000000   0.0000000), wk =   0.0080000
        k(   20) = (   0.0000000   0.0000000   0.2909762), wk =   0.0160000
        k(   21) = (   0.0000000   0.0000000   0.5819524), wk =   0.0160000
        k(   22) = (   0.0000000   0.2065492   0.0000000), wk =   0.0320000
        k(   23) = (   0.0000000   0.2065492   0.2909762), wk =   0.0640000
        k(   24) = (   0.0000000   0.2065492   0.5819524), wk =   0.0640000
        k(   25) = (   0.0000000   0.4130984   0.0000000), wk =   0.0320000
        k(   26) = (   0.0000000   0.4130984   0.2909762), wk =   0.0640000
        k(   27) = (   0.0000000   0.4130984   0.5819524), wk =   0.0640000
        k(   28) = (   0.2065492   0.2065492   0.0000000), wk =   0.0320000
        k(   29) = (   0.2065492   0.2065492   0.2909762), wk =   0.0640000
        k(   30) = (   0.2065492   0.2065492   0.5819524), wk =   0.0640000
        k(   31) = (   0.2065492   0.4130984   0.0000000), wk =   0.0640000
        k(   32) = (   0.2065492   0.4130984   0.2909762), wk =   0.1280000
        k(   33) = (   0.2065492   0.4130984   0.5819524), wk =   0.1280000
        k(   34) = (   0.4130984   0.4130984   0.0000000), wk =   0.0320000
        k(   35) = (   0.4130984   0.4130984   0.2909762), wk =   0.0640000
        k(   36) = (   0.4130984   0.4130984   0.5819524), wk =   0.0640000

     Check: negative/imaginary core charge=   -0.000004    0.000000
     Check: negative starting charge=(component1):   -0.831806

[...]

     Threshold (ethr) on eigenvalues was too large:
     Diagonalizing with lowered threshold

     Davidson diagonalization with overlap
     ethr =  2.20E-10,  avg # of iterations =  2.0

[...]

     Total force =     0.000023     Total SCF correction =     0.000004
     SCF correction compared to forces is large: reduce conv_thr to get better values

[...]

     Volume is kept fixed: isostatic pressure set to zero

     bfgs converged in   6 scf cycles and   5 bfgs steps
     (criteria: energy < 0.10E-03, force < 0.10E-02, cell < 0.50E+00)

     End of BFGS Geometry Optimization

     Final enthalpy =    -501.2630535422 Ry
Begin final coordinates
     new unit-cell volume =    418.39674 a.u.^3 (    62.00000 Ang^3 )

CELL_PARAMETERS (alat=  8.65899730)
   0.968292268   0.000000000   0.000000000
   0.000000000   0.968292268   0.000000000
   0.000000000   0.000000000   0.687341484

ATOMIC_POSITIONS (crystal)
Ir0      0.000000000   0.000000000   0.000000000    0   0   0
Ir0      0.500000000   0.500000000   0.500000000    0   0   0
O1       0.309108211   0.309108211   0.000000000    1   1   0
O1      -0.309108211  -0.309108211   0.000000000    1   1   0
O1       0.809108211   0.190891789   0.500000000    1   1   0
O1       0.190891789   0.809108211   0.500000000    1   1   0
End final coordinates

     A final scf calculation at the relaxed structure.
     The G-vectors are recalculated for the final unit cell
     Results may differ from those at the preceding step.

     bravais-lattice index     =            0
     lattice parameter (alat)  =       8.6590  a.u.
     unit-cell volume          =     418.3967 (a.u.)^3
     number of atoms/cell      =            6
     number of atomic types    =            2
     number of electrons       =        54.00
     number of Kohn-Sham states=           78
     kinetic-energy cutoff     =      40.0000  Ry
     charge density cutoff     =     500.0000  Ry
     convergence threshold     =      1.0E-08
     mixing beta               =       0.7000
     number of iterations used =            8  plain     mixing
     Exchange-correlation      = SLA  PW   PBE  PBE ( 1 4 3 4 0)
     EXX-fraction              =        0.00

     celldm(1)=   8.658997  celldm(2)=   0.000000  celldm(3)=   0.000000
     celldm(4)=   0.000000  celldm(5)=   0.000000  celldm(6)=   0.000000

     crystal axes: (cart. coord. in units of alat)
               a(1) = (   0.968292   0.000000   0.000000 )
               a(2) = (   0.000000   0.968292   0.000000 )
               a(3) = (   0.000000   0.000000   0.687341 )

     reciprocal axes: (cart. coord. in units 2 pi/alat)
               b(1) = (  1.032746  0.000000  0.000000 )
               b(2) = (  0.000000  1.032746  0.000000 )
               b(3) = (  0.000000  0.000000  1.454881 )

     PseudoPot. # 1 for Ir read from file:
     /home/camp/zhonxu/pseudo/ir_pbe_v1.uspp.F.UPF
     MD5 check sum: abf987a9674477536ede83817f8f8b70
     Pseudo is Ultrasoft + core correction, Zval = 15.0
     Generated by new atomic code, or converted to UPF format
     Using radial grid of  983 points,  7 beta functions with:
                l(1) =   0
                l(2) =   0
                l(3) =   1
                l(4) =   1
                l(5) =   1
                l(6) =   2
                l(7) =   2
     Q(r) pseudized with  8 coefficients,  rinner =    1.350   1.350   1.350
                                                       1.350   1.350

     PseudoPot. # 2 for O  read from file:
     /home/camp/zhonxu/pseudo/o_pbe_v1.01.uspp.F.UPF
     MD5 check sum: 2bcb18d16ea4b960afae9ec6d52f22d2
     Pseudo is Ultrasoft + core correction, Zval =  6.0
     Generated by new atomic code, or converted to UPF format
     Using radial grid of  737 points,  5 beta functions with:
                l(1) =   0
                l(2) =   0
                l(3) =   1
                l(4) =   1
                l(5) =   2
     Q(r) pseudized with  8 coefficients,  rinner =    0.900   0.900   0.900
                                                       0.900   0.900

     atomic species   valence    mass     pseudopotential
        Ir0           15.00   192.22000     Ir( 1.00)
        O1             6.00    15.99940     O ( 1.00)

     Starting magnetic structure
     atomic species   magnetization
        Ir0          0.600
        O1           0.000

     16 Sym. Ops., with inversion, found ( 8 have fractional translation)

   Cartesian axes

     site n.     atom                  positions (alat units)
         1           Ir0 tau(   1) = (   0.0000000   0.0000000   0.0000000  )
         2           Ir0 tau(   2) = (   0.4841461   0.4841461   0.3436707  )
         3           O1  tau(   3) = (   0.2993071   0.2993071   0.0000000  )
         4           O1  tau(   4) = (  -0.2993071  -0.2993071   0.0000000  )
         5           O1  tau(   5) = (   0.7834532   0.1848390   0.3436707  )
         6           O1  tau(   6) = (   0.1848390   0.7834532   0.3436707  )

     number of k points=    36  Methfessel-Paxton smearing, width (Ry)=  0.0100
                       cart. coord. in units 2pi/alat
        k(    1) = (   0.0000000   0.0000000   0.0000000), wk =   0.0080000
        k(    2) = (   0.0000000   0.0000000   0.2909762), wk =   0.0160000
        k(    3) = (   0.0000000   0.0000000   0.5819524), wk =   0.0160000
        k(    4) = (   0.0000000   0.2065492   0.0000000), wk =   0.0320000
        k(    5) = (   0.0000000   0.2065492   0.2909762), wk =   0.0640000
        k(    6) = (   0.0000000   0.2065492   0.5819524), wk =   0.0640000
        k(    7) = (   0.0000000   0.4130984   0.0000000), wk =   0.0320000
        k(    8) = (   0.0000000   0.4130984   0.2909762), wk =   0.0640000
        k(    9) = (   0.0000000   0.4130984   0.5819524), wk =   0.0640000
        k(   10) = (   0.2065492   0.2065492   0.0000000), wk =   0.0320000
        k(   11) = (   0.2065492   0.2065492   0.2909762), wk =   0.0640000
        k(   12) = (   0.2065492   0.2065492   0.5819524), wk =   0.0640000
        k(   13) = (   0.2065492   0.4130984   0.0000000), wk =   0.0640000
        k(   14) = (   0.2065492   0.4130984   0.2909762), wk =   0.1280000
        k(   15) = (   0.2065492   0.4130984   0.5819524), wk =   0.1280000
        k(   16) = (   0.4130984   0.4130984   0.0000000), wk =   0.0320000
        k(   17) = (   0.4130984   0.4130984   0.2909762), wk =   0.0640000
        k(   18) = (   0.4130984   0.4130984   0.5819524), wk =   0.0640000
        k(   19) = (   0.0000000   0.0000000   0.0000000), wk =   0.0080000
        k(   20) = (   0.0000000   0.0000000   0.2909762), wk =   0.0160000
        k(   21) = (   0.0000000   0.0000000   0.5819524), wk =   0.0160000
        k(   22) = (   0.0000000   0.2065492   0.0000000), wk =   0.0320000
        k(   23) = (   0.0000000   0.2065492   0.2909762), wk =   0.0640000
        k(   24) = (   0.0000000   0.2065492   0.5819524), wk =   0.0640000
        k(   25) = (   0.0000000   0.4130984   0.0000000), wk =   0.0320000
        k(   26) = (   0.0000000   0.4130984   0.2909762), wk =   0.0640000
        k(   27) = (   0.0000000   0.4130984   0.5819524), wk =   0.0640000
        k(   28) = (   0.2065492   0.2065492   0.0000000), wk =   0.0320000
        k(   29) = (   0.2065492   0.2065492   0.2909762), wk =   0.0640000
        k(   30) = (   0.2065492   0.2065492   0.5819524), wk =   0.0640000
        k(   31) = (   0.2065492   0.4130984   0.0000000), wk =   0.0640000
        k(   32) = (   0.2065492   0.4130984   0.2909762), wk =   0.1280000
        k(   33) = (   0.2065492   0.4130984   0.5819524), wk =   0.1280000
        k(   34) = (   0.4130984   0.4130984   0.0000000), wk =   0.0320000
        k(   35) = (   0.4130984   0.4130984   0.2909762), wk =   0.0640000
        k(   36) = (   0.4130984   0.4130984   0.5819524), wk =   0.0640000

     Largest allocated arrays     est. size (Mb)     dimensions
     Largest temporary arrays     est. size (Mb)     dimensions

     Check: negative/imaginary core charge=   -0.000004    0.000000

     Initial potential from superposition of free atoms
     Check: negative starting charge=(component1):   -0.666946
     Check: negative starting charge=(component2):   -0.165859

     starting charge   52.99993, renormalised to   54.00000

     negative rho (up, down):  0.680E+00 0.169E+00
     Starting wfc are   40 randomized atomic wfcs

     Self-consistent Calculation

[...]

     total energy              =    -501.26364485 Ry
     Harris-Foulkes estimate   =    -501.26364591 Ry
     estimated scf accuracy    <       0.00000001 Ry

[...]

     iteration # 14     ecut=    40.00 Ry     beta=0.70
     Davidson diagonalization with overlap
     ethr =  2.10E-11,  avg # of iterations =  3.0

     negative rho (up, down):  0.390E+00 0.389E+00

     End of self-consistent calculation

 ------ SPIN UP ------------

[...]

 ------ SPIN DOWN ----------

[...]

          k = 0.4131 0.4131 0.5820 (  1784 PWs)   bands (ev):

   -35.7059 -35.6984 -35.6903 -35.6825 -35.4068 -35.4068  -5.2483  -5.1823
    -4.9207  -4.8760   6.0471   6.1397   6.5621   6.6173   7.2901   7.6843
     9.1166   9.1205   9.9901  10.2303  11.0175  11.3736  12.9247  13.0248
    13.0296  13.7768  14.1605  14.7903  16.7952  17.3111  18.3139  18.8209
    24.0234  24.3543  24.3550  24.4496  25.0496  25.2184  26.4465  26.7359
    28.1621  28.8002  31.7227  31.7641  33.9087  34.4715  35.6485  36.2721
    37.1105  37.4817  37.5160  39.0917  41.6702  41.9391  41.9906  42.1178
    43.1732  44.0140  45.5820  46.5760  46.9924  47.1878  47.7637  48.0555
    48.4502  48.6037  49.6548  49.9936  50.6014  51.2835  51.8147  52.1617
    52.4227  53.3554  53.4587  54.3525  54.8761  55.4107

     the Fermi energy is    14.8279 ev

!    total energy              =    -501.26364613 Ry
     Harris-Foulkes estimate   =    -501.26364612 Ry
     estimated scf accuracy    <          1.7E-09 Ry

     The total energy is the sum of the following terms:

     one-electron contribution =     -92.83902770 Ry
     hartree contribution      =      85.40412325 Ry
     xc contribution           =    -138.44097396 Ry
     ewald contribution        =    -355.38697114 Ry
     smearing contrib. (-TS)   =      -0.00079657 Ry

     total magnetization       =     0.01 Bohr mag/cell
     absolute magnetization    =     0.01 Bohr mag/cell

     convergence has been achieved in  14 iterations

     Forces acting on atoms (Ry/au):

     negative rho (up, down):  0.390E+00 0.389E+00
     atom    1 type  1   force =     0.00000000    0.00000000    0.00000000
     atom    2 type  1   force =     0.00000000    0.00000000    0.00000000
     atom    3 type  2   force =    -0.00004904   -0.00004904    0.00000000
     atom    4 type  2   force =     0.00004904    0.00004904    0.00000000
     atom    5 type  2   force =    -0.00004904    0.00004904   -0.00000000
     atom    6 type  2   force =     0.00004904   -0.00004904   -0.00000000

     Total force =     0.000139     Total SCF correction =     0.000002

     entering subroutine stress ...

     negative rho (up, down):  0.390E+00 0.389E+00
          total   stress  (Ry/bohr**3)                   (kbar)     P=  144.11
   0.00096606   0.00000000   0.00000000        142.11      0.00      0.00
   0.00000000   0.00096606   0.00000000          0.00    142.11      0.00
   0.00000000   0.00000000   0.00100671          0.00      0.00    148.09

     General routines

     Parallel routines

   This run was terminated on:  21:39:53  23Jan2014

   JOB DONE.
Running PBS batch system epilogue script
Job id: 251183.audhumbla.fysik.dtu.dk
Username: zhonxu
Groupname: campgst
Jobname: IrO2/coarse-EOS/IrO2-v-1.0
Sessionid: 12939
Queuename: verylong
Accounting:
This job has allocated the following 4 nodes:
q025 q025 q025 q025
Finished epilogue job 251183.audhumbla.fysik.dtu.dk for zhonxu