     Program PWSCF v.5.0.2 (svn rev. 9656) starts on  1Jun2014 at 15:10:14

     Current dimensions of program PWSCF are:
     Max number of different atomic species (ntypx) = 10
     Max number of k-points (npk) =  40000
     Max angular momentum in pseudopotentials (lmaxx) =  3
     Reading input from pwscf.in
Warning: card &CELL ignored
Warning: card / ignored

     Subspace diagonalization in iterative solution of the eigenvalue problem:
     a serial algorithm will be used

     bravais-lattice index     =            0
     lattice parameter (alat)  =      10.7336  a.u.
     unit-cell volume          =    6184.1966 (a.u.)^3
     number of atoms/cell      =           33
     number of atomic types    =            3
     number of electrons       =       245.00 (up: 134.00, down: 111.00)
     number of Kohn-Sham states=          355
     kinetic-energy cutoff     =      40.0000  Ry
     charge density cutoff     =     500.0000  Ry
     convergence threshold     =      1.0E-06
     mixing beta               =       0.7000
     number of iterations used =            8  plain     mixing
     Exchange-correlation      = SLA  PW   PBE  PBE ( 1 4 3 4 0)
     EXX-fraction              =        0.00
     nstep                     =           50

     celldm(1)=  10.733644  celldm(2)=   0.000000  celldm(3)=   0.000000
     celldm(4)=   0.000000  celldm(5)=   0.000000  celldm(6)=   0.000000

     crystal axes: (cart. coord. in units of alat)
               a(1) = (   1.000000   0.000000   0.000000 )
               a(2) = (   0.000000   1.085558   0.000000 )
               a(3) = (   0.000000   0.000000   4.606685 )

     reciprocal axes: (cart. coord. in units 2 pi/alat)
               b(1) = (  1.000000  0.000000  0.000000 )
               b(2) = (  0.000000  0.921185  0.000000 )
               b(3) = (  0.000000  0.000000  0.217076 )

     PseudoPot. # 1 for O  read from file:
     /home/camp/zhonxu/pseudo/o_pbe_v1.01.uspp.F.UPF
     MD5 check sum: 2bcb18d16ea4b960afae9ec6d52f22d2
     Pseudo is Ultrasoft + core correction, Zval =  6.0
     Generated by new atomic code, or converted to UPF format
     Using radial grid of  737 points,  5 beta functions with:
                l(1) =   0
                l(2) =   0
                l(3) =   1
                l(4) =   1
                l(5) =   2
     Q(r) pseudized with  8 coefficients,  rinner =    0.900   0.900   0.900
                                                       0.900   0.900

     PseudoPot. # 2 for Mn read from file:
     /home/camp/zhonxu/pseudo/mn_pbe_v1.uspp.F.UPF
     MD5 check sum: 5fd7c7b5c956fd19902447332617373a
     Pseudo is Ultrasoft + core correction, Zval = 15.0
     Generated by new atomic code, or converted to UPF format
     Using radial grid of  859 points,  6 beta functions with:
                l(1) =   0
                l(2) =   0
                l(3) =   1
                l(4) =   1
                l(5) =   2
                l(6) =   2
     Q(r) pseudized with  6 coefficients,  rinner =    1.150   1.150   1.150
                                                       1.150   1.150

     PseudoPot. # 3 for H  read from file:
     /home/camp/zhonxu/pseudo/h_pbe_v1.uspp.F.UPF
     MD5 check sum: 3408e3ff4ec8b0a4e358431e7e038a48
     Pseudo is Ultrasoft, Zval =  1.0
     Generated by new atomic code, or converted to UPF format
     Using radial grid of  615 points,  2 beta functions with:
                l(1) =   0
                l(2) =   0
     Q(r) pseudized with  8 coefficients,  rinner =    0.700

     atomic species   valence    mass     pseudopotential
        O0             6.00    15.99940     O ( 1.00)
        Mn1           15.00    54.93800     Mn( 1.00)
        H2             1.00     1.00794     H ( 1.00)

     Starting magnetic structure
     atomic species   magnetization
        O0           0.000
        Mn1          0.600
        H2           0.000

     Simplified LDA+U calculation (l_max = 2) with parameters (eV):
     atomic species    L          U    alpha       J0     beta
        Mn1            2     0.5000   0.0000   0.0000   0.0000

     No symmetry found

   Cartesian axes

     site n.     atom                  positions (alat units)
         1           O0  tau(   1) = (   0.0000000   0.0000000   1.7457494  )
         2           O0  tau(   2) = (   0.0000000   0.5427791   1.8442864  )
         3           Mn1 tau(   3) = (   0.2500000   0.5427791   2.0803790  )
         4           Mn1 tau(   4) = (   0.0000000   0.0000000   2.0733307  )
         5           O0  tau(   5) = (   0.2500000   0.8684466   2.0718105  )
         6           O0  tau(   6) = (   0.2500000   0.2171117   2.0783981  )
         7           O0  tau(   7) = (   0.0000000   0.5427791   2.2929314  )
         8           O0  tau(   8) = (   0.0000000   0.0000000   2.4163906  )
         9           Mn1 tau(   9) = (   0.2500000   0.0000000   2.6432698  )
        10           Mn1 tau(  10) = (   0.0000000   0.5427791   2.6163668  )
        11           O0  tau(  11) = (   0.2500000   0.7598908   2.6487057  )
        12           O0  tau(  12) = (   0.2500000   0.3256675   2.6647830  )
        13           O0  tau(  13) = (   0.0000000   0.0000000   2.8448584  )
        14           O0  tau(  14) = (   0.5000000   0.0000000   1.7464864  )
        15           O0  tau(  15) = (   0.5000000   0.5427791   1.8448852  )
        16           Mn1 tau(  16) = (   0.7500000   0.5427791   2.0803790  )
        17           Mn1 tau(  17) = (   0.5000000   0.0000000   2.0744363  )
        18           O0  tau(  18) = (   0.7500000   0.8684466   2.0716723  )
        19           O0  tau(  19) = (   0.7500000   0.2171117   2.0786745  )
        20           O0  tau(  20) = (   0.5000000   0.5427791   2.2968932  )
        21           O0  tau(  21) = (   0.5000000   0.0000000   2.4162984  )
        22           Mn1 tau(  22) = (   0.7500000   0.0000000   2.6433159  )
        23           Mn1 tau(  23) = (   0.5000000   0.5427791   2.6660729  )
        24           O0  tau(  24) = (   0.7500000   0.7598908   2.6487057  )
        25           O0  tau(  25) = (   0.7500000   0.3256675   2.6648291  )
        26           O0  tau(  26) = (   0.5000000   0.0000000   2.8426011  )
        27           H2  tau(  27) = (   0.0000600   0.7014769   1.7682761  )
        28           H2  tau(  28) = (   0.5000200   0.7014226   1.7687367  )
        29           H2  tau(  29) = (   0.1615100   0.0393949   1.6915287  )
        30           H2  tau(  30) = (   0.6615300   0.0393515   1.6922658  )
        31           O0  tau(  31) = (   0.4998600   0.5845297   2.9855926  )
        32           O0  tau(  32) = (   0.5002900   0.3746370   3.1260965  )
        33           H2  tau(  33) = (   0.4998600   0.4487589   3.2835069  )

     number of k points=    20  Methfessel-Paxton smearing, width (Ry)=  0.0100
                       cart. coord. in units 2pi/alat
        k(    1) = (   0.0000000   0.0000000   0.0000000), wk =   0.0625000
        k(    2) = (   0.0000000   0.2302962   0.0000000), wk =   0.1250000
        k(    3) = (   0.0000000  -0.4605925   0.0000000), wk =   0.0625000
        k(    4) = (   0.2500000   0.0000000   0.0000000), wk =   0.1250000
        k(    5) = (   0.2500000   0.2302962   0.0000000), wk =   0.1250000
        k(    6) = (   0.2500000  -0.4605925   0.0000000), wk =   0.1250000
        k(    7) = (  -0.5000000   0.0000000   0.0000000), wk =   0.0625000
        k(    8) = (  -0.5000000   0.2302962   0.0000000), wk =   0.1250000
        k(    9) = (  -0.5000000  -0.4605925   0.0000000), wk =   0.0625000
        k(   10) = (  -0.2500000   0.2302962   0.0000000), wk =   0.1250000
        k(   11) = (   0.0000000   0.0000000   0.0000000), wk =   0.0625000
        k(   12) = (   0.0000000   0.2302962   0.0000000), wk =   0.1250000
        k(   13) = (   0.0000000  -0.4605925   0.0000000), wk =   0.0625000
        k(   14) = (   0.2500000   0.0000000   0.0000000), wk =   0.1250000
        k(   15) = (   0.2500000   0.2302962   0.0000000), wk =   0.1250000
        k(   16) = (   0.2500000  -0.4605925   0.0000000), wk =   0.1250000
        k(   17) = (  -0.5000000   0.0000000   0.0000000), wk =   0.0625000
        k(   18) = (  -0.5000000   0.2302962   0.0000000), wk =   0.1250000
        k(   19) = (  -0.5000000  -0.4605925   0.0000000), wk =   0.0625000
        k(   20) = (  -0.2500000   0.2302962   0.0000000), wk =   0.1250000

     Largest allocated arrays     est. size (Mb)     dimensions
     Largest temporary arrays     est. size (Mb)     dimensions

     Check: negative/imaginary core charge=   -0.000022    0.000000

     Initial potential from superposition of free atoms
     Check: negative starting charge=(component1):   -0.000643
     Check: negative starting charge=(component2):   -0.000358

     starting charge  236.99986, renormalised to  245.00000

     negative rho (up, down):  0.665E-03 0.370E-03
     Number of +U iterations with fixed ns =  0
     Starting occupations:
 --- enter write_ns ---
 LDA+U parameters:
U( 2)     =  0.50000000
alpha( 2) =  0.00000000
atom    3   Tr[ns(na)] (up, down, total) =   5.00000  0.00000  5.00000
   spin  1
    eigenvalues:
  1.000  1.000  1.000  1.000  1.000
    eigenvectors:
  1.000  0.000  0.000  0.000  0.000
  0.000  1.000  0.000  0.000  0.000
  0.000  0.000  1.000  0.000  0.000
  0.000  0.000  0.000  1.000  0.000
  0.000  0.000  0.000  0.000  1.000
    occupations:
  1.000  0.000  0.000  0.000  0.000
  0.000  1.000  0.000  0.000  0.000
  0.000  0.000  1.000  0.000  0.000
  0.000  0.000  0.000  1.000  0.000
  0.000  0.000  0.000  0.000  1.000
   spin  2
    eigenvalues:
  0.000  0.000  0.000  0.000  0.000
    eigenvectors:
  1.000  0.000  0.000  0.000  0.000
  0.000  1.000  0.000  0.000  0.000
  0.000  0.000  1.000  0.000  0.000
  0.000  0.000  0.000  1.000  0.000
  0.000  0.000  0.000  0.000  1.000
    occupations:
  0.000  0.000  0.000  0.000  0.000
  0.000  0.000  0.000  0.000  0.000
  0.000  0.000  0.000  0.000  0.000
  0.000  0.000  0.000  0.000  0.000
  0.000  0.000  0.000  0.000  0.000
atomic mag. moment =     5.000000
atom    4   Tr[ns(na)] (up, down, total) =   5.00000  0.00000  5.00000
   spin  1
    eigenvalues:
  1.000  1.000  1.000  1.000  1.000
    eigenvectors:
  1.000  0.000  0.000  0.000  0.000
  0.000  1.000  0.000  0.000  0.000
  0.000  0.000  1.000  0.000  0.000
  0.000  0.000  0.000  1.000  0.000
  0.000  0.000  0.000  0.000  1.000
    occupations:
  1.000  0.000  0.000  0.000  0.000
  0.000  1.000  0.000  0.000  0.000
  0.000  0.000  1.000  0.000  0.000
  0.000  0.000  0.000  1.000  0.000
  0.000  0.000  0.000  0.000  1.000
   spin  2
    eigenvalues:
  0.000  0.000  0.000  0.000  0.000
    eigenvectors:
  1.000  0.000  0.000  0.000  0.000
  0.000  1.000  0.000  0.000  0.000
  0.000  0.000  1.000  0.000  0.000
  0.000  0.000  0.000  1.000  0.000
  0.000  0.000  0.000  0.000  1.000
    occupations:
  0.000  0.000  0.000  0.000  0.000
  0.000  0.000  0.000  0.000  0.000
  0.000  0.000  0.000  0.000  0.000
  0.000  0.000  0.000  0.000  0.000
  0.000  0.000  0.000  0.000  0.000
atomic mag. moment =     5.000000
[...]
  0.000  0.951  0.044  0.000  0.005
  0.000  0.043  0.956  0.000  0.001
  0.998  0.001  0.000  0.000  0.001
  0.000  0.000  0.000  0.999  0.000
    occupations:
  0.418  0.016  0.005 -0.010 -0.000
  0.016  0.199 -0.008  0.000 -0.002
  0.005 -0.008  0.237  0.001 -0.000
 -0.010  0.000  0.001  0.138 -0.000
 -0.000 -0.002 -0.000 -0.000  0.410
atomic mag. moment =     2.723789
atom    9   Tr[ns(na)] (up, down, total) =   4.00743  1.59234  5.59977
   spin  1
    eigenvalues:
  0.592  0.594  0.895  0.938  0.989
    eigenvectors:
  0.196  0.000  0.000  0.001  0.802
  0.004  0.996  0.000  0.000  0.000
  0.000  0.000  0.032  0.966  0.001
  0.800  0.003  0.000  0.000  0.197
  0.000  0.000  0.967  0.033  0.000
    occupations:
  0.911 -0.002 -0.001 -0.158 -0.001
 -0.002  0.594  0.000  0.001 -0.001
 -0.001  0.000  0.936 -0.007  0.008
 -0.158  0.001 -0.007  0.670  0.002
 -0.001 -0.001  0.008  0.002  0.896
   spin  2
    eigenvalues:
  0.212  0.245  0.255  0.422  0.459
    eigenvectors:
  0.841  0.000  0.000  0.158  0.000
  0.000  0.000  0.000  0.000  1.000
  0.000  0.991  0.008  0.001  0.000
  0.158  0.001  0.000  0.841  0.000
  0.000  0.008  0.992  0.000  0.000
    occupations:
  0.245  0.001  0.002  0.077  0.000
  0.001  0.459 -0.001 -0.001  0.001
  0.002 -0.001  0.245  0.005 -0.001
  0.077 -0.001  0.005  0.389 -0.001
  0.000  0.001 -0.001 -0.001  0.254
atomic mag. moment =     2.415081
atom   10   Tr[ns(na)] (up, down, total) =   4.26078  1.21480  5.47558
   spin  1
    eigenvalues:
  0.570  0.712  0.987  0.992  0.999
    eigenvectors:
  0.000  0.997  0.000  0.003  0.000
  0.000  0.000  1.000  0.000  0.000
  0.000  0.000  0.000  0.000  1.000
  0.000  0.003  0.000  0.997  0.000
  1.000  0.000  0.000  0.000  0.000
    occupations:
  0.713 -0.000 -0.000  0.016 -0.000
 -0.000  0.987 -0.000  0.000 -0.008
 -0.000 -0.000  0.999  0.000 -0.000
  0.016  0.000  0.000  0.991 -0.000
 -0.000 -0.008 -0.000 -0.000  0.570
   spin  2
    eigenvalues:
  0.135  0.195  0.198  0.286  0.401
    eigenvectors:
  0.008  0.001  0.000  0.992  0.000
  0.000  0.004  0.995  0.000  0.001
  0.002  0.993  0.004  0.001  0.000
  0.990  0.002  0.000  0.007  0.000
  0.000  0.000  0.001  0.000  0.999
    occupations:
  0.285  0.000 -0.003 -0.013 -0.000
  0.000  0.198 -0.000 -0.000  0.006
 -0.003 -0.000  0.195 -0.002  0.000
 -0.013 -0.000 -0.002  0.136  0.000
 -0.000  0.006  0.000  0.000  0.401
atomic mag. moment =     3.045975
atom   16   Tr[ns(na)] (up, down, total) =   4.14106  1.38628  5.52734
   spin  1
    eigenvalues:
  0.574  0.582  0.990  0.991  1.004
    eigenvectors:
  0.022  0.232  0.724  0.016  0.006
  0.913  0.087  0.000  0.001  0.000
  0.000  0.000  0.006  0.001  0.992
  0.065  0.681  0.248  0.005  0.001
  0.001  0.000  0.022  0.977  0.000
    occupations:
  0.886 -0.001 -0.004 -0.178  0.000
 -0.001  0.575  0.000 -0.002 -0.011
 -0.004  0.000  1.004 -0.005 -0.000
 -0.178 -0.002 -0.005  0.685  0.000
  0.000 -0.011 -0.000  0.000  0.990
   spin  2
    eigenvalues:
  0.146  0.195  0.238  0.399  0.410
    eigenvectors:
  0.773  0.000  0.001  0.151  0.074
  0.000  0.003  0.000  0.353  0.644
  0.001  0.020  0.979  0.000  0.000
  0.226  0.000  0.000  0.495  0.280
  0.001  0.976  0.020  0.001  0.002
    occupations:
  0.204 -0.001 -0.000  0.107 -0.001
 -0.001  0.405 -0.001  0.006  0.012
 -0.000 -0.001  0.237  0.004  0.006
  0.107  0.006  0.004  0.345  0.000
 -0.001  0.012  0.006  0.000  0.196
atomic mag. moment =     2.754773
atom   17   Tr[ns(na)] (up, down, total) =   4.12394  1.40148  5.52542
   spin  1
    eigenvalues:
  0.551  0.593  0.987  0.994  1.000
    eigenvectors:
  0.000  0.999  0.000  0.000  0.001
  0.000  0.001  0.000  0.013  0.986
  0.000  0.000  0.005  0.982  0.013
  0.000  0.000  0.994  0.005  0.000
  1.000  0.000  0.000  0.000  0.000
    occupations:
  0.593 -0.012 -0.004  0.004 -0.000
 -0.012  0.999  0.001 -0.000  0.001
 -0.004  0.001  0.994  0.000  0.000
  0.004 -0.000  0.000  0.987  0.000
 -0.000  0.001  0.000  0.000  0.551
   spin  2
    eigenvalues:
  0.138  0.195  0.239  0.408  0.421
    eigenvectors:
  0.001  0.005  0.000  0.000  0.993
  0.000  0.954  0.041  0.000  0.005
  0.000  0.040  0.959  0.000  0.001
  0.998  0.001  0.000  0.000  0.001
  0.000  0.000  0.000  1.000  0.000
    occupations:
  0.419  0.016  0.005 -0.009 -0.000
  0.016  0.198 -0.008  0.000 -0.002
  0.005 -0.008  0.238  0.001 -0.000
 -0.009  0.000  0.001  0.138 -0.000
 -0.000 -0.002 -0.000 -0.000  0.408
atomic mag. moment =     2.722452
atom   22   Tr[ns(na)] (up, down, total) =   4.00719  1.59264  5.59984
   spin  1
    eigenvalues:
  0.591  0.595  0.895  0.938  0.989
    eigenvectors:
  0.172  0.025  0.000  0.001  0.802
  0.135  0.865  0.000  0.000  0.000
  0.000  0.000  0.034  0.965  0.001
  0.693  0.110  0.000  0.000  0.197
  0.000  0.000  0.966  0.034  0.000
    occupations:
  0.911  0.003 -0.001 -0.158  0.001
  0.003  0.594  0.000 -0.000 -0.001
 -0.001  0.000  0.936 -0.007 -0.008
 -0.158 -0.000 -0.007  0.670 -0.001
  0.001 -0.001 -0.008 -0.001  0.896
   spin  2
    eigenvalues:
  0.212  0.245  0.255  0.422  0.459
    eigenvectors:
  0.841  0.000  0.000  0.158  0.000
  0.000  0.000  0.000  0.000  1.000
  0.000  0.991  0.008  0.001  0.000
  0.158  0.001  0.000  0.841  0.000
  0.000  0.008  0.992  0.000  0.000
    occupations:
  0.245 -0.001  0.002  0.077 -0.000
 -0.001  0.459  0.000  0.001  0.001
  0.002  0.000  0.245  0.005  0.001
  0.077  0.001  0.005  0.389  0.001
 -0.000  0.001  0.001  0.001  0.255
atomic mag. moment =     2.414550
atom   23   Tr[ns(na)] (up, down, total) =   4.08304  1.45655  5.53959
   spin  1
    eigenvalues:
  0.566  0.584  0.948  0.989  0.996
    eigenvectors:
  0.000  0.998  0.000  0.000  0.002
  0.001  0.000  0.999  0.000  0.000
  0.000  0.002  0.000  0.001  0.997
  0.000  0.000  0.000  0.999  0.001
  0.999  0.000  0.001  0.000  0.000
    occupations:
  0.585 -0.000  0.020  0.001 -0.000
 -0.000  0.947 -0.000 -0.000 -0.009
  0.020 -0.000  0.995 -0.000  0.000
  0.001 -0.000 -0.000  0.989 -0.000
 -0.000 -0.009  0.000 -0.000  0.567
   spin  2
    eigenvalues:
  0.147  0.196  0.296  0.393  0.424
    eigenvectors:
  0.000  0.000  0.000  1.000  0.000
  0.000  0.000  1.000  0.000  0.000
  0.000  1.000  0.000  0.000  0.000
  1.000  0.000  0.000  0.000  0.000
  0.000  0.000  0.000  0.000  1.000
    occupations:
  0.393  0.000 -0.003  0.000 -0.000
  0.000  0.296  0.000  0.000  0.002
 -0.003  0.000  0.196 -0.001  0.000
  0.000  0.000 -0.001  0.147 -0.000
 -0.000  0.002  0.000 -0.000  0.424
atomic mag. moment =     2.626497
N of occupied +U levels =  44.3220171
 --- exit write_ns ---

 ------ SPIN UP ------------

[...]

 ------ SPIN DOWN ----------

[...]

          k = 0.2500-0.4606 0.0000 ( 26462 PWs)   bands (ev):

[...]

          k =-0.2500 0.2303 0.0000 ( 26396 PWs)   bands (ev):

   -80.1548 -80.1467 -80.1348 -80.0158 -80.0073 -79.8830 -79.8685 -79.6638
   -49.0706 -49.0098 -48.9729 -48.9289 -48.9270 -48.9172 -48.9110 -48.9005
   -48.8802 -48.8717 -48.8590 -48.8432 -48.8346 -48.8225 -48.7331 -48.7041
   -48.6848 -48.6457 -48.5796 -48.5609 -48.4952 -48.4805 -48.4761 -48.2692
   -24.0533 -21.2491 -20.8236 -20.4278 -20.1720 -19.9728 -19.6866 -19.5832
   -19.4976 -19.4287 -19.3319 -19.2657 -19.2230 -19.1010 -18.9948 -18.9095
   -18.7500 -18.4274 -18.2818 -17.4006  -9.0042  -8.8070  -8.5419  -8.0160
    -7.9204  -7.8688  -7.6891  -7.4766  -7.3504  -7.2480  -7.1852  -7.1087
    -6.9813  -6.9200  -6.7280  -6.6543  -6.5773  -6.4788  -6.4264  -6.3467
    -6.2048  -6.1474  -6.0447  -5.8948  -5.8464  -5.7498  -5.6809  -5.4411
    -5.2385  -5.2005  -5.1005  -4.9861  -4.9216  -4.8804  -4.8220  -4.7371
    -4.6621  -4.5336  -4.3967  -4.2880  -4.1458  -4.1030  -3.9897  -3.8555
    -3.7389  -3.6446  -3.5838  -3.4904  -3.4090  -3.2355  -3.0750  -3.0167
    -2.9740  -2.7489  -2.5904  -2.5068  -2.3388  -2.1075  -1.7565  -0.5573
    -0.5403  -0.3795  -0.3306  -0.2937  -0.2453  -0.1716  -0.1105  -0.0350
     0.0033   0.0724   0.1543   0.1986   0.2432   0.2626   0.4232   0.4699
     0.5393   0.6505   0.7808   0.8601   0.9566   1.0293   1.1232   1.2589
     1.3903   1.5071   1.6321   1.9435   1.9611   2.0888   2.1690   2.4141
     2.4997   2.8078   2.9181   2.9253   3.1594   3.2775   3.3243   3.4213
     3.9526   4.0872   4.3294   4.8677   5.4867   5.6361   5.9078   6.0100
     6.2056   6.3104   6.4209   6.5699   6.8622   6.9681   7.1858   7.5136
     7.6447   7.7961   8.0457   8.1494   8.3706   8.4665   8.5585   8.6823
     8.8766   9.0243   9.2488   9.3294   9.4942   9.5938   9.7922   9.8489
     9.9657  10.0649  10.1167  10.2161  10.3218  10.4590  10.5452  10.6004
    10.7763  10.8638  10.9327  11.0487  11.1187  11.3371  11.3706  11.4660
    11.5995  11.6972  11.7769  11.8478  11.8994  12.0374  12.1411  12.2150
    12.2847  12.3550  12.4704  12.5168  12.6087  12.6361  12.7942  12.8837
    12.9063  13.0262  13.0970  13.2145  13.2711  13.3504  13.4712  13.5288
    13.6077  13.6853  13.7061  13.7684  13.9537  14.0131  14.0530  14.1656
    14.2662  14.3246  14.3946  14.4168  14.4520  14.5984  14.6640  14.8039
    14.8397  14.9053  14.9334  15.0302  15.1433  15.2084  15.2718  15.3191
    15.4379  15.5029  15.5649  15.6390  15.6902  15.7567  15.8627  15.8932
    16.0083  16.0818  16.1755  16.2225  16.2682  16.3583  16.4503  16.5010
    16.5545  16.6260  16.6677  16.7672  16.8607  16.9123  17.0003  17.0499
    17.1575  17.1867  17.3104  17.3552  17.4716  17.5580  17.5940  17.6469
    17.6970  17.7651  17.8626  17.8900  17.9862  18.0303  18.1020  18.1538
    18.2443  18.3422  18.4061  18.4365  18.5483  18.6047  18.6686  18.7359
    18.8132  18.8470  18.9197  18.9647  19.0342  19.1040  19.1792  19.2419
    19.4070  19.4714  19.5560  19.6193  19.6690  19.7186  19.8105  19.8827
    19.9550  20.0429  20.0712  20.2276  20.2469  20.3298  20.4338  20.5033
    20.5689  20.6807  20.7419  20.8378  20.9160  20.9624  21.0475  21.1399
    21.1852  21.2411  21.3200  21.3577  21.4619  21.5270  21.5957  21.7025
    21.8002  21.8959  21.9512  22.0228  22.1127  22.2106  22.2364  22.3321
    22.4018  22.4910  22.5726  22.6368  22.7145  22.7438  22.8093  22.8823
    22.9873  23.0499  23.1429

     the spin up/dw Fermi energies are    -1.2767   -1.6209 ev

!    total energy              =   -2354.08288130 Ry
     Harris-Foulkes estimate   =   -2354.08288131 Ry
     estimated scf accuracy    <          9.1E-09 Ry

     The total energy is the sum of the following terms:

     one-electron contribution =  -27278.48688575 Ry
     hartree contribution      =   13664.62227396 Ry
     xc contribution           =    -355.94738848 Ry
     ewald contribution        =   11615.50836168 Ry
     Hubbard energy            =       0.22105591 Ry
     smearing contrib. (-TS)   =      -0.00029862 Ry

     total magnetization       =    23.00 Bohr mag/cell
     absolute magnetization    =    24.45 Bohr mag/cell

     convergence has been achieved in  22 iterations

     Forces acting on atoms (Ry/au):

     negative rho (up, down):  0.217E-02 0.125E-02
     atom    1 type  1   force =    -0.00423932   -0.01561069    0.00030912
     atom    2 type  1   force =     0.00025751    0.01212523    0.00011507
     atom    3 type  2   force =     0.03216874   -0.00398075    0.00009958
     atom    4 type  2   force =     0.00441361    0.01137846    0.00010656
     atom    5 type  1   force =     0.00208490    0.00782182   -0.00040946
     atom    6 type  1   force =    -0.00420807   -0.01030396   -0.00027076
     atom    7 type  1   force =     0.00001392   -0.00192447    0.00030867
     atom    8 type  1   force =    -0.00049252    0.00364359    0.00018895
     atom    9 type  2   force =     0.00098229   -0.00069470   -0.00053796
     atom   10 type  2   force =    -0.00007095   -0.00299812   -0.00009075
     atom   11 type  1   force =    -0.01628624   -0.04811769   -0.00010200
     atom   12 type  1   force =    -0.01218107    0.05882205    0.00036278
     atom   13 type  1   force =    -0.00024517   -0.00518842    0.00022113
     atom   14 type  1   force =    -0.00469573   -0.01585614    0.00014624
     atom   15 type  1   force =     0.00023588    0.01232860    0.00028924
     atom   16 type  2   force =    -0.03294515   -0.00393823    0.00011215
     atom   17 type  2   force =     0.00441684    0.01156145    0.00007808
     atom   18 type  1   force =     0.00481364    0.00766042   -0.00038895
     atom   19 type  1   force =    -0.00127298   -0.01035637   -0.00028132
     atom   20 type  1   force =    -0.00003825   -0.00209732   -0.00037842
     atom   21 type  1   force =    -0.00048442    0.00325951    0.00025186
     atom   22 type  2   force =    -0.00013172   -0.00059785   -0.00053138
     atom   23 type  2   force =    -0.00007376   -0.00567516    0.00091657
     atom   24 type  1   force =     0.01646294   -0.04809940   -0.00010914
     atom   25 type  1   force =     0.01223544    0.05888481    0.00037186
     atom   26 type  1   force =    -0.00023473   -0.01337133    0.00022959
     atom   27 type  3   force =     0.00001805   -0.00005544    0.00006490
     atom   28 type  3   force =     0.00001366   -0.00010827    0.00015035
     atom   29 type  3   force =    -0.00031104   -0.00005121   -0.00038287
     atom   30 type  3   force =    -0.00022683    0.00001354   -0.00034277
     atom   31 type  1   force =    -0.00003237    0.00038703    0.00041987
     atom   32 type  1   force =     0.00008845    0.00026674   -0.00073983
     atom   33 type  3   force =    -0.00003552    0.00087226   -0.00017696

     Total force =     0.002254     Total SCF correction =     0.000372
     SCF correction compared to forces is large: reduce conv_thr to get better values

     entering subroutine stress ...

     negative rho (up, down):  0.217E-02 0.125E-02
          total   stress  (Ry/bohr**3)                   (kbar)     P=    6.60
   0.00004174  -0.00000483   0.00000485          6.14     -0.71      0.71
  -0.00000483   0.00015155   0.00000362         -0.71     22.29      0.53
   0.00000485   0.00000362  -0.00005878          0.71      0.53     -8.65

     bfgs converged in   7 scf cycles and   6 bfgs steps
     (criteria: energy < 0.10E-03, force < 0.10E-02)

     End of BFGS Geometry Optimization

     Final energy   =   -2354.0828813023 Ry
Begin final coordinates

ATOMIC_POSITIONS (crystal)
O0       0.000000000   0.000000000   0.378682600    0   0   1
O0       0.000000000   0.500000000   0.400272714    0   0   1
Mn1      0.250000000   0.500000000   0.451523113    0   0   1
Mn1      0.000000000   0.000000000   0.449855616    0   0   1
O0       0.250000000   0.800000000   0.449698877    0   0   1
O0       0.250000000   0.200000000   0.451207875    0   0   1
O0       0.000000000   0.500000000   0.497687567    0   0   1
O0       0.000000000   0.000000000   0.524550919    0   0   1
Mn1      0.250000000   0.000000000   0.573715949    0   0   1
Mn1      0.000000000   0.500000000   0.568123440    0   0   1
O0       0.250000000   0.700000000   0.575029606    0   0   1
O0       0.250000000   0.300000000   0.578879432    0   0   1
O0       0.000000000   0.000000000   0.617692714    0   0   1
O0       0.500000000   0.000000000   0.378944679    0   0   1
O0       0.500000000   0.500000000   0.400330034    0   0   1
Mn1      0.750000000   0.500000000   0.451521883    0   0   1
Mn1      0.500000000   0.000000000   0.450205554    0   0   1
O0       0.750000000   0.800000000   0.449674834    0   0   1
O0       0.750000000   0.200000000   0.451243992    0   0   1
O0       0.500000000   0.500000000   0.498722376    0   0   1
O0       0.500000000   0.000000000   0.524505195    0   0   1
Mn1      0.750000000   0.000000000   0.573721651    0   0   1
Mn1      0.500000000   0.500000000   0.578262359    0   0   1
O0       0.750000000   0.700000000   0.575023329    0   0   1
O0       0.750000000   0.300000000   0.578890579    0   0   1
O0       0.500000000   0.000000000   0.617224203    0   0   1
H2       0.000068155   0.646603092   0.383958765
H2       0.500063966   0.646796586   0.384064372
H2       0.161891785   0.036453839   0.367152497
H2       0.661694350   0.036344781   0.367292380
O0       0.499821623   0.539350926   0.648309827
O0       0.500380360   0.346199472   0.678528784
H2       0.499825176   0.413540584   0.712812285
End final coordinates

     General routines

     Parallel routines
     Hubbard U routines

   This run was terminated on:   5:53:18   2Jun2014

   JOB DONE.
Running PBS batch system epilogue script
Job id: 373393.audhumbla.fysik.dtu.dk
Username: zhonxu
Groupname: campgst
Jobname: MnO2/Eads-2-layers/OOH-U-0.5
Sessionid: 20221
Queuename: verylong
Accounting:
This job has allocated the following 16 nodes:
c072 c072 c072 c072 c072 c072 c072 c072 c048 c048 c048 c048 c048 c048 c048 c048
Finished epilogue job 373393.audhumbla.fysik.dtu.dk for zhonxu