     Program PWSCF v.5.0.2 (svn rev. 9656) starts on 10May2014 at  3:56:21

     Current dimensions of program PWSCF are:
     Max number of different atomic species (ntypx) = 10
     Max number of k-points (npk) =  40000
     Max angular momentum in pseudopotentials (lmaxx) =  3
     Reading input from pwscf.in
Warning: card &CELL ignored
Warning: card / ignored

     Subspace diagonalization in iterative solution of the eigenvalue problem:
     a serial algorithm will be used

     bravais-lattice index     =            0
     lattice parameter (alat)  =      11.2250  a.u.
     unit-cell volume          =    7005.5484 (a.u.)^3
     number of atoms/cell      =           31
     number of atomic types    =            3
     number of electrons       =       214.00
     number of Kohn-Sham states=          309
     kinetic-energy cutoff     =      40.0000  Ry
     charge density cutoff     =     500.0000  Ry
     convergence threshold     =      1.0E-06
     mixing beta               =       0.7000
     number of iterations used =            8  plain     mixing
     Exchange-correlation      = SLA  PW   PBE  PBE ( 1 4 3 4 0)
     EXX-fraction              =        0.00
     nstep                     =           50

     celldm(1)=  11.224973  celldm(2)=   0.000000  celldm(3)=   0.000000
     celldm(4)=   0.000000  celldm(5)=   0.000000  celldm(6)=   0.000000

     crystal axes: (cart. coord. in units of alat)
               a(1) = (   1.000000   0.000000   0.000000 )
               a(2) = (   0.000000   1.107086   0.000000 )
               a(3) = (   0.000000   0.000000   4.474090 )

     reciprocal axes: (cart. coord. in units 2 pi/alat)
               b(1) = (  1.000000  0.000000  0.000000 )
               b(2) = (  0.000000  0.903272  0.000000 )
               b(3) = (  0.000000  0.000000  0.223509 )

     PseudoPot. # 1 for O  read from file:
     /home/camp/zhonxu/pseudo/o_pbe_v1.01.uspp.F.UPF
     MD5 check sum: 2bcb18d16ea4b960afae9ec6d52f22d2
     Pseudo is Ultrasoft + core correction, Zval =  6.0
     Generated by new atomic code, or converted to UPF format
     Using radial grid of  737 points,  5 beta functions with:
                l(1) =   0
                l(2) =   0
                l(3) =   1
                l(4) =   1
                l(5) =   2
     Q(r) pseudized with  8 coefficients,  rinner =    0.900   0.900   0.900
                                                       0.900   0.900

     PseudoPot. # 2 for Ti read from file:
     /home/camp/zhonxu/pseudo/ti_pbe_v1.uspp.F.UPF
     MD5 check sum: bcc8f6961b3b91f0cac3ca967d22d0fb
     Pseudo is Ultrasoft + core correction, Zval = 12.0
     Generated by new atomic code, or converted to UPF format
     Using radial grid of  851 points,  6 beta functions with:
                l(1) =   0
                l(2) =   0
                l(3) =   1
                l(4) =   1
                l(5) =   2
                l(6) =   2
     Q(r) pseudized with  6 coefficients,  rinner =    1.000   1.000   1.000
                                                       1.000   1.000

     PseudoPot. # 3 for H  read from file:
     /home/camp/zhonxu/pseudo/h_pbe_v1.uspp.F.UPF
     MD5 check sum: 3408e3ff4ec8b0a4e358431e7e038a48
     Pseudo is Ultrasoft, Zval =  1.0
     Generated by new atomic code, or converted to UPF format
     Using radial grid of  615 points,  2 beta functions with:
                l(1) =   0
                l(2) =   0
     Q(r) pseudized with  8 coefficients,  rinner =    0.700

     atomic species   valence    mass     pseudopotential
        O0             6.00    15.99940     O ( 1.00)
        Ti1           12.00    47.88000     Ti( 1.00)
        H2             1.00     1.00794     H ( 1.00)

     Simplified LDA+U calculation (l_max = 2) with parameters (eV):
     atomic species    L          U    alpha       J0     beta
        Ti1            2     0.0000   0.0000   0.0000   0.0000

     No symmetry found

   Cartesian axes

     site n.     atom                  positions (alat units)
         1           O0  tau(   1) = (   0.0000000   0.0000000   1.6912507  )
         2           O0  tau(   2) = (   0.0000000   0.5535432   1.7801061  )
         3           Ti1 tau(   3) = (   0.2500000   0.5535432   2.0136983  )
         4           Ti1 tau(   4) = (   0.0000000   0.0000000   2.0256889  )
         5           O0  tau(   5) = (   0.2500000   0.8967400   2.0101638  )
         6           O0  tau(   6) = (   0.2500000   0.2103464   2.0140115  )
         7           O0  tau(   7) = (   0.0000000   0.5535432   2.2264413  )
         8           O0  tau(   8) = (   0.0000000   0.0000000   2.3510894  )
         9           Ti1 tau(   9) = (   0.2500000   0.0000000   2.5997146  )
        10           Ti1 tau(  10) = (   0.0000000   0.5535432   2.5433858  )
        11           O0  tau(  11) = (   0.2500000   0.7638896   2.5969406  )
        12           O0  tau(  12) = (   0.2500000   0.3431968   2.5970301  )
        13           O0  tau(  13) = (   0.0000000   0.0000000   2.7842260  )
        14           O0  tau(  14) = (   0.5000000   0.0000000   1.6905348  )
        15           O0  tau(  15) = (   0.5000000   0.5535432   1.7767953  )
        16           Ti1 tau(  16) = (   0.7500000   0.5535432   2.0136983  )
        17           Ti1 tau(  17) = (   0.5000000   0.0000000   2.0204542  )
        18           O0  tau(  18) = (   0.7500000   0.8967400   2.0103875  )
        19           O0  tau(  19) = (   0.7500000   0.2103464   2.0134299  )
        20           O0  tau(  20) = (   0.5000000   0.5535432   2.2001336  )
        21           O0  tau(  21) = (   0.5000000   0.0000000   2.3501946  )
        22           Ti1 tau(  22) = (   0.7500000   0.0000000   2.5996698  )
        23           Ti1 tau(  23) = (   0.5000000   0.5535432   2.6765794  )
        24           O0  tau(  24) = (   0.7500000   0.7638896   2.5974328  )
        25           O0  tau(  25) = (   0.7500000   0.3431968   2.5965380  )
        26           O0  tau(  26) = (   0.5000000   0.0000000   2.7806915  )
        27           H2  tau(  27) = (  -0.0007400   0.6861389   1.6797970  )
        28           H2  tau(  28) = (   0.4994200   0.6816995   1.6713410  )
        29           H2  tau(  29) = (   0.1486600   0.0377184   1.6265106  )
        30           H2  tau(  30) = (   0.6489300   0.0363456   1.6257052  )
        31           O0  tau(  31) = (   0.4999900   0.5533882   2.9590287  )

     number of k points=    10  Methfessel-Paxton smearing, width (Ry)=  0.0100
                       cart. coord. in units 2pi/alat
        k(    1) = (   0.0000000   0.0000000   0.0000000), wk =   0.1250000
        k(    2) = (   0.0000000   0.2258180   0.0000000), wk =   0.2500000
        k(    3) = (   0.0000000  -0.4516359   0.0000000), wk =   0.1250000
        k(    4) = (   0.2500000   0.0000000   0.0000000), wk =   0.2500000
        k(    5) = (   0.2500000   0.2258180   0.0000000), wk =   0.2500000
        k(    6) = (   0.2500000  -0.4516359   0.0000000), wk =   0.2500000
        k(    7) = (  -0.5000000   0.0000000   0.0000000), wk =   0.1250000
        k(    8) = (  -0.5000000   0.2258180   0.0000000), wk =   0.2500000
        k(    9) = (  -0.5000000  -0.4516359   0.0000000), wk =   0.1250000
        k(   10) = (  -0.2500000   0.2258180   0.0000000), wk =   0.2500000

     Largest allocated arrays     est. size (Mb)     dimensions
     Largest temporary arrays     est. size (Mb)     dimensions

     Check: negative/imaginary core charge=   -0.000006    0.000000

     Initial potential from superposition of free atoms
     Check: negative starting charge=   -0.102438

     starting charge  205.99958, renormalised to  214.00000

     negative rho (up, down):  0.106E+00 0.000E+00
     Number of +U iterations with fixed ns =  0
     Starting occupations:
 --- enter write_ns ---
 LDA+U parameters:
U( 2)     =  0.00000000
alpha( 2) =  0.00000000
atom    3   Tr[ns(na)] =   2.00000
    eigenvalues:
  0.200  0.200  0.200  0.200  0.200
    eigenvectors:
  1.000  0.000  0.000  0.000  0.000
  0.000  1.000  0.000  0.000  0.000
  0.000  0.000  1.000  0.000  0.000
  0.000  0.000  0.000  1.000  0.000
  0.000  0.000  0.000  0.000  1.000
    occupations:
  0.200  0.000  0.000  0.000  0.000
  0.000  0.200  0.000  0.000  0.000
  0.000  0.000  0.200  0.000  0.000
  0.000  0.000  0.000  0.200  0.000
  0.000  0.000  0.000  0.000  0.200
atom    4   Tr[ns(na)] =   2.00000
    eigenvalues:
  0.200  0.200  0.200  0.200  0.200
    eigenvectors:
  1.000  0.000  0.000  0.000  0.000
  0.000  1.000  0.000  0.000  0.000
  0.000  0.000  1.000  0.000  0.000
  0.000  0.000  0.000  1.000  0.000
  0.000  0.000  0.000  0.000  1.000
    occupations:
  0.200  0.000  0.000  0.000  0.000
  0.000  0.200  0.000  0.000  0.000
  0.000  0.000  0.200  0.000  0.000
  0.000  0.000  0.000  0.200  0.000
  0.000  0.000  0.000  0.000  0.200
atom    9   Tr[ns(na)] =   2.00000
    eigenvalues:
  0.200  0.200  0.200  0.200  0.200
    eigenvectors:
  1.000  0.000  0.000  0.000  0.000
  0.000  1.000  0.000  0.000  0.000
  0.000  0.000  1.000  0.000  0.000
  0.000  0.000  0.000  1.000  0.000
  0.000  0.000  0.000  0.000  1.000
    occupations:
  0.200  0.000  0.000  0.000  0.000
  0.000  0.200  0.000  0.000  0.000
  0.000  0.000  0.200  0.000  0.000
  0.000  0.000  0.000  0.200  0.000
  0.000  0.000  0.000  0.000  0.200
atom   10   Tr[ns(na)] =   2.00000
    eigenvalues:
  0.200  0.200  0.200  0.200  0.200
    eigenvectors:
  1.000  0.000  0.000  0.000  0.000
  0.000  1.000  0.000  0.000  0.000
  0.000  0.000  1.000  0.000  0.000
  0.000  0.000  0.000  1.000  0.000
  0.000  0.000  0.000  0.000  1.000
    occupations:
  0.200  0.000  0.000  0.000  0.000
  0.000  0.200  0.000  0.000  0.000
  0.000  0.000  0.200  0.000  0.000
  0.000  0.000  0.000  0.200  0.000
  0.000  0.000  0.000  0.000  0.200
atom   16   Tr[ns(na)] =   2.00000
    eigenvalues:
  0.200  0.200  0.200  0.200  0.200
    eigenvectors:
  1.000  0.000  0.000  0.000  0.000
  0.000  1.000  0.000  0.000  0.000
  0.000  0.000  1.000  0.000  0.000
  0.000  0.000  0.000  1.000  0.000
  0.000  0.000  0.000  0.000  1.000
    occupations:
  0.200  0.000  0.000  0.000  0.000
  0.000  0.200  0.000  0.000  0.000
  0.000  0.000  0.200  0.000  0.000
  0.000  0.000  0.000  0.200  0.000
  0.000  0.000  0.000  0.000  0.200
atom   17   Tr[ns(na)] =   2.00000
    eigenvalues:
  0.200  0.200  0.200  0.200  0.200
    eigenvectors:
  1.000  0.000  0.000  0.000  0.000
  0.000  1.000  0.000  0.000  0.000
  0.000  0.000  1.000  0.000  0.000
  0.000  0.000  0.000  1.000  0.000
  0.000  0.000  0.000  0.000  1.000
    occupations:
  0.200  0.000  0.000  0.000  0.000
  0.000  0.200  0.000  0.000  0.000
  0.000  0.000  0.200  0.000  0.000
  0.000  0.000  0.000  0.200  0.000
  0.000  0.000  0.000  0.000  0.200
atom   22   Tr[ns(na)] =   2.00000
    eigenvalues:
  0.200  0.200  0.200  0.200  0.200
    eigenvectors:
  1.000  0.000  0.000  0.000  0.000
  0.000  1.000  0.000  0.000  0.000
  0.000  0.000  1.000  0.000  0.000
  0.000  0.000  0.000  1.000  0.000
  0.000  0.000  0.000  0.000  1.000
    occupations:
  0.200  0.000  0.000  0.000  0.000
  0.000  0.200  0.000  0.000  0.000
[...]

     negative rho (up, down):  0.105E+00 0.000E+00

     total energy              =   -1543.64747457 Ry
     Harris-Foulkes estimate   =   -1568.89357600 Ry
     estimated scf accuracy    <      28.85517290 Ry

     iteration #  2     ecut=    40.00 Ry     beta=0.70
     Davidson diagonalization with overlap
     ethr =  1.00E-02,  avg # of iterations =  7.0

[...]

     total energy              =   -1566.94467451 Ry
     Harris-Foulkes estimate   =   -1566.94467482 Ry
     estimated scf accuracy    <       0.00000247 Ry

     iteration # 32     ecut=    40.00 Ry     beta=0.70
     Davidson diagonalization with overlap
     ethr =  1.15E-09,  avg # of iterations =  1.0

     negative rho (up, down):  0.102E+00 0.000E+00

     End of self-consistent calculation
 --- enter write_ns ---
 LDA+U parameters:
U( 2)     =  0.00000000
alpha( 2) =  0.00000000
atom    3   Tr[ns(na)] =   2.89023
    eigenvalues:
  0.198  0.213  0.232  0.381  0.422
    eigenvectors:
  0.034  0.714  0.073  0.171  0.009
  0.004  0.005  0.004  0.169  0.819
  0.605  0.000  0.394  0.001  0.000
  0.011  0.149  0.011  0.659  0.170
  0.347  0.132  0.518  0.000  0.002
    occupations:
  0.245  0.011 -0.004  0.064  0.002
  0.011  0.412  0.003 -0.022  0.010
 -0.004  0.003  0.211  0.006 -0.015
  0.064 -0.022  0.006  0.359 -0.002
  0.002  0.010 -0.015 -0.002  0.218
atom    4   Tr[ns(na)] =   2.97255
    eigenvalues:
  0.187  0.225  0.240  0.412  0.422
    eigenvectors:
  0.006  0.003  0.000  0.001  0.991
  0.001  0.911  0.086  0.000  0.002
  0.000  0.086  0.914  0.000  0.000
  0.993  0.001  0.000  0.000  0.006
  0.000  0.000  0.000  0.999  0.001
    occupations:
  0.420  0.010  0.003 -0.017 -0.000
  0.010  0.227 -0.004  0.000 -0.001
  0.003 -0.004  0.239  0.000 -0.000
 -0.017  0.000  0.000  0.189 -0.000
 -0.000 -0.001 -0.000 -0.000  0.412
atom    9   Tr[ns(na)] =   2.95329
    eigenvalues:
  0.193  0.231  0.250  0.382  0.421
    eigenvectors:
  0.000  0.000  0.924  0.076  0.000
  0.000  0.000  0.000  0.002  0.998
  1.000  0.000  0.000  0.000  0.000
  0.000  0.000  0.076  0.922  0.002
  0.000  1.000  0.000  0.000  0.000
    occupations:
  0.260  0.001  0.000  0.035  0.000
  0.001  0.421  0.000 -0.002 -0.000
  0.000  0.000  0.193 -0.000 -0.001
  0.035 -0.002 -0.000  0.372 -0.000
  0.000 -0.000 -0.001 -0.000  0.231
atom   10   Tr[ns(na)] =   2.87672
    eigenvalues:
  0.196  0.240  0.250  0.330  0.423
    eigenvectors:
  0.016  0.000  0.000  0.984  0.000
  0.000  0.000  1.000  0.000  0.000
  0.000  1.000  0.000  0.000  0.000
  0.984  0.000  0.000  0.016  0.000
  0.000  0.000  0.000  0.000  1.000
    occupations:
  0.328 -0.000 -0.000 -0.017 -0.000
 -0.000  0.250 -0.000 -0.000 -0.000
 -0.000 -0.000  0.240 -0.000  0.000
 -0.017 -0.000 -0.000  0.198  0.000
 -0.000 -0.000  0.000  0.000  0.423
atom   16   Tr[ns(na)] =   2.89027
    eigenvalues:
  0.198  0.213  0.232  0.381  0.422
    eigenvectors:
  0.033  0.712  0.075  0.171  0.009
  0.004  0.005  0.004  0.169  0.819
  0.607  0.000  0.392  0.001  0.000
  0.011  0.148  0.012  0.659  0.170
  0.346  0.135  0.517  0.001  0.002
    occupations:
  0.244 -0.011 -0.004  0.064 -0.003
 -0.011  0.412 -0.003  0.022  0.010
 -0.004 -0.003  0.211  0.006  0.015
  0.064  0.022  0.006  0.359  0.001
 -0.003  0.010  0.015  0.001  0.218
atom   17   Tr[ns(na)] =   2.96587
    eigenvalues:
  0.188  0.222  0.240  0.411  0.422
    eigenvectors:
  0.006  0.003  0.000  0.000  0.991
  0.001  0.909  0.087  0.000  0.003
  0.000  0.087  0.913  0.000  0.000
  0.993  0.001  0.000  0.000  0.005
  0.000  0.000  0.000  1.000  0.000
    occupations:
  0.420  0.011  0.004 -0.017 -0.000
  0.011  0.224 -0.005  0.000 -0.001
  0.004 -0.005  0.238  0.000 -0.000
 -0.017  0.000  0.000  0.189 -0.000
 -0.000 -0.001 -0.000 -0.000  0.411
atom   22   Tr[ns(na)] =   2.95322
    eigenvalues:
  0.193  0.231  0.250  0.382  0.421
    eigenvectors:
  0.000  0.000  0.924  0.076  0.000
  0.000  0.000  0.000  0.002  0.998
  1.000  0.000  0.000  0.000  0.000
  0.000  0.000  0.076  0.922  0.002
  0.000  1.000  0.000  0.000  0.000
    occupations:
  0.260 -0.001 -0.000  0.035  0.000
 -0.001  0.421  0.000  0.002 -0.000
 -0.000  0.000  0.193 -0.000  0.001
  0.035  0.002 -0.000  0.372 -0.000
  0.000 -0.000  0.001 -0.000  0.231
atom   23   Tr[ns(na)] =   3.08129
    eigenvalues:
  0.138  0.305  0.316  0.348  0.434
    eigenvectors:
  0.003  0.000  0.000  0.000  0.997
  0.000  0.000  1.000  0.000  0.000
  0.000  1.000  0.000  0.000  0.000
  0.997  0.000  0.000  0.000  0.003
  0.000  0.000  0.000  1.000  0.000
    occupations:
  0.433 -0.000  0.000 -0.016 -0.000
 -0.000  0.316 -0.000 -0.000  0.000
  0.000 -0.000  0.305 -0.000  0.000
 -0.016 -0.000 -0.000  0.139  0.000
 -0.000  0.000  0.000  0.000  0.348
N of occupied +U levels =  23.5834501
 --- exit write_ns ---

          k = 0.0000 0.0000 0.0000 ( 29975 PWs)   bands (ev):

   -60.5181 -60.4787 -60.1922 -59.7016 -59.6595 -59.2801 -59.2387 -58.6049
   -37.0767 -36.7874 -36.7034 -36.6898 -36.6631 -36.6225 -36.5483 -36.4410
   -36.3792 -36.3324 -36.0304 -35.9281 -35.8740 -35.8467 -35.8368 -35.7971
   -35.5633 -35.5549 -35.5290 -35.4553 -35.3415 -35.0158 -34.9713 -34.9285
   -22.0458 -21.7108 -21.0508 -20.8862 -20.4515 -20.3809 -20.1499 -20.1329
   -19.9493 -19.8837 -19.6324 -19.6224 -19.6192 -19.6161 -19.2936 -19.2421
   -18.8184 -18.7425 -17.9678  -9.8718  -9.4666  -8.7801  -8.7267  -8.0573
    -7.9921  -7.8971  -7.6183  -7.4821  -7.4021  -7.3139  -7.2686  -7.2384
    -7.0869  -7.0167  -6.9659  -6.9015  -6.8526  -6.8256  -6.5940  -6.5485
    -6.3981  -6.1812  -6.0495  -5.9678  -5.9421  -5.8035  -5.5833  -5.4878
    -5.3863  -5.3545  -5.3224  -5.2697  -5.1005  -5.0835  -5.0536  -4.8784
    -4.8034  -4.6898  -4.6064  -4.4370  -4.4178  -4.3888  -4.3454  -4.3088
    -4.2232  -4.1128  -4.0683  -4.0254  -3.8130  -3.7751  -3.7073  -3.6161
    -3.5773  -3.5384  -3.3634  -3.2240  -1.2620  -1.0740  -0.9410  -0.9178
    -0.8521  -0.7148  -0.4809  -0.2046  -0.1727  -0.1365  -0.0737   0.1234
     0.1548   0.2011   0.2292   0.3804   0.4328   0.6135   0.7696   0.8085
     0.9871   1.1875   1.2960   1.7521   1.7549   1.9346   1.9771   2.0843
     2.2235   2.4418   2.5560   2.6919   2.8892   3.0269   3.0900   3.3602
     3.5486   3.6165   3.6423   3.7752   3.8762   3.9795   4.2260   4.2926
     4.6870   5.0841   5.5284   5.6142   5.6895   6.0560   6.1508   6.6944
     6.9409   7.1203   7.1594   7.2774   7.3910   7.5315   7.5567   7.7284
     7.8083   7.8354   7.9499   8.1174   8.2110   8.2273   8.2805   8.4448
     8.5316   8.5852   8.6514   8.7624   8.8260   8.8751   8.9506   9.0129
     9.0673   9.2264   9.3561   9.4012   9.4102   9.6256   9.7635   9.8798
     9.9371  10.0974  10.3374  10.4450  10.5803  10.6314  10.6963  10.7326
    10.8155  10.9476  10.9853  11.0622  11.1140  11.1217  11.2441  11.2726
    11.3164  11.3890  11.3958  11.4658  11.5352  11.6259  11.7159  11.7397
    11.8608  11.9234  11.9486  12.0323  12.1380  12.1660  12.2434  12.2956
    12.3555  12.4061  12.4889  12.5289  12.6260  12.6603  12.8003  12.8461
    12.9592  12.9880  13.0649  13.2573  13.2882  13.2985  13.3997  13.6011
    13.6196  13.6851  13.7262  13.7874  13.8930  14.0009  14.0023  14.0839
    14.2231  14.3913  14.4816  14.5397  14.6678  14.7212  14.8022  14.8105
    14.8606  15.0452  15.0665  15.1523  15.2661  15.4014  15.4784  15.5481
    15.5788  15.6516  15.8995  16.0503  16.0913  16.2358  16.3019  16.3259
    16.4133  16.4355  16.6054  16.6190  16.7340  16.8811  16.9173  17.0795
    17.1602  17.1858  17.3997  17.4985  17.5227  17.6061  17.6190  17.6391
    17.6684  17.7339  17.8872  17.9072  18.0226  18.0943  18.1452  18.1638
    18.1964  18.2247  18.2761  18.2907  18.4197  18.5142  18.6542  18.7156
    18.7769  18.8587  18.8882  18.9875  19.0888

[...]

          k = 0.2500-0.4516 0.0000 ( 29882 PWs)   bands (ev):

[...]

          k =-0.5000 0.0000 0.0000 ( 29982 PWs)   bands (ev):

[...]

          k =-0.2500 0.2258 0.0000 ( 29912 PWs)   bands (ev):

   -60.5124 -60.4845 -60.1922 -59.6959 -59.6652 -59.2740 -59.2447 -58.6049
   -37.0153 -36.7759 -36.7181 -36.6947 -36.6730 -36.6715 -36.5475 -36.4348
   -36.3775 -36.2640 -36.0194 -35.9441 -35.9411 -35.8433 -35.8208 -35.7526
   -35.5586 -35.5459 -35.5341 -35.4678 -35.4089 -35.0149 -34.9794 -34.9308
   -21.9631 -21.7174 -21.0280 -20.7819 -20.3117 -20.2662 -20.2431 -20.1821
   -19.9927 -19.8497 -19.7741 -19.7521 -19.6401 -19.5493 -19.3326 -19.2070
   -18.8857 -18.8190 -17.9668  -9.8105  -9.5292  -8.5530  -8.2993  -8.0226
    -7.8055  -7.7071  -7.6739  -7.5937  -7.3770  -7.3335  -7.2487  -7.1986
    -7.0550  -6.9686  -6.9066  -6.8428  -6.7598  -6.6309  -6.5564  -6.4910
    -6.3134  -6.2056  -6.0772  -5.9709  -5.8163  -5.7612  -5.6778  -5.5754
    -5.5235  -5.4350  -5.4041  -5.3262  -5.2508  -5.1809  -5.0846  -5.0060
    -4.9653  -4.9185  -4.8412  -4.7563  -4.6660  -4.5049  -4.4537  -4.2526
    -4.1905  -4.1374  -4.1261  -4.0303  -3.9696  -3.9061  -3.7416  -3.6982
    -3.6181  -3.5487  -3.4853  -3.3456  -1.1165  -1.0906  -0.9760  -0.8485
    -0.5237  -0.4608  -0.4044  -0.3492  -0.2231  -0.0707   0.0102   0.1318
     0.1423   0.2039   0.4026   0.5061   0.5572   0.6982   0.8342   0.9060
     0.9918   1.1103   1.1610   1.6290   1.8732   1.9267   1.9969   2.0417
     2.2401   2.3097   2.6641   2.7990   2.9784   3.1811   3.2488   3.2720
     3.4352   3.5463   3.7436   3.8838   3.9461   4.0496   4.4666   4.6090
     4.6676   4.8558   5.2262   5.7777   5.8807   5.9964   6.1561   6.3019
     6.3319   6.5472   6.7354   6.8939   7.0167   7.2626   7.3125   7.4125
     7.6100   7.6910   7.7619   7.8924   7.9233   8.0373   8.2078   8.3395
     8.4852   8.6865   8.7446   8.8154   8.9963   9.1400   9.2045   9.2952
     9.3745   9.4748   9.5840   9.6063   9.7137   9.8409   9.8835  10.0297
    10.1024  10.2676  10.3320  10.4795  10.5800  10.6933  10.7983  10.8384
    10.9382  11.0079  11.0672  11.1262  11.1619  11.2844  11.3724  11.4051
    11.4592  11.5246  11.6809  11.7067  11.8012  11.8751  11.9347  12.0126
    12.0667  12.1115  12.1846  12.2968  12.4079  12.4186  12.4963  12.5470
    12.6072  12.7376  12.8050  12.9062  12.9482  12.9884  13.0792  13.2124
    13.3250  13.3533  13.4241  13.4659  13.5749  13.6571  13.7344  13.8034
    13.8460  13.9073  13.9991  14.0808  14.1395  14.1774  14.3126  14.3759
    14.4430  14.5448  14.5966  14.6385  14.7310  14.7729  14.8761  14.9971
    15.0867  15.1867  15.2324  15.2953  15.3887  15.4598  15.4908  15.5847
    15.6190  15.6996  15.7573  15.8466  15.8703  15.9904  16.0520  16.0885
    16.1632  16.2086  16.3142  16.3664  16.4688  16.6133  16.7009  16.7098
    16.7780  16.8452  16.8820  16.9289  16.9641  17.0906  17.1144  17.1941
    17.2685  17.3352  17.4238  17.4797  17.5497  17.6120  17.6412  17.7040
    17.7771  17.8408  17.9596  18.0359  18.1291  18.2063  18.2498  18.3088
    18.4010  18.4863  18.5800  18.5982  18.6577

     the Fermi energy is    -3.4297 ev

!    total energy              =   -1566.94467431 Ry
     Harris-Foulkes estimate   =   -1566.94467472 Ry
     estimated scf accuracy    <       0.00000044 Ry

     The total energy is the sum of the following terms:

     one-electron contribution =  -18547.21844859 Ry
     hartree contribution      =    9289.63344818 Ry
     xc contribution           =    -276.75010913 Ry
     ewald contribution        =    7967.39032071 Ry
     Hubbard energy            =       0.00000000 Ry
     smearing contrib. (-TS)   =       0.00011451 Ry

     convergence has been achieved in  32 iterations

     Forces acting on atoms (Ry/au):

     negative rho (up, down):  0.102E+00 0.000E+00
     atom    1 type  1   force =    -0.00080124   -0.01004146    0.00022646
     atom    2 type  1   force =     0.00013027    0.01496227    0.00021215
     atom    3 type  2   force =     0.05815308   -0.01086369   -0.00009254
     atom    4 type  2   force =    -0.00368534    0.00454836   -0.00093957
     atom    5 type  1   force =    -0.00276489   -0.06612180    0.00059390
     atom    6 type  1   force =    -0.00572437    0.06834452    0.00055960
     atom    7 type  1   force =    -0.00003372    0.00089006   -0.00063942
     atom    8 type  1   force =     0.00199286   -0.00117765   -0.00032895
     atom    9 type  2   force =     0.00806133    0.00012813   -0.00005027
     atom   10 type  2   force =     0.00005076    0.00024436   -0.00073741
     atom   11 type  1   force =    -0.03393332   -0.00133425    0.00025676
     atom   12 type  1   force =    -0.03433381    0.00168173    0.00003704
     atom   13 type  1   force =     0.00014414    0.00015061    0.00023963
     atom   14 type  1   force =    -0.00008731   -0.00920455   -0.00036897
     atom   15 type  1   force =     0.00007236    0.01173056   -0.00061166
     atom   16 type  2   force =    -0.05775821   -0.00978256   -0.00007281
     atom   17 type  2   force =    -0.00408438    0.00399547    0.00039552
     atom   18 type  1   force =     0.00768210   -0.06624488    0.00057334
     atom   19 type  1   force =     0.00509256    0.06816284    0.00063951
     atom   20 type  1   force =    -0.00026438   -0.00013894    0.00015257
     atom   21 type  1   force =     0.00209446   -0.00089587   -0.00020524
     atom   22 type  2   force =    -0.00846658   -0.00001727   -0.00003095
     atom   23 type  2   force =     0.00001396   -0.00011381    0.00019877
     atom   24 type  1   force =     0.03445748   -0.00120911    0.00003447
     atom   25 type  1   force =     0.03368282    0.00155703    0.00022424
     atom   26 type  1   force =     0.00022443   -0.00010089   -0.00030061
     atom   27 type  3   force =     0.00005035    0.00037753    0.00033785
     atom   28 type  3   force =    -0.00003976    0.00025496   -0.00062305
     atom   29 type  3   force =    -0.00009273    0.00012844    0.00026358
     atom   30 type  3   force =     0.00015661    0.00007978   -0.00034068
     atom   31 type  1   force =     0.00001050    0.00001011    0.00039673

     Total force =     0.002369     Total SCF correction =     0.001021
     SCF correction compared to forces is large: reduce conv_thr to get better values

     BFGS Geometry Optimization

     bfgs converged in   1 scf cycles and   0 bfgs steps
     (criteria: energy < 0.10E-03, force < 0.10E-02)

     End of BFGS Geometry Optimization

     Final energy   =   -1566.9446743111 Ry
Begin final coordinates

ATOMIC_POSITIONS (crystal)
O0       0.000000000   0.000000000   0.378010000    0   0   1
O0       0.000000000   0.500000000   0.397870000    0   0   1
Ti1      0.250000000   0.500000000   0.450080000    0   0   1
Ti1      0.000000000   0.000000000   0.452760000    0   0   1
O0       0.250000000   0.810000000   0.449290000    0   0   1
O0       0.250000000   0.190000000   0.450150000    0   0   1
O0       0.000000000   0.500000000   0.497630000    0   0   1
O0       0.000000000   0.000000000   0.525490000    0   0   1
Ti1      0.250000000   0.000000000   0.581060000    0   0   1
Ti1      0.000000000   0.500000000   0.568470000    0   0   1
O0       0.250000000   0.690000000   0.580440000    0   0   1
O0       0.250000000   0.310000000   0.580460000    0   0   1
O0       0.000000000   0.000000000   0.622300000    0   0   1
O0       0.500000000   0.000000000   0.377850000    0   0   1
O0       0.500000000   0.500000000   0.397130000    0   0   1
Ti1      0.750000000   0.500000000   0.450080000    0   0   1
Ti1      0.500000000   0.000000000   0.451590000    0   0   1
O0       0.750000000   0.810000000   0.449340000    0   0   1
O0       0.750000000   0.190000000   0.450020000    0   0   1
O0       0.500000000   0.500000000   0.491750000    0   0   1
O0       0.500000000   0.000000000   0.525290000    0   0   1
Ti1      0.750000000   0.000000000   0.581050000    0   0   1
Ti1      0.500000000   0.500000000   0.598240000    0   0   1
O0       0.750000000   0.690000000   0.580550000    0   0   1
O0       0.750000000   0.310000000   0.580350000    0   0   1
O0       0.500000000   0.000000000   0.621510000    0   0   1
H2      -0.000740000   0.619770000   0.375450000
H2       0.499420000   0.615760000   0.373560000
H2       0.148660000   0.034070000   0.363540000
H2       0.648930000   0.032830000   0.363360000
O0       0.499990000   0.499860000   0.661370000
End final coordinates

     General routines

     Parallel routines
     Hubbard U routines

   This run was terminated on:   5:42:34  10May2014

   JOB DONE.
Running PBS batch system epilogue script
Job id: 351069.audhumbla.fysik.dtu.dk
Username: zhonxu
Groupname: campgst
Jobname: TiO2/Eads-2-layers/O-U-0.0
Sessionid: 30233
Queuename: verylong
Accounting:
This job has allocated the following 16 nodes:
c017 c017 c017 c017 c017 c017 c017 c017 c012 c012 c012 c012 c012 c012 c012 c012
Finished epilogue job 351069.audhumbla.fysik.dtu.dk for zhonxu