     Program PWSCF v.5.0.2 (svn rev. 9656) starts on 28Mar2014 at  6:27:26

     Current dimensions of program PWSCF are:
     Max number of different atomic species (ntypx) = 10
     Max number of k-points (npk) =  40000
     Max angular momentum in pseudopotentials (lmaxx) =  3
     Reading input from pwscf.in
Warning: card &CELL ignored
Warning: card / ignored

     Subspace diagonalization in iterative solution of the eigenvalue problem:
     a serial algorithm will be used

     bravais-lattice index     =            0
     lattice parameter (alat)  =      12.2076  a.u.
     unit-cell volume          =   10244.9005 (a.u.)^3
     number of atoms/cell      =           49
     number of atomic types    =            2
     number of electrons       =       454.00
     number of Kohn-Sham states=          681
     kinetic-energy cutoff     =      40.0000  Ry
     charge density cutoff     =     500.0000  Ry
     convergence threshold     =      1.0E-06
     mixing beta               =       0.3000
     number of iterations used =            8  plain     mixing
     Exchange-correlation      = SLA  PW   PBE  PBE ( 1 4 3 4 0)
     EXX-fraction              =        0.00
     nstep                     =           50

     celldm(1)=  12.207631  celldm(2)=   0.000000  celldm(3)=   0.000000
     celldm(4)=   0.000000  celldm(5)=   0.000000  celldm(6)=   0.000000

     crystal axes: (cart. coord. in units of alat)
               a(1) = (   1.000000   0.000000   0.000000 )
               a(2) = (   0.000000   1.004836   0.000000 )
               a(3) = (   0.000000   0.000000   5.604262 )

     reciprocal axes: (cart. coord. in units 2 pi/alat)
               b(1) = (  1.000000  0.000000  0.000000 )
               b(2) = (  0.000000  0.995187  0.000000 )
               b(3) = (  0.000000  0.000000  0.178436 )

     PseudoPot. # 1 for O  read from file:
     /home/camp/zhonxu/pseudo/o_pbe_v1.01.uspp.F.UPF
     MD5 check sum: 2bcb18d16ea4b960afae9ec6d52f22d2
     Pseudo is Ultrasoft + core correction, Zval =  6.0
     Generated by new atomic code, or converted to UPF format
     Using radial grid of  737 points,  5 beta functions with:
                l(1) =   0
                l(2) =   0
                l(3) =   1
                l(4) =   1
                l(5) =   2
     Q(r) pseudized with  8 coefficients,  rinner =    0.900   0.900   0.900
                                                       0.900   0.900

     PseudoPot. # 2 for Pt read from file:
     /home/camp/zhonxu/pseudo/pt_pbe_v1.uspp.F.UPF
     MD5 check sum: 4c71d6ad5ef119f1eb26a4d0b7884226
     Pseudo is Ultrasoft + core correction, Zval = 16.0
     Generated by new atomic code, or converted to UPF format
     Using radial grid of  985 points,  6 beta functions with:
                l(1) =   0
                l(2) =   0
                l(3) =   1
                l(4) =   1
                l(5) =   2
                l(6) =   2
     Q(r) pseudized with  8 coefficients,  rinner =    1.300   1.300   1.300
                                                       1.300   1.300

     atomic species   valence    mass     pseudopotential
        O0             6.00    15.99940     O ( 1.00)
        Pt1           16.00   195.08000     Pt( 1.00)

      4 Sym. Ops. (no inversion) found

   Cartesian axes

     site n.     atom                  positions (alat units)
         1           O0  tau(   1) = (   0.0000000   0.5024180   1.8575886  )
         2           Pt1 tau(   2) = (   0.2500000   0.5024180   2.0485258  )
         3           Pt1 tau(   3) = (   0.0000000   0.0000000   2.0485258  )
         4           O0  tau(   4) = (   0.2500000   0.8139171   2.0485258  )
         5           O0  tau(   5) = (   0.2500000   0.1909188   2.0485258  )
         6           O0  tau(   6) = (   0.0000000   0.5024180   2.2394070  )
         7           O0  tau(   7) = (   0.0000000   0.0000000   2.3600107  )
         8           Pt1 tau(   8) = (   0.2500000   0.0000000   2.5509479  )
         9           Pt1 tau(   9) = (   0.0000000   0.5024180   2.5509479  )
        10           O0  tau(  10) = (   0.2500000   0.6933368   2.5509479  )
        11           O0  tau(  11) = (   0.2500000   0.3114991   2.5509479  )
        12           O0  tau(  12) = (   0.0000000   0.0000000   2.7418291  )
        13           O0  tau(  13) = (   0.0000000   0.5024180   2.8577252  )
        14           Pt1 tau(  14) = (   0.2500000   0.5024180   3.0464207  )
        15           Pt1 tau(  15) = (   0.0000000   0.0000000   3.0519689  )
        16           O0  tau(  16) = (   0.2500000   0.8129525   3.0573490  )
        17           O0  tau(  17) = (   0.2500000   0.1918835   3.0573490  )
        18           O0  tau(  18) = (   0.0000000   0.5024180   3.2388711  )
        19           O0  tau(  19) = (   0.0000000   0.0000000   3.3644626  )
        20           Pt1 tau(  20) = (   0.2500000   0.0000000   3.5576415  )
        21           Pt1 tau(  21) = (   0.0000000   0.5024180   3.5547273  )
        22           O0  tau(  22) = (   0.2500000   0.6920004   3.5920516  )
        23           O0  tau(  23) = (   0.2500000   0.3128356   3.5920516  )
        24           O0  tau(  24) = (   0.0000000   0.0000000   3.7444315  )
        25           O0  tau(  25) = (   0.5000000   0.5024180   1.8575886  )
        26           Pt1 tau(  26) = (   0.7500000   0.5024180   2.0485258  )
        27           Pt1 tau(  27) = (   0.5000000   0.0000000   2.0485258  )
        28           O0  tau(  28) = (   0.7500000   0.8139171   2.0485258  )
        29           O0  tau(  29) = (   0.7500000   0.1909188   2.0485258  )
        30           O0  tau(  30) = (   0.5000000   0.5024180   2.2394070  )
        31           O0  tau(  31) = (   0.5000000   0.0000000   2.3600107  )
        32           Pt1 tau(  32) = (   0.7500000   0.0000000   2.5509479  )
        33           Pt1 tau(  33) = (   0.5000000   0.5024180   2.5509479  )
        34           O0  tau(  34) = (   0.7500000   0.6933368   2.5509479  )
        35           O0  tau(  35) = (   0.7500000   0.3114991   2.5509479  )
        36           O0  tau(  36) = (   0.5000000   0.0000000   2.7418291  )
        37           O0  tau(  37) = (   0.5000000   0.5024180   2.8577252  )
        38           Pt1 tau(  38) = (   0.7500000   0.5024180   3.0464207  )
        39           Pt1 tau(  39) = (   0.5000000   0.0000000   3.0519689  )
        40           O0  tau(  40) = (   0.7500000   0.8129525   3.0573490  )
        41           O0  tau(  41) = (   0.7500000   0.1918835   3.0573490  )
        42           O0  tau(  42) = (   0.5000000   0.5024180   3.2388711  )
        43           O0  tau(  43) = (   0.5000000   0.0000000   3.3644626  )
        44           Pt1 tau(  44) = (   0.7500000   0.0000000   3.5576415  )
        45           Pt1 tau(  45) = (   0.5000000   0.5024180   3.5547273  )
        46           O0  tau(  46) = (   0.7500000   0.6920004   3.5920516  )
        47           O0  tau(  47) = (   0.7500000   0.3128356   3.5920516  )
        48           O0  tau(  48) = (   0.5000000   0.0000000   3.7444315  )
        49           O0  tau(  49) = (   0.5000000   0.5024180   3.7134960  )

     number of k points=     9  Methfessel-Paxton smearing, width (Ry)=  0.0100
                       cart. coord. in units 2pi/alat
        k(    1) = (   0.0000000   0.0000000   0.0000000), wk =   0.1250000
        k(    2) = (   0.0000000   0.2487968   0.0000000), wk =   0.2500000
        k(    3) = (   0.0000000  -0.4975937   0.0000000), wk =   0.1250000
        k(    4) = (   0.2500000   0.0000000   0.0000000), wk =   0.2500000
        k(    5) = (   0.2500000   0.2487968   0.0000000), wk =   0.5000000
        k(    6) = (   0.2500000  -0.4975937   0.0000000), wk =   0.2500000
        k(    7) = (  -0.5000000   0.0000000   0.0000000), wk =   0.1250000
        k(    8) = (  -0.5000000   0.2487968   0.0000000), wk =   0.2500000
        k(    9) = (  -0.5000000  -0.4975937   0.0000000), wk =   0.1250000

     Largest allocated arrays     est. size (Mb)     dimensions
     Largest temporary arrays     est. size (Mb)     dimensions

     Check: negative/imaginary core charge=   -0.000003    0.000000

     Initial potential from superposition of free atoms
     Check: negative starting charge=   -3.064258

     starting charge  445.99977, renormalised to  454.00000

     negative rho (up, down):  0.312E+01 0.000E+00
     Starting wfc are  324 randomized atomic wfcs

     Self-consistent Calculation

     iteration #  1     ecut=    40.00 Ry     beta=0.30
     Davidson diagonalization with overlap
     ethr =  1.00E-02,  avg # of iterations =  6.6

     negative rho (up, down):  0.307E+01 0.000E+00

     total energy              =   -4370.14575316 Ry
     Harris-Foulkes estimate   =   -4399.51968211 Ry
     estimated scf accuracy    <      62.00409831 Ry

[...]

     End of self-consistent calculation

          k = 0.0000 0.0000 0.0000 ( 43825 PWs)   bands (ev):

   -70.0451 -59.5471 -59.4716 -53.8757 -53.8412 -53.8186 -53.7997 -53.7825
   -53.7545 -53.7457 -53.7128 -53.7093 -53.7065 -53.6993 -53.6954 -53.6740
   -53.6739 -53.6514 -53.6513 -53.6275 -53.5816 -53.5722 -53.5717 -53.5666
   -53.5650 -53.5588 -53.5360 -53.4880 -53.4846 -53.4683 -53.4661 -53.4562
   -53.4491 -53.4204 -53.3888 -53.3805 -53.3639 -53.3215 -53.3140 -53.2717
   -53.2642 -53.0679 -53.0595 -52.9539 -52.8665 -52.8607 -52.6884 -52.4520
   -24.0376 -20.7917 -20.6822 -19.7169 -19.6241 -19.3735 -19.1639 -19.0015
   -18.7254 -18.5268 -18.4927 -18.4776 -18.4641 -18.4632 -18.4260 -18.4212
   -18.3678 -18.3672 -18.3549 -18.2914 -18.2126 -18.1754 -18.1332 -18.0664
   -17.9919 -17.9292 -17.8827 -17.8440 -17.7910 -17.7488 -17.6889 -16.9039
   -16.7913 -16.7529 -16.6843 -14.9370  -9.3031  -8.7985  -8.5546  -8.5400
    -8.5036  -8.1115  -8.0851  -7.3324  -7.3237  -7.2493  -7.1581  -7.1450
    -7.1113  -7.0968  -7.0847  -7.0142  -7.0076  -7.0041  -6.9820  -6.9417
    -6.9364  -6.9141  -6.8476  -6.7135  -6.6482  -6.6203  -6.5761  -6.5292
    -6.4081  -6.4026  -6.3840  -6.3504  -6.3129  -6.1874  -5.9672  -5.9406
    -5.7570  -5.7026  -5.6348  -5.4372  -5.3933  -5.2038  -5.0620  -4.9595
    -4.8900  -4.8209  -4.8116  -4.7532  -4.7174  -4.6513  -4.5818  -4.3518
    -4.2765  -4.2758  -4.2464  -4.1762  -4.1602  -4.1337  -4.0661  -4.0111
    -3.7733  -3.7091  -3.6901  -3.6863  -3.6309  -3.5641  -3.5519  -3.5055
    -3.5011  -3.4269  -3.3038  -3.2790  -3.2460  -3.2059  -3.1838  -3.1796
    -3.0757  -3.0226  -2.9735  -2.9232  -2.7963  -2.7699  -2.7691  -2.7488
    -2.7383  -2.7128  -2.7046  -2.6803  -2.6711  -2.6605  -2.6068  -2.5864
    -2.5766  -2.5321  -2.4323  -2.3968  -2.3875  -2.3572  -2.3020  -2.2883
    -2.2654  -2.2202  -2.2157  -2.1865  -2.1193  -2.0872  -2.0754  -2.0224
    -2.0052  -1.8586  -1.8402  -1.7866  -1.6949  -1.6699  -1.5039  -1.4772
    -1.2989  -1.2812  -1.1942  -0.9106  -0.8770  -0.8608  -0.7992  -0.7869
    -0.7136  -0.6445  -0.5250  -0.5042  -0.4488  -0.2577  -0.2189  -0.0049
     0.0156   0.0682   0.1164   0.2407   0.2987   0.3360   0.3983   0.4986
     0.5137   0.5825   0.6794   0.7484   0.8167   0.8942   0.9751   1.1136
[...]
O0       0.250000000   0.190960000   0.545540000    0   0   0
O0       0.000000000   0.500000000   0.577930000    0   0   0
O0       0.000000000   0.000000000   0.600340000    0   0   0
Pt1      0.250000000   0.000000000   0.634810000    0   0   0
Pt1      0.000000000   0.500000000   0.634290000    0   0   0
O0       0.250000000   0.688670000   0.640950000    0   0   0
O0       0.250000000   0.311330000   0.640950000    0   0   0
O0       0.000000000   0.000000000   0.668140000    0   0   0
O0       0.500000000   0.500000000   0.331460000    0   0   0
Pt1      0.750000000   0.500000000   0.365530000    0   0   0
Pt1      0.500000000   0.000000000   0.365530000    0   0   0
O0       0.750000000   0.810000000   0.365530000    0   0   0
O0       0.750000000   0.190000000   0.365530000    0   0   0
O0       0.500000000   0.500000000   0.399590000    0   0   0
O0       0.500000000   0.000000000   0.421110000    0   0   0
Pt1      0.750000000   0.000000000   0.455180000    0   0   0
Pt1      0.500000000   0.500000000   0.455180000    0   0   0
O0       0.750000000   0.690000000   0.455180000    0   0   0
O0       0.750000000   0.310000000   0.455180000    0   0   0
O0       0.500000000   0.000000000   0.489240000    0   0   0
O0       0.500000000   0.500000000   0.509920000    0   0   0
Pt1      0.750000000   0.500000000   0.543590000    0   0   0
Pt1      0.500000000   0.000000000   0.544580000    0   0   0
O0       0.750000000   0.809040000   0.545540000    0   0   0
O0       0.750000000   0.190960000   0.545540000    0   0   0
O0       0.500000000   0.500000000   0.577930000    0   0   0
O0       0.500000000   0.000000000   0.600340000    0   0   0
Pt1      0.750000000   0.000000000   0.634810000    0   0   0
Pt1      0.500000000   0.500000000   0.634290000    0   0   0
O0       0.750000000   0.688670000   0.640950000    0   0   0
O0       0.750000000   0.311330000   0.640950000    0   0   0
O0       0.500000000   0.000000000   0.668140000    0   0   0
O0       0.500000000   0.500000000   0.685050056

     Check: negative starting charge=   -3.073603
     NEW-OLD atomic charge density approx. for the potential

     Check: negative/imaginary core charge=   -0.000003    0.000000
     Check: negative starting charge=   -3.073612

[...]

     Self-consistent Calculation

[...]

     total energy              =   -4391.16832249 Ry
     Harris-Foulkes estimate   =   -4391.16832250 Ry
     estimated scf accuracy    <       0.00000015 Ry

     iteration # 20     ecut=    40.00 Ry     beta=0.30
     Davidson diagonalization with overlap
     ethr =  3.36E-11,  avg # of iterations =  1.0

     negative rho (up, down):  0.316E+01 0.000E+00

     End of self-consistent calculation

[...]

          k = 0.2500-0.4976 0.0000 ( 43762 PWs)   bands (ev):

[...]

          k =-0.5000-0.4976 0.0000 ( 43684 PWs)   bands (ev):

   -54.7601 -54.7458 -54.5605 -54.5419 -54.5265 -54.4994 -54.4958 -54.4777
   -54.4773 -54.4489 -54.4488 -54.4128 -54.4128 -54.3939 -54.3863 -54.3863
   -54.3631 -54.3502 -54.3495 -54.3034 -54.3034 -54.2703 -54.2699 -54.2652
   -54.2651 -54.2584 -54.2460 -54.2450 -54.2417 -54.1521 -54.1521 -54.1335
   -54.1335 -54.1281 -54.1281 -54.0745 -54.0730 -54.0249 -54.0248 -53.9838
   -53.9838 -53.8178 -53.7486 -53.7439 -53.5536 -53.5494 -53.5452 -53.4157
   -19.6462 -19.5889 -19.5424 -19.5361 -19.3176 -19.3170 -19.3050 -19.2873
   -19.1476 -19.1457 -19.0960 -19.0871 -19.0521 -19.0277 -18.9621 -18.9564
   -18.9139 -18.8840 -18.8401 -18.8394 -18.8110 -18.8022 -18.7488 -18.7464
   -18.7393 -18.7220 -18.6300 -18.6145 -17.5486 -17.5065 -17.4591 -17.4511
   -16.9624  -8.3768  -8.3295  -8.2471  -8.2381  -7.7337  -7.7301  -7.7035
    -7.6993  -7.6529  -7.6429  -7.6420  -7.5704  -7.5337  -7.5279  -7.4532
    -7.2972  -7.2745  -7.2565  -7.2416  -7.2288  -7.2116  -7.2073  -7.1991
    -7.1861  -7.1139  -7.1134  -7.1097  -6.9928  -6.9904  -6.9696  -6.9370
    -6.9214  -6.8485  -6.8280  -6.8277  -6.7828  -6.6411  -6.6372  -6.6051
    -6.5952  -6.2331  -6.2047  -6.1280  -6.1221  -5.9462  -5.8289  -5.7640
    -5.7489  -5.6982  -5.5839  -5.5708  -5.5300  -5.5088  -5.4913  -5.4596
    -5.4549  -5.4144  -5.3945  -5.3816  -5.3648  -5.2897  -5.2892  -5.2512
    -5.2436  -4.9839  -4.9748  -4.9364  -4.9090  -4.8794  -4.8229  -4.8105
    -4.8026  -4.4898  -4.4615  -4.4419  -4.1944  -4.0893  -3.9961  -3.8834
    -3.8296  -3.7050  -3.6897  -3.6731  -3.6578  -3.5764  -3.5507  -3.5201
    -3.5160  -3.4472  -3.4189  -3.4046  -3.3817  -3.3658  -3.1346  -3.0736
    -3.0510  -2.8140  -2.3945  -2.3294  -2.3078  -2.1754  -2.1749  -2.1721
    -2.1700  -2.1119  -2.0949  -2.0576  -2.0435  -2.0295  -1.9973  -1.9119
    -1.9044  -1.8938  -1.8484  -1.7850  -1.7094  -1.7008  -1.6998  -1.6753
    -1.6030  -1.5907  -1.4431  -1.2899  -1.2191  -1.2162  -1.1772  -1.0887
    -0.9641  -0.9283  -0.9236  -0.9152  -0.9089  -0.7776  -0.7674  -0.7625
    -0.7387  -0.7380  -0.6686  -0.6490  -0.6473  -0.5900  -0.5864  -0.5730
    -0.5577  -0.4595  -0.2826  -0.1516   0.2127   0.2176   0.4093   0.6897
     0.6970   0.7276   0.7316   0.8193   0.8707   0.8720   1.1490   1.1584
     1.2161   1.2247   1.2314   1.8103   1.9567   2.0378   2.0386   2.2584
     2.3487   2.3709   2.3806   2.8134   2.8410   2.8826   2.8832   3.0893
     3.1168   3.1270   3.1356   3.2436   5.6442   5.6444   6.2800   6.8486
     7.0278   7.0558   7.1250   7.3126   7.5522   7.6645   7.7179   7.8139
     7.9901   8.0092   8.0092   8.2311   8.2704   8.3246   8.3517   8.4146
     8.5441   8.5776   8.5923   8.6268   8.6567   8.6849   8.7217   8.8140
     8.9828   8.9935   9.1224   9.2426   9.2557   9.3196   9.3534   9.4827
     9.7994   9.8797   9.8842   9.9912   9.9993  10.0329  10.0472  10.3925
    10.4195  10.4215  10.4543  10.4550  10.4688  10.4736  10.4997  10.5493
    10.5772  10.6213  10.6609  10.6748  11.0865  11.1175  11.1237  11.1286
    11.4649  11.4747  11.4792  11.7643  11.7650  11.7756  11.8826  11.9406
    12.2882  12.3046  12.3046  12.7727  12.7849  12.7867  12.7924  12.8714
    12.9343  12.9699  13.0434  13.0534  13.1701  13.1956  13.2982  13.3718
    13.4923  13.5618  13.6038  13.6209  13.7084  13.7573  13.8636  13.9196
    13.9682  13.9716  14.0132  14.0269  14.0629  14.1286  14.1318  14.1719
    14.2916  14.3238  14.3831  14.3939  14.4772  14.5379  14.5496  14.5590
    14.6791  14.8508  14.9118  14.9440  15.0649  15.1349  15.1357  15.1878
    15.2157  15.2622  15.2892  15.2894  15.3872  15.3985  15.4113  15.4231
    15.4361  15.4550  15.4995  15.5103  15.5775  15.5878  15.6155  15.6245
    15.6735  15.6778  15.7427  15.7539  15.7557  15.7984  15.8212  15.8340
    15.8965  15.8994  15.9146  15.9865  16.0056  16.0323  16.0519  16.1215
    16.1227  16.1638  16.1673  16.1830  16.3497  16.3636  16.4439  16.4554
    16.4586  16.4697  16.4855  16.4974  16.5279  16.5338  16.5365  16.5622
    16.6147  16.6284  16.6481  16.6513  16.8286  16.8670  16.9235  16.9579
    17.1172  17.1315  17.1464  17.1707  17.2107  17.2610  17.2702  17.3146
    17.4018  17.4167  17.4193  17.5723  17.5849  17.6069  17.6150  17.6199
    17.6210  17.6542  17.6542  17.6797  17.7259  17.7371  17.7992  17.8006
    17.8052  17.8130  17.8290  17.8310  17.8644  17.8702  17.9119  18.0699
    18.0717  18.2635  18.2742  18.2953  18.2956  18.3739  18.3923  18.4377
    18.4653  18.4714  18.4723  18.4898  18.5282  18.5307  18.6155  18.6463
[...]
    23.0734  23.0847  23.0890  23.0939  23.1027  23.1244  23.1636  23.2201
    23.2793  23.3820  23.3986  23.4468  23.5640  23.5661  23.5741  23.6252
    23.6463  23.6928  23.7849  23.7926  23.9505  23.9893  24.0000  24.0258
    24.0276  24.0306  24.0459  24.0562  24.1637  24.1700  24.2447  24.2897
    24.3037  24.3115  24.3658  24.3798  24.4729  24.5015  24.5026  24.6397
    24.6564  24.6800  24.7237  24.8163  24.8690  25.0088  25.0394  25.0512
    25.0577  25.0757  25.1116  25.1365  25.1587  25.1693  25.2208  25.2510
    25.2679  25.2932  25.3618  25.3851  25.5131  25.5869  25.5893  25.6098
    25.6384  25.6794  25.7306  25.7523  25.7806  25.8529  25.8712  25.9094
    26.0090  26.0293  26.0877  26.0912  26.2135  26.2647  26.3075  26.3154
    26.3212  26.3215  26.4112  26.4834  26.5110  26.6094  26.6129  26.7040
    26.8342  26.8781  26.9264  26.9389  27.0023  27.0368  27.0869  27.1541
    27.2986  27.3039  27.3223  27.4048  27.5260  27.5706  27.6326  27.7684
    27.7759  27.8149  27.8689  27.9127  27.9248  27.9264  27.9443  28.0645
    28.0708

     the Fermi energy is    -0.0961 ev

!    total energy              =   -4391.16832246 Ry
     Harris-Foulkes estimate   =   -4391.16832250 Ry
     estimated scf accuracy    <       0.00000004 Ry

     The total energy is the sum of the following terms:

     one-electron contribution =  -81960.72170635 Ry
     hartree contribution      =   41073.39733207 Ry
     xc contribution           =   -1103.20770145 Ry
     ewald contribution        =   37599.36515195 Ry
     smearing contrib. (-TS)   =      -0.00139868 Ry

     convergence has been achieved in  20 iterations

     Forces acting on atoms (Ry/au):

     negative rho (up, down):  0.316E+01 0.000E+00
     atom    1 type  1   force =     0.00000000    0.00000000    0.01494770
     atom    2 type  2   force =     0.00177838    0.00000000   -0.00550041
     atom    3 type  2   force =     0.00000000    0.00000000    0.00500169
     atom    4 type  1   force =    -0.00008099   -0.00055031   -0.02888976
     atom    5 type  1   force =    -0.00008099    0.00055031   -0.02888976
     atom    6 type  1   force =     0.00000000    0.00000000    0.01045474
     atom    7 type  1   force =     0.00000000    0.00000000    0.02258044
     atom    8 type  2   force =     0.00044187    0.00000000    0.01434758
     atom    9 type  2   force =     0.00000000    0.00000000   -0.02665051
     atom   10 type  1   force =     0.00043796    0.00588252    0.00070962
     atom   11 type  1   force =     0.00043796   -0.00588252    0.00070962
     atom   12 type  1   force =     0.00000000    0.00000000    0.01523515
     atom   13 type  1   force =     0.00000000    0.00000000    0.01525058
     atom   14 type  2   force =     0.00380677    0.00000000    0.00683372
     atom   15 type  2   force =     0.00000000    0.00000000    0.00221277
     atom   16 type  1   force =     0.00020551    0.00115717    0.00001461
     atom   17 type  1   force =     0.00020551   -0.00115717    0.00001461
     atom   18 type  1   force =     0.00000000    0.00000000    0.00966805
     atom   19 type  1   force =     0.00000000    0.00000000    0.00221571
     atom   20 type  2   force =    -0.00157628    0.00000000    0.00054001
     atom   21 type  2   force =     0.00000000    0.00000000   -0.00019976
     atom   22 type  1   force =    -0.01837433    0.01320376   -0.02517436
     atom   23 type  1   force =    -0.01837433   -0.01320376   -0.02517436
     atom   24 type  1   force =     0.00000000    0.00000000   -0.00400113
     atom   25 type  1   force =     0.00000000    0.00000000    0.01382183
     atom   26 type  2   force =    -0.00177838    0.00000000   -0.00550041
     atom   27 type  2   force =     0.00000000    0.00000000    0.00515356
     atom   28 type  1   force =     0.00008099   -0.00055031   -0.02888976
     atom   29 type  1   force =     0.00008099    0.00055031   -0.02888976
     atom   30 type  1   force =     0.00000000    0.00000000    0.00444545
     atom   31 type  1   force =     0.00000000    0.00000000    0.02345947
     atom   32 type  2   force =    -0.00044187    0.00000000    0.01434758
     atom   33 type  2   force =     0.00000000    0.00000000   -0.01724890
     atom   34 type  1   force =    -0.00043796    0.00588252    0.00070962
     atom   35 type  1   force =    -0.00043796   -0.00588252    0.00070962
     atom   36 type  1   force =     0.00000000    0.00000000    0.01528058
     atom   37 type  1   force =     0.00000000    0.00000000   -0.01206604
     atom   38 type  2   force =    -0.00380677    0.00000000    0.00683372
     atom   39 type  2   force =     0.00000000    0.00000000    0.00025432
     atom   40 type  1   force =    -0.00020551    0.00115717    0.00001461
     atom   41 type  1   force =    -0.00020551   -0.00115717    0.00001461
     atom   42 type  1   force =     0.00000000    0.00000000    0.00602461
     atom   43 type  1   force =     0.00000000    0.00000000    0.00029531
     atom   44 type  2   force =     0.00157628    0.00000000    0.00054001
     atom   45 type  2   force =     0.00000000    0.00000000    0.07678331
     atom   46 type  1   force =     0.01837433    0.01320376   -0.02517436
     atom   47 type  1   force =     0.01837433   -0.01320376   -0.02517436
     atom   48 type  1   force =     0.00000000    0.00000000   -0.00288981
     atom   49 type  1   force =     0.00000000    0.00000000    0.00088864

     Total force =     0.000889     Total SCF correction =     0.000009

     bfgs converged in   9 scf cycles and   8 bfgs steps
     (criteria: energy < 0.10E-03, force < 0.10E-02)

     End of BFGS Geometry Optimization

     Final energy   =   -4391.1683224612 Ry
Begin final coordinates

ATOMIC_POSITIONS (crystal)
O0       0.000000000   0.500000000   0.331460000    0   0   0
Pt1      0.250000000   0.500000000   0.365530000    0   0   0
Pt1      0.000000000   0.000000000   0.365530000    0   0   0
O0       0.250000000   0.810000000   0.365530000    0   0   0
O0       0.250000000   0.190000000   0.365530000    0   0   0
O0       0.000000000   0.500000000   0.399590000    0   0   0
O0       0.000000000   0.000000000   0.421110000    0   0   0
Pt1      0.250000000   0.000000000   0.455180000    0   0   0
Pt1      0.000000000   0.500000000   0.455180000    0   0   0
O0       0.250000000   0.690000000   0.455180000    0   0   0
O0       0.250000000   0.310000000   0.455180000    0   0   0
O0       0.000000000   0.000000000   0.489240000    0   0   0
O0       0.000000000   0.500000000   0.509920000    0   0   0
Pt1      0.250000000   0.500000000   0.543590000    0   0   0
Pt1      0.000000000   0.000000000   0.544580000    0   0   0
O0       0.250000000   0.809040000   0.545540000    0   0   0
O0       0.250000000   0.190960000   0.545540000    0   0   0
O0       0.000000000   0.500000000   0.577930000    0   0   0
O0       0.000000000   0.000000000   0.600340000    0   0   0
Pt1      0.250000000   0.000000000   0.634810000    0   0   0
Pt1      0.000000000   0.500000000   0.634290000    0   0   0
O0       0.250000000   0.688670000   0.640950000    0   0   0
O0       0.250000000   0.311330000   0.640950000    0   0   0
O0       0.000000000   0.000000000   0.668140000    0   0   0
O0       0.500000000   0.500000000   0.331460000    0   0   0
Pt1      0.750000000   0.500000000   0.365530000    0   0   0
Pt1      0.500000000   0.000000000   0.365530000    0   0   0
O0       0.750000000   0.810000000   0.365530000    0   0   0
O0       0.750000000   0.190000000   0.365530000    0   0   0
O0       0.500000000   0.500000000   0.399590000    0   0   0
O0       0.500000000   0.000000000   0.421110000    0   0   0
Pt1      0.750000000   0.000000000   0.455180000    0   0   0
Pt1      0.500000000   0.500000000   0.455180000    0   0   0
O0       0.750000000   0.690000000   0.455180000    0   0   0
O0       0.750000000   0.310000000   0.455180000    0   0   0
O0       0.500000000   0.000000000   0.489240000    0   0   0
O0       0.500000000   0.500000000   0.509920000    0   0   0
Pt1      0.750000000   0.500000000   0.543590000    0   0   0
Pt1      0.500000000   0.000000000   0.544580000    0   0   0
O0       0.750000000   0.809040000   0.545540000    0   0   0
O0       0.750000000   0.190960000   0.545540000    0   0   0
O0       0.500000000   0.500000000   0.577930000    0   0   0
O0       0.500000000   0.000000000   0.600340000    0   0   0
Pt1      0.750000000   0.000000000   0.634810000    0   0   0
Pt1      0.500000000   0.500000000   0.634290000    0   0   0
O0       0.750000000   0.688670000   0.640950000    0   0   0
O0       0.750000000   0.311330000   0.640950000    0   0   0
O0       0.500000000   0.000000000   0.668140000    0   0   0
O0       0.500000000   0.500000000   0.685050056
End final coordinates

     General routines

     Parallel routines

   This run was terminated on:   5:50:42  29Mar2014

   JOB DONE.
Running PBS batch system epilogue script
Job id: 314584.audhumbla.fysik.dtu.dk
Username: zhonxu
Groupname: campgst
Jobname: PtO2/Eads-4-layers/O
Sessionid: 3494
Queuename: verylong
Accounting:
This job has allocated the following 32 nodes:
g064 g064 g064 g064 g064 g064 g064 g064 g064 g064 g064 g064 g064 g064 g064 g064 g054 g054 g054 g054 g054 g054 g054 g054 g054 g054 g054 g054 g054 g054 g054 g054
Finished epilogue job 314584.audhumbla.fysik.dtu.dk for zhonxu