     Program PWSCF v.5.0.2 (svn rev. 9656) starts on  6May2014 at  7:30:44

     Current dimensions of program PWSCF are:
     Max number of different atomic species (ntypx) = 10
     Max number of k-points (npk) =  40000
     Max angular momentum in pseudopotentials (lmaxx) =  3
     Reading input from pwscf.in
Warning: card &CELL ignored
Warning: card / ignored

     Subspace diagonalization in iterative solution of the eigenvalue problem:
     a serial algorithm will be used

     Found symmetry operation: I + ( -0.5000  0.0000  0.0000)
     This is a supercell, fractional translations are disabled

     bravais-lattice index     =            0
     lattice parameter (alat)  =      12.2076  a.u.
     unit-cell volume          =    7496.5096 (a.u.)^3
     number of atoms/cell      =           30
     number of atomic types    =            3
     number of electrons       =       240.00
     number of Kohn-Sham states=          360
     kinetic-energy cutoff     =      40.0000  Ry
     charge density cutoff     =     500.0000  Ry
     convergence threshold     =      1.0E-06
     mixing beta               =       0.7000
     number of iterations used =            8  plain     mixing
     Exchange-correlation      = SLA  PW   PBE  PBE ( 1 4 3 4 0)
     EXX-fraction              =        0.00
     nstep                     =           50

     celldm(1)=  12.207631  celldm(2)=   0.000000  celldm(3)=   0.000000
     celldm(4)=   0.000000  celldm(5)=   0.000000  celldm(6)=   0.000000

     crystal axes: (cart. coord. in units of alat)
               a(1) = (   1.000000   0.000000   0.000000 )
               a(2) = (   0.000000   1.004836   0.000000 )
               a(3) = (   0.000000   0.000000   4.100811 )

     reciprocal axes: (cart. coord. in units 2 pi/alat)
               b(1) = (  1.000000  0.000000  0.000000 )
               b(2) = (  0.000000  0.995187  0.000000 )
               b(3) = (  0.000000  0.000000  0.243854 )

     PseudoPot. # 1 for O  read from file:
     /home/camp/zhonxu/pseudo/o_pbe_v1.01.uspp.F.UPF
     MD5 check sum: 2bcb18d16ea4b960afae9ec6d52f22d2
     Pseudo is Ultrasoft + core correction, Zval =  6.0
     Generated by new atomic code, or converted to UPF format
     Using radial grid of  737 points,  5 beta functions with:
                l(1) =   0
                l(2) =   0
                l(3) =   1
                l(4) =   1
                l(5) =   2
     Q(r) pseudized with  8 coefficients,  rinner =    0.900   0.900   0.900
                                                       0.900   0.900

     PseudoPot. # 2 for Pt read from file:
     /home/camp/zhonxu/pseudo/pt_pbe_v1.uspp.F.UPF
     MD5 check sum: 4c71d6ad5ef119f1eb26a4d0b7884226
     Pseudo is Ultrasoft + core correction, Zval = 16.0
     Generated by new atomic code, or converted to UPF format
     Using radial grid of  985 points,  6 beta functions with:
                l(1) =   0
                l(2) =   0
                l(3) =   1
                l(4) =   1
                l(5) =   2
                l(6) =   2
     Q(r) pseudized with  8 coefficients,  rinner =    1.300   1.300   1.300
                                                       1.300   1.300

     PseudoPot. # 3 for H  read from file:
     /home/camp/zhonxu/pseudo/h_pbe_v1.uspp.F.UPF
     MD5 check sum: 3408e3ff4ec8b0a4e358431e7e038a48
     Pseudo is Ultrasoft, Zval =  1.0
     Generated by new atomic code, or converted to UPF format
     Using radial grid of  615 points,  2 beta functions with:
                l(1) =   0
                l(2) =   0
     Q(r) pseudized with  8 coefficients,  rinner =    0.700

     atomic species   valence    mass     pseudopotential
        O0             6.00    15.99940     O ( 1.00)
        Pt1           16.00   195.08000     Pt( 1.00)
        H2             1.00     1.00794     H ( 1.00)

     Simplified LDA+U calculation (l_max = 2) with parameters (eV):
     atomic species    L          U    alpha       J0     beta
        Pt1            2     3.0000   0.0000   0.0000   0.0000

     No symmetry found

   Cartesian axes

     site n.     atom                  positions (alat units)
         1           O0  tau(   1) = (   0.0000000   0.0000000   1.5457188  )
         2           O0  tau(   2) = (   0.0000000   0.5024180   1.6369208  )
         3           Pt1 tau(   3) = (   0.2500000   0.5024180   1.8413872  )
         4           Pt1 tau(   4) = (   0.0000000   0.0000000   1.8534436  )
         5           O0  tau(   5) = (   0.2500000   0.8139171   1.8157162  )
         6           O0  tau(   6) = (   0.2500000   0.1909188   1.8824364  )
         7           O0  tau(   7) = (   0.0000000   0.5024180   2.0315829  )
         8           O0  tau(   8) = (   0.0000000   0.0000000   2.1708464  )
         9           Pt1 tau(   9) = (   0.2500000   0.0000000   2.3625593  )
        10           Pt1 tau(  10) = (   0.0000000   0.5024180   2.3549318  )
        11           O0  tau(  11) = (   0.2500000   0.6933368   2.3911010  )
        12           O0  tau(  12) = (   0.2500000   0.3114991   2.3934384  )
        13           O0  tau(  13) = (   0.0000000   0.0000000   2.5491052  )
        14           O0  tau(  14) = (   0.5000000   0.0000000   1.5457188  )
        15           O0  tau(  15) = (   0.5000000   0.5024180   1.6369208  )
        16           Pt1 tau(  16) = (   0.7500000   0.5024180   1.8413872  )
        17           Pt1 tau(  17) = (   0.5000000   0.0000000   1.8534436  )
        18           O0  tau(  18) = (   0.7500000   0.8139171   1.8157162  )
        19           O0  tau(  19) = (   0.7500000   0.1909188   1.8824364  )
        20           O0  tau(  20) = (   0.5000000   0.5024180   2.0315829  )
        21           O0  tau(  21) = (   0.5000000   0.0000000   2.1708464  )
        22           Pt1 tau(  22) = (   0.7500000   0.0000000   2.3625593  )
        23           Pt1 tau(  23) = (   0.5000000   0.5024180   2.3549318  )
        24           O0  tau(  24) = (   0.7500000   0.6933368   2.3911010  )
        25           O0  tau(  25) = (   0.7500000   0.3114991   2.3934384  )
        26           O0  tau(  26) = (   0.5000000   0.0000000   2.5491052  )
        27           H2  tau(  27) = (  -0.0000500   0.6431553   1.5728661  )
        28           H2  tau(  28) = (   0.4999500   0.6431553   1.5728661  )
        29           H2  tau(  29) = (   0.1440700   0.0315318   1.5048747  )
        30           H2  tau(  30) = (   0.6440700   0.0315318   1.5048747  )

     number of k points=    10  Methfessel-Paxton smearing, width (Ry)=  0.0100
                       cart. coord. in units 2pi/alat
        k(    1) = (   0.0000000   0.0000000   0.0000000), wk =   0.1250000
        k(    2) = (   0.0000000   0.2487968   0.0000000), wk =   0.2500000
        k(    3) = (   0.0000000  -0.4975937   0.0000000), wk =   0.1250000
        k(    4) = (   0.2500000   0.0000000   0.0000000), wk =   0.2500000
        k(    5) = (   0.2500000   0.2487968   0.0000000), wk =   0.2500000
        k(    6) = (   0.2500000  -0.4975937   0.0000000), wk =   0.2500000
        k(    7) = (  -0.5000000   0.0000000   0.0000000), wk =   0.1250000
        k(    8) = (  -0.5000000   0.2487968   0.0000000), wk =   0.2500000
        k(    9) = (  -0.5000000  -0.4975937   0.0000000), wk =   0.1250000
        k(   10) = (  -0.2500000   0.2487968   0.0000000), wk =   0.2500000

     Largest allocated arrays     est. size (Mb)     dimensions
     Largest temporary arrays     est. size (Mb)     dimensions

     Check: negative/imaginary core charge=   -0.000003    0.000000

     Initial potential from superposition of free atoms
     Check: negative starting charge=   -1.537272

     starting charge  235.99985, renormalised to  240.00000

     negative rho (up, down):  0.156E+01 0.000E+00
     Number of +U iterations with fixed ns =  0
     Starting occupations:
 --- enter write_ns ---
 LDA+U parameters:
U( 2)     =  3.00000000
alpha( 2) =  0.00000000
atom    3   Tr[ns(na)] =   8.00000
    eigenvalues:
  0.800  0.800  0.800  0.800  0.800
    eigenvectors:
  1.000  0.000  0.000  0.000  0.000
  0.000  1.000  0.000  0.000  0.000
  0.000  0.000  1.000  0.000  0.000
  0.000  0.000  0.000  1.000  0.000
  0.000  0.000  0.000  0.000  1.000
    occupations:
  0.800  0.000  0.000  0.000  0.000
  0.000  0.800  0.000  0.000  0.000
  0.000  0.000  0.800  0.000  0.000
  0.000  0.000  0.000  0.800  0.000
  0.000  0.000  0.000  0.000  0.800
atom    4   Tr[ns(na)] =   8.00000
    eigenvalues:
  0.800  0.800  0.800  0.800  0.800
    eigenvectors:
  1.000  0.000  0.000  0.000  0.000
  0.000  1.000  0.000  0.000  0.000
  0.000  0.000  1.000  0.000  0.000
  0.000  0.000  0.000  1.000  0.000
  0.000  0.000  0.000  0.000  1.000
    occupations:
  0.800  0.000  0.000  0.000  0.000
  0.000  0.800  0.000  0.000  0.000
  0.000  0.000  0.800  0.000  0.000
  0.000  0.000  0.000  0.800  0.000
  0.000  0.000  0.000  0.000  0.800
atom    9   Tr[ns(na)] =   8.00000
    eigenvalues:
  0.800  0.800  0.800  0.800  0.800
    eigenvectors:
  1.000  0.000  0.000  0.000  0.000
  0.000  1.000  0.000  0.000  0.000
  0.000  0.000  1.000  0.000  0.000
  0.000  0.000  0.000  1.000  0.000
  0.000  0.000  0.000  0.000  1.000
    occupations:
  0.800  0.000  0.000  0.000  0.000
  0.000  0.800  0.000  0.000  0.000
  0.000  0.000  0.800  0.000  0.000
  0.000  0.000  0.000  0.800  0.000
  0.000  0.000  0.000  0.000  0.800
atom   10   Tr[ns(na)] =   8.00000
    eigenvalues:
  0.800  0.800  0.800  0.800  0.800
    eigenvectors:
  1.000  0.000  0.000  0.000  0.000
  0.000  1.000  0.000  0.000  0.000
  0.000  0.000  1.000  0.000  0.000
  0.000  0.000  0.000  1.000  0.000
  0.000  0.000  0.000  0.000  1.000
    occupations:
  0.800  0.000  0.000  0.000  0.000
  0.000  0.800  0.000  0.000  0.000
  0.000  0.000  0.800  0.000  0.000
  0.000  0.000  0.000  0.800  0.000
  0.000  0.000  0.000  0.000  0.800
atom   16   Tr[ns(na)] =   8.00000
    eigenvalues:
  0.800  0.800  0.800  0.800  0.800
    eigenvectors:
  1.000  0.000  0.000  0.000  0.000
  0.000  1.000  0.000  0.000  0.000
  0.000  0.000  1.000  0.000  0.000
  0.000  0.000  0.000  1.000  0.000
  0.000  0.000  0.000  0.000  1.000
    occupations:
  0.800  0.000  0.000  0.000  0.000
  0.000  0.800  0.000  0.000  0.000
  0.000  0.000  0.800  0.000  0.000
  0.000  0.000  0.000  0.800  0.000
  0.000  0.000  0.000  0.000  0.800
atom   17   Tr[ns(na)] =   8.00000
    eigenvalues:
  0.800  0.800  0.800  0.800  0.800
    eigenvectors:
  1.000  0.000  0.000  0.000  0.000
  0.000  1.000  0.000  0.000  0.000
  0.000  0.000  1.000  0.000  0.000
  0.000  0.000  0.000  1.000  0.000
  0.000  0.000  0.000  0.000  1.000
    occupations:
  0.800  0.000  0.000  0.000  0.000
  0.000  0.800  0.000  0.000  0.000
  0.000  0.000  0.800  0.000  0.000
  0.000  0.000  0.000  0.800  0.000
  0.000  0.000  0.000  0.000  0.800
atom   22   Tr[ns(na)] =   8.00000
    eigenvalues:
  0.800  0.800  0.800  0.800  0.800
    eigenvectors:
  1.000  0.000  0.000  0.000  0.000
  0.000  1.000  0.000  0.000  0.000
  0.000  0.000  1.000  0.000  0.000
  0.000  0.000  0.000  1.000  0.000
  0.000  0.000  0.000  0.000  1.000
    occupations:
[...]
    eigenvectors:
  0.001  0.143  0.000  0.000  0.856
  0.997  0.003  0.000  0.000  0.000
  0.000  0.000  0.000  1.000  0.000
  0.003  0.854  0.000  0.000  0.144
  0.000  0.000  1.000  0.000  0.000
    occupations:
  0.948  0.000 -0.000 -0.093  0.000
  0.000  0.713  0.000  0.000 -0.000
 -0.000  0.000  0.961 -0.001 -0.000
 -0.093  0.000 -0.001  0.758  0.000
  0.000 -0.000 -0.000  0.000  0.957
atom   10   Tr[ns(na)] =   8.74912
    eigenvalues:
  0.659  0.778  0.967  0.985  0.985
    eigenvectors:
  0.000  0.982  0.000  0.000  0.018
  0.000  0.000  1.000  0.000  0.000
  0.000  0.000  0.000  0.992  0.008
  0.000  0.018  0.000  0.008  0.973
  1.000  0.000  0.000  0.000  0.000
    occupations:
  0.781  0.000  0.001  0.028  0.000
  0.000  0.967 -0.000  0.000 -0.001
  0.001 -0.000  0.985 -0.000 -0.000
  0.028  0.000 -0.000  0.982 -0.000
  0.000 -0.001 -0.000 -0.000  0.659
atom   16   Tr[ns(na)] =   8.72199
    eigenvalues:
  0.697  0.706  0.983  0.986  0.989
    eigenvectors:
  0.178  0.000  0.776  0.000  0.046
  0.000  1.000  0.000  0.000  0.000
  0.003  0.000  0.069  0.000  0.928
  0.819  0.000  0.155  0.000  0.026
  0.000  0.000  0.000  1.000  0.000
    occupations:
  0.932 -0.000  0.005 -0.109  0.000
 -0.000  0.706  0.000  0.000 -0.001
  0.005  0.000  0.988  0.016 -0.000
 -0.109  0.000  0.016  0.749  0.000
  0.000 -0.001 -0.000  0.000  0.986
atom   17   Tr[ns(na)] =   8.69837
    eigenvalues:
  0.687  0.710  0.981  0.985  0.986
    eigenvectors:
  0.000  0.986  0.009  0.002  0.003
  0.010  0.000  0.031  0.939  0.020
  0.000  0.004  0.781  0.009  0.206
  0.000  0.009  0.179  0.041  0.771
  0.990  0.000  0.000  0.009  0.000
    occupations:
  0.714 -0.005 -0.018  0.026 -0.001
 -0.005  0.982  0.000  0.000  0.029
 -0.018  0.000  0.981  0.004  0.000
  0.026  0.000  0.004  0.983  0.000
 -0.001  0.029  0.000  0.000  0.690
atom   22   Tr[ns(na)] =   8.67469
    eigenvalues:
  0.713  0.720  0.957  0.961  0.986
    eigenvectors:
  0.001  0.143  0.000  0.000  0.856
  0.997  0.003  0.000  0.000  0.000
  0.000  0.000  0.000  1.000  0.000
  0.003  0.854  0.000  0.000  0.144
  0.000  0.000  1.000  0.000  0.000
    occupations:
  0.948  0.000 -0.000 -0.093  0.000
  0.000  0.713  0.000  0.000 -0.000
 -0.000  0.000  0.961 -0.001 -0.000
 -0.093  0.000 -0.001  0.758  0.000
  0.000 -0.000 -0.000  0.000  0.957
atom   23   Tr[ns(na)] =   8.74932
    eigenvalues:
  0.659  0.778  0.967  0.985  0.985
    eigenvectors:
  0.000  0.982  0.000  0.000  0.018
  0.000  0.000  1.000  0.000  0.000
  0.000  0.000  0.000  0.991  0.009
  0.000  0.018  0.000  0.009  0.973
  1.000  0.000  0.000  0.000  0.000
    occupations:
  0.782  0.000  0.001  0.028  0.000
  0.000  0.967 -0.000  0.000 -0.001
  0.001 -0.000  0.985 -0.000 -0.000
  0.028  0.000 -0.000  0.982 -0.000
  0.000 -0.001 -0.000 -0.000  0.659
N of occupied +U levels =  69.6885283
 --- exit write_ns ---

     Threshold (ethr) on eigenvalues was too large:
     Diagonalizing with lowered threshold

     Davidson diagonalization with overlap
     ethr =  4.14E-09,  avg # of iterations =  2.2

[...]

     total energy              =   -2247.95917813 Ry
     Harris-Foulkes estimate   =   -2247.95917814 Ry
     estimated scf accuracy    <       0.00000005 Ry

     iteration # 12     ecut=    40.00 Ry     beta=0.70
     Davidson diagonalization with overlap
     ethr =  1.26E-11,  avg # of iterations =  1.0

     negative rho (up, down):  0.158E+01 0.000E+00

     End of self-consistent calculation
 --- enter write_ns ---
 LDA+U parameters:
U( 2)     =  3.00000000
alpha( 2) =  0.00000000
atom    3   Tr[ns(na)] =   8.72157
    eigenvalues:
  0.697  0.706  0.983  0.986  0.989
    eigenvectors:
  0.178  0.000  0.776  0.000  0.046
  0.000  1.000  0.000  0.000  0.000
  0.003  0.000  0.068  0.000  0.928
  0.819  0.000  0.155  0.000  0.026
  0.000  0.000  0.000  1.000  0.000
    occupations:
  0.932 -0.000  0.005 -0.109  0.000
 -0.000  0.706  0.000  0.000 -0.001
  0.005  0.000  0.988  0.016 -0.000
 -0.109  0.000  0.016  0.749  0.000
  0.000 -0.001 -0.000  0.000  0.986
atom    4   Tr[ns(na)] =   8.69799
    eigenvalues:
  0.687  0.710  0.981  0.985  0.986
    eigenvectors:
  0.000  0.986  0.009  0.002  0.003
  0.010  0.000  0.031  0.938  0.020
  0.000  0.004  0.780  0.009  0.207
  0.000  0.009  0.179  0.042  0.770
  0.990  0.000  0.000  0.009  0.000
    occupations:
  0.713 -0.005 -0.018  0.026 -0.001
 -0.005  0.982  0.000  0.000  0.029
 -0.018  0.000  0.981  0.004  0.000
  0.026  0.000  0.004  0.983  0.000
 -0.001  0.029  0.000  0.000  0.690
atom    9   Tr[ns(na)] =   8.67493
    eigenvalues:
  0.713  0.720  0.957  0.961  0.986
    eigenvectors:
  0.001  0.143  0.000  0.000  0.857
  0.997  0.003  0.000  0.000  0.000
  0.000  0.000  0.000  1.000  0.000
  0.003  0.854  0.000  0.000  0.143
  0.000  0.000  1.000  0.000  0.000
    occupations:
  0.948  0.000 -0.000 -0.093  0.000
  0.000  0.713  0.000  0.000 -0.000
 -0.000  0.000  0.961 -0.001 -0.000
 -0.093  0.000 -0.001  0.758  0.000
  0.000 -0.000 -0.000  0.000  0.957
atom   10   Tr[ns(na)] =   8.74947
    eigenvalues:
  0.659  0.778  0.967  0.985  0.985
    eigenvectors:
  0.000  0.982  0.000  0.000  0.018
  0.000  0.000  1.000  0.000  0.000
  0.000  0.000  0.000  0.992  0.008
  0.000  0.018  0.000  0.008  0.973
  1.000  0.000  0.000  0.000  0.000
    occupations:
  0.782  0.000  0.001  0.028  0.000
  0.000  0.967 -0.000  0.000 -0.001
  0.001 -0.000  0.985 -0.000 -0.000
  0.028  0.000 -0.000  0.982 -0.000
  0.000 -0.001 -0.000 -0.000  0.659
atom   16   Tr[ns(na)] =   8.72157
    eigenvalues:
  0.697  0.706  0.983  0.986  0.989
    eigenvectors:
  0.178  0.000  0.776  0.000  0.046
  0.000  1.000  0.000  0.000  0.000
  0.003  0.000  0.068  0.000  0.928
  0.819  0.000  0.155  0.000  0.026
  0.000  0.000  0.000  1.000  0.000
    occupations:
  0.932 -0.000  0.005 -0.109  0.000
 -0.000  0.706  0.000  0.000 -0.001
  0.005  0.000  0.988  0.016 -0.000
 -0.109  0.000  0.016  0.749  0.000
  0.000 -0.001 -0.000  0.000  0.986
atom   17   Tr[ns(na)] =   8.69800
    eigenvalues:
  0.687  0.710  0.981  0.985  0.986
    eigenvectors:
  0.000  0.986  0.009  0.002  0.003
  0.010  0.000  0.031  0.938  0.020
  0.000  0.004  0.780  0.009  0.207
  0.000  0.009  0.179  0.042  0.770
  0.990  0.000  0.000  0.009  0.000
    occupations:
  0.713 -0.005 -0.018  0.026 -0.001
 -0.005  0.982  0.000  0.000  0.029
 -0.018  0.000  0.981  0.004  0.000
  0.026  0.000  0.004  0.983  0.000
 -0.001  0.029  0.000  0.000  0.690
atom   22   Tr[ns(na)] =   8.67493
    eigenvalues:
  0.713  0.720  0.957  0.961  0.986
    eigenvectors:
  0.001  0.143  0.000  0.000  0.857
  0.997  0.003  0.000  0.000  0.000
  0.000  0.000  0.000  1.000  0.000
  0.003  0.854  0.000  0.000  0.143
  0.000  0.000  1.000  0.000  0.000
    occupations:
  0.948  0.000 -0.000 -0.093  0.000
  0.000  0.713  0.000  0.000 -0.000
 -0.000  0.000  0.961 -0.001 -0.000
 -0.093  0.000 -0.001  0.758  0.000
  0.000 -0.000 -0.000  0.000  0.957
atom   23   Tr[ns(na)] =   8.74952
    eigenvalues:
  0.659  0.778  0.967  0.985  0.985
    eigenvectors:
  0.000  0.982  0.000  0.000  0.018
  0.000  0.000  1.000  0.000  0.000
  0.000  0.000  0.000  0.992  0.008
  0.000  0.018  0.000  0.008  0.973
  1.000  0.000  0.000  0.000  0.000
    occupations:
  0.782  0.000  0.001  0.028  0.000
  0.000  0.967 -0.000  0.000 -0.001
  0.001 -0.000  0.985 -0.000 -0.000
  0.028  0.000 -0.000  0.982 -0.000
  0.000 -0.001 -0.000 -0.000  0.659
N of occupied +U levels =  69.6879820
 --- exit write_ns ---

[...]

          k = 0.2500-0.4976 0.0000 ( 32026 PWs)   bands (ev):

[...]

          k =-0.2500 0.2488 0.0000 ( 32025 PWs)   bands (ev):

   -55.5149 -55.4751 -55.4449 -55.4207 -55.4061 -55.3911 -55.3886 -55.3819
   -55.2955 -55.2921 -55.1966 -55.1926 -55.1233 -55.1210 -55.1178 -55.1161
   -55.0972 -55.0944 -54.8975 -54.8579 -54.5501 -54.5450 -54.3178 -54.3152
   -22.0709 -21.8641 -21.1757 -21.0527 -20.7227 -20.6030 -20.5588 -20.4505
   -20.4353 -20.3855 -20.2465 -20.2268 -20.1832 -20.0323 -19.9741 -19.9262
   -19.1049 -18.9275 -10.5372 -10.3201 -10.1704 -10.1364  -9.6352  -9.5882
    -9.4126  -9.3144  -9.2524  -9.2333  -9.1915  -8.9825  -8.8851  -8.8184
    -8.7976  -8.6712  -8.6444  -8.4638  -8.1040  -8.0782  -7.9743  -7.8995
    -7.7063  -7.4985  -7.4892  -7.3679  -7.2366  -7.0893  -7.0853  -7.0197
    -6.9140  -6.8917  -6.6793  -6.6435  -6.5859  -6.4653  -6.3800  -6.3752
    -6.1972  -6.0266  -5.9580  -5.8087  -5.7459  -5.5842  -5.5087  -5.3540
    -5.2124  -5.1395  -5.1207  -4.9061  -4.8100  -4.7129  -4.6623  -4.4635
    -4.3264  -4.3096  -4.1465  -4.1261  -3.9193  -3.8694  -3.8322  -3.6672
    -3.5626  -3.5460  -3.5080  -3.3250  -3.1594  -3.1082  -2.7914  -2.6434
    -2.6118  -2.5502  -2.3976  -2.3611  -2.3199  -2.2202  -1.8559  -1.7610
    -1.7215  -1.3645  -1.0584  -0.6731  -0.3282  -0.2678  -0.0941   0.3073
     0.5484   0.7214   0.8765   0.9678   1.2375   1.2619   1.4070   1.6189
     3.0717   3.6743   4.5610   4.9770   5.0567   5.1001   5.2024   5.4567
     5.6962   5.9464   6.0522   6.2302   6.4086   6.4914   6.5889   6.6382
     6.7626   6.8230   7.0224   7.0770   7.2647   7.3982   7.4255   7.5145
     7.5944   7.7372   7.8164   7.9737   8.0901   8.1623   8.2588   8.3067
     8.3520   8.4663   8.5428   8.6450   8.7662   8.8663   9.0294   9.1209
     9.3044   9.3422   9.4451   9.5577   9.6534   9.7603   9.8890   9.9548
    10.0967  10.1477  10.2116  10.2146  10.4250  10.5112  10.5305  10.6384
    10.6637  10.8254  10.8342  10.9775  11.1450  11.2492  11.3488  11.3869
    11.4177  11.5415  11.6501  11.7390  11.7921  11.8176  11.8810  11.9361
    11.9853  12.1571  12.2001  12.2105  12.3265  12.3434  12.4336  12.5176
    12.5760  12.6172  12.7258  12.7924  12.8873  12.8925  13.0319  13.0887
    13.1530  13.2435  13.4121  13.5019  13.6066  13.6321  13.7049  13.8082
    13.8256  13.8888  14.0184  14.0278  14.1226  14.2753  14.3597  14.4045
    14.4686  14.6078  14.6777  14.7241  14.8283  14.9254  15.0270  15.1551
    15.2161  15.2205  15.3460  15.3568  15.4461  15.5161  15.5576  15.6294
    15.6296  15.6741  15.7559  15.8182  15.8572  15.9366  16.0191  16.0397
    16.1680  16.1748  16.2269  16.3122  16.3929  16.4928  16.6078  16.7070
    16.7720  16.7797  16.7911  16.8758  16.9036  16.9257  16.9550  16.9621
    16.9692  17.0544  17.0814  17.1345  17.1439  17.1767  17.2496  17.2520
    17.3391  17.3935  17.4455  17.4602  17.4937  17.6118  17.6605  17.7193
    17.7198  17.7697  17.8050  17.8951  18.0356  18.0840  18.1142  18.1893
    18.2042  18.3510  18.3840  18.3921  18.5282  18.5815  18.6915  18.7028
    18.7272  18.8923  18.9319  19.0140  19.0228  19.1034  19.1470  19.2737
    19.3246  19.3860  19.4057  19.5579  19.6079  19.7637  19.8132  19.8349
    19.9024  19.9457  19.9777  20.0410  20.0647  20.0828  20.2472  20.2719
    20.3224  20.3349  20.5074  20.5086  20.6382  20.6950  20.7632  20.8005
    20.8062  20.9348  20.9450  21.0043  21.0353  21.2129  21.2482  21.2620
    21.3545  21.4366  21.4401  21.5292  21.5799  21.6237  21.6521  21.7667

     the Fermi energy is    -1.6992 ev

!    total energy              =   -2247.95917813 Ry
     Harris-Foulkes estimate   =   -2247.95917814 Ry
     estimated scf accuracy    <          7.3E-09 Ry

     The total energy is the sum of the following terms:

     one-electron contribution =  -22796.76229936 Ry
     hartree contribution      =   11438.95403187 Ry
     xc contribution           =    -565.13329973 Ry
     ewald contribution        =    9674.15211022 Ry
     Hubbard energy            =       0.83119621 Ry
     smearing contrib. (-TS)   =      -0.00091735 Ry

     convergence has been achieved in  12 iterations

     Forces acting on atoms (Ry/au):

     negative rho (up, down):  0.158E+01 0.000E+00
     atom    1 type  1   force =    -0.00772046   -0.00447804   -0.00015019
     atom    2 type  1   force =     0.00010876    0.00431826   -0.00029464
     atom    3 type  2   force =    -0.00047458    0.00220218   -0.00000151
     atom    4 type  2   force =     0.01022607    0.00222651    0.00002258
     atom    5 type  1   force =     0.00110610   -0.00226765    0.00010921
     atom    6 type  1   force =     0.00006319    0.00065026   -0.00008299
     atom    7 type  1   force =     0.00003620    0.00472547    0.00087118
     atom    8 type  1   force =    -0.00395333   -0.00778039    0.00045400
     atom    9 type  2   force =     0.00175472    0.00098064   -0.00021197
     atom   10 type  2   force =    -0.00003239   -0.00186125   -0.00006656
     atom   11 type  1   force =    -0.00001975   -0.00668749   -0.00012207
     atom   12 type  1   force =     0.00006250    0.00774322   -0.00004863
     atom   13 type  1   force =    -0.00109027   -0.00029272   -0.00011923
     atom   14 type  1   force =    -0.00772544   -0.00447872   -0.00016017
     atom   15 type  1   force =     0.00010878    0.00431852   -0.00029708
     atom   16 type  2   force =    -0.00046840    0.00220207   -0.00000125
     atom   17 type  2   force =     0.01022916    0.00222694    0.00000529
     atom   18 type  1   force =     0.00110926   -0.00226771    0.00010942
     atom   19 type  1   force =     0.00007009    0.00065021   -0.00008296
     atom   20 type  1   force =     0.00003624    0.00472526    0.00085491
     atom   21 type  1   force =    -0.00395405   -0.00778067    0.00043430
     atom   22 type  2   force =     0.00180076    0.00098056   -0.00021166
     atom   23 type  2   force =    -0.00003244   -0.00186098   -0.00006431
     atom   24 type  1   force =     0.00000408   -0.00668751   -0.00012195
     atom   25 type  1   force =     0.00008636    0.00774321   -0.00004862
     atom   26 type  1   force =    -0.00108998   -0.00029291   -0.00003223
     atom   27 type  3   force =     0.00001232    0.00028403    0.00005214
     atom   28 type  3   force =     0.00001222    0.00028475    0.00005232
     atom   29 type  3   force =    -0.00013358    0.00023653   -0.00042539
     atom   30 type  3   force =    -0.00013213    0.00023741   -0.00042193

     Total force =     0.001723     Total SCF correction =     0.000201
     SCF correction compared to forces is large: reduce conv_thr to get better values

     bfgs converged in   9 scf cycles and   8 bfgs steps
     (criteria: energy < 0.10E-03, force < 0.10E-02)

     End of BFGS Geometry Optimization

     Final energy   =   -2247.9591781332 Ry
Begin final coordinates

ATOMIC_POSITIONS (crystal)
O0       0.000000000   0.000000000   0.376823114    0   0   1
O0       0.000000000   0.500000000   0.399560592    0   0   1
Pt1      0.250000000   0.500000000   0.449086563    0   0   1
Pt1      0.000000000   0.000000000   0.451871909    0   0   1
O0       0.250000000   0.810000000   0.442033363    0   0   1
O0       0.250000000   0.190000000   0.459498256    0   0   1
O0       0.000000000   0.500000000   0.495494070    0   0   1
O0       0.000000000   0.000000000   0.529308194    0   0   1
Pt1      0.250000000   0.000000000   0.575872315    0   0   1
Pt1      0.000000000   0.500000000   0.573751166    0   0   1
O0       0.250000000   0.690000000   0.583240764    0   0   1
O0       0.250000000   0.310000000   0.583752678    0   0   1
O0       0.000000000   0.000000000   0.621395119    0   0   1
O0       0.500000000   0.000000000   0.376824095    0   0   1
O0       0.500000000   0.500000000   0.399560647    0   0   1
Pt1      0.750000000   0.500000000   0.449086555    0   0   1
Pt1      0.500000000   0.000000000   0.451872663    0   0   1
O0       0.750000000   0.810000000   0.442033358    0   0   1
O0       0.750000000   0.190000000   0.459498266    0   0   1
O0       0.500000000   0.500000000   0.495493971    0   0   1
O0       0.500000000   0.000000000   0.529307991    0   0   1
Pt1      0.750000000   0.000000000   0.575872300    0   0   1
Pt1      0.500000000   0.500000000   0.573751363    0   0   1
O0       0.750000000   0.690000000   0.583240737    0   0   1
O0       0.750000000   0.310000000   0.583752663    0   0   1
O0       0.500000000   0.000000000   0.621390689    0   0   1
H2      -0.000019134   0.640532007   0.384187341
H2       0.499980879   0.640531969   0.384187355
H2       0.144042232   0.032377514   0.367056051
H2       0.644040850   0.032376890   0.367055852
End final coordinates

     General routines

     Parallel routines
     Hubbard U routines

   This run was terminated on:  15: 1:48   6May2014

   JOB DONE.
Running PBS batch system epilogue script
Job id: 340797.audhumbla.fysik.dtu.dk
Username: zhonxu
Groupname: campgst
Jobname: PtO2/Eads-2-layers/bare-U-3.0
Sessionid: 9577
Queuename: verylong
Accounting:
This job has allocated the following 16 nodes:
a080 a080 a080 a080 a080 a080 a080 a080 a078 a078 a078 a078 a078 a078 a078 a078
Finished epilogue job 340797.audhumbla.fysik.dtu.dk for zhonxu