     Program PWSCF v.5.0.2 (svn rev. 9656) starts on  5May2014 at 18:10: 9

     Current dimensions of program PWSCF are:
     Max number of different atomic species (ntypx) = 10
     Max number of k-points (npk) =  40000
     Max angular momentum in pseudopotentials (lmaxx) =  3
     Reading input from pwscf.in
Warning: card &CELL ignored
Warning: card / ignored

     Subspace diagonalization in iterative solution of the eigenvalue problem:
     a serial algorithm will be used

     Found symmetry operation: I + ( -0.5000  0.0000  0.0000)
     This is a supercell, fractional translations are disabled

     bravais-lattice index     =            0
     lattice parameter (alat)  =      10.3179  a.u.
     unit-cell volume          =    6964.3238 (a.u.)^3
     number of atoms/cell      =           30
     number of atomic types    =            3
     number of electrons       =       224.00
     number of Kohn-Sham states=          336
     kinetic-energy cutoff     =      40.0000  Ry
     charge density cutoff     =     500.0000  Ry
     convergence threshold     =      1.0E-06
     mixing beta               =       0.7000
     number of iterations used =            8  plain     mixing
     Exchange-correlation      = SLA  PW   PBE  PBE ( 1 4 3 4 0)
     EXX-fraction              =        0.00
     nstep                     =           50

     celldm(1)=  10.317905  celldm(2)=   0.000000  celldm(3)=   0.000000
     celldm(4)=   0.000000  celldm(5)=   0.000000  celldm(6)=   0.000000

     crystal axes: (cart. coord. in units of alat)
               a(1) = (   1.000000   0.000000   0.000000 )
               a(2) = (   0.000000   1.282117   0.000000 )
               a(3) = (   0.000000   0.000000   4.945120 )

     reciprocal axes: (cart. coord. in units 2 pi/alat)
               b(1) = (  1.000000  0.000000  0.000000 )
               b(2) = (  0.000000  0.779960  0.000000 )
               b(3) = (  0.000000  0.000000  0.202220 )

     PseudoPot. # 1 for O  read from file:
     /home/camp/zhonxu/pseudo/o_pbe_v1.01.uspp.F.UPF
     MD5 check sum: 2bcb18d16ea4b960afae9ec6d52f22d2
     Pseudo is Ultrasoft + core correction, Zval =  6.0
     Generated by new atomic code, or converted to UPF format
     Using radial grid of  737 points,  5 beta functions with:
                l(1) =   0
                l(2) =   0
                l(3) =   1
                l(4) =   1
                l(5) =   2
     Q(r) pseudized with  8 coefficients,  rinner =    0.900   0.900   0.900
                                                       0.900   0.900

     PseudoPot. # 2 for Mo read from file:
     /home/camp/zhonxu/pseudo/mo_pbe_v1.uspp.F.UPF
     MD5 check sum: 30c4dcd161f5d35cd49bb5239c51a633
     Pseudo is Ultrasoft + core correction, Zval = 14.0
     Generated by new atomic code, or converted to UPF format
     Using radial grid of  889 points,  6 beta functions with:
                l(1) =   0
                l(2) =   0
                l(3) =   1
                l(4) =   1
                l(5) =   2
                l(6) =   2
     Q(r) pseudized with  6 coefficients,  rinner =    1.000   1.000   1.000
                                                       1.000   1.000

     PseudoPot. # 3 for H  read from file:
     /home/camp/zhonxu/pseudo/h_pbe_v1.uspp.F.UPF
     MD5 check sum: 3408e3ff4ec8b0a4e358431e7e038a48
     Pseudo is Ultrasoft, Zval =  1.0
     Generated by new atomic code, or converted to UPF format
     Using radial grid of  615 points,  2 beta functions with:
                l(1) =   0
                l(2) =   0
     Q(r) pseudized with  8 coefficients,  rinner =    0.700

     atomic species   valence    mass     pseudopotential
        O0             6.00    15.99940     O ( 1.00)
        Mo1           14.00    95.94000     Mo( 1.00)
        H2             1.00     1.00794     H ( 1.00)

     Simplified LDA+U calculation (l_max = 2) with parameters (eV):
     atomic species    L          U    alpha       J0     beta
        Mo1            2     5.0000   0.0000   0.0000   0.0000

     No symmetry found

   Cartesian axes

     site n.     atom                  positions (alat units)
         1           O0  tau(   1) = (   0.0000000   0.0000000   1.8465574  )
         2           O0  tau(   2) = (   0.0000000   0.6410583   1.8808271  )
         3           Mo1 tau(   3) = (   0.2500000   0.6410583   2.1650231  )
         4           Mo1 tau(   4) = (   0.0000000   0.0000000   2.2064633  )
         5           O0  tau(   5) = (   0.2500000   1.0000510   2.1927158  )
         6           O0  tau(   6) = (   0.2500000   0.2820657   2.1921224  )
         7           O0  tau(   7) = (   0.0000000   0.6410583   2.4520379  )
         8           O0  tau(   8) = (   0.0000000   0.0000000   2.5658746  )
         9           Mo1 tau(   9) = (   0.2500000   0.0000000   2.8596642  )
        10           Mo1 tau(  10) = (   0.0000000   0.6410583   2.7884050  )
        11           O0  tau(  11) = (   0.2500000   0.9231240   2.8369661  )
        12           O0  tau(  12) = (   0.2500000   0.3589927   2.8372628  )
        13           O0  tau(  13) = (   0.0000000   0.0000000   3.1104807  )
        14           O0  tau(  14) = (   0.5000000   0.0000000   1.8465574  )
        15           O0  tau(  15) = (   0.5000000   0.6410583   1.8808271  )
        16           Mo1 tau(  16) = (   0.7500000   0.6410583   2.1650231  )
        17           Mo1 tau(  17) = (   0.5000000   0.0000000   2.2064633  )
        18           O0  tau(  18) = (   0.7500000   1.0000510   2.1927158  )
        19           O0  tau(  19) = (   0.7500000   0.2820657   2.1921224  )
        20           O0  tau(  20) = (   0.5000000   0.6410583   2.4520379  )
        21           O0  tau(  21) = (   0.5000000   0.0000000   2.5658746  )
        22           Mo1 tau(  22) = (   0.7500000   0.0000000   2.8596642  )
        23           Mo1 tau(  23) = (   0.5000000   0.6410583   2.7884050  )
        24           O0  tau(  24) = (   0.7500000   0.9231240   2.8369661  )
        25           O0  tau(  25) = (   0.7500000   0.3589927   2.8372628  )
        26           O0  tau(  26) = (   0.5000000   0.0000000   3.1104807  )
        27           H2  tau(  27) = (  -0.0004900   0.7868222   1.7746059  )
        28           H2  tau(  28) = (   0.4995100   0.7868222   1.7746059  )
        29           H2  tau(  29) = (   0.1657500   0.0265270   1.7749026  )
        30           H2  tau(  30) = (   0.6657500   0.0265270   1.7749026  )

     number of k points=    10  Methfessel-Paxton smearing, width (Ry)=  0.0100
                       cart. coord. in units 2pi/alat
        k(    1) = (   0.0000000   0.0000000   0.0000000), wk =   0.1250000
        k(    2) = (   0.0000000   0.1949901   0.0000000), wk =   0.2500000
        k(    3) = (   0.0000000  -0.3899801   0.0000000), wk =   0.1250000
        k(    4) = (   0.2500000   0.0000000   0.0000000), wk =   0.2500000
        k(    5) = (   0.2500000   0.1949901   0.0000000), wk =   0.2500000
        k(    6) = (   0.2500000  -0.3899801   0.0000000), wk =   0.2500000
        k(    7) = (  -0.5000000   0.0000000   0.0000000), wk =   0.1250000
        k(    8) = (  -0.5000000   0.1949901   0.0000000), wk =   0.2500000
        k(    9) = (  -0.5000000  -0.3899801   0.0000000), wk =   0.1250000
        k(   10) = (  -0.2500000   0.1949901   0.0000000), wk =   0.2500000

     Largest allocated arrays     est. size (Mb)     dimensions
     Largest temporary arrays     est. size (Mb)     dimensions

     Check: negative/imaginary core charge=   -0.000003    0.000000

     Initial potential from superposition of free atoms
     Check: negative starting charge=   -0.002478

     starting charge  223.99143, renormalised to  224.00000

     negative rho (up, down):  0.248E-02 0.000E+00
     Number of +U iterations with fixed ns =  0
     Starting occupations:
 --- enter write_ns ---
 LDA+U parameters:
U( 2)     =  5.00000000
alpha( 2) =  0.00000000
atom    3   Tr[ns(na)] =   5.00000
    eigenvalues:
  0.500  0.500  0.500  0.500  0.500
    eigenvectors:
  1.000  0.000  0.000  0.000  0.000
  0.000  1.000  0.000  0.000  0.000
  0.000  0.000  1.000  0.000  0.000
  0.000  0.000  0.000  1.000  0.000
  0.000  0.000  0.000  0.000  1.000
    occupations:
  0.500  0.000  0.000  0.000  0.000
  0.000  0.500  0.000  0.000  0.000
  0.000  0.000  0.500  0.000  0.000
  0.000  0.000  0.000  0.500  0.000
  0.000  0.000  0.000  0.000  0.500
atom    4   Tr[ns(na)] =   5.00000
    eigenvalues:
  0.500  0.500  0.500  0.500  0.500
    eigenvectors:
  1.000  0.000  0.000  0.000  0.000
  0.000  1.000  0.000  0.000  0.000
  0.000  0.000  1.000  0.000  0.000
  0.000  0.000  0.000  1.000  0.000
  0.000  0.000  0.000  0.000  1.000
    occupations:
  0.500  0.000  0.000  0.000  0.000
  0.000  0.500  0.000  0.000  0.000
  0.000  0.000  0.500  0.000  0.000
  0.000  0.000  0.000  0.500  0.000
  0.000  0.000  0.000  0.000  0.500
atom    9   Tr[ns(na)] =   5.00000
    eigenvalues:
  0.500  0.500  0.500  0.500  0.500
    eigenvectors:
  1.000  0.000  0.000  0.000  0.000
  0.000  1.000  0.000  0.000  0.000
  0.000  0.000  1.000  0.000  0.000
  0.000  0.000  0.000  1.000  0.000
  0.000  0.000  0.000  0.000  1.000
    occupations:
  0.500  0.000  0.000  0.000  0.000
  0.000  0.500  0.000  0.000  0.000
  0.000  0.000  0.500  0.000  0.000
  0.000  0.000  0.000  0.500  0.000
  0.000  0.000  0.000  0.000  0.500
atom   10   Tr[ns(na)] =   5.00000
    eigenvalues:
  0.500  0.500  0.500  0.500  0.500
    eigenvectors:
  1.000  0.000  0.000  0.000  0.000
  0.000  1.000  0.000  0.000  0.000
  0.000  0.000  1.000  0.000  0.000
  0.000  0.000  0.000  1.000  0.000
  0.000  0.000  0.000  0.000  1.000
    occupations:
  0.500  0.000  0.000  0.000  0.000
  0.000  0.500  0.000  0.000  0.000
  0.000  0.000  0.500  0.000  0.000
  0.000  0.000  0.000  0.500  0.000
  0.000  0.000  0.000  0.000  0.500
atom   16   Tr[ns(na)] =   5.00000
    eigenvalues:
  0.500  0.500  0.500  0.500  0.500
    eigenvectors:
  1.000  0.000  0.000  0.000  0.000
  0.000  1.000  0.000  0.000  0.000
  0.000  0.000  1.000  0.000  0.000
  0.000  0.000  0.000  1.000  0.000
  0.000  0.000  0.000  0.000  1.000
    occupations:
  0.500  0.000  0.000  0.000  0.000
  0.000  0.500  0.000  0.000  0.000
  0.000  0.000  0.500  0.000  0.000
  0.000  0.000  0.000  0.500  0.000
  0.000  0.000  0.000  0.000  0.500
atom   17   Tr[ns(na)] =   5.00000
    eigenvalues:
  0.500  0.500  0.500  0.500  0.500
    eigenvectors:
  1.000  0.000  0.000  0.000  0.000
  0.000  1.000  0.000  0.000  0.000
  0.000  0.000  1.000  0.000  0.000
  0.000  0.000  0.000  1.000  0.000
  0.000  0.000  0.000  0.000  1.000
    occupations:
  0.500  0.000  0.000  0.000  0.000
  0.000  0.500  0.000  0.000  0.000
  0.000  0.000  0.500  0.000  0.000
  0.000  0.000  0.000  0.500  0.000
  0.000  0.000  0.000  0.000  0.500
atom   22   Tr[ns(na)] =   5.00000
    eigenvalues:
  0.500  0.500  0.500  0.500  0.500
    eigenvectors:
  1.000  0.000  0.000  0.000  0.000
  0.000  1.000  0.000  0.000  0.000
  0.000  0.000  1.000  0.000  0.000
  0.000  0.000  0.000  1.000  0.000
  0.000  0.000  0.000  0.000  1.000
    occupations:
[...]
  0.005  0.651  0.004 -0.002 -0.000
  0.002  0.004  0.397 -0.002  0.000
  0.001 -0.002 -0.002  0.757  0.000
  0.000 -0.000  0.000  0.000  0.524
atom    9   Tr[ns(na)] =   5.84167
    eigenvalues:
  0.488  0.498  0.592  0.598  0.745
    eigenvectors:
  0.000  0.000  0.222  0.000  0.778
  0.000  0.000  0.000  1.000  0.000
  0.000  1.000  0.000  0.000  0.000
  0.000  0.000  0.778  0.000  0.222
  1.000  0.000  0.000  0.000  0.000
    occupations:
  0.711  0.000  0.002 -0.064 -0.002
  0.000  0.598 -0.000  0.000 -0.001
  0.002 -0.000  0.498 -0.001  0.000
 -0.064  0.000 -0.001  0.626  0.001
 -0.002 -0.001  0.000  0.001  0.488
atom   10   Tr[ns(na)] =   5.79014
    eigenvalues:
  0.429  0.495  0.498  0.700  0.774
    eigenvectors:
  0.003  0.996  0.000  0.000  0.001
  0.000  0.000  0.000  1.000  0.000
  0.997  0.003  0.000  0.000  0.000
  0.000  0.001  0.000  0.000  0.999
  0.000  0.000  1.000  0.000  0.000
    occupations:
  0.495  0.000 -0.004 -0.009 -0.000
  0.000  0.700 -0.001 -0.000  0.000
 -0.004 -0.001  0.429  0.001 -0.000
 -0.009 -0.000  0.001  0.774  0.000
 -0.000  0.000 -0.000  0.000  0.498
atom   16   Tr[ns(na)] =   5.83409
    eigenvalues:
  0.425  0.489  0.562  0.672  0.769
    eigenvectors:
  0.011  0.000  0.314  0.000  0.675
  0.000  0.998  0.000  0.002  0.000
  0.989  0.000  0.002  0.000  0.010
  0.001  0.000  0.684  0.000  0.315
  0.000  0.002  0.000  0.998  0.000
    occupations:
  0.700  0.000  0.031 -0.095 -0.000
  0.000  0.489 -0.000 -0.000 -0.007
  0.031 -0.000  0.429 -0.015 -0.000
 -0.095 -0.000 -0.015  0.627  0.000
 -0.000 -0.007 -0.000  0.000  0.672
atom   17   Tr[ns(na)] =   5.83068
    eigenvalues:
  0.397  0.524  0.587  0.651  0.757
    eigenvectors:
  0.000  0.000  0.994  0.006  0.000
  0.000  0.000  0.006  0.993  0.000
  1.000  0.000  0.000  0.000  0.000
  0.000  0.000  0.000  0.000  1.000
  0.000  1.000  0.000  0.000  0.000
    occupations:
  0.587  0.005  0.002  0.001  0.000
  0.005  0.651  0.004 -0.002 -0.000
  0.002  0.004  0.397 -0.002  0.000
  0.001 -0.002 -0.002  0.757  0.000
  0.000 -0.000  0.000  0.000  0.524
atom   22   Tr[ns(na)] =   5.84178
    eigenvalues:
  0.488  0.498  0.592  0.598  0.745
    eigenvectors:
  0.000  0.000  0.222  0.000  0.778
  0.000  0.000  0.000  1.000  0.000
  0.000  1.000  0.000  0.000  0.000
  0.000  0.000  0.778  0.000  0.222
  1.000  0.000  0.000  0.000  0.000
    occupations:
  0.711  0.000  0.002 -0.064 -0.002
  0.000  0.598 -0.000  0.000 -0.001
  0.002 -0.000  0.498 -0.001  0.000
 -0.064  0.000 -0.001  0.626  0.001
 -0.002 -0.001  0.000  0.001  0.488
atom   23   Tr[ns(na)] =   5.79057
    eigenvalues:
  0.429  0.495  0.498  0.700  0.774
    eigenvectors:
  0.003  0.996  0.000  0.000  0.001
  0.000  0.000  0.000  1.000  0.000
  0.997  0.003  0.000  0.000  0.000
  0.000  0.001  0.000  0.000  0.999
  0.000  0.000  1.000  0.000  0.000
    occupations:
  0.495  0.000 -0.004 -0.009 -0.000
  0.000  0.700 -0.001 -0.000  0.000
 -0.004 -0.001  0.429  0.001 -0.000
 -0.009 -0.000  0.001  0.774  0.000
 -0.000  0.000 -0.000  0.000  0.498
N of occupied +U levels =  46.5941485
 --- exit write_ns ---

     Threshold (ethr) on eigenvalues was too large:
     Diagonalizing with lowered threshold

     Davidson diagonalization with overlap
     ethr =  3.01E-09,  avg # of iterations =  3.0

[...]

     total energy              =   -1696.78196930 Ry
     Harris-Foulkes estimate   =   -1696.78196930 Ry
     estimated scf accuracy    <       0.00000002 Ry

     iteration # 16     ecut=    40.00 Ry     beta=0.70
     Davidson diagonalization with overlap
     ethr =  7.26E-12,  avg # of iterations =  1.0

     negative rho (up, down):  0.356E-02 0.000E+00

     End of self-consistent calculation
 --- enter write_ns ---
 LDA+U parameters:
U( 2)     =  5.00000000
alpha( 2) =  0.00000000
atom    3   Tr[ns(na)] =   5.83446
    eigenvalues:
  0.425  0.489  0.563  0.672  0.769
    eigenvectors:
  0.011  0.000  0.314  0.000  0.675
  0.000  0.998  0.000  0.002  0.000
  0.989  0.000  0.002  0.000  0.010
  0.001  0.000  0.684  0.000  0.315
  0.000  0.002  0.000  0.998  0.000
    occupations:
  0.700  0.000  0.031 -0.095 -0.000
  0.000  0.489 -0.000 -0.000 -0.007
  0.031 -0.000  0.429 -0.014 -0.000
 -0.095 -0.000 -0.014  0.627  0.000
 -0.000 -0.007 -0.000  0.000  0.672
atom    4   Tr[ns(na)] =   5.83116
    eigenvalues:
  0.397  0.524  0.587  0.652  0.757
    eigenvectors:
  0.000  0.000  0.994  0.006  0.000
  0.000  0.000  0.006  0.993  0.000
  1.000  0.000  0.000  0.000  0.000
  0.000  0.000  0.000  0.000  1.000
  0.000  1.000  0.000  0.000  0.000
    occupations:
  0.587  0.005  0.002  0.001  0.000
  0.005  0.651  0.004 -0.002 -0.000
  0.002  0.004  0.397 -0.002  0.000
  0.001 -0.002 -0.002  0.757  0.000
  0.000 -0.000  0.000  0.000  0.524
atom    9   Tr[ns(na)] =   5.84234
    eigenvalues:
  0.488  0.498  0.592  0.598  0.745
    eigenvectors:
  0.000  0.000  0.222  0.000  0.778
  0.000  0.000  0.000  1.000  0.000
  0.000  1.000  0.000  0.000  0.000
  0.000  0.000  0.778  0.000  0.222
  1.000  0.000  0.000  0.000  0.000
    occupations:
  0.711  0.000  0.002 -0.064 -0.002
  0.000  0.598 -0.000  0.000 -0.001
  0.002 -0.000  0.498 -0.001  0.000
 -0.064  0.000 -0.001  0.626  0.001
 -0.002 -0.001  0.000  0.001  0.488
atom   10   Tr[ns(na)] =   5.78944
    eigenvalues:
  0.429  0.495  0.498  0.700  0.774
    eigenvectors:
  0.003  0.996  0.000  0.000  0.001
  0.000  0.000  0.000  1.000  0.000
  0.997  0.003  0.000  0.000  0.000
  0.000  0.001  0.000  0.000  0.999
  0.000  0.000  1.000  0.000  0.000
    occupations:
  0.495  0.000 -0.004 -0.009 -0.000
  0.000  0.700 -0.001 -0.000  0.000
 -0.004 -0.001  0.429  0.001 -0.000
 -0.009 -0.000  0.001  0.774  0.000
 -0.000  0.000 -0.000  0.000  0.498
atom   16   Tr[ns(na)] =   5.83445
    eigenvalues:
  0.425  0.489  0.563  0.672  0.769
    eigenvectors:
  0.011  0.000  0.314  0.000  0.675
  0.000  0.998  0.000  0.002  0.000
  0.989  0.000  0.002  0.000  0.010
  0.001  0.000  0.684  0.000  0.315
  0.000  0.002  0.000  0.998  0.000
    occupations:
  0.700  0.000  0.031 -0.095 -0.000
  0.000  0.489 -0.000 -0.000 -0.007
  0.031 -0.000  0.429 -0.014 -0.000
 -0.095 -0.000 -0.014  0.627  0.000
 -0.000 -0.007 -0.000  0.000  0.672
atom   17   Tr[ns(na)] =   5.83114
    eigenvalues:
  0.397  0.524  0.587  0.652  0.757
    eigenvectors:
  0.000  0.000  0.994  0.006  0.000
  0.000  0.000  0.006  0.993  0.000
  1.000  0.000  0.000  0.000  0.000
  0.000  0.000  0.000  0.000  1.000
  0.000  1.000  0.000  0.000  0.000
    occupations:
  0.587  0.005  0.002  0.001  0.000
  0.005  0.651  0.004 -0.002 -0.000
  0.002  0.004  0.397 -0.002  0.000
  0.001 -0.002 -0.002  0.757  0.000
  0.000 -0.000  0.000  0.000  0.524
atom   22   Tr[ns(na)] =   5.84234
    eigenvalues:
  0.488  0.498  0.592  0.598  0.745
    eigenvectors:
  0.000  0.000  0.222  0.000  0.778
  0.000  0.000  0.000  1.000  0.000
  0.000  1.000  0.000  0.000  0.000
  0.000  0.000  0.778  0.000  0.222
  1.000  0.000  0.000  0.000  0.000
    occupations:
  0.711  0.000  0.002 -0.064 -0.002
  0.000  0.598 -0.000  0.000 -0.001
  0.002 -0.000  0.498 -0.001  0.000
 -0.064  0.000 -0.001  0.626  0.001
 -0.002 -0.001  0.000  0.001  0.488
atom   23   Tr[ns(na)] =   5.78946
    eigenvalues:
  0.429  0.495  0.498  0.700  0.774
    eigenvectors:
  0.003  0.996  0.000  0.000  0.001
  0.000  0.000  0.000  1.000  0.000
  0.997  0.003  0.000  0.000  0.000
  0.000  0.001  0.000  0.000  0.999
  0.000  0.000  1.000  0.000  0.000
    occupations:
  0.495  0.000 -0.004 -0.009 -0.000
  0.000  0.700 -0.001 -0.000  0.000
 -0.004 -0.001  0.429  0.001 -0.000
 -0.009 -0.000  0.001  0.774  0.000
 -0.000  0.000 -0.000  0.000  0.498
N of occupied +U levels =  46.5947933
 --- exit write_ns ---

[...]

          k = 0.2500-0.3900 0.0000 ( 29726 PWs)   bands (ev):

[...]

          k =-0.2500 0.1950 0.0000 ( 29746 PWs)   bands (ev):

   -62.3436 -62.2558 -62.2074 -62.1270 -61.9594 -61.9566 -61.8795 -61.8751
   -36.8693 -36.8101 -36.7483 -36.7293 -36.6692 -36.3818 -36.3640 -36.2919
   -36.2806 -36.2469 -36.2430 -36.2061 -36.1995 -36.1987 -36.1913 -36.1719
   -36.1303 -36.0877 -36.0593 -36.0442 -36.0072 -35.6396 -35.4909 -35.4729
   -20.7071 -20.4359 -19.8726 -19.6961 -19.6566 -19.5252 -19.4842 -19.3674
   -19.2045 -19.1674 -19.0669 -18.9336 -18.8411 -18.7591 -18.6991 -18.4780
   -18.1992 -18.0276  -8.7582  -8.5861  -8.1621  -7.9869  -7.7828  -7.7103
    -7.7102  -7.5460  -7.3850  -7.3624  -7.2640  -7.1505  -6.9530  -6.7959
    -6.7101  -6.4426  -6.3259  -6.2480  -6.1333  -6.0218  -5.8976  -5.8479
    -5.7306  -5.6533  -5.4520  -5.3319  -5.2517  -5.1276  -4.9879  -4.9192
    -4.7749  -4.6505  -4.5895  -4.5094  -4.4424  -4.3649  -4.2898  -4.2749
    -4.1501  -4.0738  -3.9852  -3.9150  -3.8380  -3.7237  -3.5168  -3.4190
    -3.3897  -3.3022  -3.1652  -3.0172  -3.0098  -2.7823  -2.6572  -2.4639
    -2.2818  -2.0974  -1.7824  -0.9475  -0.7594  -0.7283  -0.3830   0.1439
     0.1537   0.4540   0.6977   0.8234   0.9176   1.0920   1.1909   1.2713
     1.4225   1.5396   1.5875   1.6298   1.7526   1.7699   1.8946   2.1882
     2.3055   2.5852   3.3413   3.4367   3.7130   3.7814   3.9417   4.1278
     4.3425   4.4116   4.5075   4.6105   4.6833   4.7721   4.9305   5.1559
     5.5089   5.6868   5.7558   5.8385   5.9242   6.1143   6.3089   6.3969
     6.5371   6.6430   6.9569   6.9887   7.0955   7.2763   7.5107   7.5962
     7.9133   7.9372   8.1823   8.2778   8.2867   8.4785   8.6413   8.6653
     8.9013   8.9906   9.0712   9.3087   9.3773   9.4216   9.5024   9.5552
     9.5643   9.6142   9.8252   9.9811  10.0350  10.1877  10.2460  10.2785
    10.4673  10.4986  10.6500  10.7332  10.7459  10.9731  11.0933  11.0955
    11.1048  11.2510  11.5481  11.6130  11.6144  11.7401  11.8049  11.9040
    11.9715  12.0817  12.2770  12.3039  12.3495  12.3576  12.4510  12.6329
    12.6629  12.7679  12.8845  12.8925  12.9679  13.1014  13.1025  13.1933
    13.3228  13.4331  13.4495  13.5100  13.5157  13.6489  13.6676  13.7289
    13.8561  13.8932  13.9816  13.9841  14.1379  14.1521  14.2373  14.3432
    14.3971  14.4501  14.5007  14.5540  14.6040  14.7330  14.8389  14.8549
    14.9602  15.0383  15.0716  15.2214  15.2969  15.4050  15.4878  15.5613
    15.6477  15.6626  15.7673  15.8432  15.8979  15.9612  16.0567  16.1072
    16.1976  16.2796  16.3046  16.3530  16.3809  16.4502  16.5835  16.7139
    16.7190  16.7672  16.7818  16.8949  17.0057  17.0971  17.1712  17.2173
    17.2315  17.3082  17.3421  17.4114  17.4964  17.6787  17.6919  17.8077
    17.9103  17.9126  18.0902  18.0960  18.1756  18.2573  18.3552  18.3907
    18.4299  18.4377  18.5468  18.5781  18.6167  18.8193  18.8829  19.0157
    19.0669  19.1257  19.1426  19.2666  19.3139  19.4935  19.5795  19.6064
    19.7160  19.7851  19.8197  19.9102  19.9641  20.0934  20.1537  20.1901
    20.1926  20.2537  20.3409  20.3918  20.3990  20.4204  20.5069  20.5378
    20.6582  20.6970  20.7471  20.8395  20.9258  20.9651  21.0412  21.0676
    21.1219  21.2103  21.2206  21.3154  21.4230  21.4765  21.5504  21.6349

     the Fermi energy is     0.0688 ev

!    total energy              =   -1696.78196930 Ry
     Harris-Foulkes estimate   =   -1696.78196930 Ry
     estimated scf accuracy    <          5.1E-09 Ry

     The total energy is the sum of the following terms:

     one-electron contribution =  -21397.91153269 Ry
     hartree contribution      =   10721.16858343 Ry
     xc contribution           =    -286.66121398 Ry
     ewald contribution        =    9263.25587867 Ry
     Hubbard energy            =       3.36809670 Ry
     smearing contrib. (-TS)   =      -0.00178143 Ry

     convergence has been achieved in  16 iterations

     Forces acting on atoms (Ry/au):

     negative rho (up, down):  0.356E-02 0.000E+00
     atom    1 type  1   force =    -0.00198111   -0.00507089   -0.00038882
     atom    2 type  1   force =    -0.00005697    0.01009457    0.00068459
     atom    3 type  2   force =    -0.00017068   -0.00557450    0.00046028
     atom    4 type  2   force =    -0.00064977    0.00288861   -0.00047795
     atom    5 type  1   force =     0.00148540   -0.01954116   -0.00050300
     atom    6 type  1   force =    -0.00004476    0.01682228   -0.00051039
     atom    7 type  1   force =     0.00011908    0.00096650   -0.00016597
     atom    8 type  1   force =     0.00332581    0.00067597    0.00048516
     atom    9 type  2   force =    -0.00201343   -0.00024133    0.00021977
     atom   10 type  2   force =    -0.00001040    0.00081897    0.00004328
     atom   11 type  1   force =    -0.00010430   -0.03087757    0.00025438
     atom   12 type  1   force =     0.00017255    0.02971722    0.00027388
     atom   13 type  1   force =    -0.00027503    0.00006112    0.00021719
     atom   14 type  1   force =    -0.00198277   -0.00507055   -0.00038172
     atom   15 type  1   force =    -0.00005400    0.01009071    0.00068595
     atom   16 type  2   force =    -0.00019866   -0.00557447    0.00045979
     atom   17 type  2   force =    -0.00065045    0.00288875   -0.00048034
     atom   18 type  1   force =     0.00148911   -0.01954282   -0.00050368
     atom   19 type  1   force =    -0.00004245    0.01682280   -0.00051047
     atom   20 type  1   force =     0.00012117    0.00096669   -0.00017343
     atom   21 type  1   force =     0.00332432    0.00067786    0.00048005
     atom   22 type  2   force =    -0.00202769   -0.00024065    0.00021858
     atom   23 type  2   force =    -0.00001114    0.00081879    0.00004547
     atom   24 type  1   force =    -0.00009064   -0.03087883    0.00025485
     atom   25 type  1   force =     0.00018800    0.02971786    0.00027456
     atom   26 type  1   force =    -0.00027729    0.00006271    0.00020953
     atom   27 type  3   force =     0.00000609   -0.00044059   -0.00012863
     atom   28 type  3   force =     0.00000609   -0.00044186   -0.00012528
     atom   29 type  3   force =     0.00020181   -0.00029853   -0.00045820
     atom   30 type  3   force =     0.00020210   -0.00029767   -0.00045944

     Total force =     0.002290     Total SCF correction =     0.000267
     SCF correction compared to forces is large: reduce conv_thr to get better values

     bfgs converged in   7 scf cycles and   6 bfgs steps
     (criteria: energy < 0.10E-03, force < 0.10E-02)

     End of BFGS Geometry Optimization

     Final energy   =   -1696.7819692984 Ry
Begin final coordinates

ATOMIC_POSITIONS (crystal)
O0       0.000000000   0.000000000   0.373426162    0   0   1
O0       0.000000000   0.500000000   0.379874147    0   0   1
Mo1      0.250000000   0.500000000   0.437466779    0   0   1
Mo1      0.000000000   0.000000000   0.445658030    0   0   1
O0       0.250000000   0.780000000   0.443448992    0   0   1
O0       0.250000000   0.220000000   0.443406289    0   0   1
O0       0.000000000   0.500000000   0.496470240    0   0   1
O0       0.000000000   0.000000000   0.518690351    0   0   1
Mo1      0.250000000   0.000000000   0.578017582    0   0   1
Mo1      0.000000000   0.500000000   0.564020271    0   0   1
O0       0.250000000   0.720000000   0.574347911    0   0   1
O0       0.250000000   0.280000000   0.574461078    0   0   1
O0       0.000000000   0.000000000   0.628679596    0   0   1
O0       0.500000000   0.000000000   0.373426622    0   0   1
O0       0.500000000   0.500000000   0.379871902    0   0   1
Mo1      0.750000000   0.500000000   0.437466798    0   0   1
Mo1      0.500000000   0.000000000   0.445658528    0   0   1
O0       0.750000000   0.780000000   0.443449133    0   0   1
O0       0.750000000   0.220000000   0.443406306    0   0   1
O0       0.500000000   0.500000000   0.496470741    0   0   1
O0       0.500000000   0.000000000   0.518690137    0   0   1
Mo1      0.750000000   0.000000000   0.578017613    0   0   1
Mo1      0.500000000   0.500000000   0.564020475    0   0   1
O0       0.750000000   0.720000000   0.574348024    0   0   1
O0       0.750000000   0.280000000   0.574461090    0   0   1
O0       0.500000000   0.000000000   0.628680793    0   0   1
H2      -0.000481871   0.614212739   0.358587824
H2       0.499518023   0.614216956   0.358586990
H2       0.166295485   0.020287329   0.358984852
H2       0.666293804   0.020287438   0.358984745
End final coordinates

     General routines

     Parallel routines
     Hubbard U routines

   This run was terminated on:   0:31:25   6May2014

   JOB DONE.
Running PBS batch system epilogue script
Job id: 340750.audhumbla.fysik.dtu.dk
Username: zhonxu
Groupname: campgst
Jobname: MoO2/Eads-2-layers/bare-U-5.0
Sessionid: 15799
Queuename: verylong
Accounting:
This job has allocated the following 16 nodes:
d088 d088 d088 d088 d088 d088 d088 d088 d066 d066 d066 d066 d066 d066 d066 d066
Finished epilogue job 340750.audhumbla.fysik.dtu.dk for zhonxu