     Program PWSCF v.5.0.2 (svn rev. 9656) starts on 31May2014 at 12:51: 6

     Current dimensions of program PWSCF are:
     Max number of different atomic species (ntypx) = 10
     Max number of k-points (npk) =  40000
     Max angular momentum in pseudopotentials (lmaxx) =  3
     Reading input from pwscf.in
Warning: card &CELL ignored
Warning: card / ignored

     Subspace diagonalization in iterative solution of the eigenvalue problem:
     a serial algorithm will be used

     bravais-lattice index     =            0
     lattice parameter (alat)  =      11.2250  a.u.
     unit-cell volume          =    7005.5484 (a.u.)^3
     number of atoms/cell      =           33
     number of atomic types    =            3
     number of electrons       =       221.00
     number of Kohn-Sham states=          319
     kinetic-energy cutoff     =      40.0000  Ry
     charge density cutoff     =     500.0000  Ry
     convergence threshold     =      1.0E-06
     mixing beta               =       0.7000
     number of iterations used =            8  plain     mixing
     Exchange-correlation      = SLA  PW   PBE  PBE ( 1 4 3 4 0)
     EXX-fraction              =        0.00
     nstep                     =           50

     celldm(1)=  11.224973  celldm(2)=   0.000000  celldm(3)=   0.000000
     celldm(4)=   0.000000  celldm(5)=   0.000000  celldm(6)=   0.000000

     crystal axes: (cart. coord. in units of alat)
               a(1) = (   1.000000   0.000000   0.000000 )
               a(2) = (   0.000000   1.107086   0.000000 )
               a(3) = (   0.000000   0.000000   4.474090 )

     reciprocal axes: (cart. coord. in units 2 pi/alat)
               b(1) = (  1.000000  0.000000  0.000000 )
               b(2) = (  0.000000  0.903272  0.000000 )
               b(3) = (  0.000000  0.000000  0.223509 )

     PseudoPot. # 1 for O  read from file:
     /home/camp/zhonxu/pseudo/o_pbe_v1.01.uspp.F.UPF
     MD5 check sum: 2bcb18d16ea4b960afae9ec6d52f22d2
     Pseudo is Ultrasoft + core correction, Zval =  6.0
     Generated by new atomic code, or converted to UPF format
     Using radial grid of  737 points,  5 beta functions with:
                l(1) =   0
                l(2) =   0
                l(3) =   1
                l(4) =   1
                l(5) =   2
     Q(r) pseudized with  8 coefficients,  rinner =    0.900   0.900   0.900
                                                       0.900   0.900

     PseudoPot. # 2 for Ti read from file:
     /home/camp/zhonxu/pseudo/ti_pbe_v1.uspp.F.UPF
     MD5 check sum: bcc8f6961b3b91f0cac3ca967d22d0fb
     Pseudo is Ultrasoft + core correction, Zval = 12.0
     Generated by new atomic code, or converted to UPF format
     Using radial grid of  851 points,  6 beta functions with:
                l(1) =   0
                l(2) =   0
                l(3) =   1
                l(4) =   1
                l(5) =   2
                l(6) =   2
     Q(r) pseudized with  6 coefficients,  rinner =    1.000   1.000   1.000
                                                       1.000   1.000

     PseudoPot. # 3 for H  read from file:
     /home/camp/zhonxu/pseudo/h_pbe_v1.uspp.F.UPF
     MD5 check sum: 3408e3ff4ec8b0a4e358431e7e038a48
     Pseudo is Ultrasoft, Zval =  1.0
     Generated by new atomic code, or converted to UPF format
     Using radial grid of  615 points,  2 beta functions with:
                l(1) =   0
                l(2) =   0
     Q(r) pseudized with  8 coefficients,  rinner =    0.700

     atomic species   valence    mass     pseudopotential
        O0             6.00    15.99940     O ( 1.00)
        Ti1           12.00    47.88000     Ti( 1.00)
        H2             1.00     1.00794     H ( 1.00)

     Simplified LDA+U calculation (l_max = 2) with parameters (eV):
     atomic species    L          U    alpha       J0     beta
        Ti1            2     0.5000   0.0000   0.0000   0.0000

     No symmetry found

   Cartesian axes

     site n.     atom                  positions (alat units)
         1           O0  tau(   1) = (   0.0000000   0.0000000   1.6912954  )
         2           O0  tau(   2) = (   0.0000000   0.5535432   1.7865040  )
         3           Ti1 tau(   3) = (   0.2500000   0.5535432   2.0182619  )
         4           Ti1 tau(   4) = (   0.0000000   0.0000000   2.0215280  )
         5           O0  tau(   5) = (   0.2500000   0.8967400   2.0132062  )
         6           O0  tau(   6) = (   0.2500000   0.2103464   2.0173223  )
         7           O0  tau(   7) = (   0.0000000   0.5535432   2.2297074  )
         8           O0  tau(   8) = (   0.0000000   0.0000000   2.3520737  )
         9           Ti1 tau(   9) = (   0.2500000   0.0000000   2.5974328  )
        10           Ti1 tau(  10) = (   0.0000000   0.5535432   2.5411040  )
        11           O0  tau(  11) = (   0.2500000   0.7638896   2.5876345  )
        12           O0  tau(  12) = (   0.2500000   0.3431968   2.5923323  )
        13           O0  tau(  13) = (   0.0000000   0.0000000   2.7826601  )
        14           O0  tau(  14) = (   0.5000000   0.0000000   1.6946510  )
        15           O0  tau(  15) = (   0.5000000   0.5535432   1.7849381  )
        16           Ti1 tau(  16) = (   0.7500000   0.5535432   2.0183066  )
        17           Ti1 tau(  17) = (   0.5000000   0.0000000   2.0277470  )
        18           O0  tau(  18) = (   0.7500000   0.8967400   2.0129377  )
        19           O0  tau(  19) = (   0.7500000   0.2103464   2.0175013  )
        20           O0  tau(  20) = (   0.5000000   0.5535432   2.2179405  )
        21           O0  tau(  21) = (   0.5000000   0.0000000   2.3528791  )
        22           Ti1 tau(  22) = (   0.7500000   0.0000000   2.5974328  )
        23           Ti1 tau(  23) = (   0.5000000   0.5535432   2.6181478  )
        24           O0  tau(  24) = (   0.7500000   0.7638896   2.5875898  )
        25           O0  tau(  25) = (   0.7500000   0.3431968   2.5922429  )
        26           O0  tau(  26) = (   0.5000000   0.0000000   2.7811837  )
        27           H2  tau(  27) = (  -0.0004600   0.6930693   1.6949194  )
        28           H2  tau(  28) = (   0.4997200   0.6918293   1.6916086  )
        29           H2  tau(  29) = (   0.1490000   0.0365781   1.6268238  )
        30           H2  tau(  30) = (   0.6482800   0.0381834   1.6297319  )
        31           O0  tau(  31) = (   0.5003100   0.5833902   2.9430115  )
        32           O0  tau(  32) = (   0.4991200   0.3876242   3.0783974  )
        33           H2  tau(  33) = (   0.5003600   0.4575034   3.2295322  )

     number of k points=    10  Methfessel-Paxton smearing, width (Ry)=  0.0100
                       cart. coord. in units 2pi/alat
        k(    1) = (   0.0000000   0.0000000   0.0000000), wk =   0.1250000
        k(    2) = (   0.0000000   0.2258180   0.0000000), wk =   0.2500000
        k(    3) = (   0.0000000  -0.4516359   0.0000000), wk =   0.1250000
        k(    4) = (   0.2500000   0.0000000   0.0000000), wk =   0.2500000
        k(    5) = (   0.2500000   0.2258180   0.0000000), wk =   0.2500000
        k(    6) = (   0.2500000  -0.4516359   0.0000000), wk =   0.2500000
        k(    7) = (  -0.5000000   0.0000000   0.0000000), wk =   0.1250000
        k(    8) = (  -0.5000000   0.2258180   0.0000000), wk =   0.2500000
        k(    9) = (  -0.5000000  -0.4516359   0.0000000), wk =   0.1250000
        k(   10) = (  -0.2500000   0.2258180   0.0000000), wk =   0.2500000

     Largest allocated arrays     est. size (Mb)     dimensions
     Largest temporary arrays     est. size (Mb)     dimensions

     Check: negative/imaginary core charge=   -0.000006    0.000000

     Initial potential from superposition of free atoms
     Check: negative starting charge=   -0.102033

     starting charge  212.99957, renormalised to  221.00000

     negative rho (up, down):  0.106E+00 0.000E+00
     Number of +U iterations with fixed ns =  0
     Starting occupations:
 --- enter write_ns ---
 LDA+U parameters:
U( 2)     =  0.50000000
alpha( 2) =  0.00000000
atom    3   Tr[ns(na)] =   2.00000
    eigenvalues:
  0.200  0.200  0.200  0.200  0.200
    eigenvectors:
  1.000  0.000  0.000  0.000  0.000
  0.000  1.000  0.000  0.000  0.000
  0.000  0.000  1.000  0.000  0.000
  0.000  0.000  0.000  1.000  0.000
  0.000  0.000  0.000  0.000  1.000
    occupations:
  0.200  0.000  0.000  0.000  0.000
  0.000  0.200  0.000  0.000  0.000
  0.000  0.000  0.200  0.000  0.000
  0.000  0.000  0.000  0.200  0.000
  0.000  0.000  0.000  0.000  0.200
atom    4   Tr[ns(na)] =   2.00000
    eigenvalues:
  0.200  0.200  0.200  0.200  0.200
    eigenvectors:
  1.000  0.000  0.000  0.000  0.000
  0.000  1.000  0.000  0.000  0.000
  0.000  0.000  1.000  0.000  0.000
  0.000  0.000  0.000  1.000  0.000
  0.000  0.000  0.000  0.000  1.000
    occupations:
  0.200  0.000  0.000  0.000  0.000
  0.000  0.200  0.000  0.000  0.000
  0.000  0.000  0.200  0.000  0.000
  0.000  0.000  0.000  0.200  0.000
  0.000  0.000  0.000  0.000  0.200
atom    9   Tr[ns(na)] =   2.00000
    eigenvalues:
  0.200  0.200  0.200  0.200  0.200
    eigenvectors:
  1.000  0.000  0.000  0.000  0.000
  0.000  1.000  0.000  0.000  0.000
  0.000  0.000  1.000  0.000  0.000
  0.000  0.000  0.000  1.000  0.000
  0.000  0.000  0.000  0.000  1.000
    occupations:
  0.200  0.000  0.000  0.000  0.000
  0.000  0.200  0.000  0.000  0.000
  0.000  0.000  0.200  0.000  0.000
  0.000  0.000  0.000  0.200  0.000
  0.000  0.000  0.000  0.000  0.200
atom   10   Tr[ns(na)] =   2.00000
    eigenvalues:
  0.200  0.200  0.200  0.200  0.200
    eigenvectors:
  1.000  0.000  0.000  0.000  0.000
  0.000  1.000  0.000  0.000  0.000
  0.000  0.000  1.000  0.000  0.000
  0.000  0.000  0.000  1.000  0.000
  0.000  0.000  0.000  0.000  1.000
    occupations:
  0.200  0.000  0.000  0.000  0.000
  0.000  0.200  0.000  0.000  0.000
  0.000  0.000  0.200  0.000  0.000
  0.000  0.000  0.000  0.200  0.000
  0.000  0.000  0.000  0.000  0.200
atom   16   Tr[ns(na)] =   2.00000
    eigenvalues:
  0.200  0.200  0.200  0.200  0.200
    eigenvectors:
  1.000  0.000  0.000  0.000  0.000
  0.000  1.000  0.000  0.000  0.000
  0.000  0.000  1.000  0.000  0.000
  0.000  0.000  0.000  1.000  0.000
  0.000  0.000  0.000  0.000  1.000
    occupations:
  0.200  0.000  0.000  0.000  0.000
  0.000  0.200  0.000  0.000  0.000
  0.000  0.000  0.200  0.000  0.000
  0.000  0.000  0.000  0.200  0.000
  0.000  0.000  0.000  0.000  0.200
atom   17   Tr[ns(na)] =   2.00000
    eigenvalues:
  0.200  0.200  0.200  0.200  0.200
    eigenvectors:
  1.000  0.000  0.000  0.000  0.000
  0.000  1.000  0.000  0.000  0.000
  0.000  0.000  1.000  0.000  0.000
  0.000  0.000  0.000  1.000  0.000
  0.000  0.000  0.000  0.000  1.000
    occupations:
  0.200  0.000  0.000  0.000  0.000
  0.000  0.200  0.000  0.000  0.000
  0.000  0.000  0.200  0.000  0.000
  0.000  0.000  0.000  0.200  0.000
  0.000  0.000  0.000  0.000  0.200
atom   22   Tr[ns(na)] =   2.00000
    eigenvalues:
  0.200  0.200  0.200  0.200  0.200
    eigenvectors:
  1.000  0.000  0.000  0.000  0.000
  0.000  1.000  0.000  0.000  0.000
  0.000  0.000  1.000  0.000  0.000
[...]
  0.004 -0.005  0.235  0.001 -0.000
 -0.018  0.000  0.001  0.185 -0.000
 -0.000 -0.002 -0.000 -0.000  0.414
atom    9   Tr[ns(na)] =   2.94034
    eigenvalues:
  0.191  0.229  0.247  0.375  0.429
    eigenvectors:
  0.000  0.000  0.919  0.080  0.000
  0.000  0.000  0.000  0.000  1.000
  1.000  0.000  0.000  0.000  0.000
  0.000  0.000  0.080  0.920  0.000
  0.000  0.999  0.001  0.000  0.000
    occupations:
  0.257  0.000  0.001  0.035  0.000
  0.000  0.429 -0.000 -0.001  0.000
  0.001 -0.000  0.191  0.001 -0.000
  0.035 -0.001  0.001  0.365 -0.000
  0.000  0.000 -0.000 -0.000  0.229
atom   10   Tr[ns(na)] =   2.88287
    eigenvalues:
  0.192  0.236  0.247  0.341  0.426
    eigenvectors:
  0.015  0.000  0.000  0.985  0.000
  0.000  0.000  1.000  0.000  0.000
  0.000  1.000  0.000  0.000  0.000
  0.985  0.000  0.000  0.015  0.000
  0.000  0.000  0.000  0.000  1.000
    occupations:
  0.338 -0.000 -0.001 -0.018 -0.000
 -0.000  0.247 -0.000 -0.000  0.002
 -0.001 -0.000  0.236 -0.001  0.000
 -0.018 -0.000 -0.001  0.194  0.000
 -0.000  0.002  0.000  0.000  0.426
atom   16   Tr[ns(na)] =   2.85149
    eigenvalues:
  0.192  0.202  0.225  0.389  0.418
    eigenvectors:
  0.688  0.085  0.038  0.173  0.016
  0.003  0.001  0.001  0.139  0.857
  0.122  0.250  0.627  0.000  0.000
  0.166  0.016  0.006  0.687  0.126
  0.021  0.648  0.328  0.000  0.002
    occupations:
  0.232 -0.004 -0.005  0.077 -0.002
 -0.004  0.413 -0.002  0.013  0.011
 -0.005 -0.002  0.215  0.006  0.011
  0.077  0.013  0.006  0.356  0.001
 -0.002  0.011  0.011  0.001  0.210
atom   17   Tr[ns(na)] =   2.94882
    eigenvalues:
  0.182  0.219  0.238  0.410  0.426
    eigenvectors:
  0.006  0.003  0.000  0.000  0.991
  0.001  0.921  0.076  0.000  0.003
  0.000  0.076  0.924  0.000  0.000
  0.994  0.001  0.000  0.000  0.005
  0.000  0.000  0.000  1.000  0.000
    occupations:
  0.424  0.011  0.004 -0.018 -0.000
  0.011  0.221 -0.005  0.000 -0.002
  0.004 -0.005  0.236  0.001 -0.000
 -0.018  0.000  0.001  0.183 -0.000
 -0.000 -0.002 -0.000 -0.000  0.410
atom   22   Tr[ns(na)] =   2.94041
    eigenvalues:
  0.191  0.229  0.247  0.375  0.429
    eigenvectors:
  0.000  0.000  0.920  0.080  0.000
  0.000  0.000  0.000  0.000  1.000
  1.000  0.000  0.000  0.000  0.000
  0.000  0.000  0.080  0.920  0.000
  0.000  1.000  0.000  0.000  0.000
    occupations:
  0.257 -0.001  0.001  0.035 -0.000
 -0.001  0.429  0.000  0.001  0.000
  0.001  0.000  0.191  0.001  0.000
  0.035  0.001  0.001  0.365  0.000
 -0.000  0.000  0.000  0.000  0.229
atom   23   Tr[ns(na)] =   2.86579
    eigenvalues:
  0.189  0.194  0.256  0.364  0.430
    eigenvectors:
  0.006  0.001  0.000  0.993  0.000
  0.000  0.000  1.000  0.000  0.000
  0.549  0.450  0.000  0.001  0.000
  0.445  0.549  0.000  0.006  0.000
  0.000  0.000  0.000  0.000  1.000
    occupations:
  0.363 -0.000  0.006 -0.014 -0.000
 -0.000  0.256 -0.000 -0.000 -0.001
  0.006 -0.000  0.192  0.002  0.000
 -0.014 -0.000  0.002  0.193 -0.000
 -0.000 -0.001  0.000 -0.000  0.430
N of occupied +U levels =  23.2324983
 --- exit write_ns ---

[...]

     total energy              =   -1600.03963048 Ry
     Harris-Foulkes estimate   =   -1600.03963048 Ry
     estimated scf accuracy    <       0.00000003 Ry

     iteration # 13     ecut=    40.00 Ry     beta=0.70
     Davidson diagonalization with overlap
     ethr =  1.56E-11,  avg # of iterations =  1.0

     negative rho (up, down):  0.102E+00 0.000E+00

     End of self-consistent calculation
 --- enter write_ns ---
 LDA+U parameters:
U( 2)     =  0.50000000
alpha( 2) =  0.00000000
atom    3   Tr[ns(na)] =   2.85079
    eigenvalues:
  0.192  0.202  0.225  0.389  0.418
    eigenvectors:
  0.672  0.100  0.038  0.173  0.016
  0.003  0.001  0.001  0.140  0.856
  0.135  0.243  0.621  0.001  0.000
  0.162  0.020  0.006  0.686  0.126
  0.028  0.636  0.334  0.000  0.002
    occupations:
  0.232  0.004 -0.005  0.077  0.002
  0.004  0.413  0.002 -0.013  0.011
 -0.005  0.002  0.215  0.006 -0.011
  0.077 -0.013  0.006  0.356 -0.001
  0.002  0.011 -0.011 -0.001  0.210
atom    4   Tr[ns(na)] =   2.95230
    eigenvalues:
  0.183  0.218  0.237  0.414  0.424
    eigenvectors:
  0.006  0.003  0.000  0.000  0.991
  0.001  0.914  0.082  0.000  0.003
  0.000  0.081  0.918  0.000  0.000
  0.993  0.002  0.000  0.000  0.006
  0.000  0.000  0.000  1.000  0.000
    occupations:
  0.422  0.012  0.004 -0.018 -0.000
  0.012  0.220 -0.005  0.000 -0.002
  0.004 -0.005  0.236  0.001 -0.000
 -0.018  0.000  0.001  0.185 -0.000
 -0.000 -0.002 -0.000 -0.000  0.414
atom    9   Tr[ns(na)] =   2.93968
    eigenvalues:
  0.191  0.229  0.247  0.375  0.429
    eigenvectors:
  0.000  0.001  0.919  0.080  0.000
  0.000  0.000  0.000  0.000  1.000
  1.000  0.000  0.000  0.000  0.000
  0.000  0.000  0.080  0.920  0.000
  0.000  0.999  0.001  0.000  0.000
    occupations:
  0.257  0.000  0.001  0.035  0.000
  0.000  0.429 -0.000 -0.001  0.000
  0.001 -0.000  0.191  0.001 -0.000
  0.035 -0.001  0.001  0.365 -0.000
  0.000  0.000 -0.000 -0.000  0.229
atom   10   Tr[ns(na)] =   2.88481
    eigenvalues:
  0.192  0.236  0.247  0.341  0.426
    eigenvectors:
  0.015  0.000  0.000  0.985  0.000
  0.000  0.000  1.000  0.000  0.000
  0.000  1.000  0.000  0.000  0.000
  0.985  0.000  0.000  0.015  0.000
  0.000  0.000  0.000  0.000  1.000
    occupations:
  0.339 -0.000 -0.001 -0.018 -0.000
 -0.000  0.247 -0.000 -0.000  0.002
 -0.001 -0.000  0.236 -0.001  0.000
 -0.018 -0.000 -0.001  0.194  0.000
 -0.000  0.002  0.000  0.000  0.426
atom   16   Tr[ns(na)] =   2.85103
    eigenvalues:
  0.192  0.202  0.225  0.389  0.418
    eigenvectors:
  0.683  0.090  0.038  0.173  0.016
  0.003  0.001  0.001  0.139  0.856
  0.127  0.249  0.624  0.001  0.000
  0.165  0.017  0.006  0.686  0.126
  0.023  0.643  0.331  0.000  0.002
    occupations:
  0.232 -0.004 -0.005  0.077 -0.002
 -0.004  0.413 -0.002  0.013  0.011
 -0.005 -0.002  0.215  0.006  0.011
  0.077  0.013  0.006  0.356  0.001
 -0.002  0.011  0.011  0.001  0.210
atom   17   Tr[ns(na)] =   2.95017
    eigenvalues:
  0.182  0.219  0.238  0.410  0.426
    eigenvectors:
  0.006  0.003  0.000  0.000  0.991
  0.001  0.922  0.075  0.000  0.003
  0.000  0.075  0.925  0.000  0.000
  0.993  0.001  0.000  0.000  0.005
  0.000  0.000  0.000  1.000  0.000
    occupations:
  0.424  0.011  0.004 -0.018 -0.000
  0.011  0.221 -0.005  0.000 -0.002
  0.004 -0.005  0.236  0.001 -0.000
 -0.018  0.000  0.001  0.184 -0.000
 -0.000 -0.002 -0.000 -0.000  0.410
atom   22   Tr[ns(na)] =   2.93970
    eigenvalues:
  0.191  0.229  0.247  0.375  0.429
    eigenvectors:
  0.000  0.000  0.920  0.080  0.000
  0.000  0.000  0.000  0.000  1.000
  1.000  0.000  0.000  0.000  0.000
  0.000  0.000  0.080  0.920  0.000
  0.000  1.000  0.000  0.000  0.000
    occupations:
  0.257 -0.001  0.001  0.035 -0.000
 -0.001  0.429  0.000  0.001  0.000
  0.001  0.000  0.191  0.001  0.000
  0.035  0.001  0.001  0.365  0.000
 -0.000  0.000  0.000  0.000  0.229
atom   23   Tr[ns(na)] =   2.86837
    eigenvalues:
  0.189  0.194  0.257  0.364  0.430
    eigenvectors:
  0.006  0.001  0.000  0.993  0.000
  0.000  0.000  1.000  0.000  0.000
  0.547  0.452  0.000  0.001  0.000
  0.447  0.546  0.000  0.006  0.000
  0.000  0.000  0.000  0.000  1.000
    occupations:
  0.363 -0.000  0.006 -0.014 -0.000
 -0.000  0.257 -0.000 -0.000 -0.001
  0.006 -0.000  0.192  0.002  0.000
 -0.014 -0.000  0.002  0.193 -0.000
 -0.000 -0.001  0.000 -0.000  0.430
N of occupied +U levels =  23.2368391
 --- exit write_ns ---

[...]

          k = 0.2500-0.4516 0.0000 ( 29882 PWs)   bands (ev):

[...]

          k =-0.2500 0.2258 0.0000 ( 29912 PWs)   bands (ev):

   -59.7244 -59.6973 -59.5218 -59.3065 -58.6216 -58.5901 -58.3158 -58.2870
   -36.2247 -35.9913 -35.9473 -35.8851 -35.8724 -35.8630 -35.8406 -35.8385
   -35.7057 -35.5758 -35.5377 -35.5031 -35.1898 -34.9485 -34.8707 -34.8681
   -34.7659 -34.7508 -34.7150 -34.6348 -34.6116 -34.5640 -34.4898 -34.4199
   -24.7341 -21.0810 -20.8568 -20.1763 -19.6322 -19.5572 -19.1708 -19.1131
   -19.0529 -19.0075 -18.9646 -18.8575 -18.7963 -18.6800 -18.6110 -18.2927
   -17.9594 -17.7336 -17.6787 -17.6324  -9.5614  -8.8632  -8.5740  -7.9143
    -7.3273  -7.2751  -7.1133  -7.0954  -7.0031  -6.6850  -6.6470  -6.4653
    -6.4324  -6.3750  -6.3189  -6.2308  -6.1851  -6.1222  -6.1015  -5.8521
    -5.7714  -5.7072  -5.6087  -5.5261  -5.4005  -5.1530  -5.0109  -4.9293
    -4.8501  -4.8083  -4.6711  -4.6353  -4.5727  -4.5098  -4.4371  -4.3290
    -4.2597  -4.2345  -4.1814  -4.0978  -4.0646  -3.9157  -3.8753  -3.7752
    -3.7171  -3.5934  -3.4110  -3.2919  -3.1589  -2.9868  -2.9790  -2.8674
    -2.8003  -2.7366  -2.7041  -2.4750  -2.3421  -2.2438  -2.2020  -0.2698
    -0.2022  -0.0846   0.0907   0.2351   0.3069   0.4003   0.4644   0.6616
     0.6875   0.7506   0.8258   1.0064   1.1310   1.2863   1.3337   1.3634
     1.5821   1.6616   1.7524   1.8557   1.9797   2.0267   2.1082   2.2837
     2.3415   2.6229   2.8253   2.8881   2.9532   3.0800   3.1442   3.6476
     3.7299   3.7920   3.8137   4.0410   4.1066   4.2967   4.3587   4.4004
     4.5781   4.6566   4.9284   5.0043   5.1790   5.2145   5.5110   5.6145
     5.6750   5.9104   6.0245   6.1872   6.3977   6.5514   6.6622   7.0042
     7.0780   7.2446   7.4962   7.5478   7.6864   7.8864   7.9638   8.1032
     8.1840   8.3375   8.4810   8.5679   8.6597   8.8111   8.9041   9.0141
     9.1080   9.2110   9.2553   9.3710   9.4713   9.6518   9.7068   9.7842
     9.8604   9.9993  10.1888  10.2539  10.3225  10.3816  10.4812  10.5153
    10.6740  10.7723  10.9195  10.9676  11.0076  11.1335  11.2123  11.2980
    11.3637  11.4629  11.5178  11.5976  11.6267  11.7285  11.8024  11.9238
    12.0085  12.1315  12.1672  12.2616  12.3080  12.3433  12.4299  12.5185
    12.5477  12.6364  12.7189  12.8237  12.8565  12.9638  13.0170  13.0583
    13.1582  13.2746  13.3146  13.3632  13.4800  13.5765  13.6663  13.7849
    13.8518  13.9534  14.0235  14.0926  14.1441  14.2229  14.2933  14.3177
    14.3793  14.4639  14.5298  14.6211  14.6814  14.7655  14.8421  14.9167
    14.9449  15.0708  15.1396  15.2057  15.2996  15.3403  15.4026  15.4552
    15.5227  15.5843  15.6486  15.7073  15.7205  15.8561  15.9101  15.9685
    16.0161  16.1525  16.1771  16.2219  16.2713  16.3747  16.4308  16.5033
    16.5449  16.5799  16.6627  16.7223  16.7652  16.7966  16.8844  16.9840
    17.0758  17.1369  17.2213  17.2503  17.3063  17.3651  17.4357  17.4721
    17.5775  17.6416  17.7167  17.8416  17.8960  17.9889  18.0534  18.1216
    18.1890  18.2379  18.3390  18.3726  18.4308  18.5106  18.5624  18.6126
    18.6623  18.7550  18.8220  18.8797  18.9561  19.0770  19.1245

     the Fermi energy is    -2.1859 ev

!    total energy              =   -1600.03963048 Ry
     Harris-Foulkes estimate   =   -1600.03963048 Ry
     estimated scf accuracy    <          8.6E-09 Ry

     The total energy is the sum of the following terms:

     one-electron contribution =  -19196.51667103 Ry
     hartree contribution      =    9622.89986740 Ry
     xc contribution           =    -284.67271925 Ry
     ewald contribution        =    8257.96185693 Ry
     Hubbard energy            =       0.28953771 Ry
     smearing contrib. (-TS)   =      -0.00150223 Ry

     convergence has been achieved in  13 iterations

     Forces acting on atoms (Ry/au):

     negative rho (up, down):  0.102E+00 0.000E+00
     atom    1 type  1   force =    -0.00083625   -0.01216028   -0.00025063
     atom    2 type  1   force =     0.00011713    0.01743458   -0.00053075
     atom    3 type  2   force =     0.05900214   -0.01188193    0.00017528
     atom    4 type  2   force =    -0.00412692    0.00653488   -0.00080685
     atom    5 type  1   force =    -0.00142753   -0.08073501   -0.00007813
     atom    6 type  1   force =    -0.00574620    0.08191758   -0.00007645
     atom    7 type  1   force =     0.00009023   -0.00039083    0.00055272
     atom    8 type  1   force =     0.00242051   -0.00038925    0.00010633
     atom    9 type  2   force =     0.00049634   -0.00048536    0.00085756
     atom   10 type  2   force =    -0.00004586    0.00125250   -0.00086192
     atom   11 type  1   force =    -0.01917523   -0.01811207   -0.00000063
     atom   12 type  1   force =    -0.01519180    0.02209130    0.00051734
     atom   13 type  1   force =     0.00036523   -0.00180495   -0.00019149
     atom   14 type  1   force =    -0.00223568   -0.01172055   -0.00060094
     atom   15 type  1   force =     0.00014300    0.01563744   -0.00023617
     atom   16 type  2   force =    -0.05877879   -0.01240839    0.00017014
     atom   17 type  2   force =    -0.00455678    0.00569099   -0.00052153
     atom   18 type  1   force =     0.00783936   -0.08058640   -0.00010892
     atom   19 type  1   force =     0.00451321    0.08235069    0.00001462
     atom   20 type  1   force =    -0.00009648   -0.00010626    0.00016782
     atom   21 type  1   force =     0.00250359    0.00007067   -0.00000330
     atom   22 type  2   force =    -0.00157819   -0.00039808    0.00088230
     atom   23 type  2   force =     0.00000140   -0.00251409   -0.00061940
     atom   24 type  1   force =     0.01939010   -0.01808756    0.00001423
     atom   25 type  1   force =     0.01508119    0.02193174    0.00050340
     atom   26 type  1   force =     0.00040591   -0.00455477   -0.00019540
     atom   27 type  3   force =    -0.00000255    0.00056631   -0.00011925
     atom   28 type  3   force =    -0.00005618    0.00047260    0.00012336
     atom   29 type  3   force =     0.00071821   -0.00015138    0.00055712
     atom   30 type  3   force =     0.00077610   -0.00027627    0.00017011
     atom   31 type  1   force =     0.00011417    0.00039076    0.00018391
     atom   32 type  1   force =    -0.00013494    0.00098396    0.00060582
     atom   33 type  3   force =     0.00001157   -0.00056256   -0.00040029

     Total force =     0.003084     Total SCF correction =     0.000408
     SCF correction compared to forces is large: reduce conv_thr to get better values

     entering subroutine stress ...

     negative rho (up, down):  0.102E+00 0.000E+00
          total   stress  (Ry/bohr**3)                   (kbar)     P=   -3.28
   0.00000076  -0.00000220   0.00000295          0.11     -0.32      0.43
  -0.00000220  -0.00003589  -0.00000072         -0.32     -5.28     -0.11
   0.00000295  -0.00000072  -0.00003184          0.43     -0.11     -4.68

     bfgs converged in   3 scf cycles and   2 bfgs steps
     (criteria: energy < 0.10E-03, force < 0.10E-02)

     End of BFGS Geometry Optimization

     Final energy   =   -1600.0396304752 Ry
Begin final coordinates

ATOMIC_POSITIONS (crystal)
O0       0.000000000   0.000000000   0.377965907    0   0   1
O0       0.000000000   0.500000000   0.399249212    0   0   1
Ti1      0.250000000   0.500000000   0.451050776    0   0   1
Ti1      0.000000000   0.000000000   0.451768407    0   0   1
O0       0.250000000   0.810000000   0.449974234    0   0   1
O0       0.250000000   0.190000000   0.450896131    0   0   1
O0       0.000000000   0.500000000   0.498280237    0   0   1
O0       0.000000000   0.000000000   0.525729315    0   0   1
Ti1      0.250000000   0.000000000   0.580504282    0   0   1
Ti1      0.000000000   0.500000000   0.568040628    0   0   1
O0       0.250000000   0.690000000   0.578347023    0   0   1
O0       0.250000000   0.310000000   0.579443684    0   0   1
O0       0.000000000   0.000000000   0.622036701    0   0   1
O0       0.500000000   0.000000000   0.378660623    0   0   1
O0       0.500000000   0.500000000   0.398923068    0   0   1
Ti1      0.750000000   0.500000000   0.451060527    0   0   1
Ti1      0.500000000   0.000000000   0.453182770    0   0   1
O0       0.750000000   0.810000000   0.449912310    0   0   1
O0       0.750000000   0.190000000   0.450943000    0   0   1
O0       0.500000000   0.500000000   0.495797278    0   0   1
O0       0.500000000   0.000000000   0.525945465    0   0   1
Ti1      0.750000000   0.000000000   0.580506673    0   0   1
Ti1      0.500000000   0.500000000   0.585108127    0   0   1
O0       0.750000000   0.690000000   0.578338452    0   0   1
O0       0.750000000   0.310000000   0.579423031    0   0   1
O0       0.500000000   0.000000000   0.621705466    0   0   1
H2      -0.000462613   0.626129236   0.378839074
H2       0.499698196   0.624977185   0.378115476
H2       0.149181286   0.032989515   0.363670284
H2       0.648532834   0.034412844   0.364285776
O0       0.500344004   0.527174598   0.657887130
O0       0.499076804   0.350088842   0.688051378
H2       0.500364488   0.413298018   0.721827557
End final coordinates

     General routines

     Parallel routines
     Hubbard U routines

   This run was terminated on:  15:49:34  31May2014

   JOB DONE.