     Program PWSCF v.5.0.2 (svn rev. 9656) starts on 20Apr2014 at 22:14:38

     Current dimensions of program PWSCF are:
     Max number of different atomic species (ntypx) = 10
     Max number of k-points (npk) =  40000
     Max angular momentum in pseudopotentials (lmaxx) =  3
     Reading input from pwscf.in
Warning: card &CELL ignored
Warning: card / ignored

     Subspace diagonalization in iterative solution of the eigenvalue problem:
     a serial algorithm will be used

     bravais-lattice index     =            0
     lattice parameter (alat)  =      10.1289  a.u.
     unit-cell volume          =    9515.8234 (a.u.)^3
     number of atoms/cell      =           50
     number of atomic types    =            3
     number of electrons       =       439.00
     number of Kohn-Sham states=          658
     kinetic-energy cutoff     =      40.0000  Ry
     charge density cutoff     =     500.0000  Ry
     convergence threshold     =      1.0E-06
     mixing beta               =       0.3000
     number of iterations used =            8  plain     mixing
     Exchange-correlation      = SLA  PW   PBE  PBE ( 1 4 3 4 0)
     EXX-fraction              =        0.00
     nstep                     =           50

     celldm(1)=  10.128932  celldm(2)=   0.000000  celldm(3)=   0.000000
     celldm(4)=   0.000000  celldm(5)=   0.000000  celldm(6)=   0.000000

     crystal axes: (cart. coord. in units of alat)
               a(1) = (   1.000000   0.000000   0.000000 )
               a(2) = (   0.000000   1.306037   0.000000 )
               a(3) = (   0.000000   0.000000   7.011323 )

     reciprocal axes: (cart. coord. in units 2 pi/alat)
               b(1) = (  1.000000  0.000000  0.000000 )
               b(2) = (  0.000000  0.765675  0.000000 )
               b(3) = (  0.000000  0.000000  0.142626 )

     PseudoPot. # 1 for O  read from file:
     /home/camp/zhonxu/pseudo/o_pbe_v1.01.uspp.F.UPF
     MD5 check sum: 2bcb18d16ea4b960afae9ec6d52f22d2
     Pseudo is Ultrasoft + core correction, Zval =  6.0
     Generated by new atomic code, or converted to UPF format
     Using radial grid of  737 points,  5 beta functions with:
                l(1) =   0
                l(2) =   0
                l(3) =   1
                l(4) =   1
                l(5) =   2
     Q(r) pseudized with  8 coefficients,  rinner =    0.900   0.900   0.900
                                                       0.900   0.900

     PseudoPot. # 2 for Re read from file:
     /home/camp/zhonxu/pseudo/re_pbe_v1.uspp.F.UPF
     MD5 check sum: 6f5a5dcaf9c96c20d0ffdde0de57afc6
     Pseudo is Ultrasoft + core correction, Zval = 15.0
     Generated by new atomic code, or converted to UPF format
     Using radial grid of  981 points,  8 beta functions with:
                l(1) =   0
                l(2) =   0
                l(3) =   1
                l(4) =   1
                l(5) =   2
                l(6) =   2
                l(7) =   3
                l(8) =   3
     Q(r) pseudized with  8 coefficients,  rinner =    1.000   1.000   1.000
                                                       1.000   1.000   1.000
                                                       1.000

     PseudoPot. # 3 for H  read from file:
     /home/camp/zhonxu/pseudo/h_pbe_v1.uspp.F.UPF
     MD5 check sum: 3408e3ff4ec8b0a4e358431e7e038a48
     Pseudo is Ultrasoft, Zval =  1.0
     Generated by new atomic code, or converted to UPF format
     Using radial grid of  615 points,  2 beta functions with:
                l(1) =   0
                l(2) =   0
     Q(r) pseudized with  8 coefficients,  rinner =    0.700

     atomic species   valence    mass     pseudopotential
        O0             6.00    15.99940     O ( 1.00)
        Re1           15.00   186.20700     Re( 1.00)
        H2             1.00     1.00794     H ( 1.00)

      2 Sym. Ops. (no inversion) found

   Cartesian axes

     site n.     atom                  positions (alat units)
         1           O0  tau(   1) = (   0.0000000   0.6530184   2.2387856  )
         2           Re1 tau(   2) = (   0.2500000   0.6530184   2.5261097  )
         3           Re1 tau(   3) = (   0.0000000   0.0000000   2.5261097  )
         4           O0  tau(   4) = (   0.2500000   1.0187087   2.5261097  )
         5           O0  tau(   5) = (   0.2500000   0.2873281   2.5261097  )
         6           O0  tau(   6) = (   0.0000000   0.6530184   2.8134337  )
         7           O0  tau(   7) = (   0.0000000   0.0000000   2.8918203  )
         8           Re1 tau(   8) = (   0.2500000   0.0000000   3.1791443  )
         9           Re1 tau(   9) = (   0.0000000   0.6530184   3.1791443  )
        10           O0  tau(  10) = (   0.2500000   0.9403465   3.1791443  )
        11           O0  tau(  11) = (   0.2500000   0.3656903   3.1791443  )
        12           O0  tau(  12) = (   0.0000000   0.0000000   3.4664683  )
        13           O0  tau(  13) = (   0.0000000   0.6530184   3.5433125  )
        14           Re1 tau(  14) = (   0.2453800   0.6530184   3.8274814  )
        15           Re1 tau(  15) = (   0.0000000   0.0000000   3.8418546  )
        16           O0  tau(  16) = (   0.2488800   1.0202106   3.8338617  )
        17           O0  tau(  17) = (   0.2488800   0.2858261   3.8338617  )
        18           O0  tau(  18) = (   0.0000000   0.6530184   4.1169088  )
        19           O0  tau(  19) = (   0.0000000   0.0000000   4.2175213  )
        20           Re1 tau(  20) = (   0.2749000   0.0000000   4.4985351  )
        21           Re1 tau(  21) = (   0.0000000   0.6530184   4.4714714  )
        22           O0  tau(  22) = (   0.2537500   0.9362978   4.4940479  )
        23           O0  tau(  23) = (   0.2537500   0.3697390   4.4940479  )
        24           O0  tau(  24) = (   0.0000000   0.0000000   4.7327133  )
        25           O0  tau(  25) = (   0.5000000   0.6530184   2.2387856  )
        26           Re1 tau(  26) = (   0.7500000   0.6530184   2.5261097  )
        27           Re1 tau(  27) = (   0.5000000   0.0000000   2.5261097  )
        28           O0  tau(  28) = (   0.7500000   1.0187087   2.5261097  )
        29           O0  tau(  29) = (   0.7500000   0.2873281   2.5261097  )
        30           O0  tau(  30) = (   0.5000000   0.6530184   2.8134337  )
        31           O0  tau(  31) = (   0.5000000   0.0000000   2.8918203  )
        32           Re1 tau(  32) = (   0.7500000   0.0000000   3.1791443  )
        33           Re1 tau(  33) = (   0.5000000   0.6530184   3.1791443  )
        34           O0  tau(  34) = (   0.7500000   0.9403465   3.1791443  )
        35           O0  tau(  35) = (   0.7500000   0.3656903   3.1791443  )
        36           O0  tau(  36) = (   0.5000000   0.0000000   3.4664683  )
        37           O0  tau(  37) = (   0.5000000   0.6530184   3.5484307  )
        38           Re1 tau(  38) = (   0.7546200   0.6530184   3.8274814  )
        39           Re1 tau(  39) = (   0.5000000   0.0000000   3.8339318  )
        40           O0  tau(  40) = (   0.7511200   1.0202106   3.8338617  )
        41           O0  tau(  41) = (   0.7511200   0.2858261   3.8338617  )
        42           O0  tau(  42) = (   0.5000000   0.6530184   4.1084251  )
        43           O0  tau(  43) = (   0.5000000   0.0000000   4.1966276  )
        44           Re1 tau(  44) = (   0.7251000   0.0000000   4.4985351  )
        45           Re1 tau(  45) = (   0.5000000   0.6530184   4.4603234  )
        46           O0  tau(  46) = (   0.7462500   0.9362978   4.4940479  )
        47           O0  tau(  47) = (   0.7462500   0.3697390   4.4940479  )
        48           O0  tau(  48) = (   0.5000000   0.0000000   4.7844569  )
        49           O0  tau(  49) = (   0.5281600   0.6530184   4.8241410  )
        50           H2  tau(  50) = (   0.3839000   0.6530184   4.9364624  )

     number of k points=     9  Methfessel-Paxton smearing, width (Ry)=  0.0100
                       cart. coord. in units 2pi/alat
        k(    1) = (   0.0000000   0.0000000   0.0000000), wk =   0.1250000
        k(    2) = (   0.0000000   0.1914188   0.0000000), wk =   0.2500000
        k(    3) = (   0.0000000  -0.3828376   0.0000000), wk =   0.1250000
        k(    4) = (   0.2500000   0.0000000   0.0000000), wk =   0.2500000
        k(    5) = (   0.2500000   0.1914188   0.0000000), wk =   0.5000000
        k(    6) = (   0.2500000  -0.3828376   0.0000000), wk =   0.2500000
        k(    7) = (  -0.5000000   0.0000000   0.0000000), wk =   0.1250000
        k(    8) = (  -0.5000000   0.1914188   0.0000000), wk =   0.2500000
        k(    9) = (  -0.5000000  -0.3828376   0.0000000), wk =   0.1250000

     Largest allocated arrays     est. size (Mb)     dimensions
     Largest temporary arrays     est. size (Mb)     dimensions

     Check: negative/imaginary core charge=   -0.000003    0.000000

     Initial potential from superposition of free atoms
     Check: negative starting charge=   -0.473961

     starting charge  430.99922, renormalised to  439.00000

     negative rho (up, down):  0.483E+00 0.000E+00
     Starting wfc are  341 randomized atomic wfcs

     Self-consistent Calculation

     iteration #  1     ecut=    40.00 Ry     beta=0.30
     Davidson diagonalization with overlap
     ethr =  1.00E-02,  avg # of iterations =  6.1

     negative rho (up, down):  0.519E+00 0.000E+00

     total energy              =   -4156.20342675 Ry
     Harris-Foulkes estimate   =   -4184.52908670 Ry
     estimated scf accuracy    <      57.20764070 Ry

[...]

     End of self-consistent calculation

          k = 0.0000 0.0000 0.0000 ( 40685 PWs)   bands (ev):

   -79.9683 -79.9468 -79.8833 -79.8412 -79.8281 -79.8279 -79.8276 -79.8269
   -79.7793 -79.7729 -79.7642 -79.7437 -79.7217 -79.6247 -79.4452 -79.3893
   -42.4053 -42.1099 -42.0712 -42.0533 -42.0480 -42.0311 -42.0175 -41.9413
   -41.9035 -41.8720 -41.8590 -41.8250 -41.7895 -41.7843 -41.7829 -41.7754
   -41.7695 -41.7401 -41.7364 -41.7341 -41.7312 -41.7127 -41.7097 -41.6691
   -41.6553 -41.6272 -41.6210 -41.6194 -41.6115 -41.5922 -41.5889 -41.5779
   -41.5744 -41.5675 -41.5109 -41.4546 -41.3533 -41.3466 -41.2671 -41.2363
   -41.2054 -41.1736 -41.1691 -41.1558 -41.1557 -41.1484 -41.1254 -40.8591
   -19.5440 -19.2669 -19.0265 -18.9763 -18.9525 -18.7100 -18.6414 -18.4501
   -18.3466 -18.2837 -18.1275 -18.0859 -18.0840 -18.0384 -18.0307 -17.9644
   -17.9527 -17.8236 -17.7934 -17.7573 -17.7303 -17.7206 -17.7135 -17.7127
   -17.7038 -17.6788 -17.6342 -17.4573 -17.3463 -16.6868 -16.3636 -15.9289
   -15.5216  -8.0838  -7.9501  -7.9169  -7.8613  -7.7662  -7.4802  -7.1284
    -7.0706  -6.8137  -6.7965  -6.6656  -6.4782  -6.4718  -6.4189  -6.3878
    -6.3390  -6.2166  -6.1571  -6.1531  -6.1461  -6.0092  -5.9895  -5.9486
    -5.8221  -5.8173  -5.7435  -5.7018  -5.6141  -5.6127  -5.5195  -5.5100
    -5.4865  -5.4757  -5.3717  -5.3701  -5.1876  -5.0920  -4.9969  -4.8848
    -4.6856  -4.4549  -4.3932  -4.3797  -4.3470  -4.2230  -4.1528  -4.1200
    -4.0860  -4.0606  -4.0560  -4.0490  -3.9803  -3.9206  -3.7508  -3.5358
    -3.4943  -3.4402  -3.4141  -3.3895  -3.3850  -3.3035  -3.1505  -3.1469
[...]
O0       0.000000000   0.000000000   0.412450000    0   0   0
Re1      0.250000000   0.000000000   0.453430000    0   0   0
Re1      0.000000000   0.500000000   0.453430000    0   0   0
O0       0.250000000   0.720000000   0.453430000    0   0   0
O0       0.250000000   0.280000000   0.453430000    0   0   0
O0       0.000000000   0.000000000   0.494410000    0   0   0
O0       0.000331985   0.500000000   0.506985945
Re1      0.264199152   0.500000000   0.546296015
Re1     -0.001069915   0.000000000   0.547767067
O0       0.250869263   0.781853904   0.546859763
O0       0.250869263   0.218146096   0.546859763
O0       0.000837836   0.500000000   0.584893729
O0       0.000473840   0.000000000   0.601549043
Re1      0.274248083   0.000000000   0.640955808
Re1     -0.005514842   0.500000000   0.635692944
O0       0.251164611   0.714337826   0.640015389
O0       0.251164611   0.285662174   0.640015389
O0       0.000184095   0.000000000   0.674427381
O0       0.500000000   0.500000000   0.319310000    0   0   0
Re1      0.750000000   0.500000000   0.360290000    0   0   0
Re1      0.500000000   0.000000000   0.360290000    0   0   0
O0       0.750000000   0.780000000   0.360290000    0   0   0
O0       0.750000000   0.220000000   0.360290000    0   0   0
O0       0.500000000   0.500000000   0.401270000    0   0   0
O0       0.500000000   0.000000000   0.412450000    0   0   0
Re1      0.750000000   0.000000000   0.453430000    0   0   0
Re1      0.500000000   0.500000000   0.453430000    0   0   0
O0       0.750000000   0.720000000   0.453430000    0   0   0
O0       0.750000000   0.280000000   0.453430000    0   0   0
O0       0.500000000   0.000000000   0.494410000    0   0   0
O0       0.500195735   0.500000000   0.504890101
Re1      0.736361991   0.500000000   0.546098825
Re1      0.501363193   0.000000000   0.546502049
O0       0.749207198   0.780662297   0.546811794
O0       0.749207198   0.219337703   0.546811794
O0       0.499708945   0.500000000   0.588150646
O0       0.499491952   0.000000000   0.598019194
Re1      0.725008881   0.000000000   0.640894533
Re1      0.505002609   0.500000000   0.640120212
O0       0.749389218   0.719248053   0.639270646
O0       0.749389218   0.280751947   0.639270646
O0       0.500091407   0.000000000   0.681446054
O0       0.528866980   0.500000000   0.691182901
H2       0.380383878   0.500000000   0.706453419

     Check: negative starting charge=   -0.473552
     NEW-OLD atomic charge density approx. for the potential

     Check: negative/imaginary core charge=   -0.000003    0.000000
     Check: negative starting charge=   -0.473524

[...]

     Self-consistent Calculation

[...]

     Threshold (ethr) on eigenvalues was too large:
     Diagonalizing with lowered threshold

     Davidson diagonalization with overlap
     ethr =  1.99E-08,  avg # of iterations =  1.0

[...]

     total energy              =   -4181.26748072 Ry
     Harris-Foulkes estimate   =   -4181.26748072 Ry
     estimated scf accuracy    <       0.00000002 Ry

     iteration # 19     ecut=    40.00 Ry     beta=0.30
     Davidson diagonalization with overlap
     ethr =  5.55E-12,  avg # of iterations =  1.0

     negative rho (up, down):  0.491E+00 0.000E+00

     End of self-consistent calculation

[...]

          k = 0.2500-0.3828 0.0000 ( 40642 PWs)   bands (ev):

[...]

          k =-0.5000-0.3828 0.0000 ( 40640 PWs)   bands (ev):

   -79.8940 -79.8926 -79.8092 -79.8012 -79.7945 -79.7932 -79.7673 -79.7584
   -79.7584 -79.7463 -79.7441 -79.7391 -79.7198 -79.5171 -79.3635 -79.3606
   -42.1681 -41.9184 -41.8586 -41.8191 -41.8166 -41.7367 -41.7358 -41.7292
   -41.7291 -41.7248 -41.7215 -41.7068 -41.6848 -41.6795 -41.6788 -41.6721
   -41.6715 -41.6668 -41.6629 -41.6575 -41.6428 -41.6357 -41.6352 -41.6264
   -41.6229 -41.6182 -41.6177 -41.5952 -41.5875 -41.5690 -41.5600 -41.5426
   -41.5420 -41.5376 -41.5256 -41.4775 -41.4658 -41.4607 -41.4384 -41.4284
   -41.3543 -41.3182 -41.2592 -41.2533 -41.2519 -41.2508 -41.2270 -41.2251
   -18.7704 -18.7086 -18.6131 -18.5049 -18.4687 -18.4273 -18.4239 -18.3338
   -18.2859 -18.2647 -18.2148 -18.2124 -18.1744 -18.1419 -18.1411 -18.0912
   -17.9303 -17.9274 -17.9194 -17.8863 -17.8454 -17.8257 -17.8093 -17.8008
   -17.7811 -17.7783 -17.7708 -17.7107 -17.4319 -16.6635 -16.6189 -15.7529
   -15.7363  -7.1707  -7.1335  -6.9597  -6.9385  -6.8532  -6.8274  -6.8089
    -6.7976  -6.7210  -6.6932  -6.5734  -6.5589  -6.5021  -6.4218  -6.3172
    -6.2461  -5.9370  -5.8174  -5.7341  -5.6115  -5.5792  -5.5218  -5.5099
    -5.4623  -5.4245  -5.3685  -5.3265  -5.2729  -5.2364  -5.1880  -5.1726
    -5.1263  -5.0853  -5.0845  -5.0391  -5.0091  -4.9949  -4.9562  -4.8864
    -4.8703  -4.8312  -4.8152  -4.7381  -4.6446  -4.6215  -4.3865  -4.3328
    -4.3085  -4.2959  -4.2255  -4.1980  -4.1814  -4.1401  -3.8463  -3.8113
    -3.7831  -3.7513  -3.6922  -3.6749  -3.5695  -3.5070  -3.5005  -3.4877
    -3.4533  -3.4236  -3.3704  -3.3558  -3.3163  -3.3104  -3.3002  -3.2769
    -3.1655  -3.1381  -3.0506  -2.8589  -2.7266  -2.7096  -2.3800  -2.3743
    -2.2964  -2.2584  -2.2341  -2.0649  -2.0544  -2.0498  -1.9848  -1.8292
    -1.7822  -1.7320  -1.7123  -1.7031  -1.6271  -1.2388  -1.1506  -1.0266
    -1.0222  -0.9585  -0.9297  -0.9247   0.0049   0.0565   0.4153   0.5247
     0.6178   0.6747   0.6936   0.7253   0.7448   0.7617   0.7878   0.8242
     0.8831   1.0571   1.0971   1.1771   1.1856   1.4789   1.4797   1.4798
     1.5664   1.7633   1.8075   1.8803   1.9540   2.0088   2.0604   2.0747
     2.1762   2.1879   2.3122   2.3324   2.4761   2.4901   2.6000   2.6317
     2.7521   2.8912   2.9272   2.9769   2.9840   2.9936   3.0328   3.0565
     3.1159   3.2868   3.3270   3.4008   3.4024   3.7194   3.8153   4.1666
     4.2495   4.4187   4.4239   4.6343   4.6413   4.6616   4.8404   5.1243
     5.2941   5.3831   5.4612   6.0211   6.1428   6.2246   6.5234   6.6728
     6.7094   6.7878   7.0290   7.1679   7.3417   7.3447   7.4503   7.4939
     7.6970   7.7066   7.7821   7.7966   7.8043   7.8569   8.0432   8.2749
     8.8481   8.8931   9.0055   9.1090   9.1548   9.1566   9.1888   9.2208
     9.3118   9.3371   9.4006   9.4675   9.4888   9.5161   9.5485   9.5511
     9.7662   9.7741   9.8713   9.9529  10.0322  10.0659  10.0782  10.1215
    10.4583  10.4931  10.5005  10.6033  10.6648  10.7142  10.7853  10.7972
    11.2172  11.2419  11.3296  11.3829  11.4683  11.5011  11.5470  11.5623
    12.0768  12.1096  12.1323  12.2429  12.3218  12.3257  12.3853  12.4018
    12.5959  12.6093  12.6405  12.6628  12.7160  12.7945  12.8081  12.8652
    12.9363  12.9720  13.0410  13.0638  13.3155  13.5176  13.6407  13.6666
    13.7710  14.1863  14.2879  14.3030  14.4329  14.4392  14.4695  14.5673
    14.6882  14.8216  14.8999  14.9121  14.9789  14.9890  15.0230  15.0719
    15.0934  15.1051  15.1572  15.2511  15.2694  15.2741  15.2903  15.3511
    15.3920  15.3921  15.4167  15.4788  15.6262  15.6556  15.6990  15.7028
    15.7436  15.7775  15.8386  15.8611  15.8988  15.9332  15.9649  15.9707
    15.9920  16.0006  16.0548  16.0559  16.0632  16.1412  16.1750  16.1989
    16.2265  16.2453  16.2623  16.3192  16.3342  16.4436  16.4635  16.5183
    16.6456  16.6745  16.6829  16.7441  16.7520  16.7855  16.8196  16.8207
    16.8986  16.9536  17.0115  17.2130  17.3426  17.3783  17.3815  17.4121
    17.4405  17.4696  17.5398  17.5541  17.6260  17.6892  17.7365  17.7449
    17.8655  17.9024  17.9240  17.9616  18.1501  18.1575  18.1867  18.2287
    18.3788  18.4012  18.4343  18.5040  18.5676  18.6072  18.6626  18.6719
    18.9317  18.9939  19.0440  19.0541  19.1743  19.2179  19.2258  19.3513
    19.4542  19.4599  19.4675  19.4906  19.5239  19.5602  19.5716  19.5970
    19.6198  19.6303  19.6522  19.6726  19.7184  19.7630  19.7833  19.8170
    19.8316  19.8870  19.9201  19.9632  19.9785  20.0433  20.0474  20.0490
    20.0851  20.1139  20.1326  20.1487  20.3250  20.3487  20.3505  20.4954
[...]
    24.0074  24.0325  24.0653  24.1134  24.1507  24.2533  24.2574  24.2692
    24.3304  24.3936  24.4029  24.4357  24.4709  24.5167  24.5516  24.6184
    24.6477  24.7964  24.9167  24.9402  25.0184  25.0423  25.0474  25.0911
    25.0934  25.2438  25.2448  25.3512  25.4227  25.4400  25.4544  25.5029
    25.5238  25.5405  25.5811  25.5991  25.6087  25.6271  25.7005  25.7114
    25.7624  25.7778  25.8230  25.8433  25.9010  25.9131  25.9334  25.9960
    26.0603  26.0863  26.1155  26.1548  26.2051  26.2620  26.2774  26.2827
    26.2927  26.3826  26.4021  26.4585  26.4651  26.4980  26.5381  26.5876
    26.6544  26.6720  26.6977  26.7205  26.7541  26.7708  26.7845  26.7956
    26.8460  26.8462  26.8924  26.9971  27.0691  27.1074  27.1172  27.1673
    27.1885  27.1894  27.2097  27.2514  27.3662  27.3723  27.3765  27.4330
    27.4402  27.4750  27.4839  27.5140  27.5264  27.5636  27.5959  27.6838
    27.7017  27.7156  27.7374  27.7963  27.8200  27.8429  27.8897  27.9046
    27.9073  28.0050  28.0641  28.0826  28.0930  28.1734  28.2133  28.2148
    28.2367  28.2528

     the Fermi energy is     2.0564 ev

!    total energy              =   -4181.26748071 Ry
     Harris-Foulkes estimate   =   -4181.26748072 Ry
     estimated scf accuracy    <          6.2E-09 Ry

     The total energy is the sum of the following terms:

     one-electron contribution =  -84770.16433284 Ry
     hartree contribution      =   42429.32195901 Ry
     xc contribution           =   -1147.62882474 Ry
     ewald contribution        =   39307.20550995 Ry
     smearing contrib. (-TS)   =      -0.00179210 Ry

     convergence has been achieved in  19 iterations

     Forces acting on atoms (Ry/au):

     negative rho (up, down):  0.491E+00 0.000E+00
     atom    1 type  1   force =    -0.00001825    0.00000000    0.10634441
     atom    2 type  2   force =     0.00071876    0.00000000   -0.14569490
     atom    3 type  2   force =     0.00009123    0.00000000    0.05954794
     atom    4 type  1   force =     0.00056317    0.00433886   -0.01408389
     atom    5 type  1   force =     0.00056317   -0.00433886   -0.01408389
     atom    6 type  1   force =    -0.00045737    0.00000000    0.04523849
     atom    7 type  1   force =     0.00026927    0.00000000   -0.01066531
     atom    8 type  2   force =     0.00211857    0.00000000    0.00654792
     atom    9 type  2   force =     0.00139842    0.00000000   -0.01863531
     atom   10 type  1   force =    -0.00194199   -0.00659819    0.00376137
     atom   11 type  1   force =    -0.00194199    0.00659819    0.00376137
     atom   12 type  1   force =    -0.00106780    0.00000000   -0.00311889
     atom   13 type  1   force =     0.00009514    0.00000000    0.00008685
     atom   14 type  2   force =    -0.00029398    0.00000000    0.00056928
     atom   15 type  2   force =    -0.00033591    0.00000000    0.00001155
     atom   16 type  1   force =     0.00008058    0.00036770   -0.00012388
     atom   17 type  1   force =     0.00008058   -0.00036770   -0.00012388
     atom   18 type  1   force =    -0.00017479    0.00000000    0.00043688
     atom   19 type  1   force =    -0.00022881    0.00000000    0.00039050
     atom   20 type  2   force =     0.00021105    0.00000000    0.00007472
     atom   21 type  2   force =    -0.00059653    0.00000000    0.00012638
     atom   22 type  1   force =     0.00056126    0.00008931   -0.00019992
     atom   23 type  1   force =     0.00056126   -0.00008931   -0.00019992
     atom   24 type  1   force =    -0.00014559    0.00000000    0.00018526
     atom   25 type  1   force =    -0.00000659    0.00000000    0.10727668
     atom   26 type  2   force =    -0.00107306    0.00000000   -0.14640865
     atom   27 type  2   force =    -0.00056812    0.00000000    0.05849195
     atom   28 type  1   force =    -0.00049654    0.00438714   -0.01391812
     atom   29 type  1   force =    -0.00049654   -0.00438714   -0.01391812
     atom   30 type  1   force =     0.00132233    0.00000000    0.04028559
     atom   31 type  1   force =     0.00013765    0.00000000   -0.01056340
     atom   32 type  2   force =    -0.00190871    0.00000000    0.00581327
     atom   33 type  2   force =    -0.00238671    0.00000000   -0.04120934
     atom   34 type  1   force =     0.00220989   -0.00749060    0.00369950
     atom   35 type  1   force =     0.00220989    0.00749060    0.00369950
     atom   36 type  1   force =     0.00099930    0.00000000   -0.01531302
     atom   37 type  1   force =    -0.00000998    0.00000000   -0.00006383
     atom   38 type  2   force =    -0.00001765    0.00000000    0.00034176
     atom   39 type  2   force =     0.00048727    0.00000000   -0.00009437
     atom   40 type  1   force =    -0.00011920   -0.00013909   -0.00012549
     atom   41 type  1   force =    -0.00011920    0.00013909   -0.00012549
     atom   42 type  1   force =     0.00020311    0.00000000    0.00004789
     atom   43 type  1   force =     0.00012025    0.00000000    0.00033693
     atom   44 type  2   force =    -0.00026754    0.00000000    0.00026111
     atom   45 type  2   force =    -0.00044768    0.00000000    0.00088771
     atom   46 type  1   force =    -0.00015330    0.00009471    0.00001800
     atom   47 type  1   force =    -0.00015330   -0.00009471    0.00001800
     atom   48 type  1   force =    -0.00013820    0.00000000    0.00040744
     atom   49 type  1   force =     0.00051262    0.00000000   -0.00089445
     atom   50 type  3   force =     0.00005063    0.00000000    0.00089584

     Total force =     0.002524     Total SCF correction =     0.000262
     SCF correction compared to forces is large: reduce conv_thr to get better values

     bfgs converged in  15 scf cycles and  14 bfgs steps
     (criteria: energy < 0.10E-03, force < 0.10E-02)

     End of BFGS Geometry Optimization

     Final energy   =   -4181.2674807149 Ry
Begin final coordinates

ATOMIC_POSITIONS (crystal)
O0       0.000000000   0.500000000   0.319310000    0   0   0
Re1      0.250000000   0.500000000   0.360290000    0   0   0
Re1      0.000000000   0.000000000   0.360290000    0   0   0
O0       0.250000000   0.780000000   0.360290000    0   0   0
O0       0.250000000   0.220000000   0.360290000    0   0   0
O0       0.000000000   0.500000000   0.401270000    0   0   0
O0       0.000000000   0.000000000   0.412450000    0   0   0
Re1      0.250000000   0.000000000   0.453430000    0   0   0
Re1      0.000000000   0.500000000   0.453430000    0   0   0
O0       0.250000000   0.720000000   0.453430000    0   0   0
O0       0.250000000   0.280000000   0.453430000    0   0   0
O0       0.000000000   0.000000000   0.494410000    0   0   0
O0       0.000331985   0.500000000   0.506985945
Re1      0.264199152   0.500000000   0.546296015
Re1     -0.001069915   0.000000000   0.547767067
O0       0.250869263   0.781853904   0.546859763
O0       0.250869263   0.218146096   0.546859763
O0       0.000837836   0.500000000   0.584893729
O0       0.000473840   0.000000000   0.601549043
Re1      0.274248083   0.000000000   0.640955808
Re1     -0.005514842   0.500000000   0.635692944
O0       0.251164611   0.714337826   0.640015389
O0       0.251164611   0.285662174   0.640015389
O0       0.000184095   0.000000000   0.674427381
O0       0.500000000   0.500000000   0.319310000    0   0   0
Re1      0.750000000   0.500000000   0.360290000    0   0   0
Re1      0.500000000   0.000000000   0.360290000    0   0   0
O0       0.750000000   0.780000000   0.360290000    0   0   0
O0       0.750000000   0.220000000   0.360290000    0   0   0
O0       0.500000000   0.500000000   0.401270000    0   0   0
O0       0.500000000   0.000000000   0.412450000    0   0   0
Re1      0.750000000   0.000000000   0.453430000    0   0   0
Re1      0.500000000   0.500000000   0.453430000    0   0   0
O0       0.750000000   0.720000000   0.453430000    0   0   0
O0       0.750000000   0.280000000   0.453430000    0   0   0
O0       0.500000000   0.000000000   0.494410000    0   0   0
O0       0.500195735   0.500000000   0.504890101
Re1      0.736361991   0.500000000   0.546098825
Re1      0.501363193   0.000000000   0.546502049
O0       0.749207198   0.780662297   0.546811794
O0       0.749207198   0.219337703   0.546811794
O0       0.499708945   0.500000000   0.588150646
O0       0.499491952   0.000000000   0.598019194
Re1      0.725008881   0.000000000   0.640894533
Re1      0.505002609   0.500000000   0.640120212
O0       0.749389218   0.719248053   0.639270646
O0       0.749389218   0.280751947   0.639270646
O0       0.500091407   0.000000000   0.681446054
O0       0.528866980   0.500000000   0.691182901
H2       0.380383878   0.500000000   0.706453419
End final coordinates

     General routines

     Parallel routines

   This run was terminated on:   5:48:12  22Apr2014

   JOB DONE.