     Program PWSCF v.5.0.2 (svn rev. 9656) starts on  5May2014 at 18: 9:19

     Current dimensions of program PWSCF are:
     Max number of different atomic species (ntypx) = 10
     Max number of k-points (npk) =  40000
     Max angular momentum in pseudopotentials (lmaxx) =  3
     Reading input from pwscf.in
Warning: card &CELL ignored
Warning: card / ignored

     Subspace diagonalization in iterative solution of the eigenvalue problem:
     a serial algorithm will be used

     Found symmetry operation: I + ( -0.5000  0.0000  0.0000)
     This is a supercell, fractional translations are disabled

     bravais-lattice index     =            0
     lattice parameter (alat)  =      10.3179  a.u.
     unit-cell volume          =    6964.3238 (a.u.)^3
     number of atoms/cell      =           30
     number of atomic types    =            3
     number of electrons       =       224.00
     number of Kohn-Sham states=          336
     kinetic-energy cutoff     =      40.0000  Ry
     charge density cutoff     =     500.0000  Ry
     convergence threshold     =      1.0E-06
     mixing beta               =       0.7000
     number of iterations used =            8  plain     mixing
     Exchange-correlation      = SLA  PW   PBE  PBE ( 1 4 3 4 0)
     EXX-fraction              =        0.00
     nstep                     =           50

     celldm(1)=  10.317905  celldm(2)=   0.000000  celldm(3)=   0.000000
     celldm(4)=   0.000000  celldm(5)=   0.000000  celldm(6)=   0.000000

     crystal axes: (cart. coord. in units of alat)
               a(1) = (   1.000000   0.000000   0.000000 )
               a(2) = (   0.000000   1.282117   0.000000 )
               a(3) = (   0.000000   0.000000   4.945120 )

     reciprocal axes: (cart. coord. in units 2 pi/alat)
               b(1) = (  1.000000  0.000000  0.000000 )
               b(2) = (  0.000000  0.779960  0.000000 )
               b(3) = (  0.000000  0.000000  0.202220 )

     PseudoPot. # 1 for O  read from file:
     /home/camp/zhonxu/pseudo/o_pbe_v1.01.uspp.F.UPF
     MD5 check sum: 2bcb18d16ea4b960afae9ec6d52f22d2
     Pseudo is Ultrasoft + core correction, Zval =  6.0
     Generated by new atomic code, or converted to UPF format
     Using radial grid of  737 points,  5 beta functions with:
                l(1) =   0
                l(2) =   0
                l(3) =   1
                l(4) =   1
                l(5) =   2
     Q(r) pseudized with  8 coefficients,  rinner =    0.900   0.900   0.900
                                                       0.900   0.900

     PseudoPot. # 2 for Mo read from file:
     /home/camp/zhonxu/pseudo/mo_pbe_v1.uspp.F.UPF
     MD5 check sum: 30c4dcd161f5d35cd49bb5239c51a633
     Pseudo is Ultrasoft + core correction, Zval = 14.0
     Generated by new atomic code, or converted to UPF format
     Using radial grid of  889 points,  6 beta functions with:
                l(1) =   0
                l(2) =   0
                l(3) =   1
                l(4) =   1
                l(5) =   2
                l(6) =   2
     Q(r) pseudized with  6 coefficients,  rinner =    1.000   1.000   1.000
                                                       1.000   1.000

     PseudoPot. # 3 for H  read from file:
     /home/camp/zhonxu/pseudo/h_pbe_v1.uspp.F.UPF
     MD5 check sum: 3408e3ff4ec8b0a4e358431e7e038a48
     Pseudo is Ultrasoft, Zval =  1.0
     Generated by new atomic code, or converted to UPF format
     Using radial grid of  615 points,  2 beta functions with:
                l(1) =   0
                l(2) =   0
     Q(r) pseudized with  8 coefficients,  rinner =    0.700

     atomic species   valence    mass     pseudopotential
        O0             6.00    15.99940     O ( 1.00)
        Mo1           14.00    95.94000     Mo( 1.00)
        H2             1.00     1.00794     H ( 1.00)

     Simplified LDA+U calculation (l_max = 2) with parameters (eV):
     atomic species    L          U    alpha       J0     beta
        Mo1            2     4.5000   0.0000   0.0000   0.0000

     No symmetry found

   Cartesian axes

     site n.     atom                  positions (alat units)
         1           O0  tau(   1) = (   0.0000000   0.0000000   1.8465574  )
         2           O0  tau(   2) = (   0.0000000   0.6410583   1.8808271  )
         3           Mo1 tau(   3) = (   0.2500000   0.6410583   2.1650231  )
         4           Mo1 tau(   4) = (   0.0000000   0.0000000   2.2064633  )
         5           O0  tau(   5) = (   0.2500000   1.0000510   2.1927158  )
         6           O0  tau(   6) = (   0.2500000   0.2820657   2.1921224  )
         7           O0  tau(   7) = (   0.0000000   0.6410583   2.4520379  )
         8           O0  tau(   8) = (   0.0000000   0.0000000   2.5658746  )
         9           Mo1 tau(   9) = (   0.2500000   0.0000000   2.8596642  )
        10           Mo1 tau(  10) = (   0.0000000   0.6410583   2.7884050  )
        11           O0  tau(  11) = (   0.2500000   0.9231240   2.8369661  )
        12           O0  tau(  12) = (   0.2500000   0.3589927   2.8372628  )
        13           O0  tau(  13) = (   0.0000000   0.0000000   3.1104807  )
        14           O0  tau(  14) = (   0.5000000   0.0000000   1.8465574  )
        15           O0  tau(  15) = (   0.5000000   0.6410583   1.8808271  )
        16           Mo1 tau(  16) = (   0.7500000   0.6410583   2.1650231  )
        17           Mo1 tau(  17) = (   0.5000000   0.0000000   2.2064633  )
        18           O0  tau(  18) = (   0.7500000   1.0000510   2.1927158  )
        19           O0  tau(  19) = (   0.7500000   0.2820657   2.1921224  )
        20           O0  tau(  20) = (   0.5000000   0.6410583   2.4520379  )
        21           O0  tau(  21) = (   0.5000000   0.0000000   2.5658746  )
        22           Mo1 tau(  22) = (   0.7500000   0.0000000   2.8596642  )
        23           Mo1 tau(  23) = (   0.5000000   0.6410583   2.7884050  )
        24           O0  tau(  24) = (   0.7500000   0.9231240   2.8369661  )
        25           O0  tau(  25) = (   0.7500000   0.3589927   2.8372628  )
        26           O0  tau(  26) = (   0.5000000   0.0000000   3.1104807  )
        27           H2  tau(  27) = (  -0.0004900   0.7868222   1.7746059  )
        28           H2  tau(  28) = (   0.4995100   0.7868222   1.7746059  )
        29           H2  tau(  29) = (   0.1657500   0.0265270   1.7749026  )
        30           H2  tau(  30) = (   0.6657500   0.0265270   1.7749026  )

     number of k points=    10  Methfessel-Paxton smearing, width (Ry)=  0.0100
                       cart. coord. in units 2pi/alat
        k(    1) = (   0.0000000   0.0000000   0.0000000), wk =   0.1250000
        k(    2) = (   0.0000000   0.1949901   0.0000000), wk =   0.2500000
        k(    3) = (   0.0000000  -0.3899801   0.0000000), wk =   0.1250000
        k(    4) = (   0.2500000   0.0000000   0.0000000), wk =   0.2500000
        k(    5) = (   0.2500000   0.1949901   0.0000000), wk =   0.2500000
        k(    6) = (   0.2500000  -0.3899801   0.0000000), wk =   0.2500000
        k(    7) = (  -0.5000000   0.0000000   0.0000000), wk =   0.1250000
        k(    8) = (  -0.5000000   0.1949901   0.0000000), wk =   0.2500000
        k(    9) = (  -0.5000000  -0.3899801   0.0000000), wk =   0.1250000
        k(   10) = (  -0.2500000   0.1949901   0.0000000), wk =   0.2500000

     Largest allocated arrays     est. size (Mb)     dimensions
     Largest temporary arrays     est. size (Mb)     dimensions

     Check: negative/imaginary core charge=   -0.000003    0.000000

     Initial potential from superposition of free atoms
     Check: negative starting charge=   -0.002478

     starting charge  223.99143, renormalised to  224.00000

     negative rho (up, down):  0.248E-02 0.000E+00
     Number of +U iterations with fixed ns =  0
     Starting occupations:
 --- enter write_ns ---
 LDA+U parameters:
U( 2)     =  4.50000000
alpha( 2) =  0.00000000
atom    3   Tr[ns(na)] =   5.00000
    eigenvalues:
  0.500  0.500  0.500  0.500  0.500
    eigenvectors:
  1.000  0.000  0.000  0.000  0.000
  0.000  1.000  0.000  0.000  0.000
  0.000  0.000  1.000  0.000  0.000
  0.000  0.000  0.000  1.000  0.000
  0.000  0.000  0.000  0.000  1.000
    occupations:
  0.500  0.000  0.000  0.000  0.000
  0.000  0.500  0.000  0.000  0.000
  0.000  0.000  0.500  0.000  0.000
  0.000  0.000  0.000  0.500  0.000
  0.000  0.000  0.000  0.000  0.500
atom    4   Tr[ns(na)] =   5.00000
    eigenvalues:
  0.500  0.500  0.500  0.500  0.500
    eigenvectors:
  1.000  0.000  0.000  0.000  0.000
  0.000  1.000  0.000  0.000  0.000
  0.000  0.000  1.000  0.000  0.000
  0.000  0.000  0.000  1.000  0.000
  0.000  0.000  0.000  0.000  1.000
    occupations:
  0.500  0.000  0.000  0.000  0.000
  0.000  0.500  0.000  0.000  0.000
  0.000  0.000  0.500  0.000  0.000
  0.000  0.000  0.000  0.500  0.000
  0.000  0.000  0.000  0.000  0.500
atom    9   Tr[ns(na)] =   5.00000
    eigenvalues:
  0.500  0.500  0.500  0.500  0.500
    eigenvectors:
  1.000  0.000  0.000  0.000  0.000
  0.000  1.000  0.000  0.000  0.000
  0.000  0.000  1.000  0.000  0.000
  0.000  0.000  0.000  1.000  0.000
  0.000  0.000  0.000  0.000  1.000
    occupations:
  0.500  0.000  0.000  0.000  0.000
  0.000  0.500  0.000  0.000  0.000
  0.000  0.000  0.500  0.000  0.000
  0.000  0.000  0.000  0.500  0.000
  0.000  0.000  0.000  0.000  0.500
atom   10   Tr[ns(na)] =   5.00000
    eigenvalues:
  0.500  0.500  0.500  0.500  0.500
    eigenvectors:
  1.000  0.000  0.000  0.000  0.000
  0.000  1.000  0.000  0.000  0.000
  0.000  0.000  1.000  0.000  0.000
  0.000  0.000  0.000  1.000  0.000
  0.000  0.000  0.000  0.000  1.000
    occupations:
  0.500  0.000  0.000  0.000  0.000
  0.000  0.500  0.000  0.000  0.000
  0.000  0.000  0.500  0.000  0.000
  0.000  0.000  0.000  0.500  0.000
  0.000  0.000  0.000  0.000  0.500
atom   16   Tr[ns(na)] =   5.00000
    eigenvalues:
  0.500  0.500  0.500  0.500  0.500
    eigenvectors:
  1.000  0.000  0.000  0.000  0.000
  0.000  1.000  0.000  0.000  0.000
  0.000  0.000  1.000  0.000  0.000
  0.000  0.000  0.000  1.000  0.000
  0.000  0.000  0.000  0.000  1.000
    occupations:
  0.500  0.000  0.000  0.000  0.000
  0.000  0.500  0.000  0.000  0.000
  0.000  0.000  0.500  0.000  0.000
  0.000  0.000  0.000  0.500  0.000
  0.000  0.000  0.000  0.000  0.500
atom   17   Tr[ns(na)] =   5.00000
    eigenvalues:
  0.500  0.500  0.500  0.500  0.500
    eigenvectors:
  1.000  0.000  0.000  0.000  0.000
  0.000  1.000  0.000  0.000  0.000
  0.000  0.000  1.000  0.000  0.000
  0.000  0.000  0.000  1.000  0.000
  0.000  0.000  0.000  0.000  1.000
    occupations:
  0.500  0.000  0.000  0.000  0.000
  0.000  0.500  0.000  0.000  0.000
  0.000  0.000  0.500  0.000  0.000
  0.000  0.000  0.000  0.500  0.000
  0.000  0.000  0.000  0.000  0.500
atom   22   Tr[ns(na)] =   5.00000
    eigenvalues:
  0.500  0.500  0.500  0.500  0.500
    eigenvectors:
  1.000  0.000  0.000  0.000  0.000
  0.000  1.000  0.000  0.000  0.000
  0.000  0.000  1.000  0.000  0.000
  0.000  0.000  0.000  1.000  0.000
  0.000  0.000  0.000  0.000  1.000
    occupations:
[...]
  0.000  0.490 -0.000 -0.000 -0.006
  0.029 -0.000  0.445 -0.013 -0.000
 -0.094 -0.000 -0.013  0.626  0.000
 -0.000 -0.006 -0.000  0.000  0.662
atom    4   Tr[ns(na)] =   5.83544
    eigenvalues:
  0.412  0.523  0.586  0.644  0.752
    eigenvectors:
  0.000  0.000  0.993  0.007  0.000
  0.000  0.000  0.007  0.992  0.000
  0.999  0.000  0.000  0.000  0.000
  0.000  0.000  0.000  0.000  1.000
  0.000  1.000  0.000  0.000  0.000
    occupations:
  0.587  0.005  0.001 -0.001  0.000
  0.005  0.644  0.005 -0.002 -0.000
  0.001  0.005  0.412 -0.002  0.000
 -0.001 -0.002 -0.002  0.752  0.000
  0.000 -0.000  0.000  0.000  0.523
atom    9   Tr[ns(na)] =   5.84141
    eigenvalues:
  0.497  0.503  0.588  0.595  0.737
    eigenvectors:
  0.000  0.000  0.226  0.000  0.774
  0.000  0.000  0.000  1.000  0.000
  0.001  0.999  0.000  0.000  0.000
  0.000  0.000  0.774  0.000  0.226
  0.999  0.001  0.000  0.000  0.000
    occupations:
  0.703  0.000  0.002 -0.062 -0.002
  0.000  0.595 -0.000  0.000 -0.001
  0.002 -0.000  0.503 -0.001  0.000
 -0.062  0.000 -0.001  0.622  0.001
 -0.002 -0.001  0.000  0.001  0.497
atom   10   Tr[ns(na)] =   5.79501
    eigenvalues:
  0.447  0.497  0.500  0.683  0.771
    eigenvectors:
  0.004  0.994  0.000  0.000  0.002
  0.000  0.000  0.000  1.000  0.000
  0.996  0.004  0.000  0.000  0.000
  0.000  0.002  0.000  0.000  0.998
  0.000  0.000  1.000  0.000  0.000
    occupations:
  0.497  0.000 -0.003 -0.012 -0.000
  0.000  0.683 -0.001 -0.000  0.000
 -0.003 -0.001  0.447  0.001 -0.000
 -0.012 -0.000  0.001  0.770  0.000
 -0.000  0.000 -0.000  0.000  0.500
atom   16   Tr[ns(na)] =   5.83834
    eigenvalues:
  0.441  0.490  0.561  0.662  0.764
    eigenvectors:
  0.011  0.000  0.320  0.000  0.669
  0.000  0.999  0.000  0.001  0.000
  0.988  0.000  0.002  0.000  0.010
  0.000  0.000  0.678  0.000  0.322
  0.000  0.001  0.000  0.999  0.000
    occupations:
  0.696  0.000  0.029 -0.094 -0.000
  0.000  0.490 -0.000 -0.000 -0.006
  0.029 -0.000  0.445 -0.013 -0.000
 -0.094 -0.000 -0.013  0.626  0.000
 -0.000 -0.006 -0.000  0.000  0.662
atom   17   Tr[ns(na)] =   5.83544
    eigenvalues:
  0.412  0.523  0.586  0.644  0.752
    eigenvectors:
  0.000  0.000  0.993  0.007  0.000
  0.000  0.000  0.007  0.992  0.000
  0.999  0.000  0.000  0.000  0.000
  0.000  0.000  0.000  0.000  1.000
  0.000  1.000  0.000  0.000  0.000
    occupations:
  0.587  0.005  0.001 -0.001  0.000
  0.005  0.644  0.005 -0.002 -0.000
  0.001  0.005  0.412 -0.002  0.000
 -0.001 -0.002 -0.002  0.752  0.000
  0.000 -0.000  0.000  0.000  0.523
atom   22   Tr[ns(na)] =   5.84171
    eigenvalues:
  0.497  0.503  0.588  0.595  0.737
    eigenvectors:
  0.000  0.000  0.226  0.000  0.774
  0.000  0.000  0.000  1.000  0.000
  0.001  0.999  0.000  0.000  0.000
  0.000  0.000  0.774  0.000  0.226
  0.999  0.001  0.000  0.000  0.000
    occupations:
  0.703  0.000  0.002 -0.062 -0.002
  0.000  0.595 -0.000  0.000 -0.001
  0.002 -0.000  0.503 -0.001  0.000
 -0.062  0.000 -0.001  0.622  0.001
 -0.002 -0.001  0.000  0.001  0.497
atom   23   Tr[ns(na)] =   5.79462
    eigenvalues:
  0.447  0.497  0.499  0.683  0.771
    eigenvectors:
  0.004  0.994  0.000  0.000  0.002
  0.000  0.000  0.000  1.000  0.000
  0.996  0.004  0.000  0.000  0.000
  0.000  0.002  0.000  0.000  0.998
  0.000  0.000  1.000  0.000  0.000
    occupations:
  0.497  0.000 -0.003 -0.012 -0.000
  0.000  0.683 -0.001 -0.000  0.000
 -0.003 -0.001  0.447  0.001 -0.000
 -0.012 -0.000  0.001  0.770  0.000
 -0.000  0.000 -0.000  0.000  0.499
N of occupied +U levels =  46.6212931
 --- exit write_ns ---

     Threshold (ethr) on eigenvalues was too large:
     Diagonalizing with lowered threshold

     Davidson diagonalization with overlap
     ethr =  2.25E-08,  avg # of iterations =  2.0

[...]

     total energy              =   -1697.11991217 Ry
     Harris-Foulkes estimate   =   -1697.11991218 Ry
     estimated scf accuracy    <       0.00000001 Ry

     iteration # 18     ecut=    40.00 Ry     beta=0.70
     Davidson diagonalization with overlap
     ethr =  5.68E-12,  avg # of iterations =  1.0

     negative rho (up, down):  0.355E-02 0.000E+00

     End of self-consistent calculation
 --- enter write_ns ---
 LDA+U parameters:
U( 2)     =  4.50000000
alpha( 2) =  0.00000000
atom    3   Tr[ns(na)] =   5.83998
    eigenvalues:
  0.441  0.490  0.561  0.663  0.764
    eigenvectors:
  0.011  0.000  0.320  0.000  0.669
  0.000  0.999  0.000  0.001  0.000
  0.989  0.000  0.002  0.000  0.010
  0.000  0.000  0.678  0.000  0.322
  0.000  0.001  0.000  0.999  0.000
    occupations:
  0.696  0.000  0.029 -0.094 -0.000
  0.000  0.490 -0.000 -0.000 -0.006
  0.029 -0.000  0.445 -0.013 -0.000
 -0.094 -0.000 -0.013  0.627  0.000
 -0.000 -0.006 -0.000  0.000  0.663
atom    4   Tr[ns(na)] =   5.83487
    eigenvalues:
  0.412  0.524  0.586  0.644  0.752
    eigenvectors:
  0.000  0.000  0.993  0.007  0.000
  0.000  0.000  0.007  0.992  0.000
  0.999  0.000  0.000  0.000  0.000
  0.000  0.000  0.000  0.000  1.000
  0.000  1.000  0.000  0.000  0.000
    occupations:
  0.587  0.005  0.001 -0.001  0.000
  0.005  0.644  0.005 -0.002 -0.000
  0.001  0.005  0.412 -0.002  0.000
 -0.001 -0.002 -0.002  0.752  0.000
  0.000 -0.000  0.000  0.000  0.524
atom    9   Tr[ns(na)] =   5.84202
    eigenvalues:
  0.498  0.503  0.588  0.595  0.737
    eigenvectors:
  0.000  0.000  0.226  0.000  0.774
  0.000  0.000  0.000  1.000  0.000
  0.001  0.999  0.000  0.000  0.000
  0.000  0.000  0.774  0.000  0.226
  0.999  0.001  0.000  0.000  0.000
    occupations:
  0.703  0.000  0.002 -0.062 -0.002
  0.000  0.595 -0.000  0.000 -0.001
  0.002 -0.000  0.503 -0.001  0.000
 -0.062  0.000 -0.001  0.622  0.001
 -0.002 -0.001  0.000  0.001  0.498
atom   10   Tr[ns(na)] =   5.79325
    eigenvalues:
  0.446  0.497  0.499  0.683  0.771
    eigenvectors:
  0.004  0.994  0.000  0.000  0.002
  0.000  0.000  0.000  1.000  0.000
  0.996  0.004  0.000  0.000  0.000
  0.000  0.002  0.000  0.000  0.998
  0.000  0.000  1.000  0.000  0.000
    occupations:
  0.497  0.000 -0.003 -0.012 -0.000
  0.000  0.683 -0.001 -0.000  0.000
 -0.003 -0.001  0.447  0.001 -0.000
 -0.012 -0.000  0.001  0.770  0.000
 -0.000  0.000 -0.000  0.000  0.499
atom   16   Tr[ns(na)] =   5.83993
    eigenvalues:
  0.441  0.490  0.561  0.663  0.764
    eigenvectors:
  0.011  0.000  0.320  0.000  0.669
  0.000  0.999  0.000  0.001  0.000
  0.989  0.000  0.002  0.000  0.010
  0.000  0.000  0.678  0.000  0.322
  0.000  0.001  0.000  0.999  0.000
    occupations:
  0.696  0.000  0.029 -0.094 -0.000
  0.000  0.490 -0.000 -0.000 -0.006
  0.029 -0.000  0.445 -0.013 -0.000
 -0.094 -0.000 -0.013  0.627  0.000
 -0.000 -0.006 -0.000  0.000  0.663
atom   17   Tr[ns(na)] =   5.83489
    eigenvalues:
  0.412  0.524  0.586  0.644  0.752
    eigenvectors:
  0.000  0.000  0.993  0.007  0.000
  0.000  0.000  0.007  0.992  0.000
  0.999  0.000  0.000  0.000  0.000
  0.000  0.000  0.000  0.000  1.000
  0.000  1.000  0.000  0.000  0.000
    occupations:
  0.587  0.005  0.001 -0.001  0.000
  0.005  0.644  0.005 -0.002 -0.000
  0.001  0.005  0.412 -0.002  0.000
 -0.001 -0.002 -0.002  0.752  0.000
  0.000 -0.000  0.000  0.000  0.524
atom   22   Tr[ns(na)] =   5.84205
    eigenvalues:
  0.498  0.503  0.588  0.595  0.737
    eigenvectors:
  0.000  0.000  0.226  0.000  0.774
  0.000  0.000  0.000  1.000  0.000
  0.001  0.999  0.000  0.000  0.000
  0.000  0.000  0.774  0.000  0.226
  0.999  0.001  0.000  0.000  0.000
    occupations:
  0.704  0.000  0.002 -0.062 -0.002
  0.000  0.595 -0.000  0.000 -0.001
  0.002 -0.000  0.503 -0.001  0.000
 -0.062  0.000 -0.001  0.622  0.001
 -0.002 -0.001  0.000  0.001  0.498
atom   23   Tr[ns(na)] =   5.79323
    eigenvalues:
  0.446  0.497  0.499  0.683  0.771
    eigenvectors:
  0.004  0.994  0.000  0.000  0.002
  0.000  0.000  0.000  1.000  0.000
  0.996  0.004  0.000  0.000  0.000
  0.000  0.002  0.000  0.000  0.998
  0.000  0.000  1.000  0.000  0.000
    occupations:
  0.497  0.000 -0.003 -0.012 -0.000
  0.000  0.683 -0.001 -0.000  0.000
 -0.003 -0.001  0.447  0.001 -0.000
 -0.012 -0.000  0.001  0.770  0.000
 -0.000  0.000 -0.000  0.000  0.499
N of occupied +U levels =  46.6202254
 --- exit write_ns ---

[...]

          k = 0.2500-0.3900 0.0000 ( 29726 PWs)   bands (ev):

[...]

          k =-0.2500 0.1950 0.0000 ( 29746 PWs)   bands (ev):

   -62.3055 -62.2236 -62.2181 -62.1429 -61.9854 -61.9770 -61.9046 -61.8957
   -36.8302 -36.7718 -36.7537 -36.6897 -36.6763 -36.4048 -36.3723 -36.3058
   -36.2953 -36.2813 -36.2438 -36.2376 -36.2113 -36.2099 -36.1917 -36.1877
   -36.1462 -36.0685 -36.0509 -36.0238 -36.0227 -35.6812 -35.5348 -35.5159
   -20.7418 -20.4762 -19.8806 -19.7084 -19.6578 -19.5420 -19.4911 -19.3730
   -19.2076 -19.1611 -19.0613 -18.9048 -18.8333 -18.7226 -18.7201 -18.4985
   -18.1607 -17.9955  -8.7884  -8.6135  -8.1370  -7.9483  -7.7284  -7.6956
    -7.6900  -7.5367  -7.3322  -7.3319  -7.2834  -7.1561  -6.9583  -6.7645
    -6.7614  -6.4055  -6.2826  -6.2282  -6.1275  -6.0018  -5.8917  -5.8435
    -5.7358  -5.6290  -5.4666  -5.3326  -5.2615  -5.1529  -4.9970  -4.9415
    -4.7731  -4.6443  -4.5961  -4.4995  -4.4327  -4.3611  -4.2827  -4.2768
    -4.1506  -4.1006  -4.0090  -3.9225  -3.8285  -3.7160  -3.5029  -3.3920
    -3.3757  -3.2884  -3.1663  -3.0166  -3.0012  -2.7734  -2.6595  -2.4593
    -2.2243  -2.0432  -1.7341  -0.8922  -0.7226  -0.6609  -0.3624   0.1592
     0.1627   0.4661   0.7112   0.8096   0.9338   1.1188   1.1686   1.2911
     1.4552   1.5535   1.5624   1.6757   1.7341   1.7642   1.8713   2.1546
     2.3104   2.5589   3.3322   3.4426   3.7134   3.7729   3.9417   4.1152
     4.3443   4.4063   4.5230   4.6158   4.6891   4.7897   4.9326   5.1614
     5.5141   5.6896   5.7557   5.8518   5.9209   6.1054   6.3133   6.3970
     6.5426   6.6498   6.9628   6.9912   7.0989   7.2684   7.5116   7.5945
     7.9140   7.9349   8.1850   8.2775   8.2840   8.4766   8.6400   8.6617
     8.9042   8.9938   9.0719   9.3051   9.3835   9.4213   9.5027   9.5555
     9.5650   9.6081   9.8282   9.9803  10.0347  10.1875  10.2407  10.2754
    10.4692  10.4984  10.6471  10.7341  10.7423  10.9636  11.0888  11.0922
    11.1036  11.2511  11.5434  11.6104  11.6140  11.7401  11.8057  11.9048
    11.9683  12.0784  12.2760  12.3037  12.3492  12.3594  12.4491  12.6264
    12.6676  12.7648  12.8810  12.8926  12.9719  13.1014  13.1045  13.1918
    13.3232  13.4330  13.4434  13.5097  13.5128  13.6427  13.6653  13.7287
    13.8573  13.8924  13.9741  13.9827  14.1336  14.1510  14.2381  14.3453
    14.3949  14.4504  14.5021  14.5567  14.6056  14.7321  14.8396  14.8532
    14.9585  15.0407  15.0695  15.2191  15.2963  15.4087  15.4897  15.5572
    15.6478  15.6616  15.7670  15.8438  15.8966  15.9605  16.0540  16.1047
    16.1997  16.2789  16.2980  16.3498  16.3794  16.4511  16.5803  16.7133
    16.7196  16.7673  16.7792  16.8934  17.0044  17.0973  17.1744  17.2134
    17.2309  17.3096  17.3437  17.4125  17.4969  17.6787  17.6902  17.8043
    17.9084  17.9133  18.0913  18.1002  18.1784  18.2549  18.3510  18.3877
    18.4263  18.4365  18.5410  18.5753  18.6162  18.8091  18.8781  19.0187
    19.0655  19.1246  19.1415  19.2621  19.3118  19.4939  19.5770  19.6044
    19.7171  19.7837  19.8182  19.9096  19.9624  20.0900  20.1513  20.1845
    20.1906  20.2557  20.3419  20.3896  20.4025  20.4217  20.5091  20.5370
    20.6570  20.6960  20.7461  20.8325  20.9276  20.9641  21.0370  21.0695
    21.1195  21.2069  21.2189  21.3110  21.4231  21.4724  21.5511  21.6369

     the Fermi energy is     0.0909 ev

!    total energy              =   -1697.11991217 Ry
     Harris-Foulkes estimate   =   -1697.11991217 Ry
     estimated scf accuracy    <          2.9E-09 Ry

     The total energy is the sum of the following terms:

     one-electron contribution =  -21405.72365623 Ry
     hartree contribution      =   10724.99204729 Ry
     xc contribution           =    -286.65123882 Ry
     ewald contribution        =    9267.21301032 Ry
     Hubbard energy            =       3.05171606 Ry
     smearing contrib. (-TS)   =      -0.00179079 Ry

     convergence has been achieved in  18 iterations

     Forces acting on atoms (Ry/au):

     negative rho (up, down):  0.355E-02 0.000E+00
     atom    1 type  1   force =    -0.00240297   -0.00509290   -0.00039499
     atom    2 type  1   force =    -0.00006197    0.01019145    0.00001083
     atom    3 type  2   force =    -0.00019728   -0.00554881    0.00084055
     atom    4 type  2   force =    -0.00063856    0.00288875   -0.00005181
     atom    5 type  1   force =     0.00146988   -0.01724637   -0.00046744
     atom    6 type  1   force =    -0.00000143    0.01457569   -0.00043470
     atom    7 type  1   force =     0.00013814    0.00078762   -0.00045362
     atom    8 type  1   force =     0.00326110    0.00072839    0.00086713
     atom    9 type  2   force =    -0.00197403   -0.00023382    0.00016732
     atom   10 type  2   force =    -0.00001020    0.00091471    0.00017026
     atom   11 type  1   force =    -0.00014809   -0.03413121    0.00034293
     atom   12 type  1   force =     0.00022331    0.03288661    0.00038538
     atom   13 type  1   force =    -0.00025237    0.00009513   -0.00020218
     atom   14 type  1   force =    -0.00240321   -0.00509402   -0.00040219
     atom   15 type  1   force =    -0.00005265    0.01018308    0.00001228
     atom   16 type  2   force =    -0.00022149   -0.00554885    0.00083979
     atom   17 type  2   force =    -0.00064162    0.00288817   -0.00005477
     atom   18 type  1   force =     0.00147844   -0.01725377   -0.00046803
     atom   19 type  1   force =     0.00000597    0.01458149   -0.00043554
     atom   20 type  1   force =     0.00014617    0.00078788   -0.00044535
     atom   21 type  1   force =     0.00325684    0.00073006    0.00087432
     atom   22 type  2   force =    -0.00199469   -0.00023356    0.00016390
     atom   23 type  2   force =    -0.00001054    0.00091469    0.00016352
     atom   24 type  1   force =    -0.00014213   -0.03413384    0.00034249
     atom   25 type  1   force =     0.00023124    0.03288887    0.00038518
     atom   26 type  1   force =    -0.00026125    0.00009453   -0.00020938
     atom   27 type  3   force =     0.00000506   -0.00047964   -0.00034750
     atom   28 type  3   force =     0.00000500   -0.00047637   -0.00034769
     atom   29 type  3   force =     0.00059653   -0.00033247   -0.00042517
     atom   30 type  3   force =     0.00059679   -0.00033152   -0.00042553

     Total force =     0.002682     Total SCF correction =     0.000071

     bfgs converged in   6 scf cycles and   5 bfgs steps
     (criteria: energy < 0.10E-03, force < 0.10E-02)

     End of BFGS Geometry Optimization

     Final energy   =   -1697.1199121729 Ry
Begin final coordinates

ATOMIC_POSITIONS (crystal)
O0       0.000000000   0.000000000   0.373474499    0   0   1
O0       0.000000000   0.500000000   0.380022723    0   0   1
Mo1      0.250000000   0.500000000   0.437478523    0   0   1
Mo1      0.000000000   0.000000000   0.445787767    0   0   1
O0       0.250000000   0.780000000   0.443482668    0   0   1
O0       0.250000000   0.220000000   0.443419638    0   0   1
O0       0.000000000   0.500000000   0.496398880    0   0   1
O0       0.000000000   0.000000000   0.518560573    0   0   1
Mo1      0.250000000   0.000000000   0.578122807    0   0   1
Mo1      0.000000000   0.500000000   0.563890017    0   0   1
O0       0.250000000   0.720000000   0.574156735    0   0   1
O0       0.250000000   0.280000000   0.574259982    0   0   1
O0       0.000000000   0.000000000   0.628836586    0   0   1
O0       0.500000000   0.000000000   0.373475860    0   0   1
O0       0.500000000   0.500000000   0.380020751    0   0   1
Mo1      0.750000000   0.500000000   0.437478533    0   0   1
Mo1      0.500000000   0.000000000   0.445788718    0   0   1
O0       0.750000000   0.780000000   0.443482749    0   0   1
O0       0.750000000   0.220000000   0.443419634    0   0   1
O0       0.500000000   0.500000000   0.496399028    0   0   1
O0       0.500000000   0.000000000   0.518559672    0   0   1
Mo1      0.750000000   0.000000000   0.578122625    0   0   1
Mo1      0.500000000   0.500000000   0.563890489    0   0   1
O0       0.750000000   0.720000000   0.574156785    0   0   1
O0       0.750000000   0.280000000   0.574259923    0   0   1
O0       0.500000000   0.000000000   0.628838005    0   0   1
H2      -0.000484611   0.613907416   0.358627555
H2       0.499515277   0.613910892   0.358626913
H2       0.166177530   0.020257337   0.359020670
H2       0.666174242   0.020257298   0.359020691
End final coordinates

     General routines

     Parallel routines
     Hubbard U routines

   This run was terminated on:  23:14:43   5May2014

   JOB DONE.