     Program PWSCF v.5.0.2 (svn rev. 9656) starts on 15Feb2014 at  7:17: 6

     Current dimensions of program PWSCF are:
     Max number of different atomic species (ntypx) = 10
     Max number of k-points (npk) =  40000
     Max angular momentum in pseudopotentials (lmaxx) =  3
     Reading input from alpha_0.15/alpha_0.15.in
Warning: card &IONS ignored
Warning: card / ignored
Warning: card &CELL ignored
Warning: card / ignored

     Subspace diagonalization in iterative solution of the eigenvalue problem:
     a serial algorithm will be used

     bravais-lattice index     =            0
     lattice parameter (alat)  =      18.7083  a.u.
     unit-cell volume          =    3545.1269 (a.u.)^3
     number of atoms/cell      =           48
     number of atomic types    =            3
     number of electrons       =       432.00
     number of Kohn-Sham states=          648
     kinetic-energy cutoff     =      40.0000  Ry
     charge density cutoff     =     500.0000  Ry
     convergence threshold     =      1.0E-06
     mixing beta               =       0.7000
     number of iterations used =            8  plain     mixing
     Exchange-correlation      = SLA  PW   PBE  PBE ( 1 4 3 4 0)
     EXX-fraction              =        0.00

     celldm(1)=  18.708289  celldm(2)=   0.000000  celldm(3)=   0.000000
     celldm(4)=   0.000000  celldm(5)=   0.000000  celldm(6)=   0.000000

     crystal axes: (cart. coord. in units of alat)
               a(1) = (   1.000000   0.000000   0.000000 )
               a(2) = (   0.000000   1.000000   0.000000 )
               a(3) = (   0.000000   0.000000   0.541414 )

     reciprocal axes: (cart. coord. in units 2 pi/alat)
               b(1) = (  1.000000  0.000000  0.000000 )
               b(2) = (  0.000000  1.000000  0.000000 )
               b(3) = (  0.000000  0.000000  1.847015 )

     PseudoPot. # 1 for Re read from file:
     /home/camp/zhonxu/pseudo/re_pbe_v1.uspp.F.UPF
     MD5 check sum: 6f5a5dcaf9c96c20d0ffdde0de57afc6
     Pseudo is Ultrasoft + core correction, Zval = 15.0
     Generated by new atomic code, or converted to UPF format
     Using radial grid of  981 points,  8 beta functions with:
                l(1) =   0
                l(2) =   0
                l(3) =   1
                l(4) =   1
                l(5) =   2
                l(6) =   2
                l(7) =   3
                l(8) =   3
     Q(r) pseudized with  8 coefficients,  rinner =    1.000   1.000   1.000
                                                       1.000   1.000   1.000
                                                       1.000

     PseudoPot. # 2 for Re read from file:
     /home/camp/zhonxu/pseudo/re_pbe_v1.uspp.F.UPF
     MD5 check sum: 6f5a5dcaf9c96c20d0ffdde0de57afc6
     Pseudo is Ultrasoft + core correction, Zval = 15.0
     Generated by new atomic code, or converted to UPF format
     Using radial grid of  981 points,  8 beta functions with:
                l(1) =   0
                l(2) =   0
                l(3) =   1
                l(4) =   1
                l(5) =   2
                l(6) =   2
                l(7) =   3
                l(8) =   3
     Q(r) pseudized with  8 coefficients,  rinner =    1.000   1.000   1.000
                                                       1.000   1.000   1.000
                                                       1.000

     PseudoPot. # 3 for O  read from file:
     /home/camp/zhonxu/pseudo/o_pbe_v1.01.uspp.F.UPF
     MD5 check sum: 2bcb18d16ea4b960afae9ec6d52f22d2
     Pseudo is Ultrasoft + core correction, Zval =  6.0
     Generated by new atomic code, or converted to UPF format
     Using radial grid of  737 points,  5 beta functions with:
                l(1) =   0
                l(2) =   0
                l(3) =   1
                l(4) =   1
                l(5) =   2
     Q(r) pseudized with  8 coefficients,  rinner =    0.900   0.900   0.900
                                                       0.900   0.900

     atomic species   valence    mass     pseudopotential
        Re0           15.00   186.20700     Re( 1.00)
        Re1           15.00   186.20700     Re( 1.00)
        O2             6.00    15.99940     O ( 1.00)

     Starting magnetic structure
     atomic species   magnetization
        Re0          0.000
        Re1          0.000
        O2           0.000

     Simplified LDA+U calculation (l_max = 2) with parameters (eV):
     atomic species    L          U    alpha       J0     beta
        Re0            2     0.0000   0.1500   0.0000   0.0000
        Re1            2     0.0000   0.0000   0.0000   0.0000
        O2             1     0.0000   0.0000   0.0000   0.0000

      8 Sym. Ops., with inversion, found

   Cartesian axes

     site n.     atom                  positions (alat units)
         1           Re0 tau(   1) = (   0.0000000   0.0000000   0.0000000  )
         2           Re1 tau(   2) = (   0.2500000   0.2500000   0.1353535  )
         3           Re1 tau(   3) = (   0.0000000   0.0000000   0.2707071  )
         4           Re1 tau(   4) = (   0.2500000   0.2500000   0.4060606  )
         5           Re1 tau(   5) = (   0.0000000   0.5000000   0.0000000  )
         6           Re1 tau(   6) = (   0.2500000   0.7500000   0.1353535  )
         7           Re1 tau(   7) = (   0.0000000   0.5000000   0.2707071  )
         8           Re1 tau(   8) = (   0.2500000   0.7500000   0.4060606  )
         9           Re1 tau(   9) = (   0.5000000   0.0000000   0.0000000  )
        10           Re1 tau(  10) = (   0.7500000   0.2500000   0.1353535  )
        11           Re1 tau(  11) = (   0.5000000   0.0000000   0.2707071  )
        12           Re1 tau(  12) = (   0.7500000   0.2500000   0.4060606  )
        13           Re1 tau(  13) = (   0.5000000   0.5000000   0.0000000  )
        14           Re1 tau(  14) = (   0.7500000   0.7500000   0.1353535  )
        15           Re1 tau(  15) = (   0.5000000   0.5000000   0.2707071  )
        16           Re1 tau(  16) = (   0.7500000   0.7500000   0.4060606  )
        17           O2  tau(  17) = (   0.1400000   0.1400000   0.0000000  )
        18           O2  tau(  18) = (  -0.1400000  -0.1400000   0.0000000  )
        19           O2  tau(  19) = (   0.3900000   0.1100000   0.1353535  )
        20           O2  tau(  20) = (   0.1100000   0.3900000   0.1353535  )
        21           O2  tau(  21) = (   0.1400000   0.1400000   0.2707071  )
        22           O2  tau(  22) = (  -0.1400000  -0.1400000   0.2707071  )
        23           O2  tau(  23) = (   0.3900000   0.1100000   0.4060606  )
        24           O2  tau(  24) = (   0.1100000   0.3900000   0.4060606  )
        25           O2  tau(  25) = (   0.1400000   0.6400000   0.0000000  )
        26           O2  tau(  26) = (  -0.1400000   0.3600000   0.0000000  )
        27           O2  tau(  27) = (   0.3900000   0.6100000   0.1353535  )
        28           O2  tau(  28) = (   0.1100000   0.8900000   0.1353535  )
        29           O2  tau(  29) = (   0.1400000   0.6400000   0.2707071  )
        30           O2  tau(  30) = (  -0.1400000   0.3600000   0.2707071  )
        31           O2  tau(  31) = (   0.3900000   0.6100000   0.4060606  )
        32           O2  tau(  32) = (   0.1100000   0.8900000   0.4060606  )
        33           O2  tau(  33) = (   0.6400000   0.1400000   0.0000000  )
        34           O2  tau(  34) = (   0.3600000  -0.1400000   0.0000000  )
        35           O2  tau(  35) = (   0.8900000   0.1100000   0.1353535  )
        36           O2  tau(  36) = (   0.6100000   0.3900000   0.1353535  )
        37           O2  tau(  37) = (   0.6400000   0.1400000   0.2707071  )
        38           O2  tau(  38) = (   0.3600000  -0.1400000   0.2707071  )
        39           O2  tau(  39) = (   0.8900000   0.1100000   0.4060606  )
        40           O2  tau(  40) = (   0.6100000   0.3900000   0.4060606  )
        41           O2  tau(  41) = (   0.6400000   0.6400000   0.0000000  )
        42           O2  tau(  42) = (   0.3600000   0.3600000   0.0000000  )
        43           O2  tau(  43) = (   0.8900000   0.6100000   0.1353535  )
        44           O2  tau(  44) = (   0.6100000   0.8900000   0.1353535  )
        45           O2  tau(  45) = (   0.6400000   0.6400000   0.2707071  )
        46           O2  tau(  46) = (   0.3600000   0.3600000   0.2707071  )
        47           O2  tau(  47) = (   0.8900000   0.6100000   0.4060606  )
        48           O2  tau(  48) = (   0.6100000   0.8900000   0.4060606  )

     number of k points=    42  Methfessel-Paxton smearing, width (Ry)=  0.0100
                       cart. coord. in units 2pi/alat
        k(    1) = (   0.0000000   0.0000000   0.0000000), wk =   0.0156250
        k(    2) = (   0.0000000   0.0000000   0.4617537), wk =   0.0312500
        k(    3) = (   0.0000000   0.0000000  -0.9235075), wk =   0.0156250
        k(    4) = (   0.0000000   0.2500000   0.0000000), wk =   0.0625000
        k(    5) = (   0.0000000   0.2500000   0.4617537), wk =   0.1250000
        k(    6) = (   0.0000000   0.2500000  -0.9235075), wk =   0.0625000
        k(    7) = (   0.0000000  -0.5000000   0.0000000), wk =   0.0312500
        k(    8) = (   0.0000000  -0.5000000   0.4617537), wk =   0.0625000
        k(    9) = (   0.0000000  -0.5000000  -0.9235075), wk =   0.0312500
        k(   10) = (   0.2500000   0.2500000   0.0000000), wk =   0.0312500
        k(   11) = (   0.2500000   0.2500000   0.4617537), wk =   0.0625000
        k(   12) = (   0.2500000   0.2500000  -0.9235075), wk =   0.0312500
        k(   13) = (   0.2500000  -0.5000000   0.0000000), wk =   0.0625000
        k(   14) = (   0.2500000  -0.5000000   0.4617537), wk =   0.1250000
        k(   15) = (   0.2500000  -0.5000000  -0.9235075), wk =   0.0625000
        k(   16) = (  -0.5000000  -0.5000000   0.0000000), wk =   0.0156250
        k(   17) = (  -0.5000000  -0.5000000   0.4617537), wk =   0.0312500
        k(   18) = (  -0.5000000  -0.5000000  -0.9235075), wk =   0.0156250
        k(   19) = (  -0.2500000   0.2500000   0.0000000), wk =   0.0312500
        k(   20) = (  -0.2500000   0.2500000  -0.4617537), wk =   0.0625000
        k(   21) = (  -0.2500000   0.2500000   0.9235075), wk =   0.0312500
        k(   22) = (   0.0000000   0.0000000   0.0000000), wk =   0.0156250
        k(   23) = (   0.0000000   0.0000000   0.4617537), wk =   0.0312500
        k(   24) = (   0.0000000   0.0000000  -0.9235075), wk =   0.0156250
        k(   25) = (   0.0000000   0.2500000   0.0000000), wk =   0.0625000
        k(   26) = (   0.0000000   0.2500000   0.4617537), wk =   0.1250000
        k(   27) = (   0.0000000   0.2500000  -0.9235075), wk =   0.0625000
        k(   28) = (   0.0000000  -0.5000000   0.0000000), wk =   0.0312500
        k(   29) = (   0.0000000  -0.5000000   0.4617537), wk =   0.0625000
        k(   30) = (   0.0000000  -0.5000000  -0.9235075), wk =   0.0312500
        k(   31) = (   0.2500000   0.2500000   0.0000000), wk =   0.0312500
        k(   32) = (   0.2500000   0.2500000   0.4617537), wk =   0.0625000
        k(   33) = (   0.2500000   0.2500000  -0.9235075), wk =   0.0312500
[...]
    eigenvectors:
  0.000  1.000  0.000
  0.500  0.000  0.500
  0.500  0.000  0.500
    occupations:
  0.908 -0.000 -0.000
 -0.000  0.907 -0.003
 -0.000 -0.003  0.907
   spin  2
    eigenvalues:
  0.904  0.908  0.911
    eigenvectors:
  0.000  1.000  0.000
  0.500  0.000  0.500
  0.500  0.000  0.500
    occupations:
  0.908 -0.000 -0.000
 -0.000  0.907 -0.003
 -0.000 -0.003  0.907
atomic mag. moment =     0.000000
atom   42   Tr[ns(na)] (up, down, total) =   2.72340  2.72340  5.44680
   spin  1
    eigenvalues:
  0.904  0.908  0.911
    eigenvectors:
  0.000  1.000  0.000
  0.500  0.000  0.500
  0.500  0.000  0.500
    occupations:
  0.908 -0.000 -0.000
 -0.000  0.907 -0.003
 -0.000 -0.003  0.907
   spin  2
    eigenvalues:
  0.904  0.908  0.911
    eigenvectors:
  0.000  1.000  0.000
  0.500  0.000  0.500
  0.500  0.000  0.500
    occupations:
  0.908 -0.000 -0.000
 -0.000  0.907 -0.003
 -0.000 -0.003  0.907
atomic mag. moment =     0.000000
atom   43   Tr[ns(na)] (up, down, total) =   2.72340  2.72340  5.44680
   spin  1
    eigenvalues:
  0.904  0.908  0.911
    eigenvectors:
  0.000  1.000  0.000
  0.500  0.000  0.500
  0.500  0.000  0.500
    occupations:
  0.908 -0.000 -0.000
 -0.000  0.907  0.003
 -0.000  0.003  0.907
   spin  2
    eigenvalues:
  0.904  0.908  0.911
    eigenvectors:
  0.000  1.000  0.000
  0.500  0.000  0.500
  0.500  0.000  0.500
    occupations:
  0.908 -0.000 -0.000
 -0.000  0.907  0.003
 -0.000  0.003  0.907
atomic mag. moment =     0.000000
atom   44   Tr[ns(na)] (up, down, total) =   2.72340  2.72340  5.44680
   spin  1
    eigenvalues:
  0.904  0.908  0.911
    eigenvectors:
  0.000  1.000  0.000
  0.500  0.000  0.500
  0.500  0.000  0.500
    occupations:
  0.908 -0.000 -0.000
 -0.000  0.907  0.003
 -0.000  0.003  0.907
   spin  2
    eigenvalues:
  0.904  0.908  0.911
    eigenvectors:
  0.000  1.000  0.000
  0.500  0.000  0.500
  0.500  0.000  0.500
    occupations:
  0.908 -0.000 -0.000
 -0.000  0.907  0.003
 -0.000  0.003  0.907
atomic mag. moment =     0.000000
atom   45   Tr[ns(na)] (up, down, total) =   2.72339  2.72339  5.44679
   spin  1
    eigenvalues:
  0.904  0.908  0.911
    eigenvectors:
  0.000  1.000  0.000
  0.500  0.000  0.500
  0.500  0.000  0.500
    occupations:
  0.908 -0.000 -0.000
 -0.000  0.907 -0.003
 -0.000 -0.003  0.907
   spin  2
    eigenvalues:
  0.904  0.908  0.911
    eigenvectors:
  0.000  1.000  0.000
  0.500  0.000  0.500
  0.500  0.000  0.500
    occupations:
  0.908 -0.000 -0.000
 -0.000  0.907 -0.003
 -0.000 -0.003  0.907
atomic mag. moment =     0.000000
atom   46   Tr[ns(na)] (up, down, total) =   2.72339  2.72339  5.44679
   spin  1
    eigenvalues:
  0.904  0.908  0.911
    eigenvectors:
  0.000  1.000  0.000
  0.500  0.000  0.500
  0.500  0.000  0.500
    occupations:
  0.908 -0.000 -0.000
 -0.000  0.907 -0.003
 -0.000 -0.003  0.907
   spin  2
    eigenvalues:
  0.904  0.908  0.911
    eigenvectors:
  0.000  1.000  0.000
  0.500  0.000  0.500
  0.500  0.000  0.500
    occupations:
  0.908 -0.000 -0.000
 -0.000  0.907 -0.003
 -0.000 -0.003  0.907
atomic mag. moment =     0.000000
atom   47   Tr[ns(na)] (up, down, total) =   2.72340  2.72340  5.44680
   spin  1
    eigenvalues:
  0.904  0.908  0.911
    eigenvectors:
  0.000  1.000  0.000
  0.500  0.000  0.500
  0.500  0.000  0.500
    occupations:
  0.908  0.000  0.000
  0.000  0.907  0.003
  0.000  0.003  0.907
   spin  2
    eigenvalues:
  0.904  0.908  0.911
    eigenvectors:
  0.000  1.000  0.000
  0.500  0.000  0.500
  0.500  0.000  0.500
    occupations:
  0.908  0.000  0.000
  0.000  0.907  0.003
  0.000  0.003  0.907
atomic mag. moment =     0.000000
atom   48   Tr[ns(na)] (up, down, total) =   2.72340  2.72340  5.44680
   spin  1
    eigenvalues:
  0.904  0.908  0.911
    eigenvectors:
  0.000  1.000  0.000
  0.500  0.000  0.500
  0.500  0.000  0.500
    occupations:
  0.908  0.000  0.000
  0.000  0.907  0.003
  0.000  0.003  0.907
   spin  2
    eigenvalues:
  0.904  0.908  0.911
    eigenvectors:
  0.000  1.000  0.000
  0.500  0.000  0.500
  0.500  0.000  0.500
    occupations:
  0.908  0.000  0.000
  0.000  0.907  0.003
  0.000  0.003  0.907
atomic mag. moment =     0.000000
N of occupied +U levels = 278.5078851
 --- exit write_ns ---

 ------ SPIN UP ------------

          k = 0.0000 0.0000 0.0000 ( 15161 PWs)   bands (ev):

   -67.1791 -67.0556 -67.0551 -67.0549 -67.0547 -67.0545 -67.0545 -67.0539
   -67.0159 -66.9998 -66.9998 -66.9998 -66.9992 -66.9992 -66.9992 -66.9992
   -29.3309 -29.2612 -29.2605 -29.2605 -29.2599 -29.2595 -29.2590 -29.2589
   -29.1079 -29.0913 -29.0338 -29.0336 -29.0216 -29.0183 -29.0072 -29.0063
   -29.0063 -28.9755 -28.9753 -28.9753 -28.9594 -28.9572 -28.9475 -28.9475
   -28.9134 -28.9017 -28.8888 -28.8886 -28.8883 -28.8883 -28.8873 -28.8873
   -28.8871 -28.8656 -28.8653 -28.8652 -28.8646 -28.8645 -28.8642 -28.8642
   -28.4477 -28.3920 -28.3866 -28.3864 -28.3863 -28.3860 -28.3860 -28.3800
    -6.7955  -6.2229  -6.2169  -5.9988  -5.9964  -5.9955  -5.9943  -5.7272
    -5.7019  -5.7018  -5.6993  -5.6925  -5.3225  -5.3204  -5.3196  -5.3147
    -5.3125  -5.3085  -5.2658  -5.2589  -5.0928  -5.0896  -5.0301  -5.0270
    -5.0168  -5.0163  -4.9352  -4.9347  -4.5590  -4.5579  -4.5551  -4.5550
     4.5641   4.8159   4.8201   5.0777   5.5221   5.5224   5.5232   5.5262
     5.7579   5.7581   5.7619   5.7652   6.0508   6.0542   6.0548   6.0600
     6.1494   6.3232   6.3279   6.3530   6.3551   6.5920   6.6003   7.0120
     7.0162   7.0165   7.0171   7.1531   7.1612   7.2494   7.2538   7.2868
     7.2882   7.2909   7.2923   7.3364   7.3378   7.7535   7.7535   7.7545
     7.7642   8.2106   8.2107   8.2139   8.2147   8.5526   8.5581   8.6719
     8.6735   8.6768   8.6773   8.7082   8.7099   8.8875   8.8893   8.8894
     8.8923   8.9481   8.9487   9.2094   9.2096   9.2112   9.2119   9.2660
     9.2703   9.4222   9.4230   9.4253   9.4264   9.8399   9.8400   9.9692
     9.9720  10.1962  10.1976  10.5215  10.5252  10.5252  10.5253  10.6477
    10.6483  10.6501  10.6501  10.6788  10.8235  10.8359  10.8361  10.8883
    10.8942  10.9035  10.9043  10.9250  10.9254  10.9262  10.9277  11.0192
    11.0630  11.0639  11.4142  11.6948  11.8511  11.8534  11.8534  11.8605
    12.4084  12.4085  12.4127  12.4135  13.2075  13.7916  13.7939  14.3759
    14.3783  14.4631  14.4647  14.7617  14.7632  14.7787  14.7793  14.8127
    14.8134  15.3836  15.3836  15.3839  15.3846  15.3877  15.3882  15.3883
    15.3884  15.7313  15.7315  15.7323  15.7326  15.9440  15.9443  16.9113
    17.0579  17.0592  17.0600  17.0601  17.2033  17.4007  17.4025  17.4226
    17.4240  17.8047  17.8088  17.8099  17.8101  18.0428  18.0448  18.1572
    18.1604  18.1621  18.1622  18.3607  18.6868  18.6876  18.7543  18.7580
    18.7587  18.7594  18.8799  18.8813  18.8976  18.8985  19.2257  19.2265
    19.3186  19.3200  19.6224  19.6247  21.3582  21.3636  21.3642  21.3654
    21.4470  21.4511  21.4533  21.4539  21.5540  22.8864  22.8864  22.9202
    22.9234  23.0923  23.0940  23.4462  23.4566  23.4571  23.4581  23.5178
    23.5208  23.7569  23.7576  24.4041  24.4060  24.6279  24.6295  24.6302
    24.6324  25.3386  25.6713  25.6754  25.7376  25.9291  25.9298  25.9320
    25.9334  25.9589  25.9607  25.9657  25.9658  26.2472  26.3679  26.3718
    26.3727  26.3736  26.6400  26.6436  27.4474  27.4479  27.6444  27.6457
    28.0515  28.0562  28.2693  28.2778  28.2781  28.2782  28.4110  28.4123
    28.5691  28.5725  28.6686  28.6715  28.6722  28.6730  29.0117  29.0163
    29.0164  29.0173  29.4628  29.4644  29.6221  29.6238  29.8161  29.8161
    30.5229  30.6089  30.6095  31.2102  31.2139  31.2139  31.2144  32.2387
    32.2460  32.2467  32.2473  32.7951  32.7982  32.8348  32.8413  32.8441
    32.8457  32.8492  32.8500  32.9870  32.9922  33.1934  33.1954  33.8242
    34.0014  34.0048  34.1046  34.1092  34.2526  34.2542  34.8671  34.8691
    34.8728  34.8732  34.9488  35.0834  35.0845  35.0867  35.0883  35.3186
    35.3195  35.9349  35.9381  35.9392  35.9393  36.0632  36.0671  36.0974
    36.1000  36.1436  36.4246  36.4273  36.4293  36.4297  36.4963  36.5022
    36.7589  36.7638  37.3496  37.3603  37.3607  37.3609  37.4404  37.4427
    37.5111  37.5146  37.5299  37.9766  37.9773  37.9821  38.4413  38.4435
    38.5540  38.5572  38.5574  38.5594  38.7354  38.7363  38.7379  38.7411
    38.7667  38.7718  39.4191  39.4197  39.4208  39.4213  39.7547  39.7558
    39.9073  39.9095  40.1521  40.1539  40.1564  40.1573  40.5723  40.9968
    41.0015  41.1651  41.1679  41.1859  41.1898  42.1030  42.1106  42.1137
    42.1138  42.6568  42.6585  42.7708  42.7728  42.7769  42.7778  43.3240
    43.3282  43.3287  43.3309  43.3449  43.3462  43.3463  43.3479  43.5741
    43.8284  43.8338  43.8983  43.8992  44.0108  44.0139  44.2855  44.2930
    44.2932  44.2956  44.3315  44.4832  44.4844  44.7032  44.7066  44.9414
[...]
    47.6048  47.6056  47.6448  47.6462  48.0308  48.0318  48.2128  48.2181
    48.2189  48.2204  48.3625  48.3642  48.3703  48.3752  48.3758  48.3766
    48.9251  48.9310  48.9315  48.9316  49.0706  49.0724  49.2791  49.2810
    49.3881  49.3926  49.4749  49.4790  49.7670  49.7716  50.0861  50.0862
    50.1825  50.1833  50.1834  50.1846  50.7611  50.7619  50.7632  50.7652
    50.8802  50.8805  50.8821  50.8827  51.0955  51.0958  51.2626  51.2648
    51.4486  51.4488  51.4508  51.5356  51.5402  51.5422  51.5427  51.7699
    51.9102  52.1494  52.1502  52.1516  52.1533  52.3196  52.3197  52.3757
    52.3765  52.4627  52.4635  52.4650  52.4658  52.7836  52.8324  52.8439
    52.8482  52.8484  53.2696  53.3537  53.3586  53.4324  53.4348  53.4349
    53.4377  53.6457  53.6461  54.4429  54.4455  54.4558  54.4590  54.4591
    54.4605  54.4608  54.4610  54.7706  54.7749  54.7768  54.7789  54.8554
    54.8604  54.9445  54.9477  54.9488  54.9492  55.2187  55.2201  55.6142
    55.6190  55.6534  55.8030  55.8075  55.8504  55.8529  55.8553  55.8573
    55.8590  55.8606  56.1350  56.1382  56.2170  56.2215  56.2739  56.2760

[...]

          k =-0.5000-0.5000 0.0000 ( 15164 PWs)   bands (ev):

[...]

 ------ SPIN DOWN ----------

[...]

          k = 0.2500-0.5000-0.9235 ( 15168 PWs)   bands (ev):

[...]

          k =-0.2500 0.2500 0.9235 ( 15156 PWs)   bands (ev):

   -67.1743 -67.0279 -67.0277 -67.0276 -67.0275 -67.0274 -67.0273 -67.0272
   -67.0271 -67.0270 -67.0268 -67.0268 -67.0267 -67.0266 -67.0265 -67.0227
   -29.0766 -29.0752 -28.9752 -28.9636 -28.9626 -28.9610 -28.9563 -28.9558
   -28.9550 -28.9548 -28.9538 -28.9537 -28.9528 -28.9517 -28.9381 -28.9370
   -28.9369 -28.9366 -28.9342 -28.9338 -28.9326 -28.9305 -28.9162 -28.9159
   -28.9150 -28.9147 -28.9140 -28.9139 -28.9134 -28.9124 -28.9061 -28.9054
   -28.9042 -28.8376 -28.8375 -28.8347 -28.8347 -28.8345 -28.8343 -28.8338
   -28.8335 -28.8319 -28.8316 -28.8314 -28.8311 -28.8306 -28.8306 -28.8263
    -6.0338  -6.0324  -5.8231  -5.8194  -5.8191  -5.8187  -5.7149  -5.7128
    -5.5943  -5.5921  -5.5269  -5.5264  -5.5244  -5.5222  -5.3415  -5.3414
    -5.1437  -5.1432  -5.1418  -5.1411  -5.1291  -5.1276  -5.1270  -5.1251
    -5.1190  -5.1185  -5.1184  -5.1142  -5.0996  -5.0988  -5.0968  -5.0953
     5.8078   5.8120   5.8129   5.8130   5.8252   5.8283   5.8374   5.8380
     5.9567   5.9595   5.9843   5.9844   5.9856   5.9879   6.0146   6.0178
     6.7587   6.7648   6.8043   6.8081   7.0383   7.0401   7.0433   7.0450
     7.0461   7.0472   7.1940   7.1951   7.2990   7.3027   7.3029   7.3076
     7.3097   7.3136   7.6119   7.6154   7.6165   7.6197   7.9120   7.9132
     7.9261   7.9278   7.9283   7.9307   7.9450   7.9460   8.1876   8.1890
     8.1917   8.1924   8.4536   8.4542   8.4653   8.4666   8.4868   8.4881
     9.0396   9.0404   9.0411   9.0434   9.1581   9.1596   9.2249   9.2261
     9.3102   9.3119   9.3137   9.3152   9.3164   9.3173   9.3390   9.3442
     9.4358   9.4369   9.6386   9.6407   9.6413   9.6418   9.9627   9.9629
    10.1742  10.1748  10.4392  10.4412  10.5107  10.5123  10.5126  10.5134
    10.7921  10.7928  11.0731  11.0732  11.0736  11.0741  11.4079  11.4081
    13.2276  13.2283  13.2622  13.2644  13.2650  13.2651  13.4202  13.4203
    13.4812  13.4813  13.5766  13.5785  13.5788  13.5792  13.5815  13.5828
    13.6675  13.6725  13.8728  13.8765  14.0150  14.0176  14.0188  14.0201
    14.3558  14.3564  14.4549  14.4555  14.6968  14.6981  14.7033  14.7045
    14.7047  14.7057  15.2261  15.2266  15.2647  15.2649  15.2651  15.2652
    15.5153  15.5153  15.8450  15.8463  15.8466  15.8468  16.3639  16.3651
    17.1420  17.1435  17.1451  17.1451  17.7863  17.7871  17.8980  17.9001
    17.9276  17.9311  17.9318  17.9320  18.5410  18.5414  18.7593  18.7600
    18.8130  18.8137  19.0757  19.0784  19.4297  19.4340  19.4364  19.4364
    19.7382  19.7408  20.4321  20.4371  20.4373  20.4377  20.9316  20.9354
    21.2243  21.2256  22.3332  22.3363  22.3371  22.3383  22.8995  22.9008
    23.7015  23.7045  23.7066  23.7071  23.8183  23.8215  23.9116  23.9145
    24.4669  24.4697  25.0563  25.0602  25.1926  25.1960  25.1961  25.1966
    25.3363  25.3388  25.3850  25.3940  25.3942  25.3959  25.7325  25.7360
    26.8571  26.8617  27.4286  27.4332  27.4339  27.4361  27.6137  27.6152
    28.3995  28.4020  28.4023  28.4043  28.4383  28.4420  28.5921  28.5928
    28.8627  28.8650  28.8650  28.8652  28.9047  28.9066  28.9422  28.9438
    28.9656  28.9680  28.9682  28.9687  29.1982  29.1997  29.4312  29.4346
    29.6386  29.6397  29.6419  29.6433  29.8402  29.8423  29.9303  29.9330
    30.5007  30.5025  30.7811  30.7816  30.7820  30.7827  30.8949  30.8953
    30.9047  30.9067  30.9991  31.0011  31.9292  31.9313  31.9317  31.9336
    32.2795  32.2843  32.4574  32.4599  32.4610  32.4636  33.5185  33.5197
    33.5198  33.5206  33.5967  33.6027  33.6907  33.6938  34.3442  34.3463
    34.6691  34.6726  35.0375  35.0421  35.2581  35.2615  35.2631  35.2634
    36.0166  36.0181  36.4363  36.4383  36.4384  36.4397  36.4547  36.4561
    36.4870  36.4875  36.4901  36.4908  36.9466  36.9495  37.0004  37.0024
    37.0046  37.0053  37.4144  37.4185  37.5405  37.5419  37.6894  37.6904
    38.0658  38.0659  38.0689  38.0691  38.3091  38.3094  38.3355  38.3364
    38.7214  38.7247  38.8519  38.8525  39.0138  39.0169  39.2023  39.2038
    39.2042  39.2061  39.3469  39.3473  39.3524  39.3552  39.3555  39.3564
    39.7234  39.7264  39.8364  39.8391  40.1303  40.1322  40.2641  40.2652
    40.2654  40.2675  41.0190  41.0202  41.0234  41.0257  41.4187  41.4231
    41.5611  41.5634  41.9551  41.9591  41.9595  41.9608  42.0154  42.0159
    42.5326  42.5361  43.1431  43.1436  43.1441  43.1446  43.2988  43.3001
    43.4073  43.4092  43.4098  43.4101  43.4465  43.4479  43.5348  43.5348
    43.8315  43.8374  43.9896  43.9977  44.0001  44.0007  44.0748  44.0761
[...]
    48.2074  48.2110  48.2963  48.2989  48.4052  48.4092  48.4105  48.4123
    48.6429  48.6461  48.8298  48.8336  48.9452  48.9466  48.9472  48.9472
    49.0184  49.0192  49.1062  49.1069  49.1768  49.1770  49.1795  49.1799
    49.2084  49.2092  49.2898  49.2916  49.5902  49.5985  49.5989  49.5994
    49.6766  49.6769  49.7846  49.7874  49.7890  49.7916  49.9163  49.9186
    50.0899  50.0953  50.4770  50.4780  50.4782  50.4788  50.8708  50.8715
    50.8807  50.8816  50.8834  50.8848  51.1951  51.1968  51.7372  51.7375
    51.7403  51.7416  51.7417  51.7429  52.0850  52.0870  52.1348  52.1366
    52.1373  52.1383  52.3430  52.3435  52.3612  52.3619  52.3762  52.3762
    52.8602  52.8635  52.9400  52.9401  52.9418  52.9431  53.2428  53.2432
    53.2445  53.2473  53.4188  53.4193  53.6402  53.6405  53.8021  53.8036
    53.8048  53.8053  53.9078  53.9128  54.3163  54.3217  54.5979  54.5993
    54.9975  54.9977  55.0005  55.0014  55.1315  55.1318  55.2309  55.2313
    55.2325  55.2338  55.4315  55.4323  55.4653  55.4669  55.5063  55.5074
    56.0917  56.0930  56.0939  56.0947  56.2182  56.2183  56.4334  56.4341

     the Fermi energy is    14.7647 ev

!    total energy              =   -4148.25692592 Ry
     Harris-Foulkes estimate   =   -4148.25692650 Ry
     estimated scf accuracy    <       0.00000061 Ry

     The total energy is the sum of the following terms:

     one-electron contribution =   -1009.75652797 Ry
     hartree contribution      =     745.80049582 Ry
     xc contribution           =   -1140.44990174 Ry
     ewald contribution        =   -2743.92224506 Ry
     Hubbard energy            =       0.07150726 Ry
     smearing contrib. (-TS)   =      -0.00025423 Ry

     total magnetization       =     0.00 Bohr mag/cell
     absolute magnetization    =     0.00 Bohr mag/cell

     convergence has been achieved in  16 iterations

     Writing output data file pwscf.save

     General routines

     Parallel routines
     Hubbard U routines

   This run was terminated on:  16: 4: 9  15Feb2014

   JOB DONE.