     Program PWSCF v.5.0.2 (svn rev. 9656) starts on 14Feb2014 at 15:27:18

     Current dimensions of program PWSCF are:
     Max number of different atomic species (ntypx) = 10
     Max number of k-points (npk) =  40000
     Max angular momentum in pseudopotentials (lmaxx) =  3
     Reading input from alpha_-0.07/alpha_-0.07.in
Warning: card &IONS ignored
Warning: card / ignored
Warning: card &CELL ignored
Warning: card / ignored

     Subspace diagonalization in iterative solution of the eigenvalue problem:
     a serial algorithm will be used

     bravais-lattice index     =            0
     lattice parameter (alat)  =      18.7083  a.u.
     unit-cell volume          =    3545.1269 (a.u.)^3
     number of atoms/cell      =           48
     number of atomic types    =            3
     number of electrons       =       432.00
     number of Kohn-Sham states=          648
     kinetic-energy cutoff     =      40.0000  Ry
     charge density cutoff     =     500.0000  Ry
     convergence threshold     =      1.0E-06
     mixing beta               =       0.7000
     number of iterations used =            8  plain     mixing
     Exchange-correlation      = SLA  PW   PBE  PBE ( 1 4 3 4 0)
     EXX-fraction              =        0.00

     celldm(1)=  18.708289  celldm(2)=   0.000000  celldm(3)=   0.000000
     celldm(4)=   0.000000  celldm(5)=   0.000000  celldm(6)=   0.000000

     crystal axes: (cart. coord. in units of alat)
               a(1) = (   1.000000   0.000000   0.000000 )
               a(2) = (   0.000000   1.000000   0.000000 )
               a(3) = (   0.000000   0.000000   0.541414 )

     reciprocal axes: (cart. coord. in units 2 pi/alat)
               b(1) = (  1.000000  0.000000  0.000000 )
               b(2) = (  0.000000  1.000000  0.000000 )
               b(3) = (  0.000000  0.000000  1.847015 )

     PseudoPot. # 1 for Re read from file:
     /home/camp/zhonxu/pseudo/re_pbe_v1.uspp.F.UPF
     MD5 check sum: 6f5a5dcaf9c96c20d0ffdde0de57afc6
     Pseudo is Ultrasoft + core correction, Zval = 15.0
     Generated by new atomic code, or converted to UPF format
     Using radial grid of  981 points,  8 beta functions with:
                l(1) =   0
                l(2) =   0
                l(3) =   1
                l(4) =   1
                l(5) =   2
                l(6) =   2
                l(7) =   3
                l(8) =   3
     Q(r) pseudized with  8 coefficients,  rinner =    1.000   1.000   1.000
                                                       1.000   1.000   1.000
                                                       1.000

     PseudoPot. # 2 for Re read from file:
     /home/camp/zhonxu/pseudo/re_pbe_v1.uspp.F.UPF
     MD5 check sum: 6f5a5dcaf9c96c20d0ffdde0de57afc6
     Pseudo is Ultrasoft + core correction, Zval = 15.0
     Generated by new atomic code, or converted to UPF format
     Using radial grid of  981 points,  8 beta functions with:
                l(1) =   0
                l(2) =   0
                l(3) =   1
                l(4) =   1
                l(5) =   2
                l(6) =   2
                l(7) =   3
                l(8) =   3
     Q(r) pseudized with  8 coefficients,  rinner =    1.000   1.000   1.000
                                                       1.000   1.000   1.000
                                                       1.000

     PseudoPot. # 3 for O  read from file:
     /home/camp/zhonxu/pseudo/o_pbe_v1.01.uspp.F.UPF
     MD5 check sum: 2bcb18d16ea4b960afae9ec6d52f22d2
     Pseudo is Ultrasoft + core correction, Zval =  6.0
     Generated by new atomic code, or converted to UPF format
     Using radial grid of  737 points,  5 beta functions with:
                l(1) =   0
                l(2) =   0
                l(3) =   1
                l(4) =   1
                l(5) =   2
     Q(r) pseudized with  8 coefficients,  rinner =    0.900   0.900   0.900
                                                       0.900   0.900

     atomic species   valence    mass     pseudopotential
        Re0           15.00   186.20700     Re( 1.00)
        Re1           15.00   186.20700     Re( 1.00)
        O2             6.00    15.99940     O ( 1.00)

     Starting magnetic structure
     atomic species   magnetization
        Re0          0.000
        Re1          0.000
        O2           0.000

     Simplified LDA+U calculation (l_max = 2) with parameters (eV):
     atomic species    L          U    alpha       J0     beta
        Re0            2     0.0000  -0.0700   0.0000   0.0000
        Re1            2     0.0000   0.0000   0.0000   0.0000
        O2             1     0.0000   0.0000   0.0000   0.0000

      8 Sym. Ops., with inversion, found

   Cartesian axes

     site n.     atom                  positions (alat units)
         1           Re0 tau(   1) = (   0.0000000   0.0000000   0.0000000  )
         2           Re1 tau(   2) = (   0.2500000   0.2500000   0.1353535  )
         3           Re1 tau(   3) = (   0.0000000   0.0000000   0.2707071  )
         4           Re1 tau(   4) = (   0.2500000   0.2500000   0.4060606  )
         5           Re1 tau(   5) = (   0.0000000   0.5000000   0.0000000  )
         6           Re1 tau(   6) = (   0.2500000   0.7500000   0.1353535  )
         7           Re1 tau(   7) = (   0.0000000   0.5000000   0.2707071  )
         8           Re1 tau(   8) = (   0.2500000   0.7500000   0.4060606  )
         9           Re1 tau(   9) = (   0.5000000   0.0000000   0.0000000  )
        10           Re1 tau(  10) = (   0.7500000   0.2500000   0.1353535  )
        11           Re1 tau(  11) = (   0.5000000   0.0000000   0.2707071  )
        12           Re1 tau(  12) = (   0.7500000   0.2500000   0.4060606  )
        13           Re1 tau(  13) = (   0.5000000   0.5000000   0.0000000  )
        14           Re1 tau(  14) = (   0.7500000   0.7500000   0.1353535  )
        15           Re1 tau(  15) = (   0.5000000   0.5000000   0.2707071  )
        16           Re1 tau(  16) = (   0.7500000   0.7500000   0.4060606  )
        17           O2  tau(  17) = (   0.1400000   0.1400000   0.0000000  )
        18           O2  tau(  18) = (  -0.1400000  -0.1400000   0.0000000  )
        19           O2  tau(  19) = (   0.3900000   0.1100000   0.1353535  )
        20           O2  tau(  20) = (   0.1100000   0.3900000   0.1353535  )
        21           O2  tau(  21) = (   0.1400000   0.1400000   0.2707071  )
        22           O2  tau(  22) = (  -0.1400000  -0.1400000   0.2707071  )
        23           O2  tau(  23) = (   0.3900000   0.1100000   0.4060606  )
        24           O2  tau(  24) = (   0.1100000   0.3900000   0.4060606  )
        25           O2  tau(  25) = (   0.1400000   0.6400000   0.0000000  )
        26           O2  tau(  26) = (  -0.1400000   0.3600000   0.0000000  )
        27           O2  tau(  27) = (   0.3900000   0.6100000   0.1353535  )
        28           O2  tau(  28) = (   0.1100000   0.8900000   0.1353535  )
        29           O2  tau(  29) = (   0.1400000   0.6400000   0.2707071  )
        30           O2  tau(  30) = (  -0.1400000   0.3600000   0.2707071  )
        31           O2  tau(  31) = (   0.3900000   0.6100000   0.4060606  )
        32           O2  tau(  32) = (   0.1100000   0.8900000   0.4060606  )
        33           O2  tau(  33) = (   0.6400000   0.1400000   0.0000000  )
        34           O2  tau(  34) = (   0.3600000  -0.1400000   0.0000000  )
        35           O2  tau(  35) = (   0.8900000   0.1100000   0.1353535  )
        36           O2  tau(  36) = (   0.6100000   0.3900000   0.1353535  )
        37           O2  tau(  37) = (   0.6400000   0.1400000   0.2707071  )
        38           O2  tau(  38) = (   0.3600000  -0.1400000   0.2707071  )
        39           O2  tau(  39) = (   0.8900000   0.1100000   0.4060606  )
        40           O2  tau(  40) = (   0.6100000   0.3900000   0.4060606  )
        41           O2  tau(  41) = (   0.6400000   0.6400000   0.0000000  )
        42           O2  tau(  42) = (   0.3600000   0.3600000   0.0000000  )
        43           O2  tau(  43) = (   0.8900000   0.6100000   0.1353535  )
        44           O2  tau(  44) = (   0.6100000   0.8900000   0.1353535  )
        45           O2  tau(  45) = (   0.6400000   0.6400000   0.2707071  )
        46           O2  tau(  46) = (   0.3600000   0.3600000   0.2707071  )
        47           O2  tau(  47) = (   0.8900000   0.6100000   0.4060606  )
        48           O2  tau(  48) = (   0.6100000   0.8900000   0.4060606  )

     number of k points=    42  Methfessel-Paxton smearing, width (Ry)=  0.0100
                       cart. coord. in units 2pi/alat
        k(    1) = (   0.0000000   0.0000000   0.0000000), wk =   0.0156250
        k(    2) = (   0.0000000   0.0000000   0.4617537), wk =   0.0312500
        k(    3) = (   0.0000000   0.0000000  -0.9235075), wk =   0.0156250
        k(    4) = (   0.0000000   0.2500000   0.0000000), wk =   0.0625000
        k(    5) = (   0.0000000   0.2500000   0.4617537), wk =   0.1250000
        k(    6) = (   0.0000000   0.2500000  -0.9235075), wk =   0.0625000
        k(    7) = (   0.0000000  -0.5000000   0.0000000), wk =   0.0312500
        k(    8) = (   0.0000000  -0.5000000   0.4617537), wk =   0.0625000
        k(    9) = (   0.0000000  -0.5000000  -0.9235075), wk =   0.0312500
        k(   10) = (   0.2500000   0.2500000   0.0000000), wk =   0.0312500
        k(   11) = (   0.2500000   0.2500000   0.4617537), wk =   0.0625000
        k(   12) = (   0.2500000   0.2500000  -0.9235075), wk =   0.0312500
        k(   13) = (   0.2500000  -0.5000000   0.0000000), wk =   0.0625000
        k(   14) = (   0.2500000  -0.5000000   0.4617537), wk =   0.1250000
        k(   15) = (   0.2500000  -0.5000000  -0.9235075), wk =   0.0625000
        k(   16) = (  -0.5000000  -0.5000000   0.0000000), wk =   0.0156250
        k(   17) = (  -0.5000000  -0.5000000   0.4617537), wk =   0.0312500
        k(   18) = (  -0.5000000  -0.5000000  -0.9235075), wk =   0.0156250
        k(   19) = (  -0.2500000   0.2500000   0.0000000), wk =   0.0312500
        k(   20) = (  -0.2500000   0.2500000  -0.4617537), wk =   0.0625000
        k(   21) = (  -0.2500000   0.2500000   0.9235075), wk =   0.0312500
        k(   22) = (   0.0000000   0.0000000   0.0000000), wk =   0.0156250
        k(   23) = (   0.0000000   0.0000000   0.4617537), wk =   0.0312500
        k(   24) = (   0.0000000   0.0000000  -0.9235075), wk =   0.0156250
        k(   25) = (   0.0000000   0.2500000   0.0000000), wk =   0.0625000
        k(   26) = (   0.0000000   0.2500000   0.4617537), wk =   0.1250000
        k(   27) = (   0.0000000   0.2500000  -0.9235075), wk =   0.0625000
        k(   28) = (   0.0000000  -0.5000000   0.0000000), wk =   0.0312500
        k(   29) = (   0.0000000  -0.5000000   0.4617537), wk =   0.0625000
        k(   30) = (   0.0000000  -0.5000000  -0.9235075), wk =   0.0312500
        k(   31) = (   0.2500000   0.2500000   0.0000000), wk =   0.0312500
        k(   32) = (   0.2500000   0.2500000   0.4617537), wk =   0.0625000
        k(   33) = (   0.2500000   0.2500000  -0.9235075), wk =   0.0312500
[...]
    eigenvectors:
  0.000  1.000  0.000
  0.500  0.000  0.500
  0.500  0.000  0.500
    occupations:
  0.908 -0.000 -0.000
 -0.000  0.907 -0.003
 -0.000 -0.003  0.907
   spin  2
    eigenvalues:
  0.904  0.908  0.911
    eigenvectors:
  0.000  1.000  0.000
  0.500  0.000  0.500
  0.500  0.000  0.500
    occupations:
  0.908 -0.000 -0.000
 -0.000  0.907 -0.003
 -0.000 -0.003  0.907
atomic mag. moment =     0.000000
atom   42   Tr[ns(na)] (up, down, total) =   2.72339  2.72339  5.44679
   spin  1
    eigenvalues:
  0.904  0.908  0.911
    eigenvectors:
  0.000  1.000  0.000
  0.500  0.000  0.500
  0.500  0.000  0.500
    occupations:
  0.908 -0.000 -0.000
 -0.000  0.907 -0.003
 -0.000 -0.003  0.907
   spin  2
    eigenvalues:
  0.904  0.908  0.911
    eigenvectors:
  0.000  1.000  0.000
  0.500  0.000  0.500
  0.500  0.000  0.500
    occupations:
  0.908 -0.000 -0.000
 -0.000  0.907 -0.003
 -0.000 -0.003  0.907
atomic mag. moment =     0.000000
atom   43   Tr[ns(na)] (up, down, total) =   2.72339  2.72339  5.44677
   spin  1
    eigenvalues:
  0.904  0.908  0.911
    eigenvectors:
  0.000  1.000  0.000
  0.500  0.000  0.500
  0.500  0.000  0.500
    occupations:
  0.908  0.000 -0.000
  0.000  0.907  0.003
 -0.000  0.003  0.907
   spin  2
    eigenvalues:
  0.904  0.908  0.911
    eigenvectors:
  0.000  1.000  0.000
  0.500  0.000  0.500
  0.500  0.000  0.500
    occupations:
  0.908  0.000 -0.000
  0.000  0.907  0.003
 -0.000  0.003  0.907
atomic mag. moment =     0.000000
atom   44   Tr[ns(na)] (up, down, total) =   2.72339  2.72339  5.44677
   spin  1
    eigenvalues:
  0.904  0.908  0.911
    eigenvectors:
  0.000  1.000  0.000
  0.500  0.000  0.500
  0.500  0.000  0.500
    occupations:
  0.908 -0.000  0.000
 -0.000  0.907  0.003
  0.000  0.003  0.907
   spin  2
    eigenvalues:
  0.904  0.908  0.911
    eigenvectors:
  0.000  1.000  0.000
  0.500  0.000  0.500
  0.500  0.000  0.500
    occupations:
  0.908 -0.000  0.000
 -0.000  0.907  0.003
  0.000  0.003  0.907
atomic mag. moment =     0.000000
atom   45   Tr[ns(na)] (up, down, total) =   2.72338  2.72338  5.44677
   spin  1
    eigenvalues:
  0.904  0.908  0.911
    eigenvectors:
  0.000  1.000  0.000
  0.500  0.000  0.500
  0.500  0.000  0.500
    occupations:
  0.908 -0.000 -0.000
 -0.000  0.907 -0.003
 -0.000 -0.003  0.907
   spin  2
    eigenvalues:
  0.904  0.908  0.911
    eigenvectors:
  0.000  1.000  0.000
  0.500  0.000  0.500
  0.500  0.000  0.500
    occupations:
  0.908 -0.000 -0.000
 -0.000  0.907 -0.003
 -0.000 -0.003  0.907
atomic mag. moment =     0.000000
atom   46   Tr[ns(na)] (up, down, total) =   2.72338  2.72338  5.44677
   spin  1
    eigenvalues:
  0.904  0.908  0.911
    eigenvectors:
  0.000  1.000  0.000
  0.500  0.000  0.500
  0.500  0.000  0.500
    occupations:
  0.908 -0.000 -0.000
 -0.000  0.907 -0.003
 -0.000 -0.003  0.907
   spin  2
    eigenvalues:
  0.904  0.908  0.911
    eigenvectors:
  0.000  1.000  0.000
  0.500  0.000  0.500
  0.500  0.000  0.500
    occupations:
  0.908 -0.000 -0.000
 -0.000  0.907 -0.003
 -0.000 -0.003  0.907
atomic mag. moment =     0.000000
atom   47   Tr[ns(na)] (up, down, total) =   2.72339  2.72339  5.44677
   spin  1
    eigenvalues:
  0.904  0.908  0.911
    eigenvectors:
  0.000  1.000  0.000
  0.500  0.000  0.500
  0.500  0.000  0.500
    occupations:
  0.908 -0.000  0.000
 -0.000  0.907  0.003
  0.000  0.003  0.907
   spin  2
    eigenvalues:
  0.904  0.908  0.911
    eigenvectors:
  0.000  1.000  0.000
  0.500  0.000  0.500
  0.500  0.000  0.500
    occupations:
  0.908 -0.000  0.000
 -0.000  0.907  0.003
  0.000  0.003  0.907
atomic mag. moment =     0.000000
atom   48   Tr[ns(na)] (up, down, total) =   2.72339  2.72339  5.44677
   spin  1
    eigenvalues:
  0.904  0.908  0.911
    eigenvectors:
  0.000  1.000  0.000
  0.500  0.000  0.500
  0.500  0.000  0.500
    occupations:
  0.908  0.000 -0.000
  0.000  0.907  0.003
 -0.000  0.003  0.907
   spin  2
    eigenvalues:
  0.904  0.908  0.911
    eigenvectors:
  0.000  1.000  0.000
  0.500  0.000  0.500
  0.500  0.000  0.500
    occupations:
  0.908  0.000 -0.000
  0.000  0.907  0.003
 -0.000  0.003  0.907
atomic mag. moment =     0.000000
N of occupied +U levels = 278.5223277
 --- exit write_ns ---

 ------ SPIN UP ------------

          k = 0.0000 0.0000 0.0000 ( 15161 PWs)   bands (ev):

   -67.0618 -67.0613 -67.0610 -67.0609 -67.0609 -67.0608 -67.0602 -67.0452
   -67.0060 -67.0060 -67.0056 -67.0056 -67.0056 -67.0055 -67.0055 -66.9551
   -29.2671 -29.2667 -29.2665 -29.2661 -29.2656 -29.2653 -29.2651 -29.2364
   -29.0413 -29.0408 -29.0354 -29.0336 -29.0131 -29.0127 -29.0124 -28.9986
   -28.9820 -28.9817 -28.9816 -28.9733 -28.9550 -28.9546 -28.9487 -28.9446
   -28.8952 -28.8948 -28.8947 -28.8940 -28.8937 -28.8935 -28.8935 -28.8715
   -28.8711 -28.8710 -28.8706 -28.8706 -28.8706 -28.8702 -28.8504 -28.8318
   -28.3984 -28.3927 -28.3925 -28.3925 -28.3923 -28.3921 -28.3865 -28.3594
    -6.7980  -6.2281  -6.2253  -6.0000  -5.9995  -5.9990  -5.9979  -5.7367
    -5.7120  -5.7083  -5.7075  -5.7074  -5.3283  -5.3251  -5.3247  -5.3238
    -5.3216  -5.3184  -5.2722  -5.2695  -5.0969  -5.0956  -5.0345  -5.0330
    -5.0195  -5.0193  -4.9380  -4.9377  -4.5606  -4.5606  -4.5591  -4.5587
     4.5596   4.8103   4.8122   5.0678   5.5149   5.5164   5.5167   5.5169
     5.7485   5.7499   5.7518   5.7520   6.0459   6.0485   6.0486   6.0504
     6.1373   6.3180   6.3201   6.3492   6.3501   6.5851   6.5890   7.0102
     7.0103   7.0105   7.0124   7.1462   7.1498   7.2450   7.2470   7.2823
     7.2834   7.2842   7.2852   7.3331   7.3337   7.7447   7.7493   7.7497
     7.7498   8.2093   8.2098   8.2113   8.2113   8.5458   8.5483   8.6659
     8.6666   8.6748   8.6750   8.7022   8.7029   8.8823   8.8835   8.8836
     8.8846   8.9460   8.9463   9.2028   9.2032   9.2039   9.2040   9.2606
     9.2625   9.4210   9.4215   9.4227   9.4230   9.8371   9.8371   9.9642
     9.9654  10.1928  10.1934  10.5195  10.5196  10.5196  10.5212  10.6451
    10.6452  10.6461  10.6463  10.6758  10.8141  10.8327  10.8328  10.8801
    10.8828  10.9000  10.9004  10.9215  10.9222  10.9225  10.9227  11.0096
    11.0601  11.0605  11.4109  11.6902  11.8443  11.8474  11.8476  11.8487
    12.4005  12.4009  12.4028  12.4029  13.1996  13.7864  13.7874  14.3702
    14.3712  14.4578  14.4585  14.7562  14.7568  14.7726  14.7728  14.8067
    14.8069  15.3789  15.3790  15.3793  15.3794  15.3826  15.3827  15.3828
    15.3829  15.7265  15.7266  15.7267  15.7271  15.9391  15.9392  16.9064
    17.0539  17.0541  17.0543  17.0551  17.1997  17.3975  17.3982  17.4192
    17.4200  17.8038  17.8040  17.8045  17.8064  18.0398  18.0407  18.1560
    18.1562  18.1570  18.1584  18.3596  18.6847  18.6851  18.7535  18.7536
    18.7541  18.7560  18.8771  18.8776  18.8942  18.8948  19.2219  19.2223
    19.3153  19.3160  19.6203  19.6215  21.3600  21.3606  21.3608  21.3634
    21.4478  21.4481  21.4491  21.4510  21.5512  22.8844  22.8844  22.9224
    22.9238  23.0925  23.0934  23.4530  23.4534  23.4537  23.4586  23.5179
    23.5193  23.7562  23.7565  24.4037  24.4047  24.6285  24.6295  24.6298
    24.6306  25.3390  25.6726  25.6745  25.7372  25.9294  25.9301  25.9310
    25.9312  25.9608  25.9608  25.9631  25.9642  26.2450  26.3697  26.3702
    26.3705  26.3723  26.6410  26.6428  27.4462  27.4465  27.6427  27.6433
    28.0528  28.0549  28.2750  28.2751  28.2753  28.2793  28.4122  28.4126
    28.5696  28.5712  28.6706  28.6710  28.6714  28.6726  29.0140  29.0144
    29.0144  29.0166  29.4635  29.4643  29.6219  29.6227  29.8155  29.8155
    30.5232  30.6090  30.6092  31.2119  31.2122  31.2122  31.2139  32.2437
    32.2440  32.2443  32.2477  32.7961  32.7975  32.8408  32.8416  32.8428
    32.8456  32.8499  32.8503  32.9884  32.9912  33.1954  33.1964  33.8235
    34.0019  34.0036  34.1061  34.1083  34.2537  34.2545  34.8691  34.8694
    34.8710  34.8720  34.9501  35.0847  35.0855  35.0865  35.0870  35.3180
    35.3184  35.9366  35.9366  35.9372  35.9386  36.0648  36.0666  36.0985
    36.0998  36.1433  36.4270  36.4272  36.4281  36.4295  36.4988  36.5015
    36.7605  36.7629  37.3572  37.3572  37.3575  37.3625  37.4405  37.4416
    37.5122  37.5138  37.5292  37.9757  37.9760  37.9823  38.4415  38.4426
    38.5555  38.5565  38.5566  38.5580  38.7369  38.7384  38.7392  38.7397
    38.7680  38.7705  39.4197  39.4199  39.4204  39.4208  39.7547  39.7552
    39.9086  39.9097  40.1532  40.1536  40.1548  40.1557  40.5728  40.9987
    41.0009  41.1652  41.1665  41.1874  41.1892  42.1094  42.1095  42.1110
    42.1144  42.6568  42.6576  42.7734  42.7738  42.7757  42.7766  43.3268
    43.3277  43.3280  43.3300  43.3451  43.3458  43.3459  43.3464  43.5753
    43.8307  43.8332  43.8989  43.8993  44.0113  44.0128  44.2907  44.2917
    44.2918  44.2954  44.3323  44.4835  44.4840  44.7052  44.7068  44.9411
[...]
    47.6043  47.6046  47.6464  47.6471  48.0316  48.0320  48.2163  48.2170
    48.2174  48.2200  48.3664  48.3693  48.3712  48.3716  48.3718  48.3777
    48.9294  48.9295  48.9298  48.9325  49.0714  49.0722  49.2804  49.2814
    49.3895  49.3916  49.4755  49.4777  49.7690  49.7712  50.0861  50.0862
    50.1823  50.1829  50.1829  50.1833  50.7621  50.7630  50.7636  50.7640
    50.8805  50.8808  50.8816  50.8818  51.0950  51.0952  51.2645  51.2655
    51.4495  51.4496  51.4517  51.5404  51.5407  51.5417  51.5438  51.7698
    51.9082  52.1504  52.1512  52.1520  52.1523  52.3196  52.3196  52.3762
    52.3766  52.4633  52.4637  52.4644  52.4648  52.7845  52.8427  52.8428
    52.8447  52.8502  53.2681  53.3555  53.3579  53.4330  53.4343  53.4345
    53.4355  53.6461  53.6463  54.4443  54.4445  54.4575  54.4583  54.4585
    54.4609  54.4610  54.4611  54.7743  54.7753  54.7763  54.7778  54.8576
    54.8604  54.9468  54.9470  54.9475  54.9489  55.2177  55.2184  55.6164
    55.6184  55.6541  55.8054  55.8072  55.8519  55.8534  55.8575  55.8582
    55.8590  55.8598  56.1372  56.1388  56.2189  56.2212  56.2742  56.2751

[...]

          k =-0.5000-0.5000 0.0000 ( 15164 PWs)   bands (ev):

[...]

 ------ SPIN DOWN ----------

[...]

          k = 0.2500-0.5000-0.9235 ( 15168 PWs)   bands (ev):

[...]

          k =-0.2500 0.2500 0.9235 ( 15156 PWs)   bands (ev):

   -67.0350 -67.0340 -67.0340 -67.0338 -67.0337 -67.0337 -67.0336 -67.0334
   -67.0333 -67.0333 -67.0331 -67.0331 -67.0329 -67.0328 -67.0326 -66.9646
   -28.9703 -28.9691 -28.9677 -28.9632 -28.9630 -28.9625 -28.9613 -28.9613
   -28.9610 -28.9601 -28.9595 -28.9459 -28.9439 -28.9434 -28.9432 -28.9431
   -28.9406 -28.9404 -28.9400 -28.9250 -28.9230 -28.9225 -28.9212 -28.9212
   -28.9209 -28.9202 -28.9197 -28.9129 -28.9118 -28.9109 -28.8733 -28.8702
   -28.8447 -28.8437 -28.8416 -28.8409 -28.8407 -28.8400 -28.8400 -28.8399
   -28.8397 -28.8381 -28.8375 -28.8368 -28.8368 -28.8364 -28.8352 -28.7767
    -6.0373  -6.0367  -5.8244  -5.8242  -5.8241  -5.8224  -5.7224  -5.7213
    -5.5975  -5.5965  -5.5341  -5.5329  -5.5320  -5.5318  -5.3494  -5.3493
    -5.1498  -5.1489  -5.1461  -5.1454  -5.1329  -5.1318  -5.1316  -5.1309
    -5.1260  -5.1237  -5.1236  -5.1233  -5.1071  -5.1071  -5.1002  -5.0993
     5.8071   5.8072   5.8072   5.8093   5.8216   5.8229   5.8300   5.8306
     5.9538   5.9552   5.9765   5.9781   5.9785   5.9786   6.0073   6.0085
     6.7536   6.7566   6.7983   6.8000   7.0346   7.0353   7.0366   7.0379
     7.0380   7.0391   7.1881   7.1887   7.2943   7.2971   7.2972   7.2990
     7.3012   7.3037   7.6084   7.6097   7.6102   7.6120   7.9072   7.9077
     7.9205   7.9217   7.9220   7.9227   7.9394   7.9400   8.1829   8.1832
     8.1844   8.1851   8.4501   8.4503   8.4588   8.4594   8.4828   8.4834
     9.0356   9.0367   9.0371   9.0374   9.1541   9.1549   9.2169   9.2176
     9.3075   9.3085   9.3094   9.3101   9.3117   9.3117   9.3342   9.3366
     9.4331   9.4337   9.6350   9.6353   9.6355   9.6365   9.9580   9.9581
    10.1696  10.1699  10.4359  10.4368  10.5072  10.5076  10.5077  10.5085
    10.7886  10.7889  11.0692  11.0694  11.0696  11.0696  11.4042  11.4043
    13.2195  13.2199  13.2561  13.2563  13.2567  13.2576  13.4150  13.4150
    13.4760  13.4760  13.5703  13.5725  13.5728  13.5734  13.5740  13.5742
    13.6617  13.6640  13.8662  13.8679  14.0105  14.0112  14.0117  14.0129
    14.3512  14.3515  14.4502  14.4504  14.6904  14.6913  14.6987  14.6990
    14.6990  14.6998  15.2203  15.2206  15.2597  15.2598  15.2599  15.2600
    15.5102  15.5102  15.8412  15.8414  15.8415  15.8419  16.3598  16.3603
    17.1389  17.1390  17.1399  17.1405  17.7826  17.7829  17.8947  17.8955
    17.9260  17.9262  17.9265  17.9280  18.5380  18.5382  18.7553  18.7556
    18.8089  18.8092  19.0731  19.0743  19.4308  19.4309  19.4320  19.4338
    19.7367  19.7379  20.4323  20.4326  20.4326  20.4348  20.9310  20.9328
    21.2227  21.2233  22.3332  22.3337  22.3341  22.3355  22.8991  22.8997
    23.7026  23.7028  23.7038  23.7050  23.8172  23.8186  23.9121  23.9134
    24.4661  24.4674  25.0577  25.0593  25.1923  25.1925  25.1926  25.1941
    25.3359  25.3370  25.3915  25.3923  25.3924  25.3966  25.7325  25.7342
    26.8574  26.8594  27.4322  27.4332  27.4335  27.4355  27.6142  27.6150
    28.4002  28.4011  28.4012  28.4020  28.4384  28.4403  28.5917  28.5920
    28.8642  28.8642  28.8643  28.8650  28.9041  28.9050  28.9401  28.9410
    28.9658  28.9660  28.9661  28.9672  29.1977  29.1984  29.4353  29.4368
    29.6403  29.6409  29.6419  29.6424  29.8406  29.8416  29.9311  29.9323
    30.5041  30.5049  30.7812  30.7814  30.7816  30.7819  30.8957  30.8958
    30.9028  30.9037  30.9993  31.0002  31.9307  31.9315  31.9318  31.9327
    32.2806  32.2828  32.4617  32.4629  32.4634  32.4645  33.5183  33.5186
    33.5187  33.5192  33.6008  33.6035  33.6903  33.6919  34.3477  34.3486
    34.6684  34.6700  35.0401  35.0421  35.2616  35.2617  35.2625  35.2641
    36.0150  36.0156  36.4379  36.4384  36.4386  36.4394  36.4539  36.4547
    36.4872  36.4875  36.4887  36.4889  36.9513  36.9527  37.0026  37.0029
    37.0039  37.0048  37.4155  37.4174  37.5407  37.5413  37.6909  37.6914
    38.0666  38.0666  38.0680  38.0681  38.3130  38.3132  38.3355  38.3359
    38.7240  38.7255  38.8506  38.8509  39.0148  39.0162  39.2036  39.2045
    39.2046  39.2053  39.3464  39.3465  39.3539  39.3542  39.3544  39.3556
    39.7228  39.7241  39.8360  39.8372  40.1312  40.1320  40.2651  40.2661
    40.2662  40.2666  41.0228  41.0239  41.0254  41.0259  41.4220  41.4240
    41.5625  41.5636  41.9596  41.9602  41.9603  41.9622  42.0134  42.0137
    42.5347  42.5362  43.1420  43.1422  43.1424  43.1427  43.2982  43.2987
    43.4065  43.4066  43.4070  43.4079  43.4468  43.4475  43.5330  43.5330
    43.8367  43.8391  43.9973  43.9976  43.9988  44.0027  44.0746  44.0752
[...]
    48.2087  48.2103  48.2983  48.2993  48.4107  48.4114  48.4121  48.4140
    48.6441  48.6456  48.8334  48.8351  48.9436  48.9436  48.9440  48.9446
    49.0194  49.0197  49.1052  49.1055  49.1770  49.1771  49.1782  49.1783
    49.2060  49.2064  49.2910  49.2920  49.5963  49.5966  49.5968  49.6007
    49.6741  49.6742  49.7885  49.7897  49.7904  49.7917  49.9172  49.9183
    50.0926  50.0952  50.4777  50.4780  50.4781  50.4786  50.8699  50.8700
    50.8827  50.8837  50.8843  50.8846  51.1960  51.1968  51.7382  51.7388
    51.7400  51.7401  51.7427  51.7431  52.0850  52.0859  52.1352  52.1356
    52.1360  52.1368  52.3429  52.3431  52.3607  52.3611  52.3751  52.3751
    52.8624  52.8639  52.9404  52.9409  52.9417  52.9418  53.2438  53.2451
    53.2457  53.2459  53.4176  53.4178  53.6411  53.6412  53.8033  53.8035
    53.8040  53.8048  53.9093  53.9117  54.3193  54.3218  54.5982  54.5988
    54.9993  54.9997  55.0010  55.0011  55.1314  55.1315  55.2308  55.2314
    55.2320  55.2321  55.4322  55.4326  55.4657  55.4665  55.5071  55.5076
    56.0933  56.0937  56.0941  56.0947  56.2176  56.2176  56.4322  56.4325

     the Fermi energy is    14.7588 ev

!    total energy              =   -4148.36213171 Ry
     Harris-Foulkes estimate   =   -4148.36213220 Ry
     estimated scf accuracy    <       0.00000053 Ry

     The total energy is the sum of the following terms:

     one-electron contribution =   -1009.79241929 Ry
     hartree contribution      =     745.83623993 Ry
     xc contribution           =   -1140.44986760 Ry
     ewald contribution        =   -2743.92224506 Ry
     Hubbard energy            =      -0.03357839 Ry
     smearing contrib. (-TS)   =      -0.00026131 Ry

     total magnetization       =     0.00 Bohr mag/cell
     absolute magnetization    =     0.00 Bohr mag/cell

     convergence has been achieved in  10 iterations

     Writing output data file pwscf.save

     General routines

     Parallel routines
     Hubbard U routines

   This run was terminated on:  21:18: 2  14Feb2014

   JOB DONE.