     Program PWSCF v.5.0.2 (svn rev. 9656) starts on 14Feb2014 at  8:14:12

     Current dimensions of program PWSCF are:
     Max number of different atomic species (ntypx) = 10
     Max number of k-points (npk) =  40000
     Max angular momentum in pseudopotentials (lmaxx) =  3
     Reading input from alpha_-0.15/alpha_-0.15.in
Warning: card &IONS ignored
Warning: card / ignored
Warning: card &CELL ignored
Warning: card / ignored

     Subspace diagonalization in iterative solution of the eigenvalue problem:
     a serial algorithm will be used

     bravais-lattice index     =            0
     lattice parameter (alat)  =      18.7083  a.u.
     unit-cell volume          =    3545.1269 (a.u.)^3
     number of atoms/cell      =           48
     number of atomic types    =            3
     number of electrons       =       432.00
     number of Kohn-Sham states=          648
     kinetic-energy cutoff     =      40.0000  Ry
     charge density cutoff     =     500.0000  Ry
     convergence threshold     =      1.0E-06
     mixing beta               =       0.7000
     number of iterations used =            8  plain     mixing
     Exchange-correlation      = SLA  PW   PBE  PBE ( 1 4 3 4 0)
     EXX-fraction              =        0.00

     celldm(1)=  18.708289  celldm(2)=   0.000000  celldm(3)=   0.000000
     celldm(4)=   0.000000  celldm(5)=   0.000000  celldm(6)=   0.000000

     crystal axes: (cart. coord. in units of alat)
               a(1) = (   1.000000   0.000000   0.000000 )
               a(2) = (   0.000000   1.000000   0.000000 )
               a(3) = (   0.000000   0.000000   0.541414 )

     reciprocal axes: (cart. coord. in units 2 pi/alat)
               b(1) = (  1.000000  0.000000  0.000000 )
               b(2) = (  0.000000  1.000000  0.000000 )
               b(3) = (  0.000000  0.000000  1.847015 )

     PseudoPot. # 1 for Re read from file:
     /home/camp/zhonxu/pseudo/re_pbe_v1.uspp.F.UPF
     MD5 check sum: 6f5a5dcaf9c96c20d0ffdde0de57afc6
     Pseudo is Ultrasoft + core correction, Zval = 15.0
     Generated by new atomic code, or converted to UPF format
     Using radial grid of  981 points,  8 beta functions with:
                l(1) =   0
                l(2) =   0
                l(3) =   1
                l(4) =   1
                l(5) =   2
                l(6) =   2
                l(7) =   3
                l(8) =   3
     Q(r) pseudized with  8 coefficients,  rinner =    1.000   1.000   1.000
                                                       1.000   1.000   1.000
                                                       1.000

     PseudoPot. # 2 for Re read from file:
     /home/camp/zhonxu/pseudo/re_pbe_v1.uspp.F.UPF
     MD5 check sum: 6f5a5dcaf9c96c20d0ffdde0de57afc6
     Pseudo is Ultrasoft + core correction, Zval = 15.0
     Generated by new atomic code, or converted to UPF format
     Using radial grid of  981 points,  8 beta functions with:
                l(1) =   0
                l(2) =   0
                l(3) =   1
                l(4) =   1
                l(5) =   2
                l(6) =   2
                l(7) =   3
                l(8) =   3
     Q(r) pseudized with  8 coefficients,  rinner =    1.000   1.000   1.000
                                                       1.000   1.000   1.000
                                                       1.000

     PseudoPot. # 3 for O  read from file:
     /home/camp/zhonxu/pseudo/o_pbe_v1.01.uspp.F.UPF
     MD5 check sum: 2bcb18d16ea4b960afae9ec6d52f22d2
     Pseudo is Ultrasoft + core correction, Zval =  6.0
     Generated by new atomic code, or converted to UPF format
     Using radial grid of  737 points,  5 beta functions with:
                l(1) =   0
                l(2) =   0
                l(3) =   1
                l(4) =   1
                l(5) =   2
     Q(r) pseudized with  8 coefficients,  rinner =    0.900   0.900   0.900
                                                       0.900   0.900

     atomic species   valence    mass     pseudopotential
        Re0           15.00   186.20700     Re( 1.00)
        Re1           15.00   186.20700     Re( 1.00)
        O2             6.00    15.99940     O ( 1.00)

     Starting magnetic structure
     atomic species   magnetization
        Re0          0.000
        Re1          0.000
        O2           0.000

     Simplified LDA+U calculation (l_max = 2) with parameters (eV):
     atomic species    L          U    alpha       J0     beta
        Re0            2     0.0000  -0.1500   0.0000   0.0000
        Re1            2     0.0000   0.0000   0.0000   0.0000
        O2             1     0.0000   0.0000   0.0000   0.0000

      8 Sym. Ops., with inversion, found

   Cartesian axes

     site n.     atom                  positions (alat units)
         1           Re0 tau(   1) = (   0.0000000   0.0000000   0.0000000  )
         2           Re1 tau(   2) = (   0.2500000   0.2500000   0.1353535  )
         3           Re1 tau(   3) = (   0.0000000   0.0000000   0.2707071  )
         4           Re1 tau(   4) = (   0.2500000   0.2500000   0.4060606  )
         5           Re1 tau(   5) = (   0.0000000   0.5000000   0.0000000  )
         6           Re1 tau(   6) = (   0.2500000   0.7500000   0.1353535  )
         7           Re1 tau(   7) = (   0.0000000   0.5000000   0.2707071  )
         8           Re1 tau(   8) = (   0.2500000   0.7500000   0.4060606  )
         9           Re1 tau(   9) = (   0.5000000   0.0000000   0.0000000  )
        10           Re1 tau(  10) = (   0.7500000   0.2500000   0.1353535  )
        11           Re1 tau(  11) = (   0.5000000   0.0000000   0.2707071  )
        12           Re1 tau(  12) = (   0.7500000   0.2500000   0.4060606  )
        13           Re1 tau(  13) = (   0.5000000   0.5000000   0.0000000  )
        14           Re1 tau(  14) = (   0.7500000   0.7500000   0.1353535  )
        15           Re1 tau(  15) = (   0.5000000   0.5000000   0.2707071  )
        16           Re1 tau(  16) = (   0.7500000   0.7500000   0.4060606  )
        17           O2  tau(  17) = (   0.1400000   0.1400000   0.0000000  )
        18           O2  tau(  18) = (  -0.1400000  -0.1400000   0.0000000  )
        19           O2  tau(  19) = (   0.3900000   0.1100000   0.1353535  )
        20           O2  tau(  20) = (   0.1100000   0.3900000   0.1353535  )
        21           O2  tau(  21) = (   0.1400000   0.1400000   0.2707071  )
        22           O2  tau(  22) = (  -0.1400000  -0.1400000   0.2707071  )
        23           O2  tau(  23) = (   0.3900000   0.1100000   0.4060606  )
        24           O2  tau(  24) = (   0.1100000   0.3900000   0.4060606  )
        25           O2  tau(  25) = (   0.1400000   0.6400000   0.0000000  )
        26           O2  tau(  26) = (  -0.1400000   0.3600000   0.0000000  )
        27           O2  tau(  27) = (   0.3900000   0.6100000   0.1353535  )
        28           O2  tau(  28) = (   0.1100000   0.8900000   0.1353535  )
        29           O2  tau(  29) = (   0.1400000   0.6400000   0.2707071  )
        30           O2  tau(  30) = (  -0.1400000   0.3600000   0.2707071  )
        31           O2  tau(  31) = (   0.3900000   0.6100000   0.4060606  )
        32           O2  tau(  32) = (   0.1100000   0.8900000   0.4060606  )
        33           O2  tau(  33) = (   0.6400000   0.1400000   0.0000000  )
        34           O2  tau(  34) = (   0.3600000  -0.1400000   0.0000000  )
        35           O2  tau(  35) = (   0.8900000   0.1100000   0.1353535  )
        36           O2  tau(  36) = (   0.6100000   0.3900000   0.1353535  )
        37           O2  tau(  37) = (   0.6400000   0.1400000   0.2707071  )
        38           O2  tau(  38) = (   0.3600000  -0.1400000   0.2707071  )
        39           O2  tau(  39) = (   0.8900000   0.1100000   0.4060606  )
        40           O2  tau(  40) = (   0.6100000   0.3900000   0.4060606  )
        41           O2  tau(  41) = (   0.6400000   0.6400000   0.0000000  )
        42           O2  tau(  42) = (   0.3600000   0.3600000   0.0000000  )
        43           O2  tau(  43) = (   0.8900000   0.6100000   0.1353535  )
        44           O2  tau(  44) = (   0.6100000   0.8900000   0.1353535  )
        45           O2  tau(  45) = (   0.6400000   0.6400000   0.2707071  )
        46           O2  tau(  46) = (   0.3600000   0.3600000   0.2707071  )
        47           O2  tau(  47) = (   0.8900000   0.6100000   0.4060606  )
        48           O2  tau(  48) = (   0.6100000   0.8900000   0.4060606  )

     number of k points=    42  Methfessel-Paxton smearing, width (Ry)=  0.0100
                       cart. coord. in units 2pi/alat
        k(    1) = (   0.0000000   0.0000000   0.0000000), wk =   0.0156250
        k(    2) = (   0.0000000   0.0000000   0.4617537), wk =   0.0312500
        k(    3) = (   0.0000000   0.0000000  -0.9235075), wk =   0.0156250
        k(    4) = (   0.0000000   0.2500000   0.0000000), wk =   0.0625000
        k(    5) = (   0.0000000   0.2500000   0.4617537), wk =   0.1250000
        k(    6) = (   0.0000000   0.2500000  -0.9235075), wk =   0.0625000
        k(    7) = (   0.0000000  -0.5000000   0.0000000), wk =   0.0312500
        k(    8) = (   0.0000000  -0.5000000   0.4617537), wk =   0.0625000
        k(    9) = (   0.0000000  -0.5000000  -0.9235075), wk =   0.0312500
        k(   10) = (   0.2500000   0.2500000   0.0000000), wk =   0.0312500
        k(   11) = (   0.2500000   0.2500000   0.4617537), wk =   0.0625000
        k(   12) = (   0.2500000   0.2500000  -0.9235075), wk =   0.0312500
        k(   13) = (   0.2500000  -0.5000000   0.0000000), wk =   0.0625000
        k(   14) = (   0.2500000  -0.5000000   0.4617537), wk =   0.1250000
        k(   15) = (   0.2500000  -0.5000000  -0.9235075), wk =   0.0625000
        k(   16) = (  -0.5000000  -0.5000000   0.0000000), wk =   0.0156250
        k(   17) = (  -0.5000000  -0.5000000   0.4617537), wk =   0.0312500
        k(   18) = (  -0.5000000  -0.5000000  -0.9235075), wk =   0.0156250
        k(   19) = (  -0.2500000   0.2500000   0.0000000), wk =   0.0312500
        k(   20) = (  -0.2500000   0.2500000  -0.4617537), wk =   0.0625000
        k(   21) = (  -0.2500000   0.2500000   0.9235075), wk =   0.0312500
        k(   22) = (   0.0000000   0.0000000   0.0000000), wk =   0.0156250
        k(   23) = (   0.0000000   0.0000000   0.4617537), wk =   0.0312500
        k(   24) = (   0.0000000   0.0000000  -0.9235075), wk =   0.0156250
        k(   25) = (   0.0000000   0.2500000   0.0000000), wk =   0.0625000
        k(   26) = (   0.0000000   0.2500000   0.4617537), wk =   0.1250000
        k(   27) = (   0.0000000   0.2500000  -0.9235075), wk =   0.0625000
        k(   28) = (   0.0000000  -0.5000000   0.0000000), wk =   0.0312500
        k(   29) = (   0.0000000  -0.5000000   0.4617537), wk =   0.0625000
        k(   30) = (   0.0000000  -0.5000000  -0.9235075), wk =   0.0312500
        k(   31) = (   0.2500000   0.2500000   0.0000000), wk =   0.0312500
        k(   32) = (   0.2500000   0.2500000   0.4617537), wk =   0.0625000
        k(   33) = (   0.2500000   0.2500000  -0.9235075), wk =   0.0312500
[...]
    eigenvectors:
  0.000  1.000  0.000
  0.500  0.000  0.500
  0.500  0.000  0.500
    occupations:
  0.908 -0.000 -0.000
 -0.000  0.907 -0.003
 -0.000 -0.003  0.907
   spin  2
    eigenvalues:
  0.904  0.908  0.911
    eigenvectors:
  0.000  1.000  0.000
  0.500  0.000  0.500
  0.500  0.000  0.500
    occupations:
  0.908 -0.000 -0.000
 -0.000  0.907 -0.003
 -0.000 -0.003  0.907
atomic mag. moment =     0.000000
atom   42   Tr[ns(na)] (up, down, total) =   2.72340  2.72340  5.44681
   spin  1
    eigenvalues:
  0.904  0.908  0.911
    eigenvectors:
  0.000  1.000  0.000
  0.500  0.000  0.500
  0.500  0.000  0.500
    occupations:
  0.908 -0.000 -0.000
 -0.000  0.907 -0.003
 -0.000 -0.003  0.907
   spin  2
    eigenvalues:
  0.904  0.908  0.911
    eigenvectors:
  0.000  1.000  0.000
  0.500  0.000  0.500
  0.500  0.000  0.500
    occupations:
  0.908 -0.000 -0.000
 -0.000  0.907 -0.003
 -0.000 -0.003  0.907
atomic mag. moment =     0.000000
atom   43   Tr[ns(na)] (up, down, total) =   2.72338  2.72338  5.44677
   spin  1
    eigenvalues:
  0.904  0.908  0.911
    eigenvectors:
  0.000  1.000  0.000
  0.500  0.000  0.500
  0.500  0.000  0.500
    occupations:
  0.908 -0.000  0.000
 -0.000  0.907  0.003
  0.000  0.003  0.907
   spin  2
    eigenvalues:
  0.904  0.908  0.911
    eigenvectors:
  0.000  1.000  0.000
  0.500  0.000  0.500
  0.500  0.000  0.500
    occupations:
  0.908 -0.000  0.000
 -0.000  0.907  0.003
  0.000  0.003  0.907
atomic mag. moment =     0.000000
atom   44   Tr[ns(na)] (up, down, total) =   2.72338  2.72338  5.44677
   spin  1
    eigenvalues:
  0.904  0.908  0.911
    eigenvectors:
  0.000  1.000  0.000
  0.500  0.000  0.500
  0.500  0.000  0.500
    occupations:
  0.908  0.000 -0.000
  0.000  0.907  0.003
 -0.000  0.003  0.907
   spin  2
    eigenvalues:
  0.904  0.908  0.911
    eigenvectors:
  0.000  1.000  0.000
  0.500  0.000  0.500
  0.500  0.000  0.500
    occupations:
  0.908  0.000 -0.000
  0.000  0.907  0.003
 -0.000  0.003  0.907
atomic mag. moment =     0.000000
atom   45   Tr[ns(na)] (up, down, total) =   2.72340  2.72340  5.44680
   spin  1
    eigenvalues:
  0.904  0.908  0.911
    eigenvectors:
  0.000  1.000  0.000
  0.500  0.000  0.500
  0.500  0.000  0.500
    occupations:
  0.908 -0.000 -0.000
 -0.000  0.907 -0.003
 -0.000 -0.003  0.907
   spin  2
    eigenvalues:
  0.904  0.908  0.911
    eigenvectors:
  0.000  1.000  0.000
  0.500  0.000  0.500
  0.500  0.000  0.500
    occupations:
  0.908 -0.000 -0.000
 -0.000  0.907 -0.003
 -0.000 -0.003  0.907
atomic mag. moment =     0.000000
atom   46   Tr[ns(na)] (up, down, total) =   2.72340  2.72340  5.44680
   spin  1
    eigenvalues:
  0.904  0.908  0.911
    eigenvectors:
  0.000  1.000  0.000
  0.500  0.000  0.500
  0.500  0.000  0.500
    occupations:
  0.908 -0.000 -0.000
 -0.000  0.907 -0.003
 -0.000 -0.003  0.907
   spin  2
    eigenvalues:
  0.904  0.908  0.911
    eigenvectors:
  0.000  1.000  0.000
  0.500  0.000  0.500
  0.500  0.000  0.500
    occupations:
  0.908 -0.000 -0.000
 -0.000  0.907 -0.003
 -0.000 -0.003  0.907
atomic mag. moment =     0.000000
atom   47   Tr[ns(na)] (up, down, total) =   2.72338  2.72338  5.44677
   spin  1
    eigenvalues:
  0.904  0.908  0.911
    eigenvectors:
  0.000  1.000  0.000
  0.500  0.000  0.500
  0.500  0.000  0.500
    occupations:
  0.908  0.000 -0.000
  0.000  0.907  0.003
 -0.000  0.003  0.907
   spin  2
    eigenvalues:
  0.904  0.908  0.911
    eigenvectors:
  0.000  1.000  0.000
  0.500  0.000  0.500
  0.500  0.000  0.500
    occupations:
  0.908  0.000 -0.000
  0.000  0.907  0.003
 -0.000  0.003  0.907
atomic mag. moment =     0.000000
atom   48   Tr[ns(na)] (up, down, total) =   2.72338  2.72338  5.44677
   spin  1
    eigenvalues:
  0.904  0.908  0.911
    eigenvectors:
  0.000  1.000  0.000
  0.500  0.000  0.500
  0.500  0.000  0.500
    occupations:
  0.908 -0.000  0.000
 -0.000  0.907  0.003
  0.000  0.003  0.907
   spin  2
    eigenvalues:
  0.904  0.908  0.911
    eigenvectors:
  0.000  1.000  0.000
  0.500  0.000  0.500
  0.500  0.000  0.500
    occupations:
  0.908 -0.000  0.000
 -0.000  0.907  0.003
  0.000  0.003  0.907
atomic mag. moment =     0.000000
N of occupied +U levels = 278.5274666
 --- exit write_ns ---

 ------ SPIN UP ------------

          k = 0.0000 0.0000 0.0000 ( 15161 PWs)   bands (ev):

   -67.0640 -67.0637 -67.0634 -67.0631 -67.0631 -67.0629 -67.0624 -67.0462
   -67.0084 -67.0084 -67.0078 -67.0078 -67.0078 -67.0078 -67.0075 -66.8838
   -29.2694 -29.2688 -29.2687 -29.2682 -29.2679 -29.2674 -29.2673 -29.2081
   -29.0433 -29.0428 -29.0364 -29.0342 -29.0154 -29.0149 -29.0145 -28.9919
   -28.9843 -28.9841 -28.9838 -28.9731 -28.9570 -28.9566 -28.9475 -28.9434
   -28.8976 -28.8971 -28.8970 -28.8960 -28.8959 -28.8958 -28.8956 -28.8738
   -28.8733 -28.8733 -28.8728 -28.8727 -28.8724 -28.8723 -28.7877 -28.7764
   -28.4006 -28.3950 -28.3948 -28.3946 -28.3944 -28.3944 -28.3886 -28.3220
    -6.7989  -6.2324  -6.2262  -6.0020  -6.0009  -6.0000  -5.9975  -5.7408
    -5.7193  -5.7111  -5.7095  -5.7094  -5.3342  -5.3271  -5.3267  -5.3265
    -5.3242  -5.3197  -5.2764  -5.2708  -5.0996  -5.0966  -5.0371  -5.0340
    -5.0207  -5.0202  -4.9392  -4.9386  -4.5626  -4.5625  -4.5597  -4.5584
     4.5579   4.8066   4.8108   5.0641   5.5108   5.5139   5.5147   5.5148
     5.7422   5.7455   5.7496   5.7498   6.0407   6.0462   6.0466   6.0500
     6.1328   6.3144   6.3188   6.3473   6.3491   6.5795   6.5879   7.0076
     7.0082   7.0084   7.0126   7.1408   7.1486   7.2417   7.2460   7.2792
     7.2803   7.2833   7.2841   7.3314   7.3329   7.7375   7.7475   7.7483
     7.7484   8.2074   8.2082   8.2114   8.2116   8.5413   8.5467   8.6631
     8.6647   8.6739   8.6743   8.6995   8.7010   8.8788   8.8815   8.8816
     8.8833   8.9450   8.9456   9.1993   9.2003   9.2019   9.2020   9.2573
     9.2611   9.4191   9.4201   9.4225   9.4233   9.8360   9.8361   9.9613
     9.9640  10.1910  10.1924  10.5174  10.5175  10.5175  10.5211  10.6433
    10.6434  10.6451  10.6458  10.6747  10.8104  10.8314  10.8316  10.8751
    10.8808  10.8985  10.8993  10.9193  10.9207  10.9214  10.9219  11.0063
    11.0587  11.0596  11.4097  11.6885  11.8386  11.8454  11.8456  11.8476
    12.3957  12.3965  12.4008  12.4009  13.1967  13.7837  13.7858  14.3673
    14.3694  14.4554  14.4568  14.7537  14.7550  14.7702  14.7706  14.8043
    14.8047  15.3769  15.3773  15.3776  15.3778  15.3806  15.3807  15.3807
    15.3812  15.7243  15.7244  15.7251  15.7255  15.9372  15.9375  16.9046
    17.0518  17.0519  17.0526  17.0539  17.1984  17.3956  17.3971  17.4174
    17.4194  17.8017  17.8019  17.8028  17.8071  18.0380  18.0399  18.1538
    18.1541  18.1556  18.1589  18.3592  18.6836  18.6843  18.7514  18.7518
    18.7526  18.7567  18.8754  18.8765  18.8926  18.8942  19.2201  19.2212
    19.3135  19.3153  19.6187  19.6212  21.3581  21.3593  21.3598  21.3652
    21.4457  21.4462  21.4484  21.4523  21.5503  22.8836  22.8836  22.9220
    22.9250  23.0920  23.0937  23.4512  23.4521  23.4525  23.4631  23.5168
    23.5198  23.7557  23.7564  24.4029  24.4050  24.6271  24.6292  24.6300
    24.6315  25.3391  25.6716  25.6756  25.7369  25.9279  25.9293  25.9315
    25.9318  25.9589  25.9591  25.9641  25.9664  26.2441  26.3682  26.3693
    26.3701  26.3738  26.6400  26.6439  27.4456  27.4461  27.6416  27.6429
    28.0515  28.0559  28.2739  28.2739  28.2745  28.2830  28.4125  28.4132
    28.5686  28.5720  28.6698  28.6706  28.6714  28.6740  29.0129  29.0137
    29.0138  29.0184  29.4632  29.4648  29.6211  29.6231  29.8153  29.8154
    30.5233  30.6088  30.6093  31.2110  31.2116  31.2116  31.2152  32.2425
    32.2430  32.2437  32.2509  32.7952  32.7984  32.8391  32.8407  32.8433
    32.8489  32.8498  32.8507  32.9870  32.9933  33.1954  33.1975  33.8233
    34.0009  34.0043  34.1049  34.1096  34.2535  34.2553  34.8677  34.8681
    34.8716  34.8737  34.9505  35.0834  35.0851  35.0873  35.0884  35.3175
    35.3184  35.9356  35.9357  35.9368  35.9399  36.0639  36.0679  36.0978
    36.1008  36.1432  36.4261  36.4264  36.4284  36.4313  36.4975  36.5034
    36.7593  36.7644  37.3558  37.3560  37.3566  37.3671  37.4397  37.4420
    37.5113  37.5148  37.5291  37.9751  37.9758  37.9823  38.4408  38.4430
    38.5541  38.5561  38.5563  38.5594  38.7354  38.7388  38.7402  38.7412
    38.7666  38.7719  39.4192  39.4196  39.4207  39.4213  39.7543  39.7553
    39.9083  39.9106  40.1517  40.1527  40.1551  40.1570  40.5731  40.9976
    41.0023  41.1642  41.1670  41.1865  41.1905  42.1079  42.1079  42.1110
    42.1186  42.6562  42.6578  42.7718  42.7727  42.7767  42.7787  43.3253
    43.3274  43.3278  43.3322  43.3440  43.3456  43.3458  43.3470  43.5758
    43.8296  43.8347  43.8988  43.8997  44.0103  44.0136  44.2889  44.2911
    44.2912  44.2991  44.3327  44.4831  44.4843  44.7046  44.7081  44.9410
[...]
    47.6038  47.6046  47.6465  47.6479  48.0315  48.0322  48.2148  48.2163
    48.2172  48.2229  48.3649  48.3694  48.3699  48.3706  48.3711  48.3830
    48.9287  48.9287  48.9294  48.9353  49.0710  49.0728  49.2802  49.2822
    49.3884  49.3927  49.4743  49.4790  49.7680  49.7728  50.0860  50.0863
    50.1815  50.1827  50.1828  50.1836  50.7610  50.7629  50.7641  50.7650
    50.8798  50.8804  50.8819  50.8824  51.0947  51.0951  51.2643  51.2665
    51.4498  51.4499  51.4519  51.5395  51.5402  51.5423  51.5469  51.7698
    51.9074  52.1494  52.1510  52.1526  52.1534  52.3195  52.3196  52.3760
    52.3770  52.4625  52.4633  52.4647  52.4655  52.7849  52.8408  52.8408
    52.8450  52.8565  53.2676  53.3543  53.3595  53.4314  53.4342  53.4343
    53.4365  53.6462  53.6465  54.4438  54.4439  54.4562  54.4581  54.4582
    54.4609  54.4612  54.4640  54.7726  54.7747  54.7768  54.7797  54.8565
    54.8629  54.9459  54.9463  54.9474  54.9505  55.2169  55.2184  55.6154
    55.6194  55.6549  55.8046  55.8084  55.8516  55.8549  55.8563  55.8580
    55.8596  55.8614  56.1369  56.1403  56.2180  56.2228  56.2736  56.2755

[...]

          k =-0.5000-0.5000 0.0000 ( 15164 PWs)   bands (ev):

[...]

 ------ SPIN DOWN ----------

[...]

          k = 0.2500-0.5000-0.9235 ( 15168 PWs)   bands (ev):

[...]

          k =-0.2500 0.2500 0.9235 ( 15156 PWs)   bands (ev):

   -67.0395 -67.0363 -67.0362 -67.0362 -67.0361 -67.0359 -67.0358 -67.0357
   -67.0356 -67.0356 -67.0354 -67.0353 -67.0351 -67.0351 -67.0345 -66.8887
   -28.9727 -28.9715 -28.9700 -28.9659 -28.9649 -28.9642 -28.9637 -28.9635
   -28.9633 -28.9624 -28.9615 -28.9464 -28.9459 -28.9457 -28.9452 -28.9447
   -28.9435 -28.9425 -28.9421 -28.9254 -28.9250 -28.9248 -28.9235 -28.9234
   -28.9233 -28.9226 -28.9217 -28.9151 -28.9143 -28.9132 -28.8488 -28.8460
   -28.8452 -28.8445 -28.8433 -28.8431 -28.8425 -28.8423 -28.8419 -28.8405
   -28.8404 -28.8403 -28.8392 -28.8391 -28.8391 -28.8036 -28.7959 -28.7071
    -6.0392  -6.0379  -5.8264  -5.8260  -5.8259  -5.8221  -5.7263  -5.7236
    -5.5995  -5.5973  -5.5385  -5.5361  -5.5340  -5.5337  -5.3524  -5.3522
    -5.1538  -5.1516  -5.1479  -5.1467  -5.1358  -5.1337  -5.1328  -5.1317
    -5.1300  -5.1257  -5.1252  -5.1245  -5.1089  -5.1088  -5.1020  -5.0998
     5.8043   5.8051   5.8052   5.8094   5.8197   5.8222   5.8271   5.8285
     5.9516   5.9547   5.9718   5.9754   5.9765   5.9765   6.0042   6.0064
     6.7491   6.7556   6.7949   6.7984   7.0302   7.0321   7.0330   7.0361
     7.0368   7.0391   7.1856   7.1869   7.2887   7.2951   7.2953   7.2965
     7.2989   7.3020   7.6043   7.6073   7.6084   7.6118   7.9050   7.9060
     7.9167   7.9194   7.9199   7.9214   7.9370   7.9384   8.1794   8.1801
     8.1828   8.1843   8.4485   8.4490   8.4559   8.4573   8.4809   8.4821
     9.0328   9.0351   9.0358   9.0366   9.1520   9.1538   9.2134   9.2150
     9.3045   9.3065   9.3085   9.3100   9.3100   9.3100   9.3306   9.3358
     9.4318   9.4330   9.6325   9.6331   9.6336   9.6357   9.9563   9.9565
    10.1677  10.1684  10.4340  10.4359  10.5049  10.5057  10.5061  10.5076
    10.7871  10.7878  11.0673  11.0679  11.0682  11.0684  11.4028  11.4030
    13.2160  13.2170  13.2527  13.2533  13.2539  13.2559  13.4130  13.4130
    13.4741  13.4741  13.5657  13.5696  13.5709  13.5714  13.5724  13.5725
    13.6578  13.6629  13.8624  13.8663  14.0071  14.0083  14.0097  14.0123
    14.3493  14.3499  14.4482  14.4488  14.6874  14.6894  14.6964  14.6969
    14.6972  14.6984  15.2180  15.2188  15.2577  15.2579  15.2580  15.2582
    15.5083  15.5084  15.8393  15.8393  15.8398  15.8408  16.3580  16.3589
    17.1368  17.1369  17.1384  17.1398  17.7811  17.7816  17.8930  17.8942
    17.9239  17.9241  17.9249  17.9285  18.5368  18.5371  18.7535  18.7541
    18.8071  18.8078  19.0713  19.0736  19.4289  19.4289  19.4312  19.4353
    19.7352  19.7378  20.4304  20.4307  20.4310  20.4358  20.9295  20.9333
    21.2217  21.2229  22.3314  22.3325  22.3333  22.3362  22.8985  22.8997
    23.7010  23.7013  23.7035  23.7062  23.8157  23.8187  23.9112  23.9141
    24.4648  24.4676  25.0568  25.0601  25.1907  25.1913  25.1913  25.1947
    25.3349  25.3370  25.3900  25.3916  25.3920  25.4010  25.7312  25.7349
    26.8558  26.8602  27.4308  27.4329  27.4336  27.4379  27.6139  27.6155
    28.3987  28.4006  28.4008  28.4025  28.4371  28.4415  28.5912  28.5919
    28.8638  28.8638  28.8640  28.8654  28.9033  28.9052  28.9389  28.9407
    28.9647  28.9653  28.9653  28.9680  29.1971  29.1985  29.4356  29.4389
    29.6392  29.6407  29.6427  29.6438  29.8401  29.8422  29.9304  29.9331
    30.5046  30.5064  30.7806  30.7812  30.7817  30.7821  30.8958  30.8962
    30.9016  30.9034  30.9986  31.0007  31.9296  31.9314  31.9320  31.9339
    32.2793  32.2839  32.4610  32.4636  32.4648  32.4671  33.5174  33.5182
    33.5183  33.5194  33.6002  33.6059  33.6891  33.6924  34.3482  34.3502
    34.6669  34.6703  35.0394  35.0436  35.2609  35.2613  35.2628  35.2663
    36.0139  36.0153  36.4371  36.4382  36.4386  36.4404  36.4531  36.4549
    36.4859  36.4866  36.4892  36.4896  36.9519  36.9550  37.0016  37.0024
    37.0043  37.0063  37.4144  37.4184  37.5402  37.5415  37.6911  37.6921
    38.0657  38.0658  38.0688  38.0689  38.3144  38.3147  38.3351  38.3360
    38.7238  38.7270  38.8500  38.8505  39.0140  39.0169  39.2026  39.2045
    39.2050  39.2064  39.3457  39.3460  39.3536  39.3537  39.3545  39.3568
    39.7215  39.7244  39.8349  39.8374  40.1308  40.1325  40.2643  40.2663
    40.2666  40.2676  41.0218  41.0241  41.0273  41.0285  41.4216  41.4259
    41.5623  41.5644  41.9592  41.9605  41.9607  41.9649  42.0125  42.0130
    42.5342  42.5375  43.1410  43.1416  43.1420  43.1425  43.2974  43.2986
    43.4053  43.4055  43.4061  43.4080  43.4465  43.4478  43.5324  43.5324
    43.8365  43.8414  43.9962  43.9967  43.9992  44.0079  44.0741  44.0753
[...]
    48.2082  48.2113  48.2981  48.3001  48.4101  48.4118  48.4134  48.4175
    48.6434  48.6467  48.8333  48.8369  48.9423  48.9423  48.9429  48.9442
    49.0196  49.0202  49.1047  49.1053  49.1759  49.1762  49.1786  49.1789
    49.2049  49.2057  49.2908  49.2928  49.5953  49.5956  49.5962  49.6045
    49.6731  49.6733  49.7874  49.7900  49.7914  49.7942  49.9169  49.9192
    50.0916  50.0972  50.4773  50.4780  50.4782  50.4792  50.8692  50.8693
    50.8820  50.8841  50.8855  50.8861  51.1958  51.1974  51.7370  51.7383
    51.7403  51.7410  51.7432  51.7437  52.0843  52.0861  52.1341  52.1350
    52.1359  52.1375  52.3427  52.3429  52.3602  52.3612  52.3747  52.3747
    52.8620  52.8651  52.9394  52.9407  52.9423  52.9425  53.2426  53.2453
    53.2466  53.2470  53.4170  53.4175  53.6414  53.6415  53.8026  53.8031
    53.8040  53.8057  53.9082  53.9131  54.3185  54.3238  54.5977  54.5991
    54.9986  54.9994  55.0022  55.0024  55.1312  55.1316  55.2297  55.2310
    55.2322  55.2326  55.4321  55.4329  55.4653  55.4669  55.5070  55.5082
    56.0928  56.0936  56.0945  56.0957  56.2173  56.2174  56.4314  56.4321

     the Fermi energy is    14.7566 ev

!    total energy              =   -4148.40055167 Ry
     Harris-Foulkes estimate   =   -4148.40055220 Ry
     estimated scf accuracy    <       0.00000056 Ry

     The total energy is the sum of the following terms:

     one-electron contribution =   -1009.80526323 Ry
     hartree contribution      =     745.84923614 Ry
     xc contribution           =   -1140.44990014 Ry
     ewald contribution        =   -2743.92224506 Ry
     Hubbard energy            =      -0.07211516 Ry
     smearing contrib. (-TS)   =      -0.00026423 Ry

     total magnetization       =     0.00 Bohr mag/cell
     absolute magnetization    =     0.00 Bohr mag/cell

     convergence has been achieved in  12 iterations

     Writing output data file pwscf.save

     General routines

     Parallel routines
     Hubbard U routines

   This run was terminated on:  15:22:26  14Feb2014

   JOB DONE.