     Program PWSCF v.5.0.2 (svn rev. 9656) starts on  4May2014 at 21:32:59

     Current dimensions of program PWSCF are:
     Max number of different atomic species (ntypx) = 10
     Max number of k-points (npk) =  40000
     Max angular momentum in pseudopotentials (lmaxx) =  3
     Reading input from pwscf.in
Warning: card &CELL ignored
Warning: card / ignored

     Subspace diagonalization in iterative solution of the eigenvalue problem:
     a serial algorithm will be used

     bravais-lattice index     =            0
     lattice parameter (alat)  =      10.9604  a.u.
     unit-cell volume          =    6350.6732 (a.u.)^3
     number of atoms/cell      =           31
     number of atomic types    =            3
     number of electrons       =       230.00 (up: 122.00, down: 108.00)
     number of Kohn-Sham states=          333
     kinetic-energy cutoff     =      40.0000  Ry
     charge density cutoff     =     500.0000  Ry
     convergence threshold     =      1.0E-06
     mixing beta               =       0.7000
     number of iterations used =            8  plain     mixing
     Exchange-correlation      = SLA  PW   PBE  PBE ( 1 4 3 4 0)
     EXX-fraction              =        0.00
     nstep                     =           50

     celldm(1)=  10.960412  celldm(2)=   0.000000  celldm(3)=   0.000000
     celldm(4)=   0.000000  celldm(5)=   0.000000  celldm(6)=   0.000000

     crystal axes: (cart. coord. in units of alat)
               a(1) = (   1.000000   0.000000   0.000000 )
               a(2) = (   0.000000   1.067975   0.000000 )
               a(3) = (   0.000000   0.000000   4.516251 )

     reciprocal axes: (cart. coord. in units 2 pi/alat)
               b(1) = (  1.000000  0.000000  0.000000 )
               b(2) = (  0.000000  0.936351  0.000000 )
               b(3) = (  0.000000  0.000000  0.221423 )

     PseudoPot. # 1 for O  read from file:
     /home/camp/zhonxu/pseudo/o_pbe_v1.01.uspp.F.UPF
     MD5 check sum: 2bcb18d16ea4b960afae9ec6d52f22d2
     Pseudo is Ultrasoft + core correction, Zval =  6.0
     Generated by new atomic code, or converted to UPF format
     Using radial grid of  737 points,  5 beta functions with:
                l(1) =   0
                l(2) =   0
                l(3) =   1
                l(4) =   1
                l(5) =   2
     Q(r) pseudized with  8 coefficients,  rinner =    0.900   0.900   0.900
                                                       0.900   0.900

     PseudoPot. # 2 for Cr read from file:
     /home/camp/zhonxu/pseudo/cr_pbe_v1.uspp.F.UPF
     MD5 check sum: 68b6f918d1762dccfb11451fe85b0e0e
     Pseudo is Ultrasoft + core correction, Zval = 14.0
     Generated by new atomic code, or converted to UPF format
     Using radial grid of  857 points,  6 beta functions with:
                l(1) =   0
                l(2) =   0
                l(3) =   1
                l(4) =   1
                l(5) =   2
                l(6) =   2
     Q(r) pseudized with  6 coefficients,  rinner =    1.000   1.000   1.000
                                                       1.000   1.000

     PseudoPot. # 3 for H  read from file:
     /home/camp/zhonxu/pseudo/h_pbe_v1.uspp.F.UPF
     MD5 check sum: 3408e3ff4ec8b0a4e358431e7e038a48
     Pseudo is Ultrasoft, Zval =  1.0
     Generated by new atomic code, or converted to UPF format
     Using radial grid of  615 points,  2 beta functions with:
                l(1) =   0
                l(2) =   0
     Q(r) pseudized with  8 coefficients,  rinner =    0.700

     atomic species   valence    mass     pseudopotential
        O0             6.00    15.99940     O ( 1.00)
        Cr1           14.00    51.99600     Cr( 1.00)
        H2             1.00     1.00794     H ( 1.00)

     Starting magnetic structure
     atomic species   magnetization
        O0           0.000
        Cr1          0.600
        H2           0.000

     Simplified LDA+U calculation (l_max = 2) with parameters (eV):
     atomic species    L          U    alpha       J0     beta
        Cr1            2     3.0000   0.0000   0.0000   0.0000

     No symmetry found

   Cartesian axes

     site n.     atom                  positions (alat units)
         1           O0  tau(   1) = (   0.0000000   0.0000000   1.7030331  )
         2           O0  tau(   2) = (   0.0000000   0.5339875   1.8028422  )
         3           Cr1 tau(   3) = (   0.2500000   0.5339875   2.0350227  )
         4           Cr1 tau(   4) = (   0.0000000   0.0000000   2.0223320  )
         5           O0  tau(   5) = (   0.2500000   0.8543801   2.0287902  )
         6           O0  tau(   6) = (   0.2500000   0.2135950   2.0292419  )
         7           O0  tau(   7) = (   0.0000000   0.5339875   2.2445767  )
         8           O0  tau(   8) = (   0.0000000   0.0000000   2.3628573  )
         9           Cr1 tau(   9) = (   0.2500000   0.0000000   2.5580045  )
        10           Cr1 tau(  10) = (   0.0000000   0.5339875   2.5485656  )
        11           O0  tau(  11) = (   0.2500000   0.7475825   2.5953991  )
        12           O0  tau(  12) = (   0.2500000   0.3203925   2.5951281  )
        13           O0  tau(  13) = (   0.0000000   0.0000000   2.7889204  )
        14           O0  tau(  14) = (   0.5000000   0.0000000   1.7055170  )
        15           O0  tau(  15) = (   0.5000000   0.5339875   1.8012615  )
        16           Cr1 tau(  16) = (   0.7500000   0.5339875   2.0359259  )
        17           Cr1 tau(  17) = (   0.5000000   0.0000000   2.0265773  )
        18           O0  tau(  18) = (   0.7500000   0.8543801   2.0288354  )
        19           O0  tau(  19) = (   0.7500000   0.2135950   2.0296032  )
        20           O0  tau(  20) = (   0.5000000   0.5339875   2.2364023  )
        21           O0  tau(  21) = (   0.5000000   0.0000000   2.3615024  )
        22           Cr1 tau(  22) = (   0.7500000   0.0000000   2.6337872  )
        23           Cr1 tau(  23) = (   0.5000000   0.5339875   2.6580395  )
        24           O0  tau(  24) = (   0.7500000   0.7475825   2.5992379  )
        25           O0  tau(  25) = (   0.7500000   0.3203925   2.5991024  )
        26           O0  tau(  26) = (   0.5000000   0.0000000   2.7868881  )
        27           H2  tau(  27) = (  -0.0008000   0.6785059   1.7121107  )
        28           H2  tau(  28) = (   0.4997900   0.6815710   1.7150915  )
        29           H2  tau(  29) = (   0.1566700   0.0342393   1.6437347  )
        30           H2  tau(  30) = (   0.6553000   0.0356063   1.6443670  )
        31           O0  tau(  31) = (   0.4989300   0.5335603   2.9283823  )

     number of k points=    20  Methfessel-Paxton smearing, width (Ry)=  0.0100
                       cart. coord. in units 2pi/alat
        k(    1) = (   0.0000000   0.0000000   0.0000000), wk =   0.0625000
        k(    2) = (   0.0000000   0.2340879   0.0000000), wk =   0.1250000
        k(    3) = (   0.0000000  -0.4681757   0.0000000), wk =   0.0625000
        k(    4) = (   0.2500000   0.0000000   0.0000000), wk =   0.1250000
        k(    5) = (   0.2500000   0.2340879   0.0000000), wk =   0.1250000
        k(    6) = (   0.2500000  -0.4681757   0.0000000), wk =   0.1250000
        k(    7) = (  -0.5000000   0.0000000   0.0000000), wk =   0.0625000
        k(    8) = (  -0.5000000   0.2340879   0.0000000), wk =   0.1250000
        k(    9) = (  -0.5000000  -0.4681757   0.0000000), wk =   0.0625000
        k(   10) = (  -0.2500000   0.2340879   0.0000000), wk =   0.1250000
        k(   11) = (   0.0000000   0.0000000   0.0000000), wk =   0.0625000
        k(   12) = (   0.0000000   0.2340879   0.0000000), wk =   0.1250000
        k(   13) = (   0.0000000  -0.4681757   0.0000000), wk =   0.0625000
        k(   14) = (   0.2500000   0.0000000   0.0000000), wk =   0.1250000
        k(   15) = (   0.2500000   0.2340879   0.0000000), wk =   0.1250000
        k(   16) = (   0.2500000  -0.4681757   0.0000000), wk =   0.1250000
        k(   17) = (  -0.5000000   0.0000000   0.0000000), wk =   0.0625000
        k(   18) = (  -0.5000000   0.2340879   0.0000000), wk =   0.1250000
        k(   19) = (  -0.5000000  -0.4681757   0.0000000), wk =   0.0625000
        k(   20) = (  -0.2500000   0.2340879   0.0000000), wk =   0.1250000

     Largest allocated arrays     est. size (Mb)     dimensions
     Largest temporary arrays     est. size (Mb)     dimensions

     Check: negative/imaginary core charge=   -0.000012    0.000000

     Initial potential from superposition of free atoms
     Check: negative starting charge=(component1):   -0.001547
     Check: negative starting charge=(component2):   -0.000494

     starting charge  221.99984, renormalised to  230.00000

     negative rho (up, down):  0.160E-02 0.512E-03
     Number of +U iterations with fixed ns =  0
     Starting occupations:
 --- enter write_ns ---
 LDA+U parameters:
U( 2)     =  3.00000000
alpha( 2) =  0.00000000
atom    3   Tr[ns(na)] (up, down, total) =   5.00000  0.00000  5.00000
   spin  1
    eigenvalues:
  1.000  1.000  1.000  1.000  1.000
    eigenvectors:
  1.000  0.000  0.000  0.000  0.000
  0.000  1.000  0.000  0.000  0.000
  0.000  0.000  1.000  0.000  0.000
  0.000  0.000  0.000  1.000  0.000
  0.000  0.000  0.000  0.000  1.000
    occupations:
  1.000  0.000  0.000  0.000  0.000
  0.000  1.000  0.000  0.000  0.000
  0.000  0.000  1.000  0.000  0.000
  0.000  0.000  0.000  1.000  0.000
  0.000  0.000  0.000  0.000  1.000
   spin  2
    eigenvalues:
  0.000  0.000  0.000  0.000  0.000
    eigenvectors:
  1.000  0.000  0.000  0.000  0.000
  0.000  1.000  0.000  0.000  0.000
  0.000  0.000  1.000  0.000  0.000
  0.000  0.000  0.000  1.000  0.000
  0.000  0.000  0.000  0.000  1.000
    occupations:
  0.000  0.000  0.000  0.000  0.000
  0.000  0.000  0.000  0.000  0.000
  0.000  0.000  0.000  0.000  0.000
  0.000  0.000  0.000  0.000  0.000
  0.000  0.000  0.000  0.000  0.000
atomic mag. moment =     5.000000
atom    4   Tr[ns(na)] (up, down, total) =   5.00000  0.00000  5.00000
   spin  1
    eigenvalues:
  1.000  1.000  1.000  1.000  1.000
    eigenvectors:
  1.000  0.000  0.000  0.000  0.000
  0.000  1.000  0.000  0.000  0.000
  0.000  0.000  1.000  0.000  0.000
  0.000  0.000  0.000  1.000  0.000
  0.000  0.000  0.000  0.000  1.000
    occupations:
  1.000  0.000  0.000  0.000  0.000
  0.000  1.000  0.000  0.000  0.000
  0.000  0.000  1.000  0.000  0.000
  0.000  0.000  0.000  1.000  0.000
  0.000  0.000  0.000  0.000  1.000
   spin  2
    eigenvalues:
  0.000  0.000  0.000  0.000  0.000
    eigenvectors:
  1.000  0.000  0.000  0.000  0.000
  0.000  1.000  0.000  0.000  0.000
  0.000  0.000  1.000  0.000  0.000
  0.000  0.000  0.000  1.000  0.000
  0.000  0.000  0.000  0.000  1.000
    occupations:
  0.000  0.000  0.000  0.000  0.000
  0.000  0.000  0.000  0.000  0.000
  0.000  0.000  0.000  0.000  0.000
  0.000  0.000  0.000  0.000  0.000
  0.000  0.000  0.000  0.000  0.000
atomic mag. moment =     5.000000
atom    9   Tr[ns(na)] (up, down, total) =   5.00000  0.00000  5.00000
   spin  1
    eigenvalues:
  1.000  1.000  1.000  1.000  1.000
    eigenvectors:
  1.000  0.000  0.000  0.000  0.000
[...]
  0.162  0.002 -0.003  0.111  0.001
  0.002  0.352  0.001 -0.013  0.011
 -0.003  0.001  0.141  0.007 -0.006
  0.111 -0.013  0.007  0.315 -0.001
  0.001  0.011 -0.006 -0.001  0.121
atomic mag. moment =     2.465184
atom    4   Tr[ns(na)] (up, down, total) =   3.50974  1.13401  4.64375
   spin  1
    eigenvalues:
  0.487  0.532  0.606  0.899  0.987
    eigenvectors:
  0.003  0.991  0.000  0.001  0.005
  0.000  0.001  0.020  0.979  0.000
  0.000  0.000  0.980  0.020  0.000
  0.000  0.005  0.000  0.000  0.995
  0.997  0.003  0.000  0.000  0.000
    occupations:
  0.535 -0.011 -0.001  0.032  0.003
 -0.011  0.892  0.041  0.002 -0.000
 -0.001  0.041  0.611  0.002 -0.001
  0.032  0.002  0.002  0.984 -0.000
  0.003 -0.000 -0.001 -0.000  0.487
   spin  2
    eigenvalues:
  0.101  0.126  0.157  0.366  0.384
    eigenvectors:
  0.003  0.002  0.000  0.005  0.989
  0.003  0.942  0.053  0.000  0.002
  0.000  0.053  0.947  0.000  0.000
  0.994  0.003  0.000  0.000  0.003
  0.000  0.000  0.000  0.995  0.005
    occupations:
  0.383  0.013  0.003 -0.015  0.001
  0.013  0.128 -0.007  0.001 -0.000
  0.003 -0.007  0.156  0.000  0.000
 -0.015  0.001  0.000  0.102  0.000
  0.001 -0.000  0.000  0.000  0.366
atomic mag. moment =     2.375730
atom    9   Tr[ns(na)] (up, down, total) =   3.51811  1.16461  4.68271
   spin  1
    eigenvalues:
  0.503  0.509  0.641  0.881  0.984
    eigenvectors:
  0.057  0.120  0.000  0.000  0.823
  0.689  0.311  0.000  0.000  0.000
  0.000  0.000  0.983  0.017  0.000
  0.254  0.569  0.000  0.000  0.177
  0.000  0.000  0.017  0.983  0.000
    occupations:
  0.900  0.003 -0.000 -0.182 -0.000
  0.003  0.505  0.001  0.002 -0.001
 -0.000  0.001  0.645 -0.001 -0.031
 -0.182  0.002 -0.001  0.591  0.002
 -0.000 -0.001 -0.031  0.002  0.877
   spin  2
    eigenvalues:
  0.114  0.138  0.160  0.374  0.378
    eigenvectors:
  0.811  0.000  0.000  0.004  0.185
  0.000  0.000  0.000  0.979  0.021
  0.000  0.061  0.939  0.000  0.000
  0.189  0.000  0.000  0.017  0.795
  0.000  0.939  0.061  0.000  0.000
    occupations:
  0.164  0.000 -0.000  0.103 -0.000
  0.000  0.374 -0.000  0.000  0.000
 -0.000 -0.000  0.159  0.000  0.005
  0.103  0.000  0.000  0.328 -0.000
 -0.000  0.000  0.005 -0.000  0.140
atomic mag. moment =     2.353500
atom   10   Tr[ns(na)] (up, down, total) =   3.61052  1.00423  4.61475
   spin  1
    eigenvalues:
  0.469  0.488  0.746  0.925  0.983
    eigenvectors:
  0.000  0.992  0.000  0.000  0.008
  0.000  0.001  0.000  0.976  0.023
  0.000  0.000  0.999  0.000  0.000
  0.000  0.007  0.000  0.024  0.969
  1.000  0.000  0.000  0.000  0.000
    occupations:
  0.492 -0.013 -0.000  0.043 -0.000
 -0.013  0.926 -0.003 -0.008  0.001
 -0.000 -0.003  0.746  0.000  0.005
  0.043 -0.008  0.000  0.978  0.000
 -0.000  0.001  0.005  0.000  0.469
   spin  2
    eigenvalues:
  0.088  0.138  0.148  0.286  0.344
    eigenvectors:
  0.008  0.000  0.000  0.992  0.000
  0.001  0.999  0.000  0.000  0.000
  0.000  0.000  1.000  0.000  0.000
  0.991  0.001  0.000  0.008  0.000
  0.000  0.000  0.000  0.000  1.000
    occupations:
  0.284  0.000 -0.000 -0.017 -0.000
  0.000  0.138  0.000  0.001 -0.000
 -0.000  0.000  0.148  0.000  0.004
 -0.017  0.001  0.000  0.090 -0.000
 -0.000 -0.000  0.004 -0.000  0.344
atomic mag. moment =     2.606289
atom   16   Tr[ns(na)] (up, down, total) =   3.55185  1.09543  4.64728
   spin  1
    eigenvalues:
  0.471  0.519  0.665  0.913  0.984
    eigenvectors:
  0.034  0.183  0.002  0.000  0.782
  0.890  0.108  0.000  0.000  0.001
  0.000  0.000  0.968  0.029  0.002
  0.076  0.709  0.001  0.000  0.214
  0.000  0.000  0.029  0.971  0.000
    occupations:
  0.881  0.023  0.015 -0.193  0.004
  0.023  0.477  0.003  0.005 -0.006
  0.015  0.003  0.673 -0.006 -0.042
 -0.193  0.005 -0.006  0.615 -0.000
  0.004 -0.006 -0.042 -0.000  0.906
   spin  2
    eigenvalues:
  0.103  0.120  0.145  0.349  0.379
    eigenvectors:
  0.761  0.003  0.019  0.043  0.174
  0.001  0.002  0.000  0.843  0.154
  0.025  0.081  0.894  0.000  0.000
  0.213  0.001  0.003  0.112  0.671
  0.000  0.913  0.084  0.002  0.000
    occupations:
  0.162 -0.002 -0.003  0.111 -0.001
 -0.002  0.353 -0.001  0.013  0.011
 -0.003 -0.001  0.142  0.007  0.007
  0.111  0.013  0.007  0.316  0.001
 -0.001  0.011  0.007  0.001  0.122
atomic mag. moment =     2.456414
atom   17   Tr[ns(na)] (up, down, total) =   3.51571  1.12629  4.64200
   spin  1
    eigenvalues:
  0.484  0.534  0.622  0.889  0.987
    eigenvectors:
  0.003  0.991  0.000  0.001  0.005
  0.000  0.001  0.022  0.977  0.000
  0.000  0.000  0.978  0.022  0.000
  0.000  0.005  0.000  0.000  0.995
  0.997  0.003  0.000  0.000  0.000
    occupations:
  0.536 -0.013 -0.003  0.031  0.003
 -0.013  0.882  0.039  0.001 -0.000
 -0.003  0.039  0.628  0.000  0.001
  0.031  0.001  0.000  0.985 -0.000
  0.003 -0.000  0.001 -0.000  0.485
   spin  2
    eigenvalues:
  0.100  0.124  0.156  0.362  0.383
    eigenvectors:
  0.003  0.003  0.000  0.004  0.990
  0.003  0.934  0.060  0.000  0.003
  0.000  0.059  0.940  0.000  0.000
  0.993  0.004  0.000  0.000  0.003
  0.000  0.000  0.000  0.996  0.004
    occupations:
  0.381  0.015  0.003 -0.015  0.001
  0.015  0.127 -0.007  0.001 -0.000
  0.003 -0.007  0.154  0.000  0.000
 -0.015  0.001  0.000  0.101  0.000
  0.001 -0.000  0.000  0.000  0.363
atomic mag. moment =     2.389426
atom   22   Tr[ns(na)] (up, down, total) =   3.19970  1.58615  4.78585
   spin  1
    eigenvalues:
  0.506  0.553  0.570  0.665  0.905
    eigenvectors:
  0.936  0.003  0.061  0.000  0.000
  0.004  0.996  0.000  0.000  0.000
  0.000  0.000  0.000  0.064  0.936
  0.060  0.001  0.939  0.000  0.000
  0.000  0.000  0.000  0.936  0.064
    occupations:
  0.510 -0.003  0.001 -0.015  0.002
 -0.003  0.553  0.000 -0.000 -0.000
  0.001  0.000  0.890 -0.000  0.059
 -0.015 -0.000 -0.000  0.566 -0.001
  0.002 -0.000  0.059 -0.001  0.680
   spin  2
    eigenvalues:
  0.183  0.243  0.271  0.444  0.445
    eigenvectors:
  0.000  0.000  0.974  0.015  0.011
  0.000  0.000  0.000  0.364  0.636
  0.987  0.013  0.000  0.000  0.000
  0.000  0.000  0.026  0.622  0.353
  0.013  0.987  0.000  0.000  0.000
    occupations:
  0.275 -0.002 -0.000  0.028 -0.000
 -0.002  0.445 -0.000 -0.000  0.000
 -0.000 -0.000  0.184  0.000 -0.007
  0.028 -0.000  0.000  0.440  0.000
 -0.000  0.000 -0.007  0.000  0.243
atomic mag. moment =     1.613553
atom   23   Tr[ns(na)] (up, down, total) =   3.19001  1.60571  4.79572
   spin  1
    eigenvalues:
  0.493  0.559  0.560  0.591  0.987
    eigenvectors:
  0.000  0.005  0.000  0.993  0.002
  0.000  0.994  0.000  0.005  0.000
  0.000  0.000  0.999  0.000  0.000
  0.000  0.000  0.000  0.001  0.998
  0.999  0.000  0.000  0.000  0.000
    occupations:
  0.591  0.002 -0.000  0.015 -0.000
  0.002  0.560 -0.000 -0.005 -0.000
 -0.000 -0.000  0.560 -0.000  0.001
  0.015 -0.005 -0.000  0.986 -0.000
 -0.000 -0.000  0.001 -0.000  0.493
   spin  2
    eigenvalues:
  0.099  0.317  0.324  0.385  0.481
    eigenvectors:
  0.002  0.000  0.001  0.000  0.997
  0.000  0.000  0.998  0.000  0.001
  0.000  1.000  0.000  0.000  0.000
  0.998  0.000  0.000  0.000  0.002
  0.000  0.000  0.000  1.000  0.000
    occupations:
  0.480  0.006  0.000 -0.017 -0.000
  0.006  0.324  0.000  0.002  0.000
  0.000  0.000  0.317 -0.000 -0.001
 -0.017  0.002 -0.000  0.100  0.000
 -0.000  0.000 -0.001  0.000  0.385
atomic mag. moment =     1.584302
N of occupied +U levels =  37.4583774
 --- exit write_ns ---

 ------ SPIN UP ------------

[...]

 ------ SPIN DOWN ----------

[...]

          k = 0.2500-0.4682 0.0000 ( 27150 PWs)   bands (ev):

[...]

          k =-0.2500 0.2341 0.0000 ( 27132 PWs)   bands (ev):

   -74.1866 -73.9961 -72.7430 -72.7205 -72.7036 -72.6559 -72.5874 -72.5658
   -46.2669 -45.8053 -45.2426 -45.2288 -45.1329 -45.0106 -44.4107 -44.3137
   -44.2934 -44.2648 -44.2273 -44.2048 -44.1772 -44.1241 -44.0414 -43.9894
   -43.9872 -43.9582 -43.8523 -43.8314 -43.8118 -43.7175 -43.7123 -43.5779
   -21.3053 -20.8920 -20.7216 -20.6764 -20.5517 -20.2990 -20.2035 -20.1593
   -20.0933 -19.9724 -19.9612 -19.8386 -19.7896 -19.7695 -19.7148 -19.6481
   -19.4968 -19.4236 -19.3337  -8.7559  -8.5363  -8.2571  -8.1210  -8.0109
    -7.7479  -7.6472  -7.5668  -7.4907  -7.4055  -7.2868  -7.1988  -7.1583
    -7.0346  -6.9609  -6.9348  -6.7880  -6.7273  -6.5648  -6.5190  -6.4579
    -6.4094  -6.2907  -6.0975  -6.0262  -5.9782  -5.8052  -5.7444  -5.6757
    -5.6040  -5.5125  -5.4749  -5.3775  -5.3747  -5.2359  -5.1664  -5.1030
    -5.0233  -4.8637  -4.7641  -4.6323  -4.5798  -4.4425  -4.3895  -4.3004
    -4.1994  -4.1023  -4.0683  -4.0269  -3.9605  -3.8609  -3.7245  -3.6943
    -3.5754  -3.4646  -3.3360  -3.1521  -0.1492  -0.0225   0.0755   0.1540
     0.2773   0.4042   0.5389   0.6448   0.7755   0.8370   0.9067   0.9561
     1.0058   1.0653   1.1591   1.1995   1.2473   1.3460   1.3848   1.4736
     1.5607   1.6118   1.6308   1.7269   1.7524   1.8150   1.8544   1.9716
     2.2511   2.3607   2.4898   2.6941   2.7538   2.8034   2.9475   3.0701
     3.1161   3.3076   3.5763   3.6752   3.8116   4.2614   4.4566   4.9466
     5.4330   5.6730   5.7543   6.0805   6.2823   6.4473   6.5168   6.6778
     6.7979   6.9533   7.0450   7.3458   7.4880   7.7897   7.8801   8.0022
     8.3068   8.3480   8.4283   8.5722   8.7226   8.8402   8.9937   9.0742
     9.2450   9.2710   9.4329   9.5649   9.7212   9.8015   9.9234  10.1258
    10.1628  10.2295  10.3205  10.4299  10.4995  10.6487  10.7361  10.8429
    10.9107  11.0116  11.1962  11.2213  11.2947  11.3609  11.5335  11.6131
    11.6597  11.7596  11.8330  11.9072  12.0240  12.0835  12.1812  12.2672
    12.3595  12.4257  12.5228  12.6450  12.7226  12.7980  12.8400  12.9096
    12.9542  12.9940  13.0814  13.1318  13.2116  13.2905  13.3247  13.4130
    13.4758  13.5654  13.6773  13.7617  13.8385  13.9139  13.9732  14.0582
    14.1215  14.2410  14.3330  14.4226  14.4564  14.5030  14.6107  14.6869
    14.7526  14.8214  14.9228  14.9788  15.0283  15.1458  15.2280  15.3397
    15.3915  15.4782  15.5399  15.6428  15.7584  15.8335  15.9535  16.0235
    16.0799  16.1432  16.2027  16.2611  16.3675  16.4295  16.4901  16.5216
    16.6152  16.7529  16.8014  16.8420  16.9185  17.0418  17.0654  17.1059
    17.1863  17.2220  17.3713  17.4454  17.4812  17.5207  17.6027  17.6831
    17.7045  17.7556  17.7969  17.9008  17.9631  18.0288  18.1281  18.2366
    18.2665  18.3188  18.3939  18.4203  18.5820  18.6892  18.7647  18.8122
    18.8666  18.9327  18.9924  19.0276  19.0638  19.2369  19.3321  19.3798
    19.4353  19.4984  19.5901  19.6543  19.6914  19.7668  19.8126  19.8800
    19.9657  20.0419  20.1098  20.1804  20.3030  20.3737  20.4558  20.5254
    20.6276  20.6961  20.7630  20.8362  20.9204  21.0196  21.0905  21.1461
    21.2227  21.2561  21.3365  21.4129  21.4960

     the spin up/dw Fermi energies are    -1.9983   -2.9706 ev

!    total energy              =   -2024.25607983 Ry
     Harris-Foulkes estimate   =   -2024.25607983 Ry
     estimated scf accuracy    <          5.9E-09 Ry

     The total energy is the sum of the following terms:

     one-electron contribution =  -23765.04243678 Ry
     hartree contribution      =   11900.01212629 Ry
     xc contribution           =    -321.87671841 Ry
     ewald contribution        =   10161.13233921 Ry
     Hubbard energy            =       1.51857258 Ry
     smearing contrib. (-TS)   =       0.00003728 Ry

     total magnetization       =    14.00 Bohr mag/cell
     absolute magnetization    =    22.04 Bohr mag/cell

     convergence has been achieved in  20 iterations

     Forces acting on atoms (Ry/au):

     negative rho (up, down):  0.508E-02 0.182E-02
     atom    1 type  1   force =    -0.00327944   -0.01085987    0.00007293
     atom    2 type  1   force =    -0.00105442    0.00578133    0.00003930
     atom    3 type  2   force =     0.05291396   -0.00033063   -0.00023612
     atom    4 type  2   force =    -0.00019925    0.00704508   -0.00053510
     atom    5 type  1   force =    -0.00310121    0.00784598   -0.00002856
     atom    6 type  1   force =    -0.00100584   -0.00611287   -0.00006891
     atom    7 type  1   force =     0.00270240   -0.00207911   -0.00001677
     atom    8 type  1   force =    -0.01562869   -0.00094949    0.00044174
     atom    9 type  2   force =     0.01973976    0.00105090   -0.00052222
     atom   10 type  2   force =     0.00084726   -0.00001936    0.00016749
     atom   11 type  1   force =    -0.00224425   -0.05529505    0.00003219
     atom   12 type  1   force =    -0.00120308    0.05444816   -0.00001291
     atom   13 type  1   force =    -0.03984379    0.00019722   -0.00073155
     atom   14 type  1   force =    -0.00691379   -0.01190379    0.00023781
     atom   15 type  1   force =     0.00028862    0.00573383   -0.00006923
     atom   16 type  2   force =    -0.05789984   -0.00013043   -0.00017899
     atom   17 type  2   force =     0.00842163    0.00684029   -0.00005997
     atom   18 type  1   force =     0.00337972    0.00816509    0.00003323
     atom   19 type  1   force =     0.00580227   -0.00655036    0.00008629
     atom   20 type  1   force =     0.00236326   -0.00246313    0.00041549
     atom   21 type  1   force =     0.01195652    0.00025551    0.00076657
     atom   22 type  2   force =     0.01723697   -0.00028013   -0.00042860
     atom   23 type  2   force =    -0.00118860    0.00018850    0.00044717
     atom   24 type  1   force =    -0.00825071   -0.06008587    0.00010709
     atom   25 type  1   force =    -0.00712106    0.06034201    0.00011251
     atom   26 type  1   force =     0.02311715   -0.00019933   -0.00033335
     atom   27 type  3   force =    -0.00003170   -0.00018963   -0.00006502
     atom   28 type  3   force =    -0.00000112   -0.00011965   -0.00012432
     atom   29 type  3   force =    -0.00010614   -0.00017343    0.00003769
     atom   30 type  3   force =    -0.00012828   -0.00015726    0.00010080
     atom   31 type  1   force =     0.00043169    0.00000551    0.00031329

     Total force =     0.001795     Total SCF correction =     0.000233
     SCF correction compared to forces is large: reduce conv_thr to get better values

     bfgs converged in  14 scf cycles and  13 bfgs steps
     (criteria: energy < 0.10E-03, force < 0.10E-02)

     End of BFGS Geometry Optimization

     Final energy   =   -2024.2560798252 Ry
Begin final coordinates

ATOMIC_POSITIONS (crystal)
O0       0.000000000   0.000000000   0.376470968    0   0   1
O0       0.000000000   0.500000000   0.398019391    0   0   1
Cr1      0.250000000   0.500000000   0.449747716    0   0   1
Cr1      0.000000000   0.000000000   0.448196371    0   0   1
O0       0.250000000   0.800000000   0.448719951    0   0   1
O0       0.250000000   0.200000000   0.448825646    0   0   1
O0       0.000000000   0.500000000   0.497200590    0   0   1
O0       0.000000000   0.000000000   0.522967664    0   0   1
Cr1      0.250000000   0.000000000   0.568400933    0   0   1
Cr1      0.000000000   0.500000000   0.565013133    0   0   1
O0       0.250000000   0.700000000   0.574851951    0   0   1
O0       0.250000000   0.300000000   0.574844914    0   0   1
O0       0.000000000   0.000000000   0.618067381    0   0   1
O0       0.500000000   0.000000000   0.376417196    0   0   1
O0       0.500000000   0.500000000   0.397872705    0   0   1
Cr1      0.750000000   0.500000000   0.449955759    0   0   1
Cr1      0.500000000   0.000000000   0.448331660    0   0   1
O0       0.750000000   0.800000000   0.448718808    0   0   1
O0       0.750000000   0.200000000   0.448777715    0   0   1
O0       0.500000000   0.500000000   0.496555580    0   0   1
O0       0.500000000   0.000000000   0.523031991    0   0   1
Cr1      0.750000000   0.000000000   0.582663625    0   0   1
Cr1      0.500000000   0.500000000   0.589494557    0   0   1
O0       0.750000000   0.700000000   0.576761882    0   0   1
O0       0.750000000   0.300000000   0.576775879    0   0   1
O0       0.500000000   0.000000000   0.618006709    0   0   1
H2      -0.000961567   0.635583470   0.378093401
H2       0.499650721   0.638738801   0.379099037
H2       0.158139595   0.029584121   0.363786118
H2       0.657077504   0.031509280   0.363545766
O0       0.493939324   0.499846006   0.649615004
End final coordinates

     General routines

     Parallel routines
     Hubbard U routines

   This run was terminated on:   2:38:48   6May2014

   JOB DONE.
Running PBS batch system epilogue script
Job id: 340711.audhumbla.fysik.dtu.dk
Username: zhonxu
Groupname: campgst
Jobname: CrO2/Eads-2-layers/O-U-3.0
Sessionid: 10008
Queuename: verylong
Accounting:
This job has allocated the following 16 nodes:
d059 d059 d059 d059 d059 d059 d059 d059 d030 d030 d030 d030 d030 d030 d030 d030
Finished epilogue job 340711.audhumbla.fysik.dtu.dk for zhonxu