     Program PWSCF v.5.0.2 (svn rev. 9656) starts on 24Jan2014 at 14:50:17

     Current dimensions of program PWSCF are:
     Max number of different atomic species (ntypx) = 10
     Max number of k-points (npk) =  40000
     Max angular momentum in pseudopotentials (lmaxx) =  3
     Reading input from CrO2-v-0.90.in

     Subspace diagonalization in iterative solution of the eigenvalue problem:
     a serial algorithm will be used

     bravais-lattice index     =            0
     lattice parameter (alat)  =       8.1678  a.u.
     unit-cell volume          =     351.1516 (a.u.)^3
     number of atoms/cell      =            6
     number of atomic types    =            2
     number of electrons       =        52.00
     number of Kohn-Sham states=           75
     kinetic-energy cutoff     =      40.0000  Ry
     charge density cutoff     =     500.0000  Ry
     convergence threshold     =      1.0E-06
     mixing beta               =       0.3000
     number of iterations used =            8  plain     mixing
     Exchange-correlation      = SLA  PW   PBE  PBE ( 1 4 3 4 0)
     EXX-fraction              =        0.00
     nstep                     =           50

     celldm(1)=   8.167762  celldm(2)=   0.000000  celldm(3)=   0.000000
     celldm(4)=   0.000000  celldm(5)=   0.000000  celldm(6)=   0.000000

     crystal axes: (cart. coord. in units of alat)
               a(1) = (   1.000000   0.000000   0.000000 )
               a(2) = (   0.000000   1.000000   0.000000 )
               a(3) = (   0.000000   0.000000   0.644444 )

     reciprocal axes: (cart. coord. in units 2 pi/alat)
               b(1) = (  1.000000  0.000000  0.000000 )
               b(2) = (  0.000000  1.000000  0.000000 )
               b(3) = (  0.000000  0.000000  1.551724 )

     PseudoPot. # 1 for Cr read from file:
     /home/camp/zhonxu/pseudo/cr_pbe_v1.uspp.F.UPF
     MD5 check sum: 68b6f918d1762dccfb11451fe85b0e0e
     Pseudo is Ultrasoft + core correction, Zval = 14.0
     Generated by new atomic code, or converted to UPF format
     Using radial grid of  857 points,  6 beta functions with:
                l(1) =   0
                l(2) =   0
                l(3) =   1
                l(4) =   1
                l(5) =   2
                l(6) =   2
     Q(r) pseudized with  6 coefficients,  rinner =    1.000   1.000   1.000
                                                       1.000   1.000

     PseudoPot. # 2 for O  read from file:
     /home/camp/zhonxu/pseudo/o_pbe_v1.01.uspp.F.UPF
     MD5 check sum: 2bcb18d16ea4b960afae9ec6d52f22d2
     Pseudo is Ultrasoft + core correction, Zval =  6.0
     Generated by new atomic code, or converted to UPF format
     Using radial grid of  737 points,  5 beta functions with:
                l(1) =   0
                l(2) =   0
                l(3) =   1
                l(4) =   1
                l(5) =   2
     Q(r) pseudized with  8 coefficients,  rinner =    0.900   0.900   0.900
                                                       0.900   0.900

     atomic species   valence    mass     pseudopotential
        Cr0           14.00    51.99600     Cr( 1.00)
        O1             6.00    15.99940     O ( 1.00)

     Starting magnetic structure
     atomic species   magnetization
        Cr0          0.000
        O1           0.000

     16 Sym. Ops., with inversion, found ( 8 have fractional translation)

   Cartesian axes

     site n.     atom                  positions (alat units)
         1           Cr0 tau(   1) = (   0.0000000   0.0000000   0.0000000  )
         2           Cr0 tau(   2) = (   0.5000000   0.5000000   0.3222222  )
         3           O1  tau(   3) = (   0.3050000   0.3050000   0.0000000  )
         4           O1  tau(   4) = (  -0.3050000  -0.3050000   0.0000000  )
         5           O1  tau(   5) = (   0.8050000   0.1950000   0.3222222  )
         6           O1  tau(   6) = (   0.1950000   0.8050000   0.3222222  )

     number of k points=    36  Methfessel-Paxton smearing, width (Ry)=  0.0100
                       cart. coord. in units 2pi/alat
        k(    1) = (   0.0000000   0.0000000   0.0000000), wk =   0.0080000
        k(    2) = (   0.0000000   0.0000000   0.3103448), wk =   0.0160000
        k(    3) = (   0.0000000   0.0000000   0.6206897), wk =   0.0160000
        k(    4) = (   0.0000000   0.2000000   0.0000000), wk =   0.0320000
        k(    5) = (   0.0000000   0.2000000   0.3103448), wk =   0.0640000
        k(    6) = (   0.0000000   0.2000000   0.6206897), wk =   0.0640000
        k(    7) = (   0.0000000   0.4000000   0.0000000), wk =   0.0320000
        k(    8) = (   0.0000000   0.4000000   0.3103448), wk =   0.0640000
        k(    9) = (   0.0000000   0.4000000   0.6206897), wk =   0.0640000
        k(   10) = (   0.2000000   0.2000000   0.0000000), wk =   0.0320000
        k(   11) = (   0.2000000   0.2000000   0.3103448), wk =   0.0640000
        k(   12) = (   0.2000000   0.2000000   0.6206897), wk =   0.0640000
        k(   13) = (   0.2000000   0.4000000   0.0000000), wk =   0.0640000
        k(   14) = (   0.2000000   0.4000000   0.3103448), wk =   0.1280000
        k(   15) = (   0.2000000   0.4000000   0.6206897), wk =   0.1280000
        k(   16) = (   0.4000000   0.4000000   0.0000000), wk =   0.0320000
        k(   17) = (   0.4000000   0.4000000   0.3103448), wk =   0.0640000
        k(   18) = (   0.4000000   0.4000000   0.6206897), wk =   0.0640000
        k(   19) = (   0.0000000   0.0000000   0.0000000), wk =   0.0080000
        k(   20) = (   0.0000000   0.0000000   0.3103448), wk =   0.0160000
        k(   21) = (   0.0000000   0.0000000   0.6206897), wk =   0.0160000
        k(   22) = (   0.0000000   0.2000000   0.0000000), wk =   0.0320000
        k(   23) = (   0.0000000   0.2000000   0.3103448), wk =   0.0640000
        k(   24) = (   0.0000000   0.2000000   0.6206897), wk =   0.0640000
        k(   25) = (   0.0000000   0.4000000   0.0000000), wk =   0.0320000
        k(   26) = (   0.0000000   0.4000000   0.3103448), wk =   0.0640000
        k(   27) = (   0.0000000   0.4000000   0.6206897), wk =   0.0640000
        k(   28) = (   0.2000000   0.2000000   0.0000000), wk =   0.0320000
        k(   29) = (   0.2000000   0.2000000   0.3103448), wk =   0.0640000
        k(   30) = (   0.2000000   0.2000000   0.6206897), wk =   0.0640000
        k(   31) = (   0.2000000   0.4000000   0.0000000), wk =   0.0640000
        k(   32) = (   0.2000000   0.4000000   0.3103448), wk =   0.1280000
        k(   33) = (   0.2000000   0.4000000   0.6206897), wk =   0.1280000
        k(   34) = (   0.4000000   0.4000000   0.0000000), wk =   0.0320000
        k(   35) = (   0.4000000   0.4000000   0.3103448), wk =   0.0640000
        k(   36) = (   0.4000000   0.4000000   0.6206897), wk =   0.0640000

     Largest allocated arrays     est. size (Mb)     dimensions
     Largest temporary arrays     est. size (Mb)     dimensions

     Check: negative/imaginary core charge=   -0.000034    0.000000

     Initial potential from superposition of free atoms

     starting charge   49.99997, renormalised to   52.00000
     Starting wfc are   36 randomized atomic wfcs

     Self-consistent Calculation

     iteration #  1     ecut=    40.00 Ry     beta=0.30
     Davidson diagonalization with overlap
     ethr =  1.00E-02,  avg # of iterations =  5.1

     total energy              =    -480.60214157 Ry
     Harris-Foulkes estimate   =    -481.40069474 Ry
     estimated scf accuracy    <       1.71696367 Ry

     total magnetization       =     0.00 Bohr mag/cell
     absolute magnetization    =     0.00 Bohr mag/cell

[...]

     End of self-consistent calculation

 ------ SPIN UP ------------

          k = 0.0000 0.0000 0.0000 (  1519 PWs)   bands (ev):

   -60.0278 -60.0189 -31.4449 -31.4207 -31.3603 -31.3603 -31.2506 -31.2506
    -8.2076  -6.3402  -5.6820  -5.6820   4.1911   4.8598   5.2685   6.5609
     6.5609   7.9829   7.9829   8.7156  10.4696  10.8267  10.8267  11.1729
    11.9136  12.2574  12.4018  12.4018  12.5776  14.7576  14.8688  17.2116
    17.2116  18.2661  20.7420  24.1049  24.1049  27.4678  27.4802  28.8720
    31.6229  32.4815  32.5225  32.5225  33.5086  36.9497  37.6089  37.6089
    38.1350  39.3492  39.3492  39.8007  39.8335  39.8335  40.0087  42.0817
    44.8998  45.1433  47.3341  47.3341  47.4405  48.1511  48.1511  48.7456
    51.0711  52.4575  52.4575  52.5830  54.5908  54.9749  54.9749  56.1435
    57.2173  57.4896  59.0986

[...]

 ------ SPIN DOWN ----------

[...]

     the Fermi energy is    12.8599 ev

!    total energy              =    -481.06036910 Ry
     Harris-Foulkes estimate   =    -481.06036429 Ry
     estimated scf accuracy    <       0.00000007 Ry

     The total energy is the sum of the following terms:

     one-electron contribution =    -190.10023917 Ry
     hartree contribution      =     124.19597095 Ry
     xc contribution           =     -74.60089584 Ry
     ewald contribution        =    -340.55568419 Ry
     smearing contrib. (-TS)   =       0.00047914 Ry

[...]

     convergence has been achieved in   9 iterations

     Forces acting on atoms (Ry/au):

     atom    1 type  1   force =     0.00000000    0.00000000    0.00000000
     atom    2 type  1   force =     0.00000000    0.00000000    0.00000000
     atom    3 type  2   force =    -0.04113555   -0.04113555    0.00000000
     atom    4 type  2   force =     0.04113555    0.04113555    0.00000000
     atom    5 type  2   force =    -0.04113555    0.04113555    0.00000000
     atom    6 type  2   force =     0.04113555   -0.04113555    0.00000000

     Total force =     0.116349     Total SCF correction =     0.000346

     entering subroutine stress ...

          total   stress  (Ry/bohr**3)                   (kbar)     P=  235.16
   0.00190636   0.00000000   0.00000000        280.43      0.00      0.00
   0.00000000   0.00190636   0.00000000          0.00    280.43      0.00
   0.00000000   0.00000000   0.00098302          0.00      0.00    144.61

     Volume is kept fixed: isostatic pressure set to zero

     BFGS Geometry Optimization

     number of scf cycles    =   1
     number of bfgs steps    =   0

     enthalpy new            =    -481.0603691036 Ry

     new trust radius        =       0.0581744478 bohr
     new conv_thr            =       0.0000010000 Ry

     new unit-cell volume =    351.15161 a.u.^3 (    52.03530 Ang^3 )

CELL_PARAMETERS (alat=  8.16776176)
   1.007754424   0.000000000   0.000000000
   0.000000000   1.007754424   0.000000000
   0.000000000   0.000000000   0.634564916

ATOMIC_POSITIONS (crystal)
Cr0      0.000000000   0.000000000   0.000000000    0   0   0
Cr0      0.500000000   0.500000000   0.500000000    0   0   0
O1       0.299963670   0.299963670   0.000000000    1   1   0
O1      -0.299963670  -0.299963670   0.000000000    1   1   0
O1       0.799963670   0.200036330   0.500000000    1   1   0
O1       0.200036330   0.799963670   0.500000000    1   1   0

     NEW-OLD atomic charge density approx. for the potential
     NEW k-points:
        k(    1) = (   0.0000000   0.0000000   0.0000000), wk =   0.0080000
[...]
        k(   15) = (   0.1984610   0.3969221   0.6303532), wk =   0.1280000
        k(   16) = (   0.3969221   0.3969221   0.0000000), wk =   0.0320000
        k(   17) = (   0.3969221   0.3969221   0.3151766), wk =   0.0640000
        k(   18) = (   0.3969221   0.3969221   0.6303532), wk =   0.0640000
        k(   19) = (   0.0000000   0.0000000   0.0000000), wk =   0.0080000
        k(   20) = (   0.0000000   0.0000000   0.3151766), wk =   0.0160000
        k(   21) = (   0.0000000   0.0000000   0.6303532), wk =   0.0160000
        k(   22) = (   0.0000000   0.1984610   0.0000000), wk =   0.0320000
        k(   23) = (   0.0000000   0.1984610   0.3151766), wk =   0.0640000
        k(   24) = (   0.0000000   0.1984610   0.6303532), wk =   0.0640000
        k(   25) = (   0.0000000   0.3969221   0.0000000), wk =   0.0320000
        k(   26) = (   0.0000000   0.3969221   0.3151766), wk =   0.0640000
        k(   27) = (   0.0000000   0.3969221   0.6303532), wk =   0.0640000
        k(   28) = (   0.1984610   0.1984610   0.0000000), wk =   0.0320000
        k(   29) = (   0.1984610   0.1984610   0.3151766), wk =   0.0640000
        k(   30) = (   0.1984610   0.1984610   0.6303532), wk =   0.0640000
        k(   31) = (   0.1984610   0.3969221   0.0000000), wk =   0.0640000
        k(   32) = (   0.1984610   0.3969221   0.3151766), wk =   0.1280000
        k(   33) = (   0.1984610   0.3969221   0.6303532), wk =   0.1280000
        k(   34) = (   0.3969221   0.3969221   0.0000000), wk =   0.0320000
        k(   35) = (   0.3969221   0.3969221   0.3151766), wk =   0.0640000
        k(   36) = (   0.3969221   0.3969221   0.6303532), wk =   0.0640000

[...]

     enthalpy old            =    -481.0603691036 Ry
     enthalpy new            =    -481.0761339783 Ry

     CASE: enthalpy_new < enthalpy_old

[...]

     Total force =     0.000046     Total SCF correction =     0.000106
     SCF correction compared to forces is large: reduce conv_thr to get better values

[...]

     number of scf cycles    =   5
     number of bfgs steps    =   4

     enthalpy old            =    -481.0904955889 Ry
     enthalpy new            =    -481.0906009757 Ry

     CASE: enthalpy_new < enthalpy_old

     new trust radius        =       0.0028285148 bohr
     new conv_thr            =       0.0000000100 Ry

     new unit-cell volume =    351.15161 a.u.^3 (    52.03530 Ang^3 )

[...]

ATOMIC_POSITIONS (crystal)
Cr0      0.000000000   0.000000000   0.000000000    0   0   0
Cr0      0.500000000   0.500000000   0.500000000    0   0   0
O1       0.289659503   0.289659503   0.000000000    1   1   0
O1      -0.289659503  -0.289659503   0.000000000    1   1   0
O1       0.789659503   0.210340497   0.500000000    1   1   0
O1       0.210340497   0.789659503   0.500000000    1   1   0

     NEW-OLD atomic charge density approx. for the potential
     NEW k-points:
        k(    1) = (   0.0000000   0.0000000   0.0000000), wk =   0.0080000
        k(    2) = (   0.0000000   0.0000000   0.3297369), wk =   0.0160000
        k(    3) = (   0.0000000   0.0000000   0.6594739), wk =   0.0160000
        k(    4) = (   0.0000000   0.1940298   0.0000000), wk =   0.0320000
        k(    5) = (   0.0000000   0.1940298   0.3297369), wk =   0.0640000
        k(    6) = (   0.0000000   0.1940298   0.6594739), wk =   0.0640000
        k(    7) = (   0.0000000   0.3880596   0.0000000), wk =   0.0320000
        k(    8) = (   0.0000000   0.3880596   0.3297369), wk =   0.0640000
        k(    9) = (   0.0000000   0.3880596   0.6594739), wk =   0.0640000
        k(   10) = (   0.1940298   0.1940298   0.0000000), wk =   0.0320000
        k(   11) = (   0.1940298   0.1940298   0.3297369), wk =   0.0640000
        k(   12) = (   0.1940298   0.1940298   0.6594739), wk =   0.0640000
        k(   13) = (   0.1940298   0.3880596   0.0000000), wk =   0.0640000
        k(   14) = (   0.1940298   0.3880596   0.3297369), wk =   0.1280000
        k(   15) = (   0.1940298   0.3880596   0.6594739), wk =   0.1280000
        k(   16) = (   0.3880596   0.3880596   0.0000000), wk =   0.0320000
        k(   17) = (   0.3880596   0.3880596   0.3297369), wk =   0.0640000
        k(   18) = (   0.3880596   0.3880596   0.6594739), wk =   0.0640000
        k(   19) = (   0.0000000   0.0000000   0.0000000), wk =   0.0080000
        k(   20) = (   0.0000000   0.0000000   0.3297369), wk =   0.0160000
        k(   21) = (   0.0000000   0.0000000   0.6594739), wk =   0.0160000
        k(   22) = (   0.0000000   0.1940298   0.0000000), wk =   0.0320000
        k(   23) = (   0.0000000   0.1940298   0.3297369), wk =   0.0640000
        k(   24) = (   0.0000000   0.1940298   0.6594739), wk =   0.0640000
        k(   25) = (   0.0000000   0.3880596   0.0000000), wk =   0.0320000
        k(   26) = (   0.0000000   0.3880596   0.3297369), wk =   0.0640000
        k(   27) = (   0.0000000   0.3880596   0.6594739), wk =   0.0640000
        k(   28) = (   0.1940298   0.1940298   0.0000000), wk =   0.0320000
        k(   29) = (   0.1940298   0.1940298   0.3297369), wk =   0.0640000
        k(   30) = (   0.1940298   0.1940298   0.6594739), wk =   0.0640000
        k(   31) = (   0.1940298   0.3880596   0.0000000), wk =   0.0640000
        k(   32) = (   0.1940298   0.3880596   0.3297369), wk =   0.1280000
        k(   33) = (   0.1940298   0.3880596   0.6594739), wk =   0.1280000
        k(   34) = (   0.3880596   0.3880596   0.0000000), wk =   0.0320000
        k(   35) = (   0.3880596   0.3880596   0.3297369), wk =   0.0640000
        k(   36) = (   0.3880596   0.3880596   0.6594739), wk =   0.0640000

[...]

     Threshold (ethr) on eigenvalues was too large:
     Diagonalizing with lowered threshold

     Davidson diagonalization with overlap
     ethr =  2.51E-09,  avg # of iterations =  2.0

[...]

     Total force =     0.000160     Total SCF correction =     0.000127
     SCF correction compared to forces is large: reduce conv_thr to get better values

[...]

     Volume is kept fixed: isostatic pressure set to zero

     bfgs converged in   6 scf cycles and   5 bfgs steps
     (criteria: energy < 0.10E-03, force < 0.10E-02, cell < 0.50E+00)

     End of BFGS Geometry Optimization

     Final enthalpy =    -481.0906046926 Ry
Begin final coordinates
     new unit-cell volume =    351.15161 a.u.^3 (    52.03530 Ang^3 )

CELL_PARAMETERS (alat=  8.16776176)
   1.030769468   0.000000000   0.000000000
   0.000000000   1.030769468   0.000000000
   0.000000000   0.000000000   0.606544114

ATOMIC_POSITIONS (crystal)
Cr0      0.000000000   0.000000000   0.000000000    0   0   0
Cr0      0.500000000   0.500000000   0.500000000    0   0   0
O1       0.289659503   0.289659503   0.000000000    1   1   0
O1      -0.289659503  -0.289659503   0.000000000    1   1   0
O1       0.789659503   0.210340497   0.500000000    1   1   0
O1       0.210340497   0.789659503   0.500000000    1   1   0
End final coordinates

     A final scf calculation at the relaxed structure.
     The G-vectors are recalculated for the final unit cell
     Results may differ from those at the preceding step.

     bravais-lattice index     =            0
     lattice parameter (alat)  =       8.1678  a.u.
     unit-cell volume          =     351.1516 (a.u.)^3
     number of atoms/cell      =            6
     number of atomic types    =            2
     number of electrons       =        52.00
     number of Kohn-Sham states=           75
     kinetic-energy cutoff     =      40.0000  Ry
     charge density cutoff     =     500.0000  Ry
     convergence threshold     =      1.0E-08
     mixing beta               =       0.3000
     number of iterations used =            8  plain     mixing
     Exchange-correlation      = SLA  PW   PBE  PBE ( 1 4 3 4 0)
     EXX-fraction              =        0.00

     celldm(1)=   8.167762  celldm(2)=   0.000000  celldm(3)=   0.000000
     celldm(4)=   0.000000  celldm(5)=   0.000000  celldm(6)=   0.000000

     crystal axes: (cart. coord. in units of alat)
               a(1) = (   1.030769   0.000000   0.000000 )
               a(2) = (   0.000000   1.030769   0.000000 )
               a(3) = (   0.000000   0.000000   0.606544 )

     reciprocal axes: (cart. coord. in units 2 pi/alat)
               b(1) = (  0.970149  0.000000  0.000000 )
               b(2) = (  0.000000  0.970149  0.000000 )
               b(3) = (  0.000000  0.000000  1.648685 )

     PseudoPot. # 1 for Cr read from file:
     /home/camp/zhonxu/pseudo/cr_pbe_v1.uspp.F.UPF
     MD5 check sum: 68b6f918d1762dccfb11451fe85b0e0e
     Pseudo is Ultrasoft + core correction, Zval = 14.0
     Generated by new atomic code, or converted to UPF format
     Using radial grid of  857 points,  6 beta functions with:
                l(1) =   0
                l(2) =   0
                l(3) =   1
                l(4) =   1
                l(5) =   2
                l(6) =   2
     Q(r) pseudized with  6 coefficients,  rinner =    1.000   1.000   1.000
                                                       1.000   1.000

     PseudoPot. # 2 for O  read from file:
     /home/camp/zhonxu/pseudo/o_pbe_v1.01.uspp.F.UPF
     MD5 check sum: 2bcb18d16ea4b960afae9ec6d52f22d2
     Pseudo is Ultrasoft + core correction, Zval =  6.0
     Generated by new atomic code, or converted to UPF format
     Using radial grid of  737 points,  5 beta functions with:
                l(1) =   0
                l(2) =   0
                l(3) =   1
                l(4) =   1
                l(5) =   2
     Q(r) pseudized with  8 coefficients,  rinner =    0.900   0.900   0.900
                                                       0.900   0.900

     atomic species   valence    mass     pseudopotential
        Cr0           14.00    51.99600     Cr( 1.00)
        O1             6.00    15.99940     O ( 1.00)

     Starting magnetic structure
     atomic species   magnetization
        Cr0          0.000
        O1           0.000

     16 Sym. Ops., with inversion, found ( 8 have fractional translation)

   Cartesian axes

     site n.     atom                  positions (alat units)
         1           Cr0 tau(   1) = (   0.0000000   0.0000000   0.0000000  )
         2           Cr0 tau(   2) = (   0.5153847   0.5153847   0.3032721  )
         3           O1  tau(   3) = (   0.2985722   0.2985722   0.0000000  )
         4           O1  tau(   4) = (  -0.2985722  -0.2985722   0.0000000  )
         5           O1  tau(   5) = (   0.8139569   0.2168126   0.3032721  )
         6           O1  tau(   6) = (   0.2168126   0.8139569   0.3032721  )

     number of k points=    36  Methfessel-Paxton smearing, width (Ry)=  0.0100
                       cart. coord. in units 2pi/alat
        k(    1) = (   0.0000000   0.0000000   0.0000000), wk =   0.0080000
        k(    2) = (   0.0000000   0.0000000   0.3297369), wk =   0.0160000
        k(    3) = (   0.0000000   0.0000000   0.6594739), wk =   0.0160000
        k(    4) = (   0.0000000   0.1940298   0.0000000), wk =   0.0320000
        k(    5) = (   0.0000000   0.1940298   0.3297369), wk =   0.0640000
        k(    6) = (   0.0000000   0.1940298   0.6594739), wk =   0.0640000
        k(    7) = (   0.0000000   0.3880596   0.0000000), wk =   0.0320000
        k(    8) = (   0.0000000   0.3880596   0.3297369), wk =   0.0640000
        k(    9) = (   0.0000000   0.3880596   0.6594739), wk =   0.0640000
        k(   10) = (   0.1940298   0.1940298   0.0000000), wk =   0.0320000
        k(   11) = (   0.1940298   0.1940298   0.3297369), wk =   0.0640000
        k(   12) = (   0.1940298   0.1940298   0.6594739), wk =   0.0640000
        k(   13) = (   0.1940298   0.3880596   0.0000000), wk =   0.0640000
        k(   14) = (   0.1940298   0.3880596   0.3297369), wk =   0.1280000
        k(   15) = (   0.1940298   0.3880596   0.6594739), wk =   0.1280000
        k(   16) = (   0.3880596   0.3880596   0.0000000), wk =   0.0320000
        k(   17) = (   0.3880596   0.3880596   0.3297369), wk =   0.0640000
        k(   18) = (   0.3880596   0.3880596   0.6594739), wk =   0.0640000
        k(   19) = (   0.0000000   0.0000000   0.0000000), wk =   0.0080000
        k(   20) = (   0.0000000   0.0000000   0.3297369), wk =   0.0160000
        k(   21) = (   0.0000000   0.0000000   0.6594739), wk =   0.0160000
        k(   22) = (   0.0000000   0.1940298   0.0000000), wk =   0.0320000
        k(   23) = (   0.0000000   0.1940298   0.3297369), wk =   0.0640000
        k(   24) = (   0.0000000   0.1940298   0.6594739), wk =   0.0640000
        k(   25) = (   0.0000000   0.3880596   0.0000000), wk =   0.0320000
        k(   26) = (   0.0000000   0.3880596   0.3297369), wk =   0.0640000
        k(   27) = (   0.0000000   0.3880596   0.6594739), wk =   0.0640000
        k(   28) = (   0.1940298   0.1940298   0.0000000), wk =   0.0320000
        k(   29) = (   0.1940298   0.1940298   0.3297369), wk =   0.0640000
        k(   30) = (   0.1940298   0.1940298   0.6594739), wk =   0.0640000
        k(   31) = (   0.1940298   0.3880596   0.0000000), wk =   0.0640000
        k(   32) = (   0.1940298   0.3880596   0.3297369), wk =   0.1280000
        k(   33) = (   0.1940298   0.3880596   0.6594739), wk =   0.1280000
        k(   34) = (   0.3880596   0.3880596   0.0000000), wk =   0.0320000
        k(   35) = (   0.3880596   0.3880596   0.3297369), wk =   0.0640000
        k(   36) = (   0.3880596   0.3880596   0.6594739), wk =   0.0640000

     Largest allocated arrays     est. size (Mb)     dimensions
     Largest temporary arrays     est. size (Mb)     dimensions

     Check: negative/imaginary core charge=   -0.000036    0.000000

     Initial potential from superposition of free atoms

     starting charge   49.99997, renormalised to   52.00000
     Starting wfc are   36 randomized atomic wfcs

     Self-consistent Calculation

[...]

     total energy              =    -481.09059369 Ry
     Harris-Foulkes estimate   =    -481.09059259 Ry
     estimated scf accuracy    <       0.00000004 Ry

[...]

     iteration # 11     ecut=    40.00 Ry     beta=0.30
     Davidson diagonalization with overlap
     ethr =  7.88E-11,  avg # of iterations =  1.0

     End of self-consistent calculation

 ------ SPIN UP ------------

[...]

 ------ SPIN DOWN ----------

[...]

          k = 0.3881 0.3881 0.6595 (  1506 PWs)   bands (ev):

   -60.1251 -60.1249 -31.7399 -31.7389 -31.5731 -31.5719 -31.3600 -31.3599
    -6.3743  -6.1979  -6.1235  -5.9436   5.2260   5.4076   5.4663   5.6825
     6.5615   7.0378   7.4200   7.7327   8.9946   9.1872  10.1191  10.3320
    12.3655  12.8236  13.1108  13.5396  13.5571  13.6247  15.6999  16.5240
    16.5324  17.2744  24.3193  24.6522  25.6554  25.8596  28.8246  28.8958
    30.5206  30.5955  30.9472  31.0832  31.3537  31.6988  35.5719  36.6866
    38.2880  38.3771  39.4969  39.9937  42.7148  42.8108  44.7950  45.3957
    46.7760  46.9321  48.4096  48.5739  48.9670  49.5343  51.4516  52.1547
    52.1773  52.7556  53.4240  53.5184  53.7645  53.8614  54.3650  54.6038
    55.6313  56.4735  59.9462

     the Fermi energy is    12.6526 ev

!    total energy              =    -481.09059477 Ry
     Harris-Foulkes estimate   =    -481.09059370 Ry
     estimated scf accuracy    <          4.0E-10 Ry

     The total energy is the sum of the following terms:

     one-electron contribution =    -191.67227279 Ry
     hartree contribution      =     124.79086251 Ry
     xc contribution           =     -74.54522133 Ry
     ewald contribution        =    -339.66426256 Ry
     smearing contrib. (-TS)   =       0.00029940 Ry

     total magnetization       =     0.00 Bohr mag/cell
     absolute magnetization    =     0.00 Bohr mag/cell

     convergence has been achieved in  11 iterations

     Forces acting on atoms (Ry/au):

     atom    1 type  1   force =     0.00000000    0.00000000    0.00000000
     atom    2 type  1   force =     0.00000000    0.00000000   -0.00000000
     atom    3 type  2   force =    -0.00008713   -0.00008713   -0.00000000
     atom    4 type  2   force =     0.00008713    0.00008713   -0.00000000
     atom    5 type  2   force =    -0.00008713    0.00008713    0.00000000
     atom    6 type  2   force =     0.00008713   -0.00008713    0.00000000

     Total force =     0.000246     Total SCF correction =     0.000014

     entering subroutine stress ...

          total   stress  (Ry/bohr**3)                   (kbar)     P=  182.44
   0.00124349   0.00000000   0.00000000        182.92      0.00      0.00
   0.00000000   0.00124349   0.00000000          0.00    182.92      0.00
   0.00000000   0.00000000   0.00123353          0.00      0.00    181.46

     General routines

     Parallel routines

   This run was terminated on:  15: 7:41  24Jan2014

   JOB DONE.