     Program PWSCF v.5.0.2 (svn rev. 9656) starts on 29Apr2014 at  1:17:45

     Current dimensions of program PWSCF are:
     Max number of different atomic species (ntypx) = 10
     Max number of k-points (npk) =  40000
     Max angular momentum in pseudopotentials (lmaxx) =  3
     Reading input from pwscf.in
Warning: card &CELL ignored
Warning: card / ignored

     Subspace diagonalization in iterative solution of the eigenvalue problem:
     a serial algorithm will be used

     bravais-lattice index     =            0
     lattice parameter (alat)  =      10.3179  a.u.
     unit-cell volume          =    6964.3238 (a.u.)^3
     number of atoms/cell      =           32
     number of atomic types    =            3
     number of electrons       =       231.00
     number of Kohn-Sham states=          346
     kinetic-energy cutoff     =      40.0000  Ry
     charge density cutoff     =     500.0000  Ry
     convergence threshold     =      1.0E-06
     mixing beta               =       0.7000
     number of iterations used =            8  plain     mixing
     Exchange-correlation      = SLA  PW   PBE  PBE ( 1 4 3 4 0)
     EXX-fraction              =        0.00
     nstep                     =           50

     celldm(1)=  10.317905  celldm(2)=   0.000000  celldm(3)=   0.000000
     celldm(4)=   0.000000  celldm(5)=   0.000000  celldm(6)=   0.000000

     crystal axes: (cart. coord. in units of alat)
               a(1) = (   1.000000   0.000000   0.000000 )
               a(2) = (   0.000000   1.282117   0.000000 )
               a(3) = (   0.000000   0.000000   4.945120 )

     reciprocal axes: (cart. coord. in units 2 pi/alat)
               b(1) = (  1.000000  0.000000  0.000000 )
               b(2) = (  0.000000  0.779960  0.000000 )
               b(3) = (  0.000000  0.000000  0.202220 )

     PseudoPot. # 1 for O  read from file:
     /home/camp/zhonxu/pseudo/o_pbe_v1.01.uspp.F.UPF
     MD5 check sum: 2bcb18d16ea4b960afae9ec6d52f22d2
     Pseudo is Ultrasoft + core correction, Zval =  6.0
     Generated by new atomic code, or converted to UPF format
     Using radial grid of  737 points,  5 beta functions with:
                l(1) =   0
                l(2) =   0
                l(3) =   1
                l(4) =   1
                l(5) =   2
     Q(r) pseudized with  8 coefficients,  rinner =    0.900   0.900   0.900
                                                       0.900   0.900

     PseudoPot. # 2 for Mo read from file:
     /home/camp/zhonxu/pseudo/mo_pbe_v1.uspp.F.UPF
     MD5 check sum: 30c4dcd161f5d35cd49bb5239c51a633
     Pseudo is Ultrasoft + core correction, Zval = 14.0
     Generated by new atomic code, or converted to UPF format
     Using radial grid of  889 points,  6 beta functions with:
                l(1) =   0
                l(2) =   0
                l(3) =   1
                l(4) =   1
                l(5) =   2
                l(6) =   2
     Q(r) pseudized with  6 coefficients,  rinner =    1.000   1.000   1.000
                                                       1.000   1.000

     PseudoPot. # 3 for H  read from file:
     /home/camp/zhonxu/pseudo/h_pbe_v1.uspp.F.UPF
     MD5 check sum: 3408e3ff4ec8b0a4e358431e7e038a48
     Pseudo is Ultrasoft, Zval =  1.0
     Generated by new atomic code, or converted to UPF format
     Using radial grid of  615 points,  2 beta functions with:
                l(1) =   0
                l(2) =   0
     Q(r) pseudized with  8 coefficients,  rinner =    0.700

     atomic species   valence    mass     pseudopotential
        O0             6.00    15.99940     O ( 1.00)
        Mo1           14.00    95.94000     Mo( 1.00)
        H2             1.00     1.00794     H ( 1.00)

     Simplified LDA+U calculation (l_max = 2) with parameters (eV):
     atomic species    L          U    alpha       J0     beta
        Mo1            2     5.5000   0.0000   0.0000   0.0000

     No symmetry found

   Cartesian axes

     site n.     atom                  positions (alat units)
         1           O0  tau(   1) = (   0.0000000   0.0000000   1.8362221  )
         2           O0  tau(   2) = (   0.0000000   0.6410583   1.8932888  )
         3           Mo1 tau(   3) = (   0.2500000   0.6410583   2.1787211  )
         4           Mo1 tau(   4) = (   0.0000000   0.0000000   2.1942488  )
         5           O0  tau(   5) = (   0.2500000   1.0000510   2.1917762  )
         6           O0  tau(   6) = (   0.2500000   0.2820657   2.1916279  )
         7           O0  tau(   7) = (   0.0000000   0.6410583   2.4619282  )
         8           O0  tau(   8) = (   0.0000000   0.0000000   2.5552920  )
         9           Mo1 tau(   9) = (   0.2500000   0.0000000   2.8451750  )
        10           Mo1 tau(  10) = (   0.0000000   0.6410583   2.7951798  )
        11           O0  tau(  11) = (   0.2500000   0.9231240   2.8229220  )
        12           O0  tau(  12) = (   0.2500000   0.3589927   2.8238121  )
        13           O0  tau(  13) = (   0.0000000   0.0000000   3.0959420  )
        14           O0  tau(  14) = (   0.5000000   0.0000000   1.8365188  )
        15           O0  tau(  15) = (   0.5000000   0.6410583   1.8939316  )
        16           Mo1 tau(  16) = (   0.7500000   0.6410583   2.1784244  )
        17           Mo1 tau(  17) = (   0.5000000   0.0000000   2.1964741  )
        18           O0  tau(  18) = (   0.7500000   1.0000510   2.1920730  )
        19           O0  tau(  19) = (   0.7500000   0.2820657   2.1913806  )
        20           O0  tau(  20) = (   0.5000000   0.6410583   2.4641535  )
        21           O0  tau(  21) = (   0.5000000   0.0000000   2.5544514  )
        22           Mo1 tau(  22) = (   0.7500000   0.0000000   2.8455212  )
        23           Mo1 tau(  23) = (   0.5000000   0.6410583   2.8262846  )
        24           O0  tau(  24) = (   0.7500000   0.9231240   2.8210923  )
        25           O0  tau(  25) = (   0.7500000   0.3589927   2.8208450  )
        26           O0  tau(  26) = (   0.5000000   0.0000000   3.0950519  )
        27           H2  tau(  27) = (  -0.0007600   0.7828861   1.7821225  )
        28           H2  tau(  28) = (   0.4995000   0.7914763   1.7941391  )
        29           H2  tau(  29) = (   0.1669200   0.0220268   1.7647651  )
        30           H2  tau(  30) = (   0.6653100   0.0245269   1.7632816  )
        31           O0  tau(  31) = (   0.5147600   0.6413532   3.1767948  )
        32           H2  tau(  32) = (   0.3891500   0.6353401   3.3044778  )

     number of k points=    10  Methfessel-Paxton smearing, width (Ry)=  0.0100
                       cart. coord. in units 2pi/alat
        k(    1) = (   0.0000000   0.0000000   0.0000000), wk =   0.1250000
        k(    2) = (   0.0000000   0.1949901   0.0000000), wk =   0.2500000
        k(    3) = (   0.0000000  -0.3899801   0.0000000), wk =   0.1250000
        k(    4) = (   0.2500000   0.0000000   0.0000000), wk =   0.2500000
        k(    5) = (   0.2500000   0.1949901   0.0000000), wk =   0.2500000
        k(    6) = (   0.2500000  -0.3899801   0.0000000), wk =   0.2500000
        k(    7) = (  -0.5000000   0.0000000   0.0000000), wk =   0.1250000
        k(    8) = (  -0.5000000   0.1949901   0.0000000), wk =   0.2500000
        k(    9) = (  -0.5000000  -0.3899801   0.0000000), wk =   0.1250000
        k(   10) = (  -0.2500000   0.1949901   0.0000000), wk =   0.2500000

     Largest allocated arrays     est. size (Mb)     dimensions
     Largest temporary arrays     est. size (Mb)     dimensions

     Check: negative/imaginary core charge=   -0.000003    0.000000

     Initial potential from superposition of free atoms
     Check: negative starting charge=   -0.002345

     starting charge  230.99142, renormalised to  231.00000

     negative rho (up, down):  0.235E-02 0.000E+00
     Number of +U iterations with fixed ns =  0
     Starting occupations:
 --- enter write_ns ---
 LDA+U parameters:
U( 2)     =  5.50000000
alpha( 2) =  0.00000000
atom    3   Tr[ns(na)] =   5.00000
    eigenvalues:
  0.500  0.500  0.500  0.500  0.500
    eigenvectors:
  1.000  0.000  0.000  0.000  0.000
  0.000  1.000  0.000  0.000  0.000
  0.000  0.000  1.000  0.000  0.000
  0.000  0.000  0.000  1.000  0.000
  0.000  0.000  0.000  0.000  1.000
    occupations:
  0.500  0.000  0.000  0.000  0.000
  0.000  0.500  0.000  0.000  0.000
  0.000  0.000  0.500  0.000  0.000
  0.000  0.000  0.000  0.500  0.000
  0.000  0.000  0.000  0.000  0.500
atom    4   Tr[ns(na)] =   5.00000
    eigenvalues:
  0.500  0.500  0.500  0.500  0.500
    eigenvectors:
  1.000  0.000  0.000  0.000  0.000
  0.000  1.000  0.000  0.000  0.000
  0.000  0.000  1.000  0.000  0.000
  0.000  0.000  0.000  1.000  0.000
  0.000  0.000  0.000  0.000  1.000
    occupations:
  0.500  0.000  0.000  0.000  0.000
  0.000  0.500  0.000  0.000  0.000
  0.000  0.000  0.500  0.000  0.000
  0.000  0.000  0.000  0.500  0.000
  0.000  0.000  0.000  0.000  0.500
atom    9   Tr[ns(na)] =   5.00000
    eigenvalues:
  0.500  0.500  0.500  0.500  0.500
    eigenvectors:
  1.000  0.000  0.000  0.000  0.000
  0.000  1.000  0.000  0.000  0.000
  0.000  0.000  1.000  0.000  0.000
  0.000  0.000  0.000  1.000  0.000
  0.000  0.000  0.000  0.000  1.000
    occupations:
  0.500  0.000  0.000  0.000  0.000
  0.000  0.500  0.000  0.000  0.000
  0.000  0.000  0.500  0.000  0.000
  0.000  0.000  0.000  0.500  0.000
  0.000  0.000  0.000  0.000  0.500
atom   10   Tr[ns(na)] =   5.00000
    eigenvalues:
  0.500  0.500  0.500  0.500  0.500
    eigenvectors:
  1.000  0.000  0.000  0.000  0.000
  0.000  1.000  0.000  0.000  0.000
  0.000  0.000  1.000  0.000  0.000
  0.000  0.000  0.000  1.000  0.000
  0.000  0.000  0.000  0.000  1.000
    occupations:
  0.500  0.000  0.000  0.000  0.000
  0.000  0.500  0.000  0.000  0.000
  0.000  0.000  0.500  0.000  0.000
  0.000  0.000  0.000  0.500  0.000
  0.000  0.000  0.000  0.000  0.500
atom   16   Tr[ns(na)] =   5.00000
    eigenvalues:
  0.500  0.500  0.500  0.500  0.500
    eigenvectors:
  1.000  0.000  0.000  0.000  0.000
  0.000  1.000  0.000  0.000  0.000
  0.000  0.000  1.000  0.000  0.000
  0.000  0.000  0.000  1.000  0.000
  0.000  0.000  0.000  0.000  1.000
    occupations:
  0.500  0.000  0.000  0.000  0.000
  0.000  0.500  0.000  0.000  0.000
  0.000  0.000  0.500  0.000  0.000
  0.000  0.000  0.000  0.500  0.000
  0.000  0.000  0.000  0.000  0.500
atom   17   Tr[ns(na)] =   5.00000
    eigenvalues:
  0.500  0.500  0.500  0.500  0.500
    eigenvectors:
  1.000  0.000  0.000  0.000  0.000
  0.000  1.000  0.000  0.000  0.000
  0.000  0.000  1.000  0.000  0.000
  0.000  0.000  0.000  1.000  0.000
  0.000  0.000  0.000  0.000  1.000
    occupations:
  0.500  0.000  0.000  0.000  0.000
  0.000  0.500  0.000  0.000  0.000
  0.000  0.000  0.500  0.000  0.000
  0.000  0.000  0.000  0.500  0.000
  0.000  0.000  0.000  0.000  0.500
atom   22   Tr[ns(na)] =   5.00000
    eigenvalues:
  0.500  0.500  0.500  0.500  0.500
    eigenvectors:
  1.000  0.000  0.000  0.000  0.000
  0.000  1.000  0.000  0.000  0.000
  0.000  0.000  1.000  0.000  0.000
  0.000  0.000  0.000  1.000  0.000
  0.000  0.000  0.000  0.000  1.000
[...]
  0.000  0.000  0.000  0.000  0.999
  0.000  1.000  0.000  0.000  0.000
    occupations:
  0.587  0.005  0.002  0.002  0.000
  0.005  0.654  0.002 -0.003 -0.000
  0.002  0.002  0.375  0.001  0.000
  0.002 -0.003  0.001  0.774 -0.000
  0.000 -0.000  0.000 -0.000  0.521
atom    9   Tr[ns(na)] =   5.83476
    eigenvalues:
  0.459  0.499  0.603  0.606  0.750
    eigenvectors:
  0.000  0.000  0.170  0.041  0.789
  0.000  0.000  0.201  0.799  0.000
  0.100  0.900  0.000  0.000  0.000
  0.000  0.000  0.629  0.160  0.211
  0.900  0.100  0.000  0.000  0.000
    occupations:
  0.719 -0.001  0.000 -0.060 -0.001
 -0.001  0.605 -0.001 -0.001 -0.000
  0.000 -0.001  0.495 -0.000  0.012
 -0.060 -0.001 -0.000  0.635  0.000
 -0.001 -0.000  0.012  0.000  0.463
atom   10   Tr[ns(na)] =   5.74785
    eigenvalues:
  0.345  0.458  0.509  0.713  0.848
    eigenvectors:
  0.001  0.989  0.000  0.010  0.000
  0.000  0.000  0.000  0.000  1.000
  0.999  0.001  0.000  0.000  0.000
  0.000  0.010  0.000  0.990  0.000
  0.000  0.000  1.000  0.000  0.000
    occupations:
  0.460 -0.002 -0.003  0.026 -0.000
 -0.002  0.848 -0.001 -0.000 -0.001
 -0.003 -0.001  0.346 -0.001  0.000
  0.026 -0.000 -0.001  0.711 -0.000
 -0.000 -0.001  0.000 -0.000  0.509
atom   16   Tr[ns(na)] =   5.81797
    eigenvalues:
  0.412  0.505  0.573  0.639  0.780
    eigenvectors:
  0.011  0.007  0.300  0.000  0.682
  0.000  0.984  0.013  0.003  0.001
  0.979  0.000  0.001  0.009  0.010
  0.001  0.007  0.685  0.001  0.307
  0.009  0.002  0.001  0.987  0.000
    occupations:
  0.712 -0.010  0.034 -0.095 -0.002
 -0.010  0.507 -0.001 -0.003 -0.007
  0.034 -0.001  0.419 -0.016  0.021
 -0.095 -0.003 -0.016  0.636  0.002
 -0.002 -0.007  0.021  0.002  0.636
atom   17   Tr[ns(na)] =   5.82392
    eigenvalues:
  0.388  0.521  0.589  0.643  0.772
    eigenvectors:
  0.000  0.000  0.989  0.011  0.000
  0.000  0.000  0.011  0.989  0.001
  1.000  0.000  0.000  0.000  0.000
  0.000  0.000  0.000  0.001  0.999
  0.000  1.000  0.000  0.000  0.000
    occupations:
  0.589  0.006  0.002  0.002  0.000
  0.006  0.643  0.002 -0.003 -0.001
  0.002  0.002  0.388 -0.003  0.001
  0.002 -0.003 -0.003  0.772  0.000
  0.000 -0.001  0.001  0.000  0.521
atom   22   Tr[ns(na)] =   5.83301
    eigenvalues:
  0.456  0.501  0.603  0.606  0.750
    eigenvectors:
  0.000  0.000  0.151  0.061  0.788
  0.000  0.000  0.296  0.704  0.000
  0.103  0.897  0.000  0.000  0.000
  0.000  0.000  0.554  0.234  0.212
  0.897  0.103  0.000  0.000  0.000
    occupations:
  0.719  0.001 -0.000 -0.060 -0.003
  0.001  0.605 -0.000  0.001 -0.000
 -0.000 -0.000  0.497  0.000 -0.014
 -0.060  0.001  0.000  0.635  0.002
 -0.003 -0.000 -0.014  0.002  0.461
atom   23   Tr[ns(na)] =   5.85614
    eigenvalues:
  0.470  0.498  0.529  0.606  0.825
    eigenvectors:
  0.014  0.000  0.000  0.976  0.011
  0.985  0.001  0.000  0.013  0.000
  0.001  0.998  0.000  0.000  0.000
  0.000  0.000  0.000  0.011  0.989
  0.000  0.000  0.999  0.000  0.000
    occupations:
  0.607  0.016  0.000 -0.022  0.000
  0.016  0.472 -0.001 -0.003  0.001
  0.000 -0.001  0.498 -0.000 -0.001
 -0.022 -0.003 -0.000  0.823  0.000
  0.000  0.001 -0.001  0.000  0.529
N of occupied +U levels =  46.5535017
 --- exit write_ns ---

     Threshold (ethr) on eigenvalues was too large:
     Diagonalizing with lowered threshold

     Davidson diagonalization with overlap
     ethr =  2.81E-09,  avg # of iterations =  3.0

[...]

     total energy              =   -1729.92051173 Ry
     Harris-Foulkes estimate   =   -1729.92051173 Ry
     estimated scf accuracy    <       0.00000003 Ry

     iteration # 14     ecut=    40.00 Ry     beta=0.70
     Davidson diagonalization with overlap
     ethr =  1.10E-11,  avg # of iterations =  1.0

     negative rho (up, down):  0.342E-02 0.000E+00

     End of self-consistent calculation
 --- enter write_ns ---
 LDA+U parameters:
U( 2)     =  5.50000000
alpha( 2) =  0.00000000
atom    3   Tr[ns(na)] =   5.81983
    eigenvalues:
  0.411  0.507  0.572  0.644  0.776
    eigenvectors:
  0.011  0.006  0.297  0.000  0.686
  0.000  0.984  0.013  0.003  0.000
  0.981  0.000  0.001  0.008  0.010
  0.001  0.007  0.688  0.000  0.304
  0.008  0.002  0.001  0.988  0.000
    occupations:
  0.710  0.009  0.033 -0.093  0.003
  0.009  0.508  0.001  0.003 -0.007
  0.033  0.001  0.417 -0.015 -0.020
 -0.093  0.003 -0.015  0.634 -0.003
  0.003 -0.007 -0.020 -0.003  0.642
atom    4   Tr[ns(na)] =   5.82024
    eigenvalues:
  0.375  0.521  0.587  0.654  0.774
    eigenvectors:
  0.000  0.000  0.994  0.006  0.000
  0.000  0.000  0.006  0.993  0.000
  1.000  0.000  0.000  0.000  0.000
  0.000  0.000  0.000  0.000  0.999
  0.000  1.000  0.000  0.000  0.000
    occupations:
  0.587  0.005  0.002  0.002  0.000
  0.005  0.654  0.002 -0.003 -0.000
  0.002  0.002  0.375  0.001  0.000
  0.002 -0.003  0.001  0.773 -0.000
  0.000 -0.000  0.000 -0.000  0.521
atom    9   Tr[ns(na)] =   5.83402
    eigenvalues:
  0.458  0.499  0.603  0.606  0.750
    eigenvectors:
  0.000  0.000  0.169  0.043  0.789
  0.000  0.000  0.206  0.794  0.000
  0.099  0.901  0.000  0.000  0.000
  0.000  0.000  0.625  0.164  0.211
  0.901  0.099  0.000  0.000  0.000
    occupations:
  0.719 -0.001  0.000 -0.060 -0.001
 -0.001  0.605 -0.001 -0.001 -0.000
  0.000 -0.001  0.495 -0.000  0.012
 -0.060 -0.001 -0.000  0.635  0.000
 -0.001 -0.000  0.012  0.000  0.462
atom   10   Tr[ns(na)] =   5.74851
    eigenvalues:
  0.346  0.458  0.509  0.713  0.848
    eigenvectors:
  0.001  0.989  0.000  0.010  0.000
  0.000  0.000  0.000  0.000  1.000
  0.999  0.001  0.000  0.000  0.000
  0.000  0.010  0.000  0.990  0.000
  0.000  0.000  1.000  0.000  0.000
    occupations:
  0.460 -0.002 -0.003  0.025 -0.000
 -0.002  0.848 -0.001 -0.000 -0.001
 -0.003 -0.001  0.346 -0.001  0.000
  0.025 -0.000 -0.001  0.711 -0.000
 -0.000 -0.001  0.000 -0.000  0.509
atom   16   Tr[ns(na)] =   5.81792
    eigenvalues:
  0.412  0.505  0.573  0.639  0.780
    eigenvectors:
  0.011  0.007  0.300  0.000  0.682
  0.000  0.984  0.013  0.003  0.001
  0.979  0.000  0.001  0.009  0.010
  0.001  0.007  0.685  0.001  0.307
  0.009  0.002  0.001  0.988  0.000
    occupations:
  0.712 -0.010  0.034 -0.095 -0.002
 -0.010  0.507 -0.001 -0.003 -0.007
  0.034 -0.001  0.418 -0.016  0.021
 -0.095 -0.003 -0.016  0.636  0.002
 -0.002 -0.007  0.021  0.002  0.636
atom   17   Tr[ns(na)] =   5.82404
    eigenvalues:
  0.388  0.521  0.589  0.643  0.772
    eigenvectors:
  0.000  0.000  0.989  0.011  0.000
  0.000  0.000  0.011  0.988  0.001
  1.000  0.000  0.000  0.000  0.000
  0.000  0.000  0.000  0.001  0.999
  0.000  1.000  0.000  0.000  0.000
    occupations:
  0.589  0.006  0.002  0.002  0.000
  0.006  0.643  0.002 -0.003 -0.001
  0.002  0.002  0.388 -0.003  0.001
  0.002 -0.003 -0.003  0.772  0.000
  0.000 -0.001  0.001  0.000  0.521
atom   22   Tr[ns(na)] =   5.83299
    eigenvalues:
  0.456  0.502  0.603  0.606  0.750
    eigenvectors:
  0.000  0.000  0.152  0.060  0.788
  0.000  0.000  0.289  0.711  0.000
  0.103  0.897  0.000  0.000  0.000
  0.000  0.000  0.559  0.229  0.212
  0.897  0.103  0.000  0.000  0.000
    occupations:
  0.719  0.001 -0.000 -0.060 -0.003
  0.001  0.605 -0.000  0.001 -0.000
 -0.000 -0.000  0.497  0.000 -0.014
 -0.060  0.001  0.000  0.635  0.002
 -0.003 -0.000 -0.014  0.002  0.461
atom   23   Tr[ns(na)] =   5.85557
    eigenvalues:
  0.470  0.498  0.529  0.606  0.825
    eigenvectors:
  0.014  0.000  0.000  0.976  0.011
  0.985  0.001  0.000  0.013  0.000
  0.001  0.998  0.000  0.000  0.000
  0.000  0.000  0.000  0.011  0.989
  0.000  0.000  0.999  0.000  0.000
    occupations:
  0.607  0.016  0.000 -0.022  0.000
  0.016  0.472 -0.001 -0.003  0.001
  0.000 -0.001  0.498 -0.000 -0.001
 -0.022 -0.003 -0.000  0.823  0.000
  0.000  0.001 -0.001  0.000  0.529
N of occupied +U levels =  46.5531154
 --- exit write_ns ---

[...]

          k = 0.2500-0.3900 0.0000 ( 29726 PWs)   bands (ev):

[...]

          k =-0.2500 0.1950 0.0000 ( 29746 PWs)   bands (ev):

   -62.3360 -62.3125 -62.2238 -61.8635 -61.8259 -61.7794 -61.7451 -61.5552
   -36.8885 -36.8630 -36.7629 -36.6851 -36.4442 -36.2201 -36.2161 -36.2123
   -36.1463 -36.1458 -36.1202 -36.0886 -36.0786 -36.0757 -36.0332 -35.9802
   -35.9764 -35.9153 -35.9010 -35.8864 -35.8494 -35.3740 -35.3293 -35.2391
   -20.3463 -20.0634 -19.8048 -19.6427 -19.5034 -19.3452 -19.2478 -19.1870
   -19.1177 -19.0777 -18.9119 -18.7646 -18.7413 -18.6995 -18.5722 -18.4856
   -18.3565 -18.0958 -17.9274  -8.6216  -8.3390  -8.2003  -8.1368  -7.8077
    -7.6683  -7.5422  -7.4300  -7.4142  -7.2768  -7.1298  -6.9992  -6.7633
    -6.7370  -6.4451  -6.3975  -6.3028  -6.1982  -6.0817  -5.9094  -5.7962
    -5.7383  -5.6216  -5.4318  -5.3642  -5.1591  -5.0580  -4.9611  -4.7904
    -4.7270  -4.6033  -4.5081  -4.3966  -4.3522  -4.2589  -4.2024  -4.1781
    -4.1456  -4.0963  -4.0008  -3.8765  -3.7265  -3.6076  -3.5450  -3.4887
    -3.4334  -3.3255  -3.2409  -3.1439  -3.1353  -2.9714  -2.9458  -2.7897
    -2.6986  -2.6104  -2.5455  -2.2696  -1.9361  -1.7899  -1.6924  -0.7011
    -0.6376  -0.4492  -0.2757   0.4623   0.6342   0.7665   0.8914   1.0116
     1.1897   1.2910   1.4268   1.5248   1.5948   1.7127   1.7783   1.8312
     1.9462   2.0885   2.2323   2.5096   2.8067   3.5453   3.6806   3.7944
     3.9714   4.1439   4.1940   4.3512   4.5744   4.5984   4.6939   4.8735
     4.9122   5.0037   5.0927   5.3430   5.7150   5.9117   5.9659   6.0923
     6.2381   6.3335   6.4231   6.5030   6.5816   6.8296   7.1127   7.1573
     7.2597   7.3710   7.6223   7.6954   8.0068   8.1320   8.3145   8.3813
     8.5279   8.6443   8.7659   8.8894   8.9645   9.0929   9.1415   9.2999
     9.4384   9.4891   9.5825   9.6537   9.7262   9.8537   9.8703   9.9807
    10.1280  10.3596  10.3999  10.4786  10.5429  10.7222  10.7787  10.8732
    10.9476  11.0475  11.1732  11.2350  11.3982  11.5386  11.6729  11.6876
    11.8249  11.8869  11.9299  12.0546  12.0893  12.2062  12.2875  12.3514
    12.4146  12.4637  12.5114  12.6611  12.7683  12.8804  12.9931  13.0562
    13.1145  13.2062  13.2778  13.3590  13.3830  13.4790  13.5229  13.5698
    13.6760  13.7792  13.8445  13.9161  13.9705  14.0267  14.0543  14.1259
    14.2092  14.2397  14.2825  14.3650  14.3985  14.4970  14.5461  14.6400
    14.7177  14.7749  14.8608  14.9494  15.0204  15.1336  15.1664  15.2855
    15.3673  15.4514  15.5423  15.5995  15.6331  15.7535  15.8088  15.9721
    15.9970  16.0471  16.1139  16.1502  16.2393  16.3422  16.4190  16.4573
    16.4943  16.5317  16.5886  16.6724  16.7969  16.8397  16.8711  16.9833
    17.0774  17.1227  17.2102  17.2692  17.2886  17.3620  17.4332  17.4953
    17.5277  17.6068  17.7047  17.8283  17.9213  17.9876  18.0676  18.1163
    18.2120  18.2759  18.3362  18.3544  18.4381  18.5767  18.6116  18.7422
    18.7863  18.8754  18.9703  19.0170  19.0529  19.1437  19.2630  19.2947
    19.3836  19.4522  19.5487  19.6142  19.8049  19.8235  19.9524  19.9813
    20.0259  20.1190  20.1325  20.1724  20.2383  20.2710  20.3471  20.3644
    20.4036  20.4906  20.5260  20.6052  20.6443  20.7562  20.7911  20.8466
    20.9038  21.0296  21.0519  21.1456  21.2463  21.2942  21.3554  21.3922
    21.4556  21.4964  21.5306  21.6017  21.6406  21.7051  21.7410  21.7931
    21.8217  21.8889

     the Fermi energy is     0.0992 ev

!    total energy              =   -1729.92051173 Ry
     Harris-Foulkes estimate   =   -1729.92051173 Ry
     estimated scf accuracy    <          6.3E-09 Ry

     The total energy is the sum of the following terms:

     one-electron contribution =  -22251.31467969 Ry
     hartree contribution      =   11152.14521722 Ry
     xc contribution           =    -294.61668658 Ry
     ewald contribution        =    9660.20361741 Ry
     Hubbard energy            =       3.66186714 Ry
     smearing contrib. (-TS)   =       0.00015277 Ry

     convergence has been achieved in  14 iterations

     Forces acting on atoms (Ry/au):

     negative rho (up, down):  0.342E-02 0.000E+00
     atom    1 type  1   force =    -0.00134319   -0.00520179    0.00078448
     atom    2 type  1   force =    -0.00016996    0.00600816    0.00024502
     atom    3 type  2   force =     0.02377370   -0.00576033   -0.00005100
     atom    4 type  2   force =    -0.00066549    0.00391409   -0.00012496
     atom    5 type  1   force =     0.00220926   -0.01778829   -0.00010365
     atom    6 type  1   force =     0.00081721    0.01569165   -0.00012019
     atom    7 type  1   force =    -0.00103105    0.00315315   -0.00013687
     atom    8 type  1   force =     0.00342335   -0.00020512   -0.00021372
     atom    9 type  2   force =    -0.00141479   -0.00052183   -0.00064729
     atom   10 type  2   force =    -0.00397986    0.00087464    0.00071062
     atom   11 type  1   force =    -0.01424541    0.00409192    0.00013919
     atom   12 type  1   force =    -0.01377925   -0.00458600    0.00030781
     atom   13 type  1   force =     0.00075225    0.00031721   -0.00021017
     atom   14 type  1   force =    -0.00060242   -0.00476893    0.00047673
     atom   15 type  1   force =    -0.00069403    0.00868636    0.00005757
     atom   16 type  2   force =    -0.01908263   -0.00695553   -0.00005155
     atom   17 type  2   force =    -0.00147785    0.00432391    0.00000023
     atom   18 type  1   force =     0.00088497   -0.01895223   -0.00005188
     atom   19 type  1   force =    -0.00143062    0.01673127   -0.00005496
     atom   20 type  1   force =    -0.00854084   -0.00074526   -0.00088110
     atom   21 type  1   force =     0.00387820    0.00124176   -0.00012209
     atom   22 type  2   force =    -0.00328376    0.00007475    0.00034298
     atom   23 type  2   force =     0.01040053    0.00237445   -0.00097149
     atom   24 type  1   force =     0.01269244    0.00262198    0.00009044
     atom   25 type  1   force =     0.01296745   -0.00397279    0.00002403
     atom   26 type  1   force =    -0.00071062    0.00016303   -0.00010814
     atom   27 type  3   force =     0.00004390    0.00054325    0.00099866
     atom   28 type  3   force =    -0.00000975   -0.00008127   -0.00001188
     atom   29 type  3   force =    -0.00044594   -0.00017044    0.00007488
     atom   30 type  3   force =    -0.00036624   -0.00018936   -0.00022033
     atom   31 type  1   force =     0.00071931    0.00007506    0.00004933
     atom   32 type  3   force =     0.00071112   -0.00098749   -0.00022070

     Total force =     0.002790     Total SCF correction =     0.000183

     bfgs converged in  15 scf cycles and  14 bfgs steps
     (criteria: energy < 0.10E-03, force < 0.10E-02)

     End of BFGS Geometry Optimization

     Final energy   =   -1729.9205117283 Ry
Begin final coordinates

ATOMIC_POSITIONS (crystal)
O0       0.000000000   0.000000000   0.370893466    0   0   1
O0       0.000000000   0.500000000   0.383371859    0   0   1
Mo1      0.250000000   0.500000000   0.441369681    0   0   1
Mo1      0.000000000   0.000000000   0.442876839    0   0   1
O0       0.250000000   0.780000000   0.443215261    0   0   1
O0       0.250000000   0.220000000   0.443110499    0   0   1
O0       0.000000000   0.500000000   0.497268309    0   0   1
O0       0.000000000   0.000000000   0.516408794    0   0   1
Mo1      0.250000000   0.000000000   0.574425933    0   0   1
Mo1      0.000000000   0.500000000   0.567040486    0   0   1
O0       0.250000000   0.720000000   0.571135593    0   0   1
O0       0.250000000   0.280000000   0.571278477    0   0   1
O0       0.000000000   0.000000000   0.625068400    0   0   1
O0       0.500000000   0.000000000   0.370949745    0   0   1
O0       0.500000000   0.500000000   0.382942134    0   0   1
Mo1      0.750000000   0.500000000   0.441134513    0   0   1
Mo1      0.500000000   0.000000000   0.442845585    0   0   1
O0       0.750000000   0.780000000   0.443166201    0   0   1
O0       0.750000000   0.220000000   0.443052247    0   0   1
O0       0.500000000   0.500000000   0.500988736    0   0   1
O0       0.500000000   0.000000000   0.516026104    0   0   1
Mo1      0.750000000   0.000000000   0.574436219    0   0   1
Mo1      0.500000000   0.500000000   0.571266310    0   0   1
O0       0.750000000   0.720000000   0.571394681    0   0   1
O0       0.750000000   0.280000000   0.571367812    0   0   1
O0       0.500000000   0.000000000   0.624936318    0   0   1
H2      -0.000842780   0.614030212   0.362061256
H2       0.499558683   0.611459218   0.360806390
H2       0.165786174   0.019217544   0.356077010
H2       0.665824837   0.019335582   0.356139265
O0       0.498864240   0.500564295   0.641469561
H2       0.395312481   0.492055860   0.670826314
End final coordinates

     General routines

     Parallel routines
     Hubbard U routines

   This run was terminated on:  15:31:40  29Apr2014

   JOB DONE.