     Program PWSCF v.5.0.2 (svn rev. 9656) starts on 28Mar2014 at  5:53:59

     Current dimensions of program PWSCF are:
     Max number of different atomic species (ntypx) = 10
     Max number of k-points (npk) =  40000
     Max angular momentum in pseudopotentials (lmaxx) =  3
     Reading input from pwscf.in
Warning: card &CELL ignored
Warning: card / ignored

     Subspace diagonalization in iterative solution of the eigenvalue problem:
     a serial algorithm will be used

     bravais-lattice index     =            0
     lattice parameter (alat)  =      12.0187  a.u.
     unit-cell volume          =    9939.8055 (a.u.)^3
     number of atoms/cell      =           49
     number of atomic types    =            2
     number of electrons       =       438.00
     number of Kohn-Sham states=          657
     kinetic-energy cutoff     =      40.0000  Ry
     charge density cutoff     =     500.0000  Ry
     convergence threshold     =      1.0E-06
     mixing beta               =       0.3000
     number of iterations used =            8  plain     mixing
     Exchange-correlation      = SLA  PW   PBE  PBE ( 1 4 3 4 0)
     EXX-fraction              =        0.00
     nstep                     =           50

     celldm(1)=  12.018658  celldm(2)=   0.000000  celldm(3)=   0.000000
     celldm(4)=   0.000000  celldm(5)=   0.000000  celldm(6)=   0.000000

     crystal axes: (cart. coord. in units of alat)
               a(1) = (   1.000000   0.000000   0.000000 )
               a(2) = (   0.000000   1.009517   0.000000 )
               a(3) = (   0.000000   0.000000   5.671477 )

     reciprocal axes: (cart. coord. in units 2 pi/alat)
               b(1) = (  1.000000  0.000000  0.000000 )
               b(2) = (  0.000000  0.990572  0.000000 )
               b(3) = (  0.000000  0.000000  0.176321 )

     PseudoPot. # 1 for O  read from file:
     /home/camp/zhonxu/pseudo/o_pbe_v1.01.uspp.F.UPF
     MD5 check sum: 2bcb18d16ea4b960afae9ec6d52f22d2
     Pseudo is Ultrasoft + core correction, Zval =  6.0
     Generated by new atomic code, or converted to UPF format
     Using radial grid of  737 points,  5 beta functions with:
                l(1) =   0
                l(2) =   0
                l(3) =   1
                l(4) =   1
                l(5) =   2
     Q(r) pseudized with  8 coefficients,  rinner =    0.900   0.900   0.900
                                                       0.900   0.900

     PseudoPot. # 2 for Ir read from file:
     /home/camp/zhonxu/pseudo/ir_pbe_v1.uspp.F.UPF
     MD5 check sum: abf987a9674477536ede83817f8f8b70
     Pseudo is Ultrasoft + core correction, Zval = 15.0
     Generated by new atomic code, or converted to UPF format
     Using radial grid of  983 points,  7 beta functions with:
                l(1) =   0
                l(2) =   0
                l(3) =   1
                l(4) =   1
                l(5) =   1
                l(6) =   2
                l(7) =   2
     Q(r) pseudized with  8 coefficients,  rinner =    1.350   1.350   1.350
                                                       1.350   1.350

     atomic species   valence    mass     pseudopotential
        O0             6.00    15.99940     O ( 1.00)
        Ir1           15.00   192.22000     Ir( 1.00)

      4 Sym. Ops. (no inversion) found

   Cartesian axes

     site n.     atom                  positions (alat units)
         1           O0  tau(   1) = (   0.0000000   0.5047586   1.8867871  )
         2           Ir1 tau(   2) = (   0.2500000   0.5047586   2.0785964  )
         3           Ir1 tau(   3) = (   0.0000000   0.0000000   2.0785964  )
         4           O0  tau(   4) = (   0.2500000   0.8177090   2.0785964  )
         5           O0  tau(   5) = (   0.2500000   0.1918083   2.0785964  )
         6           O0  tau(   6) = (   0.0000000   0.5047586   2.2704058  )
         7           O0  tau(   7) = (   0.0000000   0.0000000   2.3915485  )
         8           Ir1 tau(   8) = (   0.2500000   0.0000000   2.5833579  )
         9           Ir1 tau(   9) = (   0.0000000   0.5047586   2.5833579  )
        10           O0  tau(  10) = (   0.2500000   0.6965669   2.5833579  )
        11           O0  tau(  11) = (   0.2500000   0.3129503   2.5833579  )
        12           O0  tau(  12) = (   0.0000000   0.0000000   2.7751673  )
        13           O0  tau(  13) = (   0.0000000   0.5047586   2.8930773  )
        14           Ir1 tau(  14) = (   0.2500000   0.5047586   3.0864747  )
        15           Ir1 tau(  15) = (   0.0000000   0.0000000   3.0901611  )
        16           O0  tau(  16) = (   0.2500000   0.8161846   3.0894805  )
        17           O0  tau(  17) = (   0.2500000   0.1933326   3.0894805  )
        18           O0  tau(  18) = (   0.0000000   0.5047586   3.2780572  )
        19           O0  tau(  19) = (   0.0000000   0.0000000   3.4018655  )
        20           Ir1 tau(  20) = (   0.2500000   0.0000000   3.5996299  )
        21           Ir1 tau(  21) = (   0.0000000   0.5047586   3.5839199  )
        22           O0  tau(  22) = (   0.2500000   0.6968899   3.6045641  )
        23           O0  tau(  23) = (   0.2500000   0.3126273   3.6045641  )
        24           O0  tau(  24) = (   0.0000000   0.0000000   3.7852574  )
        25           O0  tau(  25) = (   0.5000000   0.5047586   1.8867871  )
        26           Ir1 tau(  26) = (   0.7500000   0.5047586   2.0785964  )
        27           Ir1 tau(  27) = (   0.5000000   0.0000000   2.0785964  )
        28           O0  tau(  28) = (   0.7500000   0.8177090   2.0785964  )
        29           O0  tau(  29) = (   0.7500000   0.1918083   2.0785964  )
        30           O0  tau(  30) = (   0.5000000   0.5047586   2.2704058  )
        31           O0  tau(  31) = (   0.5000000   0.0000000   2.3915485  )
        32           Ir1 tau(  32) = (   0.7500000   0.0000000   2.5833579  )
        33           Ir1 tau(  33) = (   0.5000000   0.5047586   2.5833579  )
        34           O0  tau(  34) = (   0.7500000   0.6965669   2.5833579  )
        35           O0  tau(  35) = (   0.7500000   0.3129503   2.5833579  )
        36           O0  tau(  36) = (   0.5000000   0.0000000   2.7751673  )
        37           O0  tau(  37) = (   0.5000000   0.5047586   2.8930773  )
        38           Ir1 tau(  38) = (   0.7500000   0.5047586   3.0864747  )
        39           Ir1 tau(  39) = (   0.5000000   0.0000000   3.0901611  )
        40           O0  tau(  40) = (   0.7500000   0.8161846   3.0894805  )
        41           O0  tau(  41) = (   0.7500000   0.1933326   3.0894805  )
        42           O0  tau(  42) = (   0.5000000   0.5047586   3.2780572  )
        43           O0  tau(  43) = (   0.5000000   0.0000000   3.4018655  )
        44           Ir1 tau(  44) = (   0.7500000   0.0000000   3.5996299  )
        45           Ir1 tau(  45) = (   0.5000000   0.5047586   3.5839199  )
        46           O0  tau(  46) = (   0.7500000   0.6968899   3.6045641  )
        47           O0  tau(  47) = (   0.7500000   0.3126273   3.6045641  )
        48           O0  tau(  48) = (   0.5000000   0.0000000   3.7852574  )
        49           O0  tau(  49) = (   0.5000000   0.5047586   3.7538374  )

     number of k points=     9  Methfessel-Paxton smearing, width (Ry)=  0.0100
                       cart. coord. in units 2pi/alat
        k(    1) = (   0.0000000   0.0000000   0.0000000), wk =   0.1250000
        k(    2) = (   0.0000000   0.2476431   0.0000000), wk =   0.2500000
        k(    3) = (   0.0000000  -0.4952862   0.0000000), wk =   0.1250000
        k(    4) = (   0.2500000   0.0000000   0.0000000), wk =   0.2500000
        k(    5) = (   0.2500000   0.2476431   0.0000000), wk =   0.5000000
        k(    6) = (   0.2500000  -0.4952862   0.0000000), wk =   0.2500000
        k(    7) = (  -0.5000000   0.0000000   0.0000000), wk =   0.1250000
        k(    8) = (  -0.5000000   0.2476431   0.0000000), wk =   0.2500000
        k(    9) = (  -0.5000000  -0.4952862   0.0000000), wk =   0.1250000

     Largest allocated arrays     est. size (Mb)     dimensions
     Largest temporary arrays     est. size (Mb)     dimensions

     Check: negative/imaginary core charge=   -0.000003    0.000000

     Initial potential from superposition of free atoms
     Check: negative starting charge=   -6.657176

     starting charge  429.99945, renormalised to  438.00000

     negative rho (up, down):  0.678E+01 0.000E+00
     Starting wfc are  324 randomized atomic wfcs

     Self-consistent Calculation

     iteration #  1     ecut=    40.00 Ry     beta=0.30
     Davidson diagonalization with overlap
     ethr =  1.00E-02,  avg # of iterations =  8.6

     negative rho (up, down):  0.638E+01 0.000E+00

     total energy              =   -3975.54094185 Ry
     Harris-Foulkes estimate   =   -4049.43976337 Ry
     estimated scf accuracy    <     149.46945403 Ry

[...]

     End of self-consistent calculation

          k = 0.0000 0.0000 0.0000 ( 42445 PWs)   bands (ev):

   -63.0415 -53.7490 -53.5495 -49.0972 -49.0893 -49.0766 -49.0651 -49.0496
   -49.0417 -49.0372 -49.0302 -49.0212 -49.0179 -49.0156 -49.0125 -48.9948
   -48.9846 -48.9689 -48.9599 -48.9470 -48.9321 -48.9254 -48.9185 -48.8806
   -48.8656 -48.8573 -48.8565 -48.8252 -48.8122 -48.8008 -48.7895 -48.7826
   -48.7744 -48.7661 -48.7573 -48.7550 -48.6778 -48.6717 -48.6700 -48.5715
   -48.5570 -48.5253 -48.5165 -48.4405 -48.4257 -48.4125 -48.3974 -48.2543
   -22.5899 -19.6691 -19.5452 -19.2868 -19.0714 -18.9443 -18.7001 -18.6054
   -18.4181 -18.4097 -18.3921 -18.2873 -18.2811 -18.2530 -18.2343 -18.2172
   -18.1908 -18.1450 -18.0989 -18.0520 -18.0213 -17.9051 -17.8545 -17.7973
   -17.7891 -17.7423 -17.5986 -17.5456 -17.4970 -17.3768 -17.1938 -16.5501
   -16.4419 -16.2626 -16.2261 -12.6286  -8.7044  -8.1726  -8.1485  -8.0820
    -7.7565  -7.7046  -7.6776  -7.0122  -6.9385  -6.7880  -6.7378  -6.5974
    -6.5899  -6.5881  -6.5792  -6.5787  -6.5454  -6.5023  -6.4989  -6.4304
    -6.4244  -6.4202  -6.3940  -6.2879  -6.2062  -6.1273  -6.1186  -6.0837
    -6.0459  -5.9171  -5.8617  -5.8511  -5.8337  -5.8009  -5.6455  -5.5691
    -5.4953  -5.1366  -5.1311  -4.8445  -4.7862  -4.7303  -4.3950  -4.2956
    -4.2645  -4.2224  -4.1794  -4.1745  -4.0916  -4.0618  -3.8863  -3.8798
    -3.8059  -3.7435  -3.7297  -3.6818  -3.6587  -3.6121  -3.5957  -3.5877
    -3.5000  -3.4535  -3.3144  -3.2551  -3.2215  -3.1817  -3.1142  -3.0454
    -3.0075  -2.9776  -2.9479  -2.9094  -2.9083  -2.9010  -2.7803  -2.7250
    -2.7176  -2.5727  -2.5510  -2.4128  -2.2554  -2.2294  -2.0987  -2.0411
    -2.0010  -1.9579  -1.9385  -1.9273  -1.9072  -1.8334  -1.6248  -1.6030
    -1.5638  -1.2612  -1.2045  -1.1015  -1.0846  -1.0831  -1.0760  -1.0489
    -1.0227  -0.9743  -0.8514  -0.8147  -0.7064  -0.6883  -0.6235  -0.5890
    -0.5693  -0.5324  -0.4938  -0.4571  -0.4359  -0.3544  -0.3535  -0.2635
    -0.1623  -0.1533  -0.1399  -0.1364   0.0667   0.1462   0.2910   0.3866
     0.4546   0.5597   0.5638   0.5697   0.6631   0.7552   0.9047   1.1025
     1.1948   1.3209   1.4197   1.4298   1.4667   1.5607   1.6417   1.6946
     1.8163   1.9353   2.0269   2.0738   2.1425   2.3923   2.5809   2.7462
[...]
Ir1      0.250000000   0.500000000   0.544210000    0   0   0
Ir1      0.000000000   0.000000000   0.544860000    0   0   0
O0       0.250000000   0.808490000   0.544740000    0   0   0
O0       0.250000000   0.191510000   0.544740000    0   0   0
O0       0.000000000   0.500000000   0.577990000    0   0   0
O0       0.000000000   0.000000000   0.599820000    0   0   0
Ir1      0.250000000   0.000000000   0.634690000    0   0   0
Ir1      0.000000000   0.500000000   0.631920000    0   0   0
O0       0.250000000   0.690320000   0.635560000    0   0   0
O0       0.250000000   0.309680000   0.635560000    0   0   0
O0       0.000000000   0.000000000   0.667420000    0   0   0
O0       0.500000000   0.500000000   0.332680000    0   0   0
Ir1      0.750000000   0.500000000   0.366500000    0   0   0
Ir1      0.500000000   0.000000000   0.366500000    0   0   0
O0       0.750000000   0.810000000   0.366500000    0   0   0
O0       0.750000000   0.190000000   0.366500000    0   0   0
O0       0.500000000   0.500000000   0.400320000    0   0   0
O0       0.500000000   0.000000000   0.421680000    0   0   0
Ir1      0.750000000   0.000000000   0.455500000    0   0   0
Ir1      0.500000000   0.500000000   0.455500000    0   0   0
O0       0.750000000   0.690000000   0.455500000    0   0   0
O0       0.750000000   0.310000000   0.455500000    0   0   0
O0       0.500000000   0.000000000   0.489320000    0   0   0
O0       0.500000000   0.500000000   0.510110000    0   0   0
Ir1      0.750000000   0.500000000   0.544210000    0   0   0
Ir1      0.500000000   0.000000000   0.544860000    0   0   0
O0       0.750000000   0.808490000   0.544740000    0   0   0
O0       0.750000000   0.191510000   0.544740000    0   0   0
O0       0.500000000   0.500000000   0.577990000    0   0   0
O0       0.500000000   0.000000000   0.599820000    0   0   0
Ir1      0.750000000   0.000000000   0.634690000    0   0   0
Ir1      0.500000000   0.500000000   0.631920000    0   0   0
O0       0.750000000   0.690320000   0.635560000    0   0   0
O0       0.750000000   0.309680000   0.635560000    0   0   0
O0       0.500000000   0.000000000   0.667420000    0   0   0
O0       0.500000000   0.500000000   0.681459588

     Check: negative starting charge=   -6.666932
     NEW-OLD atomic charge density approx. for the potential

     Check: negative/imaginary core charge=   -0.000003    0.000000
     Check: negative starting charge=   -6.666934

[...]

     Self-consistent Calculation

[...]

     Threshold (ethr) on eigenvalues was too large:
     Diagonalizing with lowered threshold

     Davidson diagonalization with overlap
     ethr =  5.98E-09,  avg # of iterations =  1.0

[...]

     total energy              =   -4041.78095871 Ry
     Harris-Foulkes estimate   =   -4041.78095871 Ry
     estimated scf accuracy    <       0.00000003 Ry

     iteration # 12     ecut=    40.00 Ry     beta=0.30
     Davidson diagonalization with overlap
     ethr =  5.42E-12,  avg # of iterations =  1.0

     negative rho (up, down):  0.624E+01 0.000E+00

     End of self-consistent calculation

[...]

          k = 0.2500-0.4953 0.0000 ( 42460 PWs)   bands (ev):

[...]

          k =-0.5000-0.4953 0.0000 ( 42596 PWs)   bands (ev):

   -50.6112 -50.2877 -50.2431 -49.7514 -49.7449 -49.7445 -49.7357 -49.7354
   -49.7258 -49.7258 -49.7222 -49.7154 -49.7143 -49.7135 -49.7130 -49.7012
   -49.7006 -49.6870 -49.6860 -49.6746 -49.6744 -49.6739 -49.6597 -49.5644
   -49.5643 -49.5354 -49.5352 -49.5025 -49.4981 -49.4981 -49.4922 -49.4915
   -49.4691 -49.4530 -49.4470 -49.4016 -49.4010 -49.3982 -49.3834 -49.3556
   -49.3498 -49.2674 -49.2672 -49.2510 -49.2510 -49.0837 -49.0788 -49.0693
   -19.6000 -19.5484 -19.4829 -19.4818 -19.2497 -19.2243 -19.1707 -19.1702
   -18.9731 -18.9711 -18.9556 -18.9260 -18.9064 -18.8962 -18.8496 -18.8428
   -18.8232 -18.8205 -18.7870 -18.7794 -18.7498 -18.7035 -18.6914 -18.6682
   -18.5383 -18.5151 -18.4539 -18.4536 -17.2108 -17.1432 -17.0187 -17.0049
   -16.7933  -7.9473  -7.9169  -7.8290  -7.8194  -7.2949  -7.2889  -7.2098
    -7.1950  -7.1739  -7.1726  -7.1688  -7.1598  -7.1517  -7.0571  -7.0567
    -6.9749  -6.8198  -6.8104  -6.7862  -6.7777  -6.7617  -6.7598  -6.7269
    -6.7257  -6.7167  -6.6524  -6.6523  -6.6296  -6.6006  -6.5774  -6.5736
    -6.5632  -6.4720  -6.4331  -6.3896  -6.3862  -6.3185  -6.3093  -6.2541
    -6.2515  -5.6902  -5.6386  -5.6348  -5.5710  -5.3529  -5.3222  -5.2973
    -5.2928  -5.2593  -5.1174  -5.0831  -5.0630  -5.0527  -4.9689  -4.9655
    -4.9395  -4.8966  -4.8850  -4.8770  -4.8498  -4.6569  -4.6535  -4.6246
    -4.5968  -4.5224  -4.4967  -4.4111  -4.4058  -4.3896  -4.3284  -4.3246
    -4.3177  -4.0000  -3.9254  -3.8791  -3.8596  -3.3350  -3.2531  -3.2464
    -3.1462  -3.0105  -2.9832  -2.9684  -2.9103  -2.8616  -2.7586  -2.6639
    -2.6615  -2.6449  -2.6220  -2.4945  -2.4765  -2.4434  -2.3903  -2.3022
    -2.1652  -2.1006  -1.7503  -1.5841  -1.4074  -1.3953  -1.3335  -1.2612
    -1.0809  -1.0726  -0.9911  -0.9815  -0.9727  -0.9398  -0.8207  -0.7915
    -0.6997  -0.6919  -0.6763  -0.6145  -0.4103  -0.3372  -0.3272  -0.2972
    -0.2838  -0.2235  -0.2227  -0.0137   0.0752   0.0956   0.1177   0.1324
     0.2061   0.2179   0.2713   0.2760   0.2957   0.3750   0.4436   0.4759
     0.4862   0.5002   0.5084   0.6192   0.6227   0.6468   0.6715   0.6775
     0.6918   0.7317   0.8572   0.9312   1.3539   1.3622   1.7798   2.3072
     2.5328   2.5347   2.5459   2.5570   2.7483   2.7522   2.7702   2.9496
     2.9569   2.9577   3.0309   3.6715   3.7534   3.7580   3.7936   4.0604
     4.0920   4.1074   4.1448   4.5942   4.6024   4.6263   4.6736   4.9175
     4.9538   4.9622   4.9733   5.1821   6.3830   6.3833   7.1195   7.8236
     7.8306   8.0559   8.0642   8.0939   8.1985   8.2182   8.2210   8.4055
     8.4651   8.4979   8.5909   8.5937   8.6624   8.6645   8.6645   8.7355
     9.0012   9.0061   9.0162   9.0555   9.0610   9.1041   9.1589   9.3019
     9.5619   9.6127   9.6537   9.6599   9.7475   9.7676   9.8067   9.8765
    10.0126  10.1699  10.1699  10.1964  10.2226  10.2240  10.2241  10.2279
    10.2342  10.3126  10.3147  10.3276  10.3279  10.3497  10.3498  10.4155
    10.4974  10.4986  10.5020  10.5459  10.6256  10.6681  10.7198  10.8693
    11.0124  11.0307  11.1846  11.4165  11.4229  11.4272  11.4739  11.5815
    11.5876  11.5957  11.5997  11.6389  11.7437  11.7440  11.7947  11.9240
    12.1036  12.1054  12.1142  12.1605  12.2777  12.2907  12.5744  12.6580
    12.8112  12.8128  12.8604  13.2266  13.2315  13.2660  13.4381  13.4410
    13.5401  13.5500  13.5606  13.6210  13.7182  13.7939  13.8954  13.9151
    13.9408  13.9819  14.0713  14.1882  14.2526  14.3940  14.4003  14.4678
    14.4765  14.5541  14.5854  14.5943  14.6175  14.7707  14.8348  14.8534
    14.8813  14.9283  15.0181  15.0523  15.1098  15.2095  15.2419  15.2485
    15.4154  15.4910  15.5216  15.5404  15.5431  15.6396  15.6405  15.6407
    15.6507  15.6661  15.6864  15.7228  15.7939  15.8008  15.8238  15.9047
    15.9109  15.9296  15.9634  16.0142  16.0156  16.0334  16.0599  16.0809
    16.0872  16.1051  16.1530  16.1697  16.1923  16.2081  16.2392  16.3221
    16.3497  16.3629  16.3981  16.5544  16.5547  16.5715  16.5913  16.6256
    16.7141  16.7210  16.7305  16.7457  16.7598  16.7683  16.8667  16.8864
    16.9151  16.9776  16.9800  17.0650  17.1639  17.1943  17.2151  17.2176
    17.4674  17.5131  17.5134  17.5153  17.5668  17.5805  17.5923  17.5962
    17.6888  17.7241  17.7250  17.7273  17.8293  17.8489  17.8636  17.9103
    17.9174  17.9319  17.9381  18.0704  18.0721  18.0729  18.1290  18.2410
    18.4304  18.4657  18.4800  18.5183  18.6920  18.7112  18.7902  18.8150
    18.9375  18.9501  18.9562  18.9577  19.0187  19.0206  19.0286  19.1266
[...]
    22.9578  22.9764  23.0417  23.0667  23.1004  23.1294  23.1474  23.1611
    23.2130  23.2366  23.2736  23.3238  23.3275  23.3647  23.3707  23.4421
    23.4496  23.4899  23.4963  23.6474  23.6537  23.6564  23.6760  23.7743
    23.8055  23.8134  23.8263  23.8934  23.9300  23.9424  23.9652  23.9708
    24.0359  24.0704  24.0881  24.0889  24.1089  24.1209  24.1853  24.2496
    24.3374  24.3445  24.3530  24.3991  24.4335  24.4472  24.4714  24.4829
    24.6755  24.6855  24.6901  24.7671  24.7786  24.8512  24.9031  24.9205
    24.9722  25.0349  25.0972  25.1590  25.2092  25.2333  25.3121  25.4034
    25.4158  25.4996  25.5272  25.5303  25.5674  25.5802  25.6261  25.6651
    25.6851  25.6929  25.7470  25.7488  25.7667  25.7853  25.8450  25.8514
    26.0136  26.0263  26.0279  26.0731  26.1638  26.2332  26.2829  26.3256
    26.3729  26.4070  26.4321  26.5086  26.5986  26.6037  26.6044  26.6464
    26.7059  26.7119  26.7583  26.8111  26.9412  26.9476  26.9881  27.0155
    27.0216  27.0469  27.0921  27.2232  27.2532  27.2632  27.2697  27.4097
    27.5267

     the Fermi energy is     0.6599 ev

!    total energy              =   -4041.78095871 Ry
     Harris-Foulkes estimate   =   -4041.78095871 Ry
     estimated scf accuracy    <          6.4E-09 Ry

     The total energy is the sum of the following terms:

     one-electron contribution =  -78634.35726674 Ry
     hartree contribution      =   39411.79948939 Ry
     xc contribution           =   -1111.33279539 Ry
     ewald contribution        =   36292.10938907 Ry
     smearing contrib. (-TS)   =       0.00022495 Ry

     convergence has been achieved in  12 iterations

     Forces acting on atoms (Ry/au):

     negative rho (up, down):  0.624E+01 0.000E+00
     atom    1 type  1   force =     0.00000000    0.00000000    0.02583437
     atom    2 type  2   force =    -0.00064085    0.00000000   -0.03758042
     atom    3 type  2   force =     0.00000000    0.00000000    0.06761910
     atom    4 type  1   force =     0.00015554   -0.01229828   -0.02624342
     atom    5 type  1   force =     0.00015554    0.01229828   -0.02624342
     atom    6 type  1   force =     0.00000000    0.00000000    0.01726174
     atom    7 type  1   force =     0.00000000    0.00000000   -0.01530488
     atom    8 type  2   force =     0.00084735    0.00000000   -0.01129175
     atom    9 type  2   force =     0.00000000    0.00000000   -0.02094631
     atom   10 type  1   force =    -0.00049713    0.01165068   -0.00228325
     atom   11 type  1   force =    -0.00049713   -0.01165068   -0.00228325
     atom   12 type  1   force =     0.00000000    0.00000000    0.02628336
     atom   13 type  1   force =     0.00000000    0.00000000    0.01101535
     atom   14 type  2   force =     0.01849057    0.00000000   -0.00957334
     atom   15 type  2   force =     0.00000000    0.00000000    0.00051875
     atom   16 type  1   force =    -0.00029316    0.00028145   -0.00058307
     atom   17 type  1   force =    -0.00029316   -0.00028145   -0.00058307
     atom   18 type  1   force =     0.00000000    0.00000000    0.00343418
     atom   19 type  1   force =     0.00000000    0.00000000    0.00340303
     atom   20 type  2   force =     0.00792966    0.00000000    0.00693020
     atom   21 type  2   force =     0.00000000    0.00000000    0.01539827
     atom   22 type  1   force =    -0.01650123    0.00935531   -0.03661121
     atom   23 type  1   force =    -0.01650123   -0.00935531   -0.03661121
     atom   24 type  1   force =     0.00000000    0.00000000   -0.00348629
     atom   25 type  1   force =     0.00000000    0.00000000    0.02634493
     atom   26 type  2   force =     0.00064085    0.00000000   -0.03758042
     atom   27 type  2   force =     0.00000000    0.00000000    0.06787367
     atom   28 type  1   force =    -0.00015554   -0.01229828   -0.02624342
     atom   29 type  1   force =    -0.00015554    0.01229828   -0.02624342
     atom   30 type  1   force =     0.00000000    0.00000000    0.02070530
     atom   31 type  1   force =     0.00000000    0.00000000   -0.01740201
     atom   32 type  2   force =    -0.00084735    0.00000000   -0.01129175
     atom   33 type  2   force =     0.00000000    0.00000000   -0.01680437
     atom   34 type  1   force =     0.00049713    0.01165068   -0.00228325
     atom   35 type  1   force =     0.00049713   -0.01165068   -0.00228325
     atom   36 type  1   force =     0.00000000    0.00000000    0.02582987
     atom   37 type  1   force =     0.00000000    0.00000000   -0.00252558
     atom   38 type  2   force =    -0.01849057    0.00000000   -0.00957334
     atom   39 type  2   force =     0.00000000    0.00000000   -0.00052611
     atom   40 type  1   force =     0.00029316    0.00028145   -0.00058307
     atom   41 type  1   force =     0.00029316   -0.00028145   -0.00058307
     atom   42 type  1   force =     0.00000000    0.00000000   -0.01297978
     atom   43 type  1   force =     0.00000000    0.00000000   -0.00163907
     atom   44 type  2   force =    -0.00792966    0.00000000    0.00693020
     atom   45 type  2   force =     0.00000000    0.00000000    0.15440979
     atom   46 type  1   force =     0.01650123    0.00935531   -0.03661121
     atom   47 type  1   force =     0.01650123   -0.00935531   -0.03661121
     atom   48 type  1   force =     0.00000000    0.00000000   -0.00846955
     atom   49 type  1   force =     0.00000000    0.00000000    0.00006663

     Total force =     0.000067     Total SCF correction =     0.000043
     SCF correction compared to forces is large: reduce conv_thr to get better values

     bfgs converged in   9 scf cycles and   8 bfgs steps
     (criteria: energy < 0.10E-03, force < 0.10E-02)

     End of BFGS Geometry Optimization

     Final energy   =   -4041.7809587098 Ry
Begin final coordinates

ATOMIC_POSITIONS (crystal)
O0       0.000000000   0.500000000   0.332680000    0   0   0
Ir1      0.250000000   0.500000000   0.366500000    0   0   0
Ir1      0.000000000   0.000000000   0.366500000    0   0   0
O0       0.250000000   0.810000000   0.366500000    0   0   0
O0       0.250000000   0.190000000   0.366500000    0   0   0
O0       0.000000000   0.500000000   0.400320000    0   0   0
O0       0.000000000   0.000000000   0.421680000    0   0   0
Ir1      0.250000000   0.000000000   0.455500000    0   0   0
Ir1      0.000000000   0.500000000   0.455500000    0   0   0
O0       0.250000000   0.690000000   0.455500000    0   0   0
O0       0.250000000   0.310000000   0.455500000    0   0   0
O0       0.000000000   0.000000000   0.489320000    0   0   0
O0       0.000000000   0.500000000   0.510110000    0   0   0
Ir1      0.250000000   0.500000000   0.544210000    0   0   0
Ir1      0.000000000   0.000000000   0.544860000    0   0   0
O0       0.250000000   0.808490000   0.544740000    0   0   0
O0       0.250000000   0.191510000   0.544740000    0   0   0
O0       0.000000000   0.500000000   0.577990000    0   0   0
O0       0.000000000   0.000000000   0.599820000    0   0   0
Ir1      0.250000000   0.000000000   0.634690000    0   0   0
Ir1      0.000000000   0.500000000   0.631920000    0   0   0
O0       0.250000000   0.690320000   0.635560000    0   0   0
O0       0.250000000   0.309680000   0.635560000    0   0   0
O0       0.000000000   0.000000000   0.667420000    0   0   0
O0       0.500000000   0.500000000   0.332680000    0   0   0
Ir1      0.750000000   0.500000000   0.366500000    0   0   0
Ir1      0.500000000   0.000000000   0.366500000    0   0   0
O0       0.750000000   0.810000000   0.366500000    0   0   0
O0       0.750000000   0.190000000   0.366500000    0   0   0
O0       0.500000000   0.500000000   0.400320000    0   0   0
O0       0.500000000   0.000000000   0.421680000    0   0   0
Ir1      0.750000000   0.000000000   0.455500000    0   0   0
Ir1      0.500000000   0.500000000   0.455500000    0   0   0
O0       0.750000000   0.690000000   0.455500000    0   0   0
O0       0.750000000   0.310000000   0.455500000    0   0   0
O0       0.500000000   0.000000000   0.489320000    0   0   0
O0       0.500000000   0.500000000   0.510110000    0   0   0
Ir1      0.750000000   0.500000000   0.544210000    0   0   0
Ir1      0.500000000   0.000000000   0.544860000    0   0   0
O0       0.750000000   0.808490000   0.544740000    0   0   0
O0       0.750000000   0.191510000   0.544740000    0   0   0
O0       0.500000000   0.500000000   0.577990000    0   0   0
O0       0.500000000   0.000000000   0.599820000    0   0   0
Ir1      0.750000000   0.000000000   0.634690000    0   0   0
Ir1      0.500000000   0.500000000   0.631920000    0   0   0
O0       0.750000000   0.690320000   0.635560000    0   0   0
O0       0.750000000   0.309680000   0.635560000    0   0   0
O0       0.500000000   0.000000000   0.667420000    0   0   0
O0       0.500000000   0.500000000   0.681459588
End final coordinates

     General routines

     Parallel routines

   This run was terminated on:   1: 5:48  29Mar2014

   JOB DONE.