     Program PWSCF v.5.0.2 (svn rev. 9656) starts on 30Apr2014 at 22:31: 7

     Current dimensions of program PWSCF are:
     Max number of different atomic species (ntypx) = 10
     Max number of k-points (npk) =  40000
     Max angular momentum in pseudopotentials (lmaxx) =  3
     Reading input from pwscf.in
Warning: card &CELL ignored
Warning: card / ignored

     Subspace diagonalization in iterative solution of the eigenvalue problem:
     a serial algorithm will be used

     bravais-lattice index     =            0
     lattice parameter (alat)  =      11.1872  a.u.
     unit-cell volume          =    7531.8600 (a.u.)^3
     number of atoms/cell      =           32
     number of atomic types    =            3
     number of electrons       =       223.00
     number of Kohn-Sham states=          334
     kinetic-energy cutoff     =      40.0000  Ry
     charge density cutoff     =     500.0000  Ry
     convergence threshold     =      1.0E-06
     mixing beta               =       0.7000
     number of iterations used =            8  plain     mixing
     Exchange-correlation      = SLA  PW   PBE  PBE ( 1 4 3 4 0)
     EXX-fraction              =        0.00
     nstep                     =           50

     celldm(1)=  11.187179  celldm(2)=   0.000000  celldm(3)=   0.000000
     celldm(4)=   0.000000  celldm(5)=   0.000000  celldm(6)=   0.000000

     crystal axes: (cart. coord. in units of alat)
               a(1) = (   1.000000   0.000000   0.000000 )
               a(2) = (   0.000000   1.180104   0.000000 )
               a(3) = (   0.000000   0.000000   4.558482 )

     reciprocal axes: (cart. coord. in units 2 pi/alat)
               b(1) = (  1.000000  0.000000  0.000000 )
               b(2) = (  0.000000  0.847383  0.000000 )
               b(3) = (  0.000000  0.000000  0.219371 )

     PseudoPot. # 1 for O  read from file:
     /home/camp/zhonxu/pseudo/o_pbe_v1.01.uspp.F.UPF
     MD5 check sum: 2bcb18d16ea4b960afae9ec6d52f22d2
     Pseudo is Ultrasoft + core correction, Zval =  6.0
     Generated by new atomic code, or converted to UPF format
     Using radial grid of  737 points,  5 beta functions with:
                l(1) =   0
                l(2) =   0
                l(3) =   1
                l(4) =   1
                l(5) =   2
     Q(r) pseudized with  8 coefficients,  rinner =    0.900   0.900   0.900
                                                       0.900   0.900

     PseudoPot. # 2 for Nb read from file:
     /home/camp/zhonxu/pseudo/nb_pbe_v1.uspp.F.UPF
     MD5 check sum: 573aab8a2fa660278ed4a62cd769473f
     Pseudo is Ultrasoft + core correction, Zval = 13.0
     Generated by new atomic code, or converted to UPF format
     Using radial grid of  887 points,  6 beta functions with:
                l(1) =   0
                l(2) =   0
                l(3) =   1
                l(4) =   1
                l(5) =   2
                l(6) =   2
     Q(r) pseudized with  6 coefficients,  rinner =    1.000   1.000   1.000
                                                       1.000   1.000

     PseudoPot. # 3 for H  read from file:
     /home/camp/zhonxu/pseudo/h_pbe_v1.uspp.F.UPF
     MD5 check sum: 3408e3ff4ec8b0a4e358431e7e038a48
     Pseudo is Ultrasoft, Zval =  1.0
     Generated by new atomic code, or converted to UPF format
     Using radial grid of  615 points,  2 beta functions with:
                l(1) =   0
                l(2) =   0
     Q(r) pseudized with  8 coefficients,  rinner =    0.700

     atomic species   valence    mass     pseudopotential
        O0             6.00    15.99940     O ( 1.00)
        Nb1           13.00    92.90640     Nb( 1.00)
        H2             1.00     1.00794     H ( 1.00)

     Simplified LDA+U calculation (l_max = 2) with parameters (eV):
     atomic species    L          U    alpha       J0     beta
        Nb1            2     3.5000   0.0000   0.0000   0.0000

     No symmetry found

   Cartesian axes

     site n.     atom                  positions (alat units)
         1           O0  tau(   1) = (   0.0000000   0.0000000   1.6962568  )
         2           O0  tau(   2) = (   0.0000000   0.5900519   1.7738878  )
         3           Nb1 tau(   3) = (   0.2500000   0.5900519   2.0270203  )
         4           Nb1 tau(   4) = (   0.0000000   0.0000000   2.0275217  )
         5           O0  tau(   5) = (   0.2500000   0.9322821   2.0383253  )
         6           O0  tau(   6) = (   0.2500000   0.2478218   2.0383253  )
         7           O0  tau(   7) = (   0.0000000   0.5900519   2.2801984  )
         8           O0  tau(   8) = (   0.0000000   0.0000000   2.3861375  )
         9           Nb1 tau(   9) = (   0.2500000   0.0000000   2.6321588  )
        10           Nb1 tau(  10) = (   0.0000000   0.5900519   2.5957821  )
        11           O0  tau(  11) = (   0.2500000   0.8378738   2.6252299  )
        12           O0  tau(  12) = (   0.2500000   0.3422301   2.6252299  )
        13           O0  tau(  13) = (   0.0000000   0.0000000   2.8359230  )
        14           O0  tau(  14) = (   0.5000000   0.0000000   1.6977155  )
        15           O0  tau(  15) = (   0.5000000   0.5900519   1.7812725  )
        16           Nb1 tau(  16) = (   0.7500000   0.5900519   2.0271571  )
        17           Nb1 tau(  17) = (   0.5000000   0.0000000   2.0300745  )
        18           O0  tau(  18) = (   0.7500000   0.9322821   2.0383253  )
        19           O0  tau(  19) = (   0.7500000   0.2478218   2.0383709  )
        20           O0  tau(  20) = (   0.5000000   0.5900519   2.2745003  )
        21           O0  tau(  21) = (   0.5000000   0.0000000   2.3862287  )
        22           Nb1 tau(  22) = (   0.7500000   0.0000000   2.6327514  )
        23           Nb1 tau(  23) = (   0.5000000   0.5900519   2.6327970  )
        24           O0  tau(  24) = (   0.7500000   0.8378738   2.6254579  )
        25           O0  tau(  25) = (   0.7500000   0.3422301   2.6255034  )
        26           O0  tau(  26) = (   0.5000000   0.0000000   2.8354216  )
        27           H2  tau(  27) = (  -0.0004800   0.5922115   1.6084605  )
        28           H2  tau(  28) = (   0.4995300   0.5922233   1.6161643  )
        29           H2  tau(  29) = (   0.1505800   0.0006019   1.6239593  )
        30           H2  tau(  30) = (   0.6505400   0.0006019   1.6254180  )
        31           O0  tau(  31) = (   0.5024200   0.5900519   2.9584550  )
        32           H2  tau(  32) = (   0.3976800   0.5901109   3.0854543  )

     number of k points=    10  Methfessel-Paxton smearing, width (Ry)=  0.0100
                       cart. coord. in units 2pi/alat
        k(    1) = (   0.0000000   0.0000000   0.0000000), wk =   0.1250000
        k(    2) = (   0.0000000   0.2118458   0.0000000), wk =   0.2500000
        k(    3) = (   0.0000000  -0.4236915   0.0000000), wk =   0.1250000
        k(    4) = (   0.2500000   0.0000000   0.0000000), wk =   0.2500000
        k(    5) = (   0.2500000   0.2118458   0.0000000), wk =   0.2500000
        k(    6) = (   0.2500000  -0.4236915   0.0000000), wk =   0.2500000
        k(    7) = (  -0.5000000   0.0000000   0.0000000), wk =   0.1250000
        k(    8) = (  -0.5000000   0.2118458   0.0000000), wk =   0.2500000
        k(    9) = (  -0.5000000  -0.4236915   0.0000000), wk =   0.1250000
        k(   10) = (  -0.2500000   0.2118458   0.0000000), wk =   0.2500000

     Largest allocated arrays     est. size (Mb)     dimensions
     Largest temporary arrays     est. size (Mb)     dimensions

     Check: negative/imaginary core charge=   -0.000003    0.000000

     Initial potential from superposition of free atoms
     Check: negative starting charge=   -0.003641

     starting charge  222.97806, renormalised to  223.00000

     negative rho (up, down):  0.364E-02 0.000E+00
     Number of +U iterations with fixed ns =  0
     Starting occupations:
 --- enter write_ns ---
 LDA+U parameters:
U( 2)     =  3.50000000
alpha( 2) =  0.00000000
atom    3   Tr[ns(na)] =   3.00000
    eigenvalues:
  0.300  0.300  0.300  0.300  0.300
    eigenvectors:
  1.000  0.000  0.000  0.000  0.000
  0.000  1.000  0.000  0.000  0.000
  0.000  0.000  1.000  0.000  0.000
  0.000  0.000  0.000  1.000  0.000
  0.000  0.000  0.000  0.000  1.000
    occupations:
  0.300  0.000  0.000  0.000  0.000
  0.000  0.300  0.000  0.000  0.000
  0.000  0.000  0.300  0.000  0.000
  0.000  0.000  0.000  0.300  0.000
  0.000  0.000  0.000  0.000  0.300
atom    4   Tr[ns(na)] =   3.00000
    eigenvalues:
  0.300  0.300  0.300  0.300  0.300
    eigenvectors:
  1.000  0.000  0.000  0.000  0.000
  0.000  1.000  0.000  0.000  0.000
  0.000  0.000  1.000  0.000  0.000
  0.000  0.000  0.000  1.000  0.000
  0.000  0.000  0.000  0.000  1.000
    occupations:
  0.300  0.000  0.000  0.000  0.000
  0.000  0.300  0.000  0.000  0.000
  0.000  0.000  0.300  0.000  0.000
  0.000  0.000  0.000  0.300  0.000
  0.000  0.000  0.000  0.000  0.300
atom    9   Tr[ns(na)] =   3.00000
    eigenvalues:
  0.300  0.300  0.300  0.300  0.300
    eigenvectors:
  1.000  0.000  0.000  0.000  0.000
  0.000  1.000  0.000  0.000  0.000
  0.000  0.000  1.000  0.000  0.000
  0.000  0.000  0.000  1.000  0.000
  0.000  0.000  0.000  0.000  1.000
    occupations:
  0.300  0.000  0.000  0.000  0.000
  0.000  0.300  0.000  0.000  0.000
  0.000  0.000  0.300  0.000  0.000
  0.000  0.000  0.000  0.300  0.000
  0.000  0.000  0.000  0.000  0.300
atom   10   Tr[ns(na)] =   3.00000
    eigenvalues:
  0.300  0.300  0.300  0.300  0.300
    eigenvectors:
  1.000  0.000  0.000  0.000  0.000
  0.000  1.000  0.000  0.000  0.000
  0.000  0.000  1.000  0.000  0.000
  0.000  0.000  0.000  1.000  0.000
  0.000  0.000  0.000  0.000  1.000
    occupations:
  0.300  0.000  0.000  0.000  0.000
  0.000  0.300  0.000  0.000  0.000
  0.000  0.000  0.300  0.000  0.000
  0.000  0.000  0.000  0.300  0.000
  0.000  0.000  0.000  0.000  0.300
atom   16   Tr[ns(na)] =   3.00000
    eigenvalues:
  0.300  0.300  0.300  0.300  0.300
    eigenvectors:
  1.000  0.000  0.000  0.000  0.000
  0.000  1.000  0.000  0.000  0.000
  0.000  0.000  1.000  0.000  0.000
  0.000  0.000  0.000  1.000  0.000
  0.000  0.000  0.000  0.000  1.000
    occupations:
  0.300  0.000  0.000  0.000  0.000
  0.000  0.300  0.000  0.000  0.000
  0.000  0.000  0.300  0.000  0.000
  0.000  0.000  0.000  0.300  0.000
  0.000  0.000  0.000  0.000  0.300
atom   17   Tr[ns(na)] =   3.00000
    eigenvalues:
  0.300  0.300  0.300  0.300  0.300
    eigenvectors:
  1.000  0.000  0.000  0.000  0.000
  0.000  1.000  0.000  0.000  0.000
  0.000  0.000  1.000  0.000  0.000
  0.000  0.000  0.000  1.000  0.000
  0.000  0.000  0.000  0.000  1.000
    occupations:
  0.300  0.000  0.000  0.000  0.000
  0.000  0.300  0.000  0.000  0.000
  0.000  0.000  0.300  0.000  0.000
  0.000  0.000  0.000  0.300  0.000
  0.000  0.000  0.000  0.000  0.300
atom   22   Tr[ns(na)] =   3.00000
    eigenvalues:
  0.300  0.300  0.300  0.300  0.300
    eigenvectors:
  1.000  0.000  0.000  0.000  0.000
  0.000  1.000  0.000  0.000  0.000
  0.000  0.000  1.000  0.000  0.000
  0.000  0.000  0.000  1.000  0.000
  0.000  0.000  0.000  0.000  1.000
[...]
atom    9   Tr[ns(na)] =   5.28697
    eigenvalues:
  0.450  0.462  0.505  0.611  0.615
    eigenvectors:
  0.880  0.000  0.000  0.118  0.002
  0.000  0.000  0.000  0.016  0.984
  0.000  0.052  0.948  0.000  0.000
  0.120  0.000  0.000  0.866  0.014
  0.000  0.948  0.052  0.000  0.000
    occupations:
  0.470 -0.000  0.000  0.052 -0.000
 -0.000  0.615 -0.000 -0.000  0.000
  0.000 -0.000  0.503 -0.000  0.009
  0.052 -0.000 -0.000  0.592 -0.000
 -0.000  0.000  0.009 -0.000  0.465
atom   10   Tr[ns(na)] =   5.11357
    eigenvalues:
  0.356  0.483  0.511  0.546  0.660
    eigenvectors:
  0.000  0.003  0.989  0.000  0.008
  0.000  0.997  0.003  0.000  0.000
  1.000  0.000  0.000  0.000  0.000
  0.000  0.000  0.009  0.000  0.991
  0.000  0.000  0.000  1.000  0.000
    occupations:
  0.512 -0.002 -0.000  0.014  0.000
 -0.002  0.483  0.000 -0.002  0.000
 -0.000  0.000  0.356 -0.000  0.000
  0.014 -0.002 -0.000  0.659 -0.000
  0.000  0.000  0.000 -0.000  0.546
atom   16   Tr[ns(na)] =   5.18267
    eigenvalues:
  0.358  0.394  0.514  0.578  0.748
    eigenvectors:
  0.000  0.000  0.001  0.392  0.606
  0.000  0.000  0.998  0.002  0.000
  0.003  0.997  0.000  0.000  0.000
  0.000  0.000  0.001  0.606  0.393
  0.997  0.003  0.000  0.000  0.000
    occupations:
  0.681  0.004  0.001 -0.083 -0.000
  0.004  0.514 -0.000  0.000  0.000
  0.001 -0.000  0.394 -0.000  0.002
 -0.083  0.000 -0.000  0.645  0.000
 -0.000  0.000  0.002  0.000  0.358
atom   17   Tr[ns(na)] =   5.22975
    eigenvalues:
  0.400  0.422  0.552  0.587  0.653
    eigenvectors:
  0.000  0.004  0.000  0.996  0.000
  0.000  0.995  0.000  0.004  0.001
  1.000  0.000  0.000  0.000  0.000
  0.000  0.001  0.000  0.000  0.999
  0.000  0.000  1.000  0.000  0.000
    occupations:
  0.587  0.011  0.000  0.001 -0.000
  0.011  0.423 -0.000 -0.007  0.000
  0.000 -0.000  0.400 -0.000  0.001
  0.001 -0.007 -0.000  0.653  0.000
 -0.000  0.000  0.001  0.000  0.552
atom   22   Tr[ns(na)] =   5.28475
    eigenvalues:
  0.450  0.462  0.504  0.611  0.615
    eigenvectors:
  0.881  0.000  0.000  0.118  0.001
  0.000  0.000  0.000  0.010  0.990
  0.000  0.075  0.925  0.000  0.000
  0.119  0.000  0.000  0.872  0.009
  0.000  0.925  0.075  0.000  0.000
    occupations:
  0.469  0.000  0.000  0.052 -0.000
  0.000  0.615  0.000  0.000  0.000
  0.000  0.000  0.501 -0.000 -0.011
  0.052  0.000 -0.000  0.592  0.000
 -0.000  0.000 -0.011  0.000  0.465
atom   23   Tr[ns(na)] =   5.28365
    eigenvalues:
  0.417  0.468  0.552  0.594  0.611
    eigenvectors:
  0.000  0.010  0.000  0.904  0.086
  0.000  0.989  0.000  0.011  0.000
  1.000  0.000  0.000  0.000  0.000
  0.000  0.001  0.000  0.085  0.914
  0.000  0.000  1.000  0.000  0.000
    occupations:
  0.595  0.012 -0.000  0.005  0.000
  0.012  0.469  0.000 -0.004  0.000
 -0.000  0.000  0.417 -0.000  0.000
  0.005 -0.004 -0.000  0.609 -0.000
  0.000  0.000  0.000 -0.000  0.552
N of occupied +U levels =  41.7958348
 --- exit write_ns ---

     Threshold (ethr) on eigenvalues was too large:
     Diagonalizing with lowered threshold

     Davidson diagonalization with overlap
     ethr =  1.22E-09,  avg # of iterations =  3.0

[...]

     total energy              =   -1561.22673145 Ry
     Harris-Foulkes estimate   =   -1561.22673146 Ry
     estimated scf accuracy    <       0.00000002 Ry

     iteration #  8     ecut=    40.00 Ry     beta=0.70
     Davidson diagonalization with overlap
     ethr =  9.82E-12,  avg # of iterations =  1.0

     negative rho (up, down):  0.348E-02 0.000E+00

     End of self-consistent calculation
 --- enter write_ns ---
 LDA+U parameters:
U( 2)     =  3.50000000
alpha( 2) =  0.00000000
atom    3   Tr[ns(na)] =   5.18287
    eigenvalues:
  0.356  0.394  0.514  0.578  0.749
    eigenvectors:
  0.000  0.000  0.002  0.388  0.610
  0.000  0.000  0.998  0.002  0.000
  0.039  0.961  0.000  0.000  0.000
  0.000  0.000  0.000  0.610  0.390
  0.961  0.039  0.000  0.000  0.000
    occupations:
  0.682 -0.005  0.001 -0.083  0.000
 -0.005  0.514  0.000  0.001  0.000
  0.001  0.000  0.392 -0.000 -0.007
 -0.083  0.001 -0.000  0.645 -0.000
  0.000  0.000 -0.007 -0.000  0.358
atom    4   Tr[ns(na)] =   5.23191
    eigenvalues:
  0.400  0.423  0.553  0.587  0.653
    eigenvectors:
  0.000  0.004  0.000  0.996  0.000
  0.000  0.995  0.000  0.004  0.001
  1.000  0.000  0.000  0.000  0.000
  0.000  0.001  0.000  0.000  0.999
  0.000  0.000  1.000  0.000  0.000
    occupations:
  0.587  0.011  0.000  0.001 -0.000
  0.011  0.424 -0.000 -0.007  0.000
  0.000 -0.000  0.400 -0.000  0.001
  0.001 -0.007 -0.000  0.652  0.000
 -0.000  0.000  0.001  0.000  0.553
atom    9   Tr[ns(na)] =   5.28696
    eigenvalues:
  0.450  0.462  0.505  0.611  0.615
    eigenvectors:
  0.880  0.000  0.000  0.118  0.002
  0.000  0.000  0.000  0.016  0.984
  0.000  0.052  0.948  0.000  0.000
  0.120  0.000  0.000  0.866  0.014
  0.000  0.948  0.052  0.000  0.000
    occupations:
  0.470 -0.000  0.000  0.052 -0.000
 -0.000  0.615 -0.000 -0.000  0.000
  0.000 -0.000  0.503 -0.000  0.009
  0.052 -0.000 -0.000  0.592 -0.000
 -0.000  0.000  0.009 -0.000  0.465
atom   10   Tr[ns(na)] =   5.11367
    eigenvalues:
  0.356  0.483  0.511  0.546  0.660
    eigenvectors:
  0.000  0.003  0.989  0.000  0.008
  0.000  0.997  0.002  0.000  0.000
  1.000  0.000  0.000  0.000  0.000
  0.000  0.000  0.009  0.000  0.991
  0.000  0.000  0.000  1.000  0.000
    occupations:
  0.512 -0.002 -0.000  0.014  0.000
 -0.002  0.483  0.000 -0.002  0.000
 -0.000  0.000  0.356 -0.000  0.000
  0.014 -0.002 -0.000  0.659 -0.000
  0.000  0.000  0.000 -0.000  0.546
atom   16   Tr[ns(na)] =   5.18274
    eigenvalues:
  0.358  0.394  0.514  0.578  0.748
    eigenvectors:
  0.000  0.000  0.001  0.392  0.606
  0.000  0.000  0.998  0.002  0.000
  0.003  0.997  0.000  0.000  0.000
  0.000  0.000  0.001  0.606  0.393
  0.997  0.003  0.000  0.000  0.000
    occupations:
  0.681  0.004  0.001 -0.083 -0.000
  0.004  0.514 -0.000  0.000  0.000
  0.001 -0.000  0.394 -0.000  0.002
 -0.083  0.000 -0.000  0.645  0.000
 -0.000  0.000  0.002  0.000  0.358
atom   17   Tr[ns(na)] =   5.22985
    eigenvalues:
  0.400  0.422  0.552  0.587  0.653
    eigenvectors:
  0.000  0.004  0.000  0.996  0.000
  0.000  0.995  0.000  0.004  0.001
  1.000  0.000  0.000  0.000  0.000
  0.000  0.001  0.000  0.000  0.999
  0.000  0.000  1.000  0.000  0.000
    occupations:
  0.587  0.011  0.000  0.001 -0.000
  0.011  0.423 -0.000 -0.007  0.000
  0.000 -0.000  0.400 -0.000  0.001
  0.001 -0.007 -0.000  0.653  0.000
 -0.000  0.000  0.001  0.000  0.552
atom   22   Tr[ns(na)] =   5.28459
    eigenvalues:
  0.450  0.462  0.504  0.611  0.615
    eigenvectors:
  0.881  0.000  0.000  0.118  0.001
  0.000  0.000  0.000  0.010  0.990
  0.000  0.075  0.925  0.000  0.000
  0.119  0.000  0.000  0.872  0.009
  0.000  0.925  0.075  0.000  0.000
    occupations:
  0.469  0.000  0.000  0.052 -0.000
  0.000  0.615  0.000  0.000  0.000
  0.000  0.000  0.501 -0.000 -0.011
  0.052  0.000 -0.000  0.592  0.000
 -0.000  0.000 -0.011  0.000  0.465
atom   23   Tr[ns(na)] =   5.28338
    eigenvalues:
  0.417  0.468  0.552  0.594  0.611
    eigenvectors:
  0.000  0.010  0.000  0.903  0.087
  0.000  0.989  0.000  0.011  0.000
  1.000  0.000  0.000  0.000  0.000
  0.000  0.001  0.000  0.086  0.913
  0.000  0.000  1.000  0.000  0.000
    occupations:
  0.595  0.012 -0.000  0.005  0.000
  0.012  0.469  0.000 -0.004  0.000
 -0.000  0.000  0.417 -0.000  0.000
  0.005 -0.004 -0.000  0.609 -0.000
  0.000  0.000  0.000 -0.000  0.552
N of occupied +U levels =  41.7959744
 --- exit write_ns ---

[...]

          k = 0.2500-0.4237 0.0000 ( 32188 PWs)   bands (ev):

[...]

          k =-0.2500 0.2118 0.0000 ( 32165 PWs)   bands (ev):

   -56.1623 -56.0961 -55.8420 -55.7830 -55.7372 -55.6893 -55.6757 -55.6326
   -32.9798 -32.3724 -32.3294 -32.2730 -32.2544 -32.2393 -32.2129 -32.1749
   -32.1664 -32.1619 -32.1142 -32.0804 -32.0726 -32.0268 -31.9842 -31.8264
   -31.7436 -31.6916 -31.6505 -31.6085 -31.6083 -31.5086 -31.4921 -31.4081
   -20.2194 -20.0571 -19.3277 -19.0838 -19.0177 -18.9025 -18.8330 -18.8031
   -18.7604 -18.7280 -18.7131 -18.6977 -18.0905 -18.0079 -17.9928 -17.9209
   -17.8727 -17.7304 -17.7076  -8.7517  -8.3938  -7.5201  -7.3905  -7.0481
    -6.8864  -6.7436  -6.5542  -6.4502  -6.2701  -6.1950  -6.1266  -6.1143
    -5.9163  -5.8294  -5.8231  -5.7125  -5.5489  -5.5260  -5.5008  -5.3139
    -5.0659  -4.9753  -4.8992  -4.7374  -4.5622  -4.4660  -4.3343  -4.2745
    -4.2249  -4.1528  -4.1082  -4.0046  -3.9581  -3.8882  -3.8587  -3.8414
    -3.8107  -3.6138  -3.5827  -3.4802  -3.4406  -3.3623  -3.2195  -3.1515
    -3.1084  -3.0421  -2.9484  -2.9310  -2.7442  -2.6998  -2.6705  -2.5273
    -2.4625  -2.3937  -2.2657  -1.9861  -0.4940   0.2777   0.3995   1.0423
     1.1805   1.5365   1.7483   1.8171   1.8924   2.1556   2.1816   2.2821
     2.2925   2.4224   2.4415   2.5549   2.6940   2.7464   2.8256   2.8442
     2.9051   2.9882   3.0860   3.1265   3.3059   3.7643   4.2311   4.3206
     4.5955   4.7136   4.9089   5.0583   5.0780   5.1566   5.3286   5.3750
     5.4559   5.5795   5.6905   5.7863   5.8274   5.9088   6.0218   6.1093
     6.3960   6.4366   6.4782   6.6288   6.6633   6.7368   6.8373   6.9682
     7.1107   7.2271   7.2902   7.3433   7.4724   7.6768   7.8740   7.9572
     8.0232   8.0722   8.2053   8.2852   8.4310   8.5085   8.6441   8.7250
     8.8375   8.9165   8.9968   9.1567   9.1911   9.3087   9.3520   9.5138
     9.5903   9.6739   9.8073   9.8295  10.0001  10.0620  10.0896  10.2367
    10.3348  10.4000  10.5188  10.7187  10.8009  10.9026  10.9565  11.0441
    11.0850  11.1314  11.2364  11.2911  11.3631  11.5090  11.5352  11.5789
    11.6048  11.7276  11.8608  11.8814  12.0143  12.0838  12.1838  12.2754
    12.4083  12.4632  12.5130  12.5679  12.6495  12.6957  12.7786  12.8326
    12.8891  12.9412  12.9857  13.0293  13.1119  13.2000  13.2795  13.3883
    13.4711  13.5152  13.5821  13.6103  13.6965  13.7880  13.8471  13.9268
    13.9728  14.0401  14.0514  14.1409  14.2450  14.3034  14.3471  14.4399
    14.5727  14.7100  14.7525  14.7838  14.8638  14.9153  15.0210  15.0870
    15.2047  15.2474  15.2971  15.3815  15.3986  15.4367  15.5196  15.6150
    15.6548  15.7687  15.8143  15.8709  15.9021  15.9511  16.0518  16.1220
    16.1958  16.2495  16.2916  16.3749  16.4695  16.6000  16.6339  16.6788
    16.7566  16.7981  16.8623  16.9577  17.0247  17.0620  17.1398  17.1846
    17.2555  17.2944  17.3234  17.4189  17.4686  17.5450  17.6275  17.7139
    17.7930  17.8503  17.9448  17.9991  18.0524  18.1307  18.1574  18.2300
    18.3343  18.4155  18.5005  18.5456  18.5992  18.6486  18.7552  18.8195
    18.8713  18.9794  19.0022  19.0932  19.1243  19.1998  19.2443  19.2879
    19.3397  19.3942  19.4619  19.5622  19.5971  19.6632  19.6930  19.7667
    19.7997  19.8686  19.9084  19.9838  20.0181  20.0642

     the Fermi energy is     1.0535 ev

!    total energy              =   -1561.22673145 Ry
     Harris-Foulkes estimate   =   -1561.22673146 Ry
     estimated scf accuracy    <          3.4E-09 Ry

     The total energy is the sum of the following terms:

     one-electron contribution =  -19043.51022270 Ry
     hartree contribution      =    9551.57197340 Ry
     xc contribution           =    -287.66163636 Ry
     ewald contribution        =    8215.91368716 Ry
     Hubbard energy            =       2.45957427 Ry
     smearing contrib. (-TS)   =      -0.00010723 Ry

     convergence has been achieved in   8 iterations

     Forces acting on atoms (Ry/au):

     negative rho (up, down):  0.348E-02 0.000E+00
     atom    1 type  1   force =     0.00185617   -0.00002774    0.00050357
     atom    2 type  1   force =    -0.00104892    0.00024736    0.00027990
     atom    3 type  2   force =     0.02869221   -0.00020362    0.00001338
     atom    4 type  2   force =    -0.00460978    0.00003893    0.00040104
     atom    5 type  1   force =    -0.00266419   -0.01251041   -0.00004518
     atom    6 type  1   force =    -0.00275796    0.01248059   -0.00004338
     atom    7 type  1   force =    -0.00108213    0.00003586    0.00035503
     atom    8 type  1   force =     0.00146555    0.00001263   -0.00032270
     atom    9 type  2   force =     0.00167189    0.00000286   -0.00028568
     atom   10 type  2   force =     0.00040641   -0.00000377    0.00029400
     atom   11 type  1   force =    -0.01630248   -0.01010661   -0.00026751
     atom   12 type  1   force =    -0.01630260    0.01010924   -0.00026998
     atom   13 type  1   force =     0.00137596    0.00000089   -0.00030153
     atom   14 type  1   force =     0.00139348   -0.00003772    0.00063963
     atom   15 type  1   force =    -0.00038178    0.00025722    0.00001735
     atom   16 type  2   force =    -0.02405163   -0.00019788   -0.00016040
     atom   17 type  2   force =    -0.00438535    0.00004350    0.00042486
     atom   18 type  1   force =     0.00372480   -0.01267495   -0.00002868
     atom   19 type  1   force =     0.00365855    0.01264461   -0.00001994
     atom   20 type  1   force =    -0.00626927    0.00006863   -0.00037097
     atom   21 type  1   force =     0.00185901    0.00000894    0.00000401
     atom   22 type  2   force =    -0.00274569   -0.00000068   -0.00006991
     atom   23 type  2   force =     0.00516378   -0.00001062   -0.00051623
     atom   24 type  1   force =     0.01541903   -0.01185155   -0.00031107
     atom   25 type  1   force =     0.01541192    0.01185486   -0.00030638
     atom   26 type  1   force =    -0.00004206   -0.00000015   -0.00025079
     atom   27 type  3   force =     0.00000563   -0.00008218    0.00037740
     atom   28 type  3   force =    -0.00000151   -0.00007127    0.00025170
     atom   29 type  3   force =    -0.00027806   -0.00001668    0.00010690
     atom   30 type  3   force =    -0.00031385   -0.00001377    0.00017091
     atom   31 type  1   force =     0.00022395    0.00000034   -0.00030557
     atom   32 type  3   force =     0.00090895    0.00000312    0.00003623

     Total force =     0.001953     Total SCF correction =     0.000088

     bfgs converged in  15 scf cycles and  14 bfgs steps
     (criteria: energy < 0.10E-03, force < 0.10E-02)

     End of BFGS Geometry Optimization

     Final energy   =   -1561.2267314520 Ry
Begin final coordinates

ATOMIC_POSITIONS (crystal)
O0       0.000000000   0.000000000   0.372585907    0   0   1
O0       0.000000000   0.500000000   0.388460319    0   0   1
Nb1      0.250000000   0.500000000   0.443906646    0   0   1
Nb1      0.000000000   0.000000000   0.445247616    0   0   1
O0       0.250000000   0.790000000   0.446976463    0   0   1
O0       0.250000000   0.210000000   0.446972215    0   0   1
O0       0.000000000   0.500000000   0.500108601    0   0   1
O0       0.000000000   0.000000000   0.523644004    0   0   1
Nb1      0.250000000   0.000000000   0.577635725    0   0   1
Nb1      0.000000000   0.500000000   0.569274588    0   0   1
O0       0.250000000   0.710000000   0.576380561    0   0   1
O0       0.250000000   0.290000000   0.576379489    0   0   1
O0       0.000000000   0.000000000   0.622122223    0   0   1
O0       0.500000000   0.000000000   0.372760843    0   0   1
O0       0.500000000   0.500000000   0.388964140    0   0   1
Nb1      0.750000000   0.500000000   0.443877993    0   0   1
Nb1      0.500000000   0.000000000   0.445532687    0   0   1
O0       0.750000000   0.790000000   0.446982316    0   0   1
O0       0.750000000   0.210000000   0.446976399    0   0   1
O0       0.500000000   0.500000000   0.501057523    0   0   1
O0       0.500000000   0.000000000   0.523640057    0   0   1
Nb1      0.750000000   0.000000000   0.577698513    0   0   1
Nb1      0.500000000   0.500000000   0.577057566    0   0   1
O0       0.750000000   0.710000000   0.576461850    0   0   1
O0       0.750000000   0.290000000   0.576461204    0   0   1
O0       0.500000000   0.000000000   0.622027574    0   0   1
H2      -0.000603560   0.501445523   0.352205803
H2       0.499585119   0.501556455   0.352696856
H2       0.150719278   0.000493585   0.356842184
H2       0.650373175   0.000498033   0.356884831
O0       0.500425553   0.499998897   0.648755594
H2       0.403667185   0.500063704   0.677931710
End final coordinates

     General routines

     Parallel routines
     Hubbard U routines

   This run was terminated on:   8:39:25   1May2014

   JOB DONE.
Running PBS batch system epilogue script
Job id: 340593.audhumbla.fysik.dtu.dk
Username: zhonxu
Groupname: campgst
Jobname: NbO2/Eads-2-layers/OH-U-3.5
Sessionid: 5224
Queuename: verylong
Accounting:
This job has allocated the following 16 nodes:
b036 b036 b036 b036 b036 b036 b036 b036 b028 b028 b028 b028 b028 b028 b028 b028
Finished epilogue job 340593.audhumbla.fysik.dtu.dk for zhonxu