     Program PWSCF v.5.0.2 (svn rev. 9656) starts on  4May2014 at 21: 3:36

     Current dimensions of program PWSCF are:
     Max number of different atomic species (ntypx) = 10
     Max number of k-points (npk) =  40000
     Max angular momentum in pseudopotentials (lmaxx) =  3
     Reading input from pwscf.in
Warning: card &CELL ignored
Warning: card / ignored

     Subspace diagonalization in iterative solution of the eigenvalue problem:
     a serial algorithm will be used

     bravais-lattice index     =            0
     lattice parameter (alat)  =      10.9604  a.u.
     unit-cell volume          =    6350.6732 (a.u.)^3
     number of atoms/cell      =           31
     number of atomic types    =            3
     number of electrons       =       230.00 (up: 122.00, down: 108.00)
     number of Kohn-Sham states=          333
     kinetic-energy cutoff     =      40.0000  Ry
     charge density cutoff     =     500.0000  Ry
     convergence threshold     =      1.0E-06
     mixing beta               =       0.7000
     number of iterations used =            8  plain     mixing
     Exchange-correlation      = SLA  PW   PBE  PBE ( 1 4 3 4 0)
     EXX-fraction              =        0.00
     nstep                     =           50

     celldm(1)=  10.960412  celldm(2)=   0.000000  celldm(3)=   0.000000
     celldm(4)=   0.000000  celldm(5)=   0.000000  celldm(6)=   0.000000

     crystal axes: (cart. coord. in units of alat)
               a(1) = (   1.000000   0.000000   0.000000 )
               a(2) = (   0.000000   1.067975   0.000000 )
               a(3) = (   0.000000   0.000000   4.516251 )

     reciprocal axes: (cart. coord. in units 2 pi/alat)
               b(1) = (  1.000000  0.000000  0.000000 )
               b(2) = (  0.000000  0.936351  0.000000 )
               b(3) = (  0.000000  0.000000  0.221423 )

     PseudoPot. # 1 for O  read from file:
     /home/camp/zhonxu/pseudo/o_pbe_v1.01.uspp.F.UPF
     MD5 check sum: 2bcb18d16ea4b960afae9ec6d52f22d2
     Pseudo is Ultrasoft + core correction, Zval =  6.0
     Generated by new atomic code, or converted to UPF format
     Using radial grid of  737 points,  5 beta functions with:
                l(1) =   0
                l(2) =   0
                l(3) =   1
                l(4) =   1
                l(5) =   2
     Q(r) pseudized with  8 coefficients,  rinner =    0.900   0.900   0.900
                                                       0.900   0.900

     PseudoPot. # 2 for Cr read from file:
     /home/camp/zhonxu/pseudo/cr_pbe_v1.uspp.F.UPF
     MD5 check sum: 68b6f918d1762dccfb11451fe85b0e0e
     Pseudo is Ultrasoft + core correction, Zval = 14.0
     Generated by new atomic code, or converted to UPF format
     Using radial grid of  857 points,  6 beta functions with:
                l(1) =   0
                l(2) =   0
                l(3) =   1
                l(4) =   1
                l(5) =   2
                l(6) =   2
     Q(r) pseudized with  6 coefficients,  rinner =    1.000   1.000   1.000
                                                       1.000   1.000

     PseudoPot. # 3 for H  read from file:
     /home/camp/zhonxu/pseudo/h_pbe_v1.uspp.F.UPF
     MD5 check sum: 3408e3ff4ec8b0a4e358431e7e038a48
     Pseudo is Ultrasoft, Zval =  1.0
     Generated by new atomic code, or converted to UPF format
     Using radial grid of  615 points,  2 beta functions with:
                l(1) =   0
                l(2) =   0
     Q(r) pseudized with  8 coefficients,  rinner =    0.700

     atomic species   valence    mass     pseudopotential
        O0             6.00    15.99940     O ( 1.00)
        Cr1           14.00    51.99600     Cr( 1.00)
        H2             1.00     1.00794     H ( 1.00)

     Starting magnetic structure
     atomic species   magnetization
        O0           0.000
        Cr1          0.600
        H2           0.000

     Simplified LDA+U calculation (l_max = 2) with parameters (eV):
     atomic species    L          U    alpha       J0     beta
        Cr1            2     1.0000   0.0000   0.0000   0.0000

     No symmetry found

   Cartesian axes

     site n.     atom                  positions (alat units)
         1           O0  tau(   1) = (   0.0000000   0.0000000   1.7030331  )
         2           O0  tau(   2) = (   0.0000000   0.5339875   1.8028422  )
         3           Cr1 tau(   3) = (   0.2500000   0.5339875   2.0350227  )
         4           Cr1 tau(   4) = (   0.0000000   0.0000000   2.0223320  )
         5           O0  tau(   5) = (   0.2500000   0.8543801   2.0287902  )
         6           O0  tau(   6) = (   0.2500000   0.2135950   2.0292419  )
         7           O0  tau(   7) = (   0.0000000   0.5339875   2.2445767  )
         8           O0  tau(   8) = (   0.0000000   0.0000000   2.3628573  )
         9           Cr1 tau(   9) = (   0.2500000   0.0000000   2.5580045  )
        10           Cr1 tau(  10) = (   0.0000000   0.5339875   2.5485656  )
        11           O0  tau(  11) = (   0.2500000   0.7475825   2.5953991  )
        12           O0  tau(  12) = (   0.2500000   0.3203925   2.5951281  )
        13           O0  tau(  13) = (   0.0000000   0.0000000   2.7889204  )
        14           O0  tau(  14) = (   0.5000000   0.0000000   1.7055170  )
        15           O0  tau(  15) = (   0.5000000   0.5339875   1.8012615  )
        16           Cr1 tau(  16) = (   0.7500000   0.5339875   2.0359259  )
        17           Cr1 tau(  17) = (   0.5000000   0.0000000   2.0265773  )
        18           O0  tau(  18) = (   0.7500000   0.8543801   2.0288354  )
        19           O0  tau(  19) = (   0.7500000   0.2135950   2.0296032  )
        20           O0  tau(  20) = (   0.5000000   0.5339875   2.2364023  )
        21           O0  tau(  21) = (   0.5000000   0.0000000   2.3615024  )
        22           Cr1 tau(  22) = (   0.7500000   0.0000000   2.6337872  )
        23           Cr1 tau(  23) = (   0.5000000   0.5339875   2.6580395  )
        24           O0  tau(  24) = (   0.7500000   0.7475825   2.5992379  )
        25           O0  tau(  25) = (   0.7500000   0.3203925   2.5991024  )
        26           O0  tau(  26) = (   0.5000000   0.0000000   2.7868881  )
        27           H2  tau(  27) = (  -0.0008000   0.6785059   1.7121107  )
        28           H2  tau(  28) = (   0.4997900   0.6815710   1.7150915  )
        29           H2  tau(  29) = (   0.1566700   0.0342393   1.6437347  )
        30           H2  tau(  30) = (   0.6553000   0.0356063   1.6443670  )
        31           O0  tau(  31) = (   0.4989300   0.5335603   2.9283823  )

     number of k points=    20  Methfessel-Paxton smearing, width (Ry)=  0.0100
                       cart. coord. in units 2pi/alat
        k(    1) = (   0.0000000   0.0000000   0.0000000), wk =   0.0625000
        k(    2) = (   0.0000000   0.2340879   0.0000000), wk =   0.1250000
        k(    3) = (   0.0000000  -0.4681757   0.0000000), wk =   0.0625000
        k(    4) = (   0.2500000   0.0000000   0.0000000), wk =   0.1250000
        k(    5) = (   0.2500000   0.2340879   0.0000000), wk =   0.1250000
        k(    6) = (   0.2500000  -0.4681757   0.0000000), wk =   0.1250000
        k(    7) = (  -0.5000000   0.0000000   0.0000000), wk =   0.0625000
        k(    8) = (  -0.5000000   0.2340879   0.0000000), wk =   0.1250000
        k(    9) = (  -0.5000000  -0.4681757   0.0000000), wk =   0.0625000
        k(   10) = (  -0.2500000   0.2340879   0.0000000), wk =   0.1250000
        k(   11) = (   0.0000000   0.0000000   0.0000000), wk =   0.0625000
        k(   12) = (   0.0000000   0.2340879   0.0000000), wk =   0.1250000
        k(   13) = (   0.0000000  -0.4681757   0.0000000), wk =   0.0625000
        k(   14) = (   0.2500000   0.0000000   0.0000000), wk =   0.1250000
        k(   15) = (   0.2500000   0.2340879   0.0000000), wk =   0.1250000
        k(   16) = (   0.2500000  -0.4681757   0.0000000), wk =   0.1250000
        k(   17) = (  -0.5000000   0.0000000   0.0000000), wk =   0.0625000
        k(   18) = (  -0.5000000   0.2340879   0.0000000), wk =   0.1250000
        k(   19) = (  -0.5000000  -0.4681757   0.0000000), wk =   0.0625000
        k(   20) = (  -0.2500000   0.2340879   0.0000000), wk =   0.1250000

     Largest allocated arrays     est. size (Mb)     dimensions
     Largest temporary arrays     est. size (Mb)     dimensions

     Check: negative/imaginary core charge=   -0.000012    0.000000

     Initial potential from superposition of free atoms
     Check: negative starting charge=(component1):   -0.001547
     Check: negative starting charge=(component2):   -0.000494

     starting charge  221.99984, renormalised to  230.00000

     negative rho (up, down):  0.160E-02 0.512E-03
     Number of +U iterations with fixed ns =  0
     Starting occupations:
 --- enter write_ns ---
 LDA+U parameters:
U( 2)     =  1.00000000
alpha( 2) =  0.00000000
atom    3   Tr[ns(na)] (up, down, total) =   5.00000  0.00000  5.00000
   spin  1
    eigenvalues:
  1.000  1.000  1.000  1.000  1.000
    eigenvectors:
  1.000  0.000  0.000  0.000  0.000
  0.000  1.000  0.000  0.000  0.000
  0.000  0.000  1.000  0.000  0.000
  0.000  0.000  0.000  1.000  0.000
  0.000  0.000  0.000  0.000  1.000
    occupations:
  1.000  0.000  0.000  0.000  0.000
  0.000  1.000  0.000  0.000  0.000
  0.000  0.000  1.000  0.000  0.000
  0.000  0.000  0.000  1.000  0.000
  0.000  0.000  0.000  0.000  1.000
   spin  2
    eigenvalues:
  0.000  0.000  0.000  0.000  0.000
    eigenvectors:
  1.000  0.000  0.000  0.000  0.000
  0.000  1.000  0.000  0.000  0.000
  0.000  0.000  1.000  0.000  0.000
  0.000  0.000  0.000  1.000  0.000
  0.000  0.000  0.000  0.000  1.000
    occupations:
  0.000  0.000  0.000  0.000  0.000
  0.000  0.000  0.000  0.000  0.000
  0.000  0.000  0.000  0.000  0.000
  0.000  0.000  0.000  0.000  0.000
  0.000  0.000  0.000  0.000  0.000
atomic mag. moment =     5.000000
atom    4   Tr[ns(na)] (up, down, total) =   5.00000  0.00000  5.00000
   spin  1
    eigenvalues:
  1.000  1.000  1.000  1.000  1.000
    eigenvectors:
  1.000  0.000  0.000  0.000  0.000
  0.000  1.000  0.000  0.000  0.000
  0.000  0.000  1.000  0.000  0.000
  0.000  0.000  0.000  1.000  0.000
  0.000  0.000  0.000  0.000  1.000
    occupations:
  1.000  0.000  0.000  0.000  0.000
  0.000  1.000  0.000  0.000  0.000
  0.000  0.000  1.000  0.000  0.000
  0.000  0.000  0.000  1.000  0.000
  0.000  0.000  0.000  0.000  1.000
   spin  2
    eigenvalues:
  0.000  0.000  0.000  0.000  0.000
    eigenvectors:
  1.000  0.000  0.000  0.000  0.000
  0.000  1.000  0.000  0.000  0.000
  0.000  0.000  1.000  0.000  0.000
  0.000  0.000  0.000  1.000  0.000
  0.000  0.000  0.000  0.000  1.000
    occupations:
  0.000  0.000  0.000  0.000  0.000
  0.000  0.000  0.000  0.000  0.000
  0.000  0.000  0.000  0.000  0.000
  0.000  0.000  0.000  0.000  0.000
  0.000  0.000  0.000  0.000  0.000
atomic mag. moment =     5.000000
atom    9   Tr[ns(na)] (up, down, total) =   5.00000  0.00000  5.00000
   spin  1
    eigenvalues:
  1.000  1.000  1.000  1.000  1.000
    eigenvectors:
  1.000  0.000  0.000  0.000  0.000
[...]
  0.016 -0.002  0.654 -0.006  0.032
 -0.190  0.000 -0.006  0.611 -0.001
 -0.002 -0.005  0.032 -0.001  0.847
   spin  2
    eigenvalues:
  0.130  0.153  0.188  0.370  0.397
    eigenvectors:
  0.768  0.002  0.015  0.071  0.144
  0.002  0.002  0.000  0.743  0.252
  0.018  0.089  0.893  0.000  0.000
  0.213  0.000  0.001  0.183  0.602
  0.000  0.907  0.091  0.002  0.001
    occupations:
  0.187  0.004 -0.004  0.106  0.001
  0.004  0.376  0.002 -0.016  0.011
 -0.004  0.002  0.184  0.008 -0.010
  0.106 -0.016  0.008  0.335 -0.001
  0.001  0.011 -0.010 -0.001  0.157
atomic mag. moment =     2.217423
atom    4   Tr[ns(na)] (up, down, total) =   3.40824  1.27977  4.68801
   spin  1
    eigenvalues:
  0.481  0.522  0.588  0.837  0.980
    eigenvectors:
  0.002  0.993  0.000  0.001  0.004
  0.000  0.001  0.024  0.975  0.000
  0.000  0.000  0.976  0.024  0.000
  0.000  0.004  0.000  0.000  0.996
  0.998  0.002  0.000  0.000  0.000
    occupations:
  0.524 -0.011 -0.001  0.028  0.002
 -0.011  0.831  0.038  0.002 -0.000
 -0.001  0.038  0.594  0.002 -0.000
  0.028  0.002  0.002  0.979 -0.000
  0.002 -0.000 -0.000 -0.000  0.481
   spin  2
    eigenvalues:
  0.122  0.160  0.210  0.383  0.404
    eigenvectors:
  0.002  0.004  0.000  0.002  0.991
  0.002  0.946  0.048  0.000  0.004
  0.000  0.048  0.952  0.000  0.000
  0.996  0.002  0.000  0.000  0.002
  0.000  0.000  0.000  0.998  0.002
    occupations:
  0.402  0.015  0.004 -0.013  0.001
  0.015  0.164 -0.010  0.001 -0.000
  0.004 -0.010  0.207  0.000 -0.000
 -0.013  0.001  0.000  0.123  0.000
  0.001 -0.000 -0.000  0.000  0.383
atomic mag. moment =     2.128471
atom    9   Tr[ns(na)] (up, down, total) =   3.41241  1.31736  4.72977
   spin  1
    eigenvalues:
  0.496  0.502  0.628  0.810  0.976
    eigenvectors:
  0.020  0.151  0.000  0.000  0.829
  0.883  0.117  0.000  0.000  0.000
  0.000  0.000  0.995  0.005  0.000
  0.096  0.732  0.000  0.000  0.171
  0.000  0.000  0.005  0.995  0.000
    occupations:
  0.894  0.002 -0.001 -0.179 -0.001
  0.002  0.497  0.001  0.001 -0.000
 -0.001  0.001  0.629 -0.001 -0.013
 -0.179  0.001 -0.001  0.582  0.002
 -0.001 -0.000 -0.013  0.002  0.809
   spin  2
    eigenvalues:
  0.144  0.180  0.204  0.392  0.397
    eigenvectors:
  0.820  0.000  0.000  0.177  0.003
  0.000  0.000  0.000  0.020  0.980
  0.000  0.044  0.956  0.000  0.000
  0.180  0.000  0.000  0.803  0.017
  0.000  0.956  0.044  0.000  0.000
    occupations:
  0.189  0.000 -0.000  0.095 -0.000
  0.000  0.397 -0.000 -0.001  0.000
 -0.000 -0.000  0.203  0.000  0.005
  0.095 -0.001  0.000  0.348 -0.000
 -0.000  0.000  0.005 -0.000  0.181
atomic mag. moment =     2.095046
atom   10   Tr[ns(na)] (up, down, total) =   3.52850  1.13723  4.66573
   spin  1
    eigenvalues:
  0.463  0.497  0.725  0.871  0.974
    eigenvectors:
  0.000  0.994  0.000  0.000  0.006
  0.000  0.000  0.000  0.970  0.030
  0.000  0.000  0.999  0.000  0.000
  0.000  0.006  0.000  0.030  0.965
  1.000  0.000  0.000  0.000  0.000
    occupations:
  0.500 -0.005  0.000  0.036 -0.000
 -0.005  0.874 -0.002 -0.017  0.000
  0.000 -0.002  0.725  0.000  0.004
  0.036 -0.017  0.000  0.968 -0.000
 -0.000  0.000  0.004 -0.000  0.463
   spin  2
    eigenvalues:
  0.107  0.171  0.187  0.310  0.362
    eigenvectors:
  0.007  0.000  0.000  0.993  0.000
  0.001  0.999  0.000  0.000  0.000
  0.000  0.000  1.000  0.000  0.000
  0.992  0.001  0.000  0.007  0.000
  0.000  0.000  0.000  0.000  1.000
    occupations:
  0.309  0.000 -0.000 -0.017  0.000
  0.000  0.171  0.000  0.002 -0.000
 -0.000  0.000  0.187 -0.000  0.003
 -0.017  0.002 -0.000  0.109  0.000
  0.000 -0.000  0.003  0.000  0.362
atomic mag. moment =     2.391271
atom   16   Tr[ns(na)] (up, down, total) =   3.45425  1.24183  4.69608
   spin  1
    eigenvalues:
  0.468  0.516  0.647  0.852  0.972
    eigenvectors:
  0.031  0.188  0.001  0.000  0.779
  0.913  0.085  0.000  0.000  0.002
  0.000  0.000  0.953  0.044  0.003
  0.056  0.727  0.002  0.000  0.216
  0.000  0.000  0.044  0.956  0.000
    occupations:
  0.870  0.027  0.015 -0.189  0.003
  0.027  0.474  0.003  0.001 -0.004
  0.015  0.003  0.657 -0.006 -0.042
 -0.189  0.001 -0.006  0.612 -0.000
  0.003 -0.004 -0.042 -0.000  0.843
   spin  2
    eigenvalues:
  0.131  0.153  0.189  0.370  0.398
    eigenvectors:
  0.769  0.002  0.013  0.073  0.142
  0.002  0.002  0.000  0.736  0.259
  0.017  0.109  0.874  0.000  0.000
  0.212  0.000  0.001  0.189  0.598
  0.000  0.886  0.111  0.002  0.001
    occupations:
  0.187 -0.004 -0.004  0.106 -0.002
 -0.004  0.376 -0.002  0.016  0.011
 -0.004 -0.002  0.184  0.007  0.011
  0.106  0.016  0.007  0.336  0.001
 -0.002  0.011  0.011  0.001  0.158
atomic mag. moment =     2.212422
atom   17   Tr[ns(na)] (up, down, total) =   3.40995  1.27778  4.68773
   spin  1
    eigenvalues:
  0.480  0.525  0.602  0.825  0.978
    eigenvectors:
  0.002  0.993  0.000  0.001  0.004
  0.000  0.001  0.023  0.975  0.000
  0.000  0.001  0.976  0.023  0.000
  0.000  0.004  0.000  0.000  0.996
  0.998  0.002  0.000  0.000  0.000
    occupations:
  0.527 -0.011 -0.003  0.027  0.002
 -0.011  0.819  0.034  0.000 -0.000
 -0.003  0.034  0.607  0.001  0.002
  0.027  0.000  0.001  0.976 -0.000
  0.002 -0.000  0.002 -0.000  0.480
   spin  2
    eigenvalues:
  0.122  0.160  0.210  0.380  0.406
    eigenvectors:
  0.003  0.005  0.000  0.001  0.991
  0.002  0.943  0.050  0.000  0.005
  0.000  0.050  0.950  0.000  0.000
  0.996  0.002  0.000  0.000  0.002
  0.000  0.000  0.000  0.999  0.001
    occupations:
  0.404  0.017  0.004 -0.014  0.001
  0.017  0.164 -0.011  0.001 -0.000
  0.004 -0.011  0.208  0.000 -0.000
 -0.014  0.001  0.000  0.123  0.000
  0.001 -0.000 -0.000  0.000  0.380
atomic mag. moment =     2.132161
atom   22   Tr[ns(na)] (up, down, total) =   2.99006  1.85401  4.84407
   spin  1
    eigenvalues:
  0.499  0.535  0.546  0.622  0.788
    eigenvectors:
  0.998  0.002  0.000  0.000  0.000
  0.002  0.987  0.012  0.000  0.000
  0.000  0.000  0.000  0.131  0.869
  0.000  0.012  0.988  0.000  0.000
  0.000  0.000  0.000  0.869  0.131
    occupations:
  0.499 -0.001  0.000 -0.000  0.002
 -0.001  0.535  0.001 -0.001 -0.000
  0.000  0.001  0.766 -0.000  0.056
 -0.000 -0.001 -0.000  0.546 -0.001
  0.002 -0.000  0.056 -0.001  0.644
   spin  2
    eigenvalues:
  0.254  0.321  0.342  0.466  0.471
    eigenvectors:
  0.000  0.000  0.995  0.004  0.001
  0.000  0.000  0.000  0.034  0.966
  0.975  0.025  0.000  0.000  0.000
  0.000  0.000  0.005  0.961  0.034
  0.025  0.975  0.000  0.000  0.000
    occupations:
  0.342 -0.001  0.000  0.008 -0.000
 -0.001  0.471 -0.000 -0.001 -0.000
  0.000 -0.000  0.256  0.000 -0.010
  0.008 -0.001  0.000  0.465  0.000
 -0.000 -0.000 -0.010  0.000  0.319
atomic mag. moment =     1.136047
atom   23   Tr[ns(na)] (up, down, total) =   3.08125  1.75163  4.83288
   spin  1
    eigenvalues:
  0.481  0.525  0.526  0.572  0.978
    eigenvectors:
  0.000  0.002  0.000  0.997  0.001
  0.000  0.998  0.000  0.002  0.000
  0.000  0.000  1.000  0.000  0.000
  0.000  0.000  0.000  0.001  0.999
  1.000  0.000  0.000  0.000  0.000
    occupations:
  0.572  0.002 -0.000  0.013 -0.000
  0.002  0.525 -0.000 -0.000 -0.000
 -0.000 -0.000  0.526  0.000 -0.000
  0.013 -0.000  0.000  0.977 -0.000
 -0.000 -0.000 -0.000 -0.000  0.481
   spin  2
    eigenvalues:
  0.124  0.366  0.368  0.402  0.492
    eigenvectors:
  0.002  0.000  0.000  0.000  0.998
  0.000  0.001  0.999  0.000  0.000
  0.000  0.997  0.001  0.002  0.000
  0.998  0.000  0.000  0.000  0.002
  0.000  0.002  0.000  0.998  0.000
    occupations:
  0.492  0.001  0.000 -0.015 -0.000
  0.001  0.368  0.000 -0.000  0.000
  0.000  0.000  0.366 -0.000 -0.002
 -0.015 -0.000 -0.000  0.124  0.000
 -0.000  0.000 -0.002  0.000  0.402
atomic mag. moment =     1.329628
N of occupied +U levels =  37.8396430
 --- exit write_ns ---

 ------ SPIN UP ------------

[...]

 ------ SPIN DOWN ----------

[...]

          k = 0.2500-0.4682 0.0000 ( 27150 PWs)   bands (ev):

[...]

          k =-0.2500 0.2341 0.0000 ( 27132 PWs)   bands (ev):

   -74.3612 -74.2699 -72.8490 -72.8160 -72.7951 -72.7436 -72.7042 -72.6907
   -46.3830 -46.0773 -45.6287 -45.4188 -45.3106 -45.2017 -44.5610 -44.4252
   -44.4003 -44.3961 -44.3528 -44.3401 -44.1941 -44.1526 -44.0820 -44.0504
   -44.0421 -44.0227 -44.0029 -43.9539 -43.9388 -43.8739 -43.8228 -43.7397
   -21.3073 -20.8828 -20.7293 -20.6777 -20.5461 -20.2656 -20.1751 -20.1057
   -20.0171 -19.9077 -19.8744 -19.8194 -19.6993 -19.6879 -19.6717 -19.6158
   -19.4256 -19.3454 -19.2638  -8.8524  -8.5940  -8.2950  -8.2625  -8.0972
    -7.8755  -7.7497  -7.6812  -7.5828  -7.5145  -7.4431  -7.3262  -7.2553
    -7.1249  -7.0767  -6.9941  -6.8566  -6.8044  -6.6230  -6.5956  -6.5212
    -6.4540  -6.3707  -6.1876  -6.0878  -6.0307  -5.8690  -5.7839  -5.7006
    -5.6399  -5.5599  -5.5010  -5.4280  -5.4097  -5.2545  -5.1696  -5.1105
    -5.0711  -4.8785  -4.7943  -4.6519  -4.5524  -4.4395  -4.3995  -4.2928
    -4.2094  -4.1051  -4.0528  -3.9823  -3.9336  -3.8164  -3.6618  -3.6240
    -3.4915  -3.3830  -3.2335  -3.0092  -0.7826  -0.5993  -0.5575  -0.3778
    -0.2484  -0.2129  -0.1564  -0.0200   0.1002   0.1414   0.2264   0.3215
     0.3422   0.4701   0.4973   0.5147   0.6296   0.6597   0.7702   0.8430
     0.8934   1.0186   1.0594   1.1218   1.1937   1.2856   1.4015   1.7639
     1.9593   2.1142   2.2528   2.4624   2.5755   2.6263   2.7062   2.8414
     2.9269   3.1036   3.4195   3.5127   3.7910   4.2492   4.4456   4.9356
     5.4233   5.6656   5.7512   6.0680   6.2728   6.4351   6.5079   6.6705
     6.7956   6.9535   7.0409   7.3345   7.4834   7.7834   7.8883   8.0199
     8.3107   8.3442   8.4268   8.5614   8.7253   8.8412   9.0356   9.0805
     9.2626   9.2861   9.4458   9.5866   9.7384   9.8130   9.9267  10.1251
    10.1692  10.2517  10.3405  10.4397  10.5139  10.6486  10.7383  10.8474
    10.9288  11.0230  11.2061  11.2448  11.3076  11.3569  11.5370  11.6242
    11.6683  11.7747  11.8438  11.9214  12.0361  12.1018  12.1784  12.2760
    12.3698  12.4329  12.5336  12.6591  12.7329  12.8022  12.8679  12.9105
    12.9858  13.0026  13.0971  13.1428  13.2115  13.2850  13.3357  13.4282
    13.4937  13.5757  13.6934  13.7963  13.8665  13.9345  13.9931  14.0537
    14.1242  14.2611  14.3745  14.4535  14.4667  14.5175  14.6192  14.7217
    14.7751  14.8500  14.9488  14.9954  15.0492  15.1739  15.2564  15.3782
    15.4221  15.4915  15.5927  15.6626  15.7618  15.8556  15.9470  16.0140
    16.0881  16.1452  16.2086  16.2717  16.3754  16.4492  16.5060  16.5417
    16.6157  16.7670  16.8095  16.8447  16.9239  17.0523  17.0766  17.1127
    17.1980  17.2287  17.3839  17.4554  17.4820  17.5322  17.5965  17.6796
    17.7126  17.7572  17.7934  17.8995  17.9731  18.0441  18.1265  18.2368
    18.2666  18.3320  18.3874  18.4028  18.5830  18.6809  18.7650  18.8145
    18.8614  18.9288  18.9845  19.0267  19.0696  19.2373  19.3261  19.3817
    19.4249  19.4932  19.5813  19.6555  19.6762  19.7575  19.7987  19.8731
    19.9606  20.0421  20.1223  20.1921  20.3120  20.3609  20.4568  20.5248
    20.6301  20.7146  20.7750  20.8351  20.9161  21.0207  21.0824  21.1514
    21.2201  21.2512  21.3358  21.4221  21.5006

     the spin up/dw Fermi energies are    -1.7250   -2.8186 ev

!    total energy              =   -2025.31093227 Ry
     Harris-Foulkes estimate   =   -2025.31093227 Ry
     estimated scf accuracy    <          6.0E-09 Ry

     The total energy is the sum of the following terms:

     one-electron contribution =  -23877.10867245 Ry
     hartree contribution      =   11955.86709788 Ry
     xc contribution           =    -321.67052118 Ry
     ewald contribution        =   10217.05263056 Ry
     Hubbard energy            =       0.54829592 Ry
     smearing contrib. (-TS)   =       0.00023701 Ry

     total magnetization       =    14.00 Bohr mag/cell
     absolute magnetization    =    18.13 Bohr mag/cell

     convergence has been achieved in  15 iterations

     Forces acting on atoms (Ry/au):

     negative rho (up, down):  0.473E-02 0.174E-02
     atom    1 type  1   force =    -0.00259747   -0.01136592   -0.00011013
     atom    2 type  1   force =    -0.00065411    0.00739195    0.00025842
     atom    3 type  2   force =     0.06094199   -0.00283593   -0.00060586
     atom    4 type  2   force =    -0.00292347    0.00761455    0.00025047
     atom    5 type  1   force =    -0.00305058    0.01079987   -0.00003392
     atom    6 type  1   force =    -0.00400130   -0.00814977   -0.00001863
     atom    7 type  1   force =     0.00206479   -0.00155597    0.00022516
     atom    8 type  1   force =    -0.00927070   -0.00102278    0.00005869
     atom    9 type  2   force =     0.01743510    0.00095004   -0.00027517
     atom   10 type  2   force =     0.00555821   -0.00012125    0.00013661
     atom   11 type  1   force =    -0.00599517   -0.05461608    0.00009380
     atom   12 type  1   force =    -0.00543211    0.05385052    0.00012567
     atom   13 type  1   force =    -0.04912066    0.00020775   -0.00007005
     atom   14 type  1   force =    -0.00661230   -0.01227821   -0.00027601
     atom   15 type  1   force =     0.00018674    0.00700940    0.00031366
     atom   16 type  2   force =    -0.06431433   -0.00196953   -0.00059521
     atom   17 type  2   force =     0.00750940    0.00711696    0.00006115
     atom   18 type  1   force =     0.00660997    0.01107178   -0.00003200
     atom   19 type  1   force =     0.00595237   -0.00931579   -0.00006555
     atom   20 type  1   force =     0.00115262   -0.00195547   -0.00035589
     atom   21 type  1   force =     0.00596307    0.00008662   -0.00014695
     atom   22 type  2   force =     0.02117267   -0.00002243    0.00006582
     atom   23 type  2   force =    -0.00553886    0.00016764    0.00028987
     atom   24 type  1   force =    -0.00368970   -0.04996728    0.00017138
     atom   25 type  1   force =    -0.00274741    0.05003704    0.00018143
     atom   26 type  1   force =     0.03151095   -0.00015911   -0.00021720
     atom   27 type  3   force =    -0.00000290   -0.00028243   -0.00007651
     atom   28 type  3   force =    -0.00002793   -0.00021272    0.00019069
     atom   29 type  3   force =     0.00014679   -0.00028447    0.00016402
     atom   30 type  3   force =     0.00012650   -0.00021252    0.00000338
     atom   31 type  1   force =    -0.00035217    0.00002353    0.00028884

     Total force =     0.001462     Total SCF correction =     0.000446
     SCF correction compared to forces is large: reduce conv_thr to get better values

     bfgs converged in   7 scf cycles and   6 bfgs steps
     (criteria: energy < 0.10E-03, force < 0.10E-02)

     End of BFGS Geometry Optimization

     Final energy   =   -2025.3109322651 Ry
Begin final coordinates

ATOMIC_POSITIONS (crystal)
O0       0.000000000   0.000000000   0.376996441    0   0   1
O0       0.000000000   0.500000000   0.398928576    0   0   1
Cr1      0.250000000   0.500000000   0.450442272    0   0   1
Cr1      0.000000000   0.000000000   0.447915963    0   0   1
O0       0.250000000   0.800000000   0.449066754    0   0   1
O0       0.250000000   0.200000000   0.449175893    0   0   1
O0       0.000000000   0.500000000   0.497155278    0   0   1
O0       0.000000000   0.000000000   0.523075824    0   0   1
Cr1      0.250000000   0.000000000   0.567068605    0   0   1
Cr1      0.000000000   0.500000000   0.564494531    0   0   1
O0       0.250000000   0.700000000   0.574667531    0   0   1
O0       0.250000000   0.300000000   0.574620541    0   0   1
O0       0.000000000   0.000000000   0.617424554    0   0   1
O0       0.500000000   0.000000000   0.377375022    0   0   1
O0       0.500000000   0.500000000   0.398660660    0   0   1
Cr1      0.750000000   0.500000000   0.450620517    0   0   1
Cr1      0.500000000   0.000000000   0.448642530    0   0   1
O0       0.750000000   0.800000000   0.449089091    0   0   1
O0       0.750000000   0.200000000   0.449235779    0   0   1
O0       0.500000000   0.500000000   0.495801184    0   0   1
O0       0.500000000   0.000000000   0.522899267    0   0   1
Cr1      0.750000000   0.000000000   0.582871104    0   0   1
Cr1      0.500000000   0.500000000   0.588599874    0   0   1
O0       0.750000000   0.700000000   0.575746403    0   0   1
O0       0.750000000   0.300000000   0.575732269    0   0   1
O0       0.500000000   0.000000000   0.617137233    0   0   1
H2      -0.000807866   0.635585537   0.378954178
H2       0.499749597   0.638539161   0.379733855
H2       0.157158717   0.031691917   0.364053223
H2       0.655988786   0.033168690   0.364163312
O0       0.498775365   0.499623175   0.648481736
End final coordinates

     General routines

     Parallel routines
     Hubbard U routines

   This run was terminated on:   9:28: 7   5May2014

   JOB DONE.